<?xml version="1.0"?>
<VTKFile type="UnstructuredGrid" version="0.1" byte_order="LittleEndian">
<UnstructuredGrid>
<Piece NumberOfPoints="30373" NumberOfCells="10636">
<Points>
<DataArray type="Float64" NumberOfComponents="3" format="ascii">
-0.5 -0.5 0 -0.46278456118020223 -0.44637144598679751 0 -0.5 -0.42607079982994822 0 -0.5 -0.5 0 -0.4479631167738985 -0.47297268902557738 0 -0.43502217802224769 -0.5 0 -0.5 -0.5 0 -0.4479631167738985 -0.47297268902557738 0 -0.46278456118020223 -0.44637144598679751 0 -0.4479631167738985 -0.47297268902557738 0 -0.46278456118020223 -0.44637144598679751 0 -0.42782777685741952 -0.45078008844047351 0 -0.46278456118020223 -0.44637144598679751 0 -0.43347295005853198 -0.43476351387268802 0 -0.42782777685741952 -0.45078008844047351 0 -0.46278456118020223 -0.44637144598679751 0 -0.5 -0.42607079982994822 0 -0.47365860001851318 -0.40630807802558128 0 -0.47365860001851318 -0.40630807802558128 0 -0.47217513539997258 -0.37829579255265661 0 -0.5 -0.37112861530310493 0 -0.5 -0.42607079982994822 0 -0.47365860001851318 -0.40630807802558128 0 -0.5 -0.37112861530310493 0 -0.47217513539997258 -0.37829579255265661 0 -0.45349399227384118 -0.37688179994530813 0 -0.45573694165166168 -0.39574521214284852 0 -0.47365860001851318 -0.40630807802558128 0 -0.47217513539997258 -0.37829579255265661 0 -0.45573694165166168 -0.39574521214284852 0 -0.45349399227384118 -0.37688179994530813 0 -0.45573694165166168 -0.39574521214284852 0 -0.43799198969845488 -0.40252575945292279 0 -0.45349399227384118 -0.37688179994530813 0 -0.43799198969845488 -0.40252575945292279 0 -0.42886743220162538 -0.38805454875715423 0 -0.45349399227384118 -0.37688179994530813 0 -0.43799198969845488 -0.40252575945292279 0 -0.47365860001851318 -0.40630807802558128 0 -0.45573694165166168 -0.39574521214284852 0 -0.44138028287558101 -0.42067945548406971 0 -0.46278456118020223 -0.44637144598679751 0 -0.47365860001851318 -0.40630807802558128 0 -0.44138028287558101 -0.42067945548406971 0 -0.45573694165166168 -0.39574521214284852 0 -0.43799198969845488 -0.40252575945292279 0 -0.44138028287558101 -0.42067945548406971 0 -0.46278456118020223 -0.44637144598679751 0 -0.44138028287558101 -0.42067945548406971 0 -0.43347295005853198 -0.43476351387268802 0 -0.43347295005853198 -0.43476351387268802 0 -0.42423649397438318 -0.42027744992904709 0 -0.40934105195935427 -0.42840806868173442 0 -0.44138028287558101 -0.42067945548406971 0 -0.43347295005853198 -0.43476351387268802 0 -0.42423649397438318 -0.42027744992904709 0 -0.43799198969845488 -0.40252575945292279 0 -0.44138028287558101 -0.42067945548406971 0 -0.42447023570108172 -0.40465014875698918 0 -0.44138028287558101 -0.42067945548406971 0 -0.42423649397438318 -0.42027744992904709 0 -0.42447023570108172 -0.40465014875698918 0 -0.44138028287558101 -0.42067945548406971 0 -0.42447023570108172 -0.40465014875698918 0 -0.42423649397438318 -0.42027744992904709 0 -0.41006287890344301 -0.40737198014234638 0 -0.40934105195935427 -0.42840806868173442 0 -0.42423649397438318 -0.42027744992904709 0 -0.41006287890344301 -0.40737198014234638 0 -0.42447023570108172 -0.40465014875698918 0 -0.45349399227384118 -0.37688179994530813 0 -0.42886743220162538 -0.38805454875715423 0 -0.42208380192111561 -0.3713732453350983 0 -0.43799198969845488 -0.40252575945292279 0 -0.42886743220162538 -0.38805454875715423 0 -0.42447023570108172 -0.40465014875698918 0 -0.42886743220162538 -0.38805454875715423 0 -0.42447023570108172 -0.40465014875698918 0 -0.40756018852658238 -0.38862084202990871 0 -0.42447023570108172 -0.40465014875698918 0 -0.40756018852658238 -0.38862084202990871 0 -0.41006287890344301 -0.40737198014234638 0 -0.42447023570108172 -0.40465014875698918 0 -0.40756018852658238 -0.38862084202990871 0 -0.40756018852658238 -0.38862084202990871 0 -0.42208380192111561 -0.3713732453350983 0 -0.40769940833800511 -0.36936762560483061 0 -0.40756018852658238 -0.38862084202990871 0 -0.42208380192111561 -0.3713732453350983 0 -0.42886743220162538 -0.38805454875715423 0 -0.40756018852658238 -0.38862084202990871 0 -0.42208380192111561 -0.3713732453350983 0 -0.40756018852658238 -0.38862084202990871 0 -0.39540392860697449 -0.37709772699097732 0 -0.40769940833800511 -0.36936762560483061 0 -0.40756018852658238 -0.38862084202990871 0 -0.39540392860697449 -0.37709772699097732 0 -0.38758169734643189 -0.3909844534486191 0 -0.40756018852658238 -0.38862084202990871 0 -0.39540392860697449 -0.37709772699097732 0 -0.40756018852658238 -0.38862084202990871 0 -0.38758169734643189 -0.3909844534486191 0 -0.39237573569118211 -0.4066532222249698 0 -0.41006287890344301 -0.40737198014234638 0 -0.40756018852658238 -0.38862084202990871 0 -0.39237573569118211 -0.4066532222249698 0 -0.40756018852658238 -0.38862084202990871 0 -0.39237573569118211 -0.4066532222249698 0 -0.37686886400322728 -0.40435096115169189 0 -0.38758169734643189 -0.3909844534486191 0 -0.37184907483835877 -0.38939705677335812 0 -0.37686886400322728 -0.40435096115169189 0 -0.38758169734643189 -0.3909844534486191 0 -0.39237573569118211 -0.4066532222249698 0 -0.38758169734643189 -0.3909844534486191 0 -0.38164725830613899 -0.37914075032936601 0 -0.37184907483835877 -0.38939705677335812 0 -0.39540392860697449 -0.37709772699097732 0 -0.38758169734643189 -0.3909844534486191 0 -0.38164725830613899 -0.37914075032936601 0 -0.40934105195935427 -0.42840806868173442 0 -0.37719128285578268 -0.42468560242003139 0 -0.39070796240371652 -0.44565500202714498 0 -0.40934105195935427 -0.42840806868173442 0 -0.39237573569118211 -0.4066532222249698 0 -0.37719128285578268 -0.42468560242003139 0 -0.41006287890344301 -0.40737198014234638 0 -0.40934105195935427 -0.42840806868173442 0 -0.39237573569118211 -0.4066532222249698 0 -0.39237573569118211 -0.4066532222249698 0 -0.37719128285578268 -0.42468560242003139 0 -0.37686886400322728 -0.40435096115169189 0 -0.39237573569118211 -0.4066532222249698 0 -0.37719128285578268 -0.42468560242003139 0 -0.37719128285578268 -0.42468560242003139 0 -0.39070796240371652 -0.44565500202714498 0 -0.36551663301697418 -0.4373224669429574 0 -0.39070796240371652 -0.44565500202714498 0 -0.40330959819850781 -0.46718672562698232 0 -0.38393187030959491 -0.46475190734764837 0 -0.39070796240371652 -0.44565500202714498 0 -0.38393187030959491 -0.46475190734764837 0 -0.36735324222862981 -0.45442845011941468 0 -0.40330959819850781 -0.46718672562698232 0 -0.38393187030959491 -0.46475190734764837 0 -0.37879141953959611 -0.48359336281349108 0 -0.37879141953959611 -0.48359336281349108 0 -0.38812413330218692 -0.5 0 -0.39690905294185502 -0.48414508820793589 0 -0.40330959819850781 -0.46718672562698232 0 -0.37879141953959611 -0.48359336281349108 0 -0.40330959819850781 -0.46718672562698232 0 -0.37879141953959611 -0.48359336281349108 0 -0.39690905294185502 -0.48414508820793589 0 -0.38812413330218692 -0.5 0 -0.39690905294185502 -0.48414508820793589 0 -0.43502217802224769 -0.5 0 -0.4479631167738985 -0.47297268902557738 0 -0.40330959819850781 -0.46718672562698232 0 -0.43502217802224769 -0.5 0 -0.40330959819850781 -0.46718672562698232 0 -0.39690905294185502 -0.48414508820793589 0 -0.43502217802224769 -0.5 0 -0.4479631167738985 -0.47297268902557738 0 -0.40330959819850781 -0.46718672562698232 0 -0.42782777685741952 -0.45078008844047351 0 -0.40934105195935427 -0.42840806868173442 0 -0.39070796240371652 -0.44565500202714498 0 -0.42782777685741952 -0.45078008844047351 0 -0.39070796240371652 -0.44565500202714498 0 -0.40330959819850781 -0.46718672562698232 0 -0.42782777685741952 -0.45078008844047351 0 -0.43347295005853198 -0.43476351387268802 0 -0.40934105195935427 -0.42840806868173442 0 -0.42782777685741952 -0.45078008844047351 0 -0.40330959819850781 -0.46718672562698232 0 -0.42782777685741952 -0.45078008844047351 0 -0.44750537529870138 -0.25369843784153162 0 -0.46931789820554792 -0.26722866842968263 0 -0.46266564730582838 -0.2355681196285522 0 -0.44750537529870138 -0.25369843784153162 0 -0.44942813349220723 -0.27880629466569101 0 -0.4311345914808708 -0.27270177138623442 0 -0.44942813349220723 -0.27880629466569101 0 -0.46931789820554792 -0.26722866842968263 0 -0.46124020023695528 -0.29578579194820781 0 -0.44750537529870138 -0.25369843784153162 0 -0.44942813349220723 -0.27880629466569101 0 -0.46931789820554792 -0.26722866842968263 0 -0.46931789820554792 -0.26722866842968263 0 -0.47739559617414051 -0.2386715449111575 0 -0.4858679574491267 -0.25648904075215551 0 -0.46931789820554792 -0.26722866842968263 0 -0.47739559617414051 -0.2386715449111575 0 -0.4858679574491267 -0.25648904075215551 0 -0.5 -0.27133599655986701 0 -0.5 -0.24272207169726981 0 -0.4858679574491267 -0.25648904075215551 0 -0.5 -0.27133599655986701 0 -0.48206566217123981 -0.28411157568929041 0 -0.4858679574491267 -0.25648904075215551 0 -0.46931789820554792 -0.26722866842968263 0 -0.48206566217123981 -0.28411157568929041 0 -0.48206566217123981 -0.28411157568929041 0 -0.47500039289546658 -0.31020471509886438 0 -0.46124020023695528 -0.29578579194820781 0 -0.46931789820554792 -0.26722866842968263 0 -0.48206566217123981 -0.28411157568929041 0 -0.46124020023695528 -0.29578579194820781 0 -0.5 -0.27133599655986701 0 -0.48206566217123981 -0.28411157568929041 0 -0.5 -0.29994992142246413 0 -0.5 -0.29994992142246413 0 -0.47500039289546658 -0.31020471509886438 0 -0.48449799742461369 -0.32559388093007879 0 -0.48206566217123981 -0.28411157568929041 0 -0.5 -0.29994992142246413 0 -0.47500039289546658 -0.31020471509886438 0 -0.47500039289546658 -0.31020471509886438 0 -0.46124020023695528 -0.29578579194820781 0 -0.45316250226836269 -0.32434291546673277 0 -0.44942813349220723 -0.27880629466569101 0 -0.43794260223896009 -0.30461680372279909 0 -0.4311345914808708 -0.27270177138623442 0 -0.46124020023695528 -0.29578579194820781 0 -0.45316250226836269 -0.32434291546673277 0 -0.46931789820554792 -0.26722866842968263 0 -0.46124020023695528 -0.29578579194820781 0 -0.44942813349220723 -0.27880629466569101 0 -0.46124020023695528 -0.29578579194820781 0 -0.43794260223896009 -0.30461680372279909 0 -0.46124020023695528 -0.29578579194820781 0 -0.43794260223896009 -0.30461680372279909 0 -0.45316250226836269 -0.32434291546673277 0 -0.5 -0.29994992142246413 0 -0.48449799742461369 -0.32559388093007879 0 -0.5 -0.37112861530310493 0 -0.43794260223896009 -0.30461680372279909 0 -0.43768848016413431 -0.33138346067332969 0 -0.45316250226836269 -0.32434291546673277 0 -0.43768848016413431 -0.33138346067332969 0 -0.45113102871018362 -0.33687805194547898 0 -0.43660741531564962 -0.35412564864028861 0 -0.43768848016413431 -0.33138346067332969 0 -0.45113102871018362 -0.33687805194547898 0 -0.45316250226836269 -0.32434291546673277 0 -0.45113102871018362 -0.33687805194547898 0 -0.46715051949868941 -0.32972614964970332 0 -0.45316250226836269 -0.32434291546673277 0 -0.45113102871018362 -0.33687805194547898 0 -0.46715051949868941 -0.32972614964970332 0 -0.46899599484922749 -0.35123784043769352 0 -0.47500039289546658 -0.31020471509886438 0 -0.46715051949868941 -0.32972614964970332 0 -0.45316250226836269 -0.32434291546673277 0 -0.47500039289546658 -0.31020471509886438 0 -0.46715051949868941 -0.32972614964970332 0 -0.48449799742461369 -0.32559388093007879 0 -0.5 -0.29994992142246413 0 -0.48449799742461369 -0.32559388093007879 0 -0.48449799742461369 -0.32559388093007879 0 -0.46899599484922749 -0.35123784043769352 0 -0.46715051949868941 -0.32972614964970332 0 -0.48449799742461369 -0.32559388093007879 0 -0.46899599484922749 -0.35123784043769352 0 -0.48449799742461369 -0.32559388093007879 0 -0.46899599484922749 -0.35123784043769352 0 -0.5 -0.37112861530310493 0 -0.47217513539997258 -0.37829579255265661 0 -0.46899599484922749 -0.35123784043769352 0 -0.5 -0.37112861530310493 0 -0.45349399227384118 -0.37688179994530813 0 -0.46899599484922749 -0.35123784043769352 0 -0.47217513539997258 -0.37829579255265661 0 -0.45349399227384118 -0.37688179994530813 0 -0.46899599484922749 -0.35123784043769352 0 -0.45349399227384118 -0.37688179994530813 0 -0.46899599484922749 -0.35123784043769352 0 -0.45255710778722552 -0.35478083524219228 0 -0.45113102871018362 -0.33687805194547898 0 -0.46899599484922749 -0.35123784043769352 0 -0.45255710778722552 -0.35478083524219228 0 -0.45113102871018362 -0.33687805194547898 0 -0.43660741531564962 -0.35412564864028861 0 -0.45113102871018362 -0.33687805194547898 0 -0.45255710778722552 -0.35478083524219228 0 -0.43660741531564962 -0.35412564864028861 0 -0.45349399227384118 -0.37688179994530813 0 -0.45255710778722552 -0.35478083524219228 0 -0.43660741531564962 -0.35412564864028861 0 -0.45349399227384118 -0.37688179994530813 0 -0.42208380192111561 -0.3713732453350983 0 -0.43660741531564962 -0.35412564864028861 0 -0.42208380192111561 -0.3713732453350983 0 -0.43660741531564962 -0.35412564864028861 0 -0.43768848016413431 -0.33138346067332969 0 -0.43660741531564962 -0.35412564864028861 0 -0.42048763121034288 -0.35027933911183401 0 -0.42208380192111561 -0.3713732453350983 0 -0.43660741531564962 -0.35412564864028861 0 -0.42048763121034288 -0.35027933911183401 0 -0.42048763121034288 -0.35027933911183401 0 -0.39849269170143742 -0.35417885123529252 0 -0.40835405943762848 -0.3366705707763632 0 -0.42048763121034288 -0.35027933911183401 0 -0.40769940833800511 -0.36936762560483061 0 -0.39849269170143742 -0.35417885123529252 0 -0.42208380192111561 -0.3713732453350983 0 -0.42048763121034288 -0.35027933911183401 0 -0.40769940833800511 -0.36936762560483061 0 -0.39540392860697449 -0.37709772699097732 0 -0.40769940833800511 -0.36936762560483061 0 -0.39849269170143742 -0.35417885123529252 0 -0.39540392860697449 -0.37709772699097732 0 -0.38324766868736659 -0.3655746119520461 0 -0.39849269170143742 -0.35417885123529252 0 -0.39540392860697449 -0.37709772699097732 0 -0.38164725830613899 -0.37914075032936601 0 -0.38324766868736659 -0.3655746119520461 0 -0.39540392860697449 -0.37709772699097732 0 -0.38324766868736659 -0.3655746119520461 0 -0.38164725830613899 -0.37914075032936601 0 -0.38324766868736659 -0.3655746119520461 0 -0.36873860885424259 -0.37355125743602657 0 -0.37827909387122299 -0.34718445954821281 0 -0.39849269170143742 -0.35417885123529252 0 -0.39203738487668133 -0.33261549002546159 0 -0.38324766868736659 -0.3655746119520461 0 -0.37827909387122299 -0.34718445954821281 0 -0.36470134307698843 -0.35749385492310182 0 -0.38324766868736659 -0.3655746119520461 0 -0.37827909387122299 -0.34718445954821281 0 -0.39849269170143742 -0.35417885123529252 0 -0.39849269170143742 -0.35417885123529252 0 -0.39203738487668133 -0.33261549002546159 0 -0.40835405943762848 -0.3366705707763632 0 -0.39203738487668133 -0.33261549002546159 0 -0.40376206682673932 -0.3201791221694878 0 -0.40835405943762848 -0.3366705707763632 0 -0.37827909387122299 -0.34718445954821281 0 -0.39203738487668133 -0.33261549002546159 0 -0.37313046999497818 -0.33231727648928178 0 -0.39203738487668133 -0.33261549002546159 0 -0.38509669109456002 -0.31793504962537561 0 -0.37313046999497818 -0.33231727648928178 0 -0.38509669109456002 -0.31793504962537561 0 -0.37300625776235408 -0.30293367461233828 0 -0.37066782609468257 -0.31736554091019459 0 -0.38509669109456002 -0.31793504962537561 0 -0.37066782609468257 -0.31736554091019459 0 -0.37313046999497818 -0.33231727648928178 0 -0.38509669109456002 -0.31793504962537561 0 -0.40376206682673932 -0.3201791221694878 0 -0.39146711117500421 -0.30246824157251889 0 -0.39203738487668133 -0.33261549002546159 0 -0.38509669109456002 -0.31793504962537561 0 -0.40376206682673932 -0.3201791221694878 0 -0.40376206682673932 -0.3201791221694878 0 -0.42202889347728723 -0.32476352614909748 0 -0.4100975323868144 -0.3036777309420014 0 -0.40376206682673932 -0.3201791221694878 0 -0.40835405943762848 -0.3366705707763632 0 -0.42202889347728723 -0.32476352614909748 0 -0.42048763121034288 -0.35027933911183401 0 -0.40835405943762848 -0.3366705707763632 0 -0.42202889347728723 -0.32476352614909748 0 -0.43768848016413431 -0.33138346067332969 0 -0.42048763121034288 -0.35027933911183401 0 -0.42202889347728723 -0.32476352614909748 0 -0.43794260223896009 -0.30461680372279909 0 -0.43768848016413431 -0.33138346067332969 0 -0.42202889347728723 -0.32476352614909748 0 -0.43794260223896009 -0.30461680372279909 0 -0.41596884042994209 -0.28503363026252898 0 -0.4311345914808708 -0.27270177138623442 0 -0.43794260223896009 -0.30461680372279909 0 -0.42202889347728723 -0.32476352614909748 0 -0.4100975323868144 -0.3036777309420014 0 -0.41596884042994209 -0.28503363026252898 0 -0.4100975323868144 -0.3036777309420014 0 -0.39686691751455649 -0.28088739230285092 0 -0.43794260223896009 -0.30461680372279909 0 -0.41596884042994209 -0.28503363026252898 0 -0.4100975323868144 -0.3036777309420014 0 -0.40376206682673932 -0.3201791221694878 0 -0.4100975323868144 -0.3036777309420014 0 -0.39146711117500421 -0.30246824157251889 0 -0.38509669109456002 -0.31793504962537561 0 -0.39146711117500421 -0.30246824157251889 0 -0.37300625776235408 -0.30293367461233828 0 -0.39146711117500421 -0.30246824157251889 0 -0.37711178829661007 -0.28827944751136098 0 -0.37300625776235408 -0.30293367461233828 0 -0.39146711117500421 -0.30246824157251889 0 -0.37711178829661007 -0.28827944751136098 0 -0.39686691751455649 -0.28088739230285092 0 -0.4100975323868144 -0.3036777309420014 0 -0.39686691751455649 -0.28088739230285092 0 -0.4100975323868144 -0.3036777309420014 0 -0.39146711117500421 -0.30246824157251889 0 -0.39686691751455649 -0.28088739230285092 0 -0.39686691751455649 -0.28088739230285092 0 -0.38363630264229848 -0.25809705366370023 0 -0.41077066225567122 -0.26586977876379603 0 -0.37711178829661007 -0.28827944751136098 0 -0.39686691751455649 -0.28088739230285092 0 -0.37236234425476072 -0.2719875357116015 0 -0.39686691751455649 -0.28088739230285092 0 -0.38363630264229848 -0.25809705366370023 0 -0.37236234425476072 -0.2719875357116015 0 -0.39686691751455649 -0.28088739230285092 0 -0.38363630264229848 -0.25809705366370023 0 -0.38363630264229848 -0.25809705366370023 0 -0.41077066225567122 -0.26586977876379603 0 -0.41036478893875628 -0.24424314929707239 0 -0.41077066225567122 -0.26586977876379603 0 -0.42667168072618078 -0.25551905905227312 0 -0.41036478893875628 -0.24424314929707239 0 -0.41596884042994209 -0.28503363026252898 0 -0.39686691751455649 -0.28088739230285092 0 -0.41077066225567122 -0.26586977876379603 0 -0.41596884042994209 -0.28503363026252898 0 -0.41077066225567122 -0.26586977876379603 0 -0.4311345914808708 -0.27270177138623442 0 -0.41077066225567122 -0.26586977876379603 0 -0.4311345914808708 -0.27270177138623442 0 -0.42667168072618078 -0.25551905905227312 0 -0.44750537529870138 -0.25369843784153162 0 -0.42667168072618078 -0.25551905905227312 0 -0.43358298565690417 -0.241082157972731 0 -0.44750537529870138 -0.25369843784153162 0 -0.4311345914808708 -0.27270177138623442 0 -0.42667168072618078 -0.25551905905227312 0 -0.31890938124500418 -0.27398383201700488 0 -0.33037981238156272 -0.26865024189318848 0 -0.33224286800269481 -0.25282265620023531 0 -0.31629866879799751 -0.25491618832279089 0 -0.31890938124500418 -0.27398383201700488 0 -0.33224286800269481 -0.25282265620023531 0 -0.31890938124500418 -0.27398383201700488 0 -0.33224286800269481 -0.25282265620023531 0 -0.31890938124500418 -0.27398383201700488 0 -0.33038476167311509 -0.28228647837541893 0 -0.31890938124500418 -0.27398383201700488 0 -0.33038476167311509 -0.28228647837541893 0 -0.31854794566180838 -0.28741865869063959 0 -0.31890938124500418 -0.27398383201700488 0 -0.33037981238156272 -0.26865024189318848 0 -0.33038476167311509 -0.28228647837541893 0 -0.33998223860543753 -0.26550800098009519 0 -0.33038476167311509 -0.28228647837541893 0 -0.33037981238156272 -0.26865024189318848 0 -0.33998223860543753 -0.26550800098009519 0 -0.33038476167311509 -0.28228647837541893 0 -0.33998223860543753 -0.26550800098009519 0 -0.34558536999676298 -0.2792485798712665 0 -0.33038476167311509 -0.28228647837541893 0 -0.33224286800269481 -0.25282265620023531 0 -0.33998223860543753 -0.26550800098009519 0 -0.34957971553776052 -0.24872952358477179 0 -0.33037981238156272 -0.26865024189318848 0 -0.33224286800269481 -0.25282265620023531 0 -0.33998223860543753 -0.26550800098009519 0 -0.35470440608805548 -0.27057827631277748 0 -0.34957971553776052 -0.24872952358477179 0 -0.3658643060594724 -0.25625595869071832 0 -0.35470440608805548 -0.27057827631277748 0 -0.34957971553776052 -0.24872952358477179 0 -0.33998223860543753 -0.26550800098009519 0 -0.34957971553776052 -0.24872952358477179 0 -0.33998223860543753 -0.26550800098009519 0 -0.35470440608805548 -0.27057827631277748 0 -0.34957971553776052 -0.24872952358477179 0 -0.38363630264229848 -0.25809705366370023 0 -0.3658643060594724 -0.25625595869071832 0 -0.37236234425476072 -0.2719875357116015 0 -0.37236234425476072 -0.2719875357116015 0 -0.35470440608805548 -0.27057827631277748 0 -0.3592709673169005 -0.28603343181334312 0 -0.3658643060594724 -0.25625595869071832 0 -0.37236234425476072 -0.2719875357116015 0 -0.35470440608805548 -0.27057827631277748 0 -0.35470440608805548 -0.27057827631277748 0 -0.34558536999676298 -0.2792485798712665 0 -0.3592709673169005 -0.28603343181334312 0 -0.33998223860543753 -0.26550800098009519 0 -0.35470440608805548 -0.27057827631277748 0 -0.34558536999676298 -0.2792485798712665 0 -0.3592709673169005 -0.28603343181334312 0 -0.3567841909274988 -0.30138694537397792 0 -0.34358447630030697 -0.2918367118746984 0 -0.34558536999676298 -0.2792485798712665 0 -0.3592709673169005 -0.28603343181334312 0 -0.34358447630030697 -0.2918367118746984 0 -0.3567841909274988 -0.30138694537397792 0 -0.34358447630030697 -0.2918367118746984 0 -0.37711178829661007 -0.28827944751136098 0 -0.37236234425476072 -0.2719875357116015 0 -0.3592709673169005 -0.28603343181334312 0 -0.37711178829661007 -0.28827944751136098 0 -0.3592709673169005 -0.28603343181334312 0 -0.37300625776235408 -0.30293367461233828 0 -0.3592709673169005 -0.28603343181334312 0 -0.37300625776235408 -0.30293367461233828 0 -0.3567841909274988 -0.30138694537397792 0 -0.37300625776235408 -0.30293367461233828 0 -0.3567841909274988 -0.30138694537397792 0 -0.37066782609468257 -0.31736554091019459 0 -0.3567841909274988 -0.30138694537397792 0 -0.34545640589871268 -0.30662215149379551 0 -0.3551436762288373 -0.32068772658230832 0 -0.3567841909274988 -0.30138694537397792 0 -0.34545640589871268 -0.30662215149379551 0 -0.34358447630030697 -0.2918367118746984 0 -0.34545640589871268 -0.30662215149379551 0 -0.33353349215008382 -0.30261583978896778 0 -0.33823619388683618 -0.31658353384902521 0 -0.33353349215008382 -0.30261583978896778 0 -0.32239088106664782 -0.31804834512335223 0 -0.33823619388683618 -0.31658353384902521 0 -0.34545640589871268 -0.30662215149379551 0 -0.33353349215008382 -0.30261583978896778 0 -0.34358447630030697 -0.2918367118746984 0 -0.33353349215008382 -0.30261583978896778 0 -0.34358447630030697 -0.2918367118746984 0 -0.33038476167311509 -0.28228647837541893 0 -0.34358447630030697 -0.2918367118746984 0 -0.33038476167311509 -0.28228647837541893 0 -0.34558536999676298 -0.2792485798712665 0 -0.34358447630030697 -0.2918367118746984 0 -0.33038476167311509 -0.28228647837541893 0 -0.33038476167311509 -0.28228647837541893 0 -0.31854794566180838 -0.28741865869063959 0 -0.31879554332420912 -0.30254695302596879 0 -0.33038476167311509 -0.28228647837541893 0 -0.31879554332420912 -0.30254695302596879 0 -0.33353349215008382 -0.30261583978896778 0 -0.33038476167311509 -0.28228647837541893 0 -0.31879554332420912 -0.30254695302596879 0 -0.31890938124500418 -0.27398383201700488 0 -0.31854794566180838 -0.28741865869063959 0 -0.3069529082713735 -0.29295959067199628 0 -0.31890938124500418 -0.27398383201700488 0 -0.3069529082713735 -0.29295959067199628 0 -0.31854794566180838 -0.28741865869063959 0 -0.31879554332420912 -0.30254695302596879 0 -0.3069529082713735 -0.29295959067199628 0 -0.33353349215008382 -0.30261583978896778 0 -0.31879554332420912 -0.30254695302596879 0 -0.32239088106664782 -0.31804834512335223 0 -0.31879554332420912 -0.30254695302596879 0 -0.32239088106664782 -0.31804834512335223 0 -0.30720632497530381 -0.32280742767651921 0 -0.32239088106664782 -0.31804834512335223 0 -0.32173007864142378 -0.33397642478197631 0 -0.30720632497530381 -0.32280742767651921 0 -0.31879554332420912 -0.30254695302596879 0 -0.30720632497530381 -0.32280742767651921 0 -0.32239088106664782 -0.31804834512335223 0 -0.32173007864142378 -0.33397642478197631 0 -0.33823619388683618 -0.31658353384902521 0 -0.32173007864142378 -0.33397642478197631 0 -0.30374790278499952 -0.34817197982197068 0 -0.32173007864142378 -0.33397642478197631 0 -0.34136442645312842 -0.34333806795329758 0 -0.32919685040910018 -0.34825232347399071 0 -0.32173007864142378 -0.33397642478197631 0 -0.34373077360220888 -0.32983509503832747 0 -0.34136442645312842 -0.34333806795329758 0 -0.32173007864142378 -0.33397642478197631 0 -0.34373077360220888 -0.32983509503832747 0 -0.33823619388683618 -0.31658353384902521 0 -0.34545640589871268 -0.30662215149379551 0 -0.33823619388683618 -0.31658353384902521 0 -0.3551436762288373 -0.32068772658230832 0 -0.34373077360220888 -0.32983509503832747 0 -0.33823619388683618 -0.31658353384902521 0 -0.3551436762288373 -0.32068772658230832 0 -0.3551436762288373 -0.32068772658230832 0 -0.37066782609468257 -0.31736554091019459 0 -0.37313046999497818 -0.33231727648928178 0 -0.3567841909274988 -0.30138694537397792 0 -0.3551436762288373 -0.32068772658230832 0 -0.37066782609468257 -0.31736554091019459 0 -0.3551436762288373 -0.32068772658230832 0 -0.37313046999497818 -0.33231727648928178 0 -0.35840513093081888 -0.33909860599834413 0 -0.37827909387122299 -0.34718445954821281 0 -0.37313046999497818 -0.33231727648928178 0 -0.35840513093081888 -0.33909860599834413 0 -0.34373077360220888 -0.32983509503832747 0 -0.3551436762288373 -0.32068772658230832 0 -0.35840513093081888 -0.33909860599834413 0 -0.34373077360220888 -0.32983509503832747 0 -0.34136442645312842 -0.34333806795329758 0 -0.35840513093081888 -0.33909860599834413 0 -0.35840513093081888 -0.33909860599834413 0 -0.35223646296460881 -0.35209587933102571 0 -0.36470134307698843 -0.35749385492310182 0 -0.34136442645312842 -0.34333806795329758 0 -0.35223646296460881 -0.35209587933102571 0 -0.34039219356233852 -0.35769496576085641 0 -0.34136442645312842 -0.34333806795329758 0 -0.35840513093081888 -0.33909860599834413 0 -0.35223646296460881 -0.35209587933102571 0 -0.37827909387122299 -0.34718445954821281 0 -0.35840513093081888 -0.33909860599834413 0 -0.36470134307698843 -0.35749385492310182 0 -0.36470134307698843 -0.35749385492310182 0 -0.36873860885424259 -0.37355125743602657 0 -0.3520725259715099 -0.36981438072479289 0 -0.38324766868736659 -0.3655746119520461 0 -0.36470134307698843 -0.35749385492310182 0 -0.36873860885424259 -0.37355125743602657 0 -0.35223646296460881 -0.35209587933102571 0 -0.36470134307698843 -0.35749385492310182 0 -0.3520725259715099 -0.36981438072479289 0 -0.35223646296460881 -0.35209587933102571 0 -0.3520725259715099 -0.36981438072479289 0 -0.34039219356233852 -0.35769496576085641 0 -0.33573697335346131 -0.37372402889696937 0 -0.34039219356233852 -0.35769496576085641 0 -0.3269963768872805 -0.35913470255805691 0 -0.3520725259715099 -0.36981438072479289 0 -0.33573697335346131 -0.37372402889696937 0 -0.34039219356233852 -0.35769496576085641 0 -0.34136442645312842 -0.34333806795329758 0 -0.34039219356233852 -0.35769496576085641 0 -0.32919685040910018 -0.34825232347399071 0 -0.34039219356233852 -0.35769496576085641 0 -0.32919685040910018 -0.34825232347399071 0 -0.3269963768872805 -0.35913470255805691 0 -0.32919685040910018 -0.34825232347399071 0 -0.3269963768872805 -0.35913470255805691 0 -0.31844348275181839 -0.34967186299331848 0 -0.32173007864142378 -0.33397642478197631 0 -0.31844348275181839 -0.34967186299331848 0 -0.30374790278499952 -0.34817197982197068 0 -0.32173007864142378 -0.33397642478197631 0 -0.32919685040910018 -0.34825232347399071 0 -0.31844348275181839 -0.34967186299331848 0 -0.3269963768872805 -0.35913470255805691 0 -0.31844348275181839 -0.34967186299331848 0 -0.31246307591010902 -0.361072247645703 0 -0.3269963768872805 -0.35913470255805691 0 -0.32144903772325051 -0.37367451513015382 0 -0.31246307591010902 -0.361072247645703 0 -0.32144903772325051 -0.37367451513015382 0 -0.31246307591010902 -0.361072247645703 0 -0.30593816313132471 -0.37893637713733658 0 -0.33573697335346131 -0.37372402889696937 0 -0.3269963768872805 -0.35913470255805691 0 -0.32144903772325051 -0.37367451513015382 0 -0.30098617105509268 -0.36188860012954083 0 -0.28576572692857588 -0.36236753486196599 0 -0.30593816313132471 -0.37893637713733658 0 -0.30098617105509268 -0.36188860012954083 0 -0.31246307591010902 -0.361072247645703 0 -0.30593816313132471 -0.37893637713733658 0 -0.31844348275181839 -0.34967186299331848 0 -0.31246307591010902 -0.361072247645703 0 -0.30374790278499952 -0.34817197982197068 0 -0.30098617105509268 -0.36188860012954083 0 -0.31246307591010902 -0.361072247645703 0 -0.30374790278499952 -0.34817197982197068 0 -0.30374790278499952 -0.34817197982197068 0 -0.28669019851711719 -0.35002454106049757 0 -0.2956171066263984 -0.34306790232706952 0 -0.30098617105509268 -0.36188860012954083 0 -0.30374790278499952 -0.34817197982197068 0 -0.28576572692857588 -0.36236753486196599 0 -0.30374790278499952 -0.34817197982197068 0 -0.28669019851711719 -0.35002454106049757 0 -0.28576572692857588 -0.36236753486196599 0 -0.30374790278499952 -0.34817197982197068 0 -0.28576572692857588 -0.36236753486196599 0 -0.28669019851711719 -0.35002454106049757 0 -0.27550204132699091 -0.34365365220993183 0 -0.28364491515757839 -0.33812608062968291 0 -0.28669019851711719 -0.35002454106049757 0 -0.28576572692857588 -0.36236753486196599 0 -0.27403124182690453 -0.3527292923176395 0 -0.28576572692857588 -0.36236753486196599 0 -0.30593816313132471 -0.37893637713733658 0 -0.25800822730005701 -0.36027474419253258 0 -0.27403124182690453 -0.3527292923176395 0 -0.26647993727866232 -0.37759219347118911 0 -0.28576572692857588 -0.36236753486196599 0 -0.26647993727866232 -0.37759219347118911 0 -0.28576572692857588 -0.36236753486196599 0 -0.27403124182690453 -0.3527292923176395 0 -0.26647993727866232 -0.37759219347118911 0 -0.25800822730005701 -0.36027474419253258 0 -0.26647993727866232 -0.37759219347118911 0 -0.24016629735153239 -0.37772335159208148 0 -0.25800822730005701 -0.36027474419253258 0 -0.26229675672523772 -0.34309104977330751 0 -0.24031554156692081 -0.36107456296724638 0 -0.25800822730005701 -0.36027474419253258 0 -0.27403124182690453 -0.3527292923176395 0 -0.26229675672523772 -0.34309104977330751 0 -0.26229675672523772 -0.34309104977330751 0 -0.24031554156692081 -0.36107456296724638 0 -0.27403124182690453 -0.3527292923176395 0 -0.27550204132699091 -0.34365365220993183 0 -0.26229675672523772 -0.34309104977330751 0 -0.27403124182690453 -0.3527292923176395 0 -0.26229675672523772 -0.34309104977330751 0 -0.28576572692857588 -0.36236753486196599 0 -0.27403124182690453 -0.3527292923176395 0 -0.28669019851711719 -0.35002454106049757 0 -0.27403124182690453 -0.3527292923176395 0 -0.27550204132699091 -0.34365365220993183 0 -0.27550204132699091 -0.34365365220993183 0 -0.27199957291663351 -0.3351528752120016 0 -0.28364491515757839 -0.33812608062968291 0 -0.27199957291663351 -0.3351528752120016 0 -0.27647586196730939 -0.32441746939787691 0 -0.28364491515757839 -0.33812608062968291 0 -0.27550204132699091 -0.34365365220993183 0 -0.27199957291663351 -0.3351528752120016 0 -0.26229675672523772 -0.34309104977330751 0 -0.27199957291663351 -0.3351528752120016 0 -0.26229675672523772 -0.34309104977330751 0 -0.27199957291663351 -0.3351528752120016 0 -0.26229675672523772 -0.34309104977330751 0 -0.25641376959848522 -0.32632460665722052 0 -0.26229675672523772 -0.34309104977330751 0 -0.23924578887242809 -0.32415789530406269 0 -0.26229675672523772 -0.34309104977330751 0 -0.25641376959848522 -0.32632460665722052 0 -0.23924578887242809 -0.32415789530406269 0 -0.25641376959848522 -0.32632460665722052 0 -0.26695287931221118 -0.31773922838621532 0 -0.24157385016591629 -0.31148198461051441 0 -0.26695287931221118 -0.31773922838621532 0 -0.24157385016591629 -0.31148198461051441 0 -0.27199957291663351 -0.3351528752120016 0 -0.25641376959848522 -0.32632460665722052 0 -0.26695287931221118 -0.31773922838621532 0 -0.27199957291663351 -0.3351528752120016 0 -0.26695287931221118 -0.31773922838621532 0 -0.27647586196730939 -0.32441746939787691 0 -0.26695287931221118 -0.31773922838621532 0 -0.27647586196730939 -0.32441746939787691 0 -0.27790559498555872 -0.30990817295255252 0 -0.27647586196730939 -0.32441746939787691 0 -0.2874318325799865 -0.32535735619354678 0 -0.27790559498555872 -0.30990817295255252 0 -0.2874318325799865 -0.32535735619354678 0 -0.29499643529774272 -0.31193534932698758 0 -0.27790559498555872 -0.30990817295255252 0 -0.29607399578065968 -0.32752379485658972 0 -0.2874318325799865 -0.32535735619354678 0 -0.29499643529774272 -0.31193534932698758 0 -0.27647586196730939 -0.32441746939787691 0 -0.2874318325799865 -0.32535735619354678 0 -0.28364491515757839 -0.33812608062968291 0 -0.2874318325799865 -0.32535735619354678 0 -0.28364491515757839 -0.33812608062968291 0 -0.29128271183056398 -0.33447857576535578 0 -0.28669019851711719 -0.35002454106049757 0 -0.28364491515757839 -0.33812608062968291 0 -0.2956171066263984 -0.34306790232706952 0 -0.28364491515757839 -0.33812608062968291 0 -0.2956171066263984 -0.34306790232706952 0 -0.29128271183056398 -0.33447857576535578 0 -0.29607399578065968 -0.32752379485658972 0 -0.2956171066263984 -0.34306790232706952 0 -0.29128271183056398 -0.33447857576535578 0 -0.29607399578065968 -0.32752379485658972 0 -0.2874318325799865 -0.32535735619354678 0 -0.29128271183056398 -0.33447857576535578 0 -0.2956171066263984 -0.34306790232706952 0 -0.30676731175073951 -0.33659298628652751 0 -0.30720632497530381 -0.32280742767651921 0 -0.29607399578065968 -0.32752379485658972 0 -0.2956171066263984 -0.34306790232706952 0 -0.30720632497530381 -0.32280742767651921 0 -0.2956171066263984 -0.34306790232706952 0 -0.30720632497530381 -0.32280742767651921 0 -0.32173007864142378 -0.33397642478197631 0 -0.30374790278499952 -0.34817197982197068 0 -0.30676731175073951 -0.33659298628652751 0 -0.30374790278499952 -0.34817197982197068 0 -0.2956171066263984 -0.34306790232706952 0 -0.30676731175073951 -0.33659298628652751 0 -0.32173007864142378 -0.33397642478197631 0 -0.30676731175073951 -0.33659298628652751 0 -0.30720632497530381 -0.32280742767651921 0 -0.30720632497530381 -0.32280742767651921 0 -0.30680217248375458 -0.30706649888298609 0 -0.29499643529774272 -0.31193534932698758 0 -0.29607399578065968 -0.32752379485658972 0 -0.30720632497530381 -0.32280742767651921 0 -0.29499643529774272 -0.31193534932698758 0 -0.31879554332420912 -0.30254695302596879 0 -0.30720632497530381 -0.32280742767651921 0 -0.30680217248375458 -0.30706649888298609 0 -0.30680217248375458 -0.30706649888298609 0 -0.3069529082713735 -0.29295959067199628 0 -0.29499643529774272 -0.31193534932698758 0 -0.3069529082713735 -0.29295959067199628 0 -0.29499643529774272 -0.31193534932698758 0 -0.31879554332420912 -0.30254695302596879 0 -0.30680217248375458 -0.30706649888298609 0 -0.3069529082713735 -0.29295959067199628 0 -0.31890938124500418 -0.27398383201700488 0 -0.3069529082713735 -0.29295959067199628 0 -0.29931117242879479 -0.27942816725509678 0 -0.3069529082713735 -0.29295959067199628 0 -0.28661347476319837 -0.29222636315975248 0 -0.29931117242879479 -0.27942816725509678 0 -0.28661347476319837 -0.29222636315975248 0 -0.27133120761871732 -0.28189340739643942 0 -0.28660153871046029 -0.2757847482270343 0 -0.28661347476319837 -0.29222636315975248 0 -0.28660153871046029 -0.2757847482270343 0 -0.29931117242879479 -0.27942816725509678 0 -0.3069529082713735 -0.29295959067199628 0 -0.28661347476319837 -0.29222636315975248 0 -0.29499643529774272 -0.31193534932698758 0 -0.28661347476319837 -0.29222636315975248 0 -0.29499643529774272 -0.31193534932698758 0 -0.27790559498555872 -0.30990817295255252 0 -0.26695287931221118 -0.31773922838621532 0 -0.27790559498555872 -0.30990817295255252 0 -0.25932328347812877 -0.30223131190574293 0 -0.28661347476319837 -0.29222636315975248 0 -0.27790559498555872 -0.30990817295255252 0 -0.27259822041430948 -0.29523482626593189 0 -0.27790559498555872 -0.30990817295255252 0 -0.25932328347812877 -0.30223131190574293 0 -0.27259822041430948 -0.29523482626593189 0 -0.26695287931221118 -0.31773922838621532 0 -0.25932328347812877 -0.30223131190574293 0 -0.24157385016591629 -0.31148198461051441 0 -0.25898248853935268 -0.28862984213938842 0 -0.25549012390218001 -0.27156072195817282 0 -0.2459317459832219 -0.28610690006171291 0 -0.25898248853935268 -0.28862984213938842 0 -0.2459317459832219 -0.28610690006171291 0 -0.2459044992999613 -0.29816430982094938 0 -0.25932328347812877 -0.30223131190574293 0 -0.25898248853935268 -0.28862984213938842 0 -0.2459044992999613 -0.29816430982094938 0 -0.25932328347812877 -0.30223131190574293 0 -0.25898248853935268 -0.28862984213938842 0 -0.27259822041430948 -0.29523482626593189 0 -0.25898248853935268 -0.28862984213938842 0 -0.27133120761871732 -0.28189340739643942 0 -0.27259822041430948 -0.29523482626593189 0 -0.28661347476319837 -0.29222636315975248 0 -0.27133120761871732 -0.28189340739643942 0 -0.27259822041430948 -0.29523482626593189 0 -0.27133120761871732 -0.28189340739643942 0 -0.25549012390218001 -0.27156072195817282 0 -0.27515819589766383 -0.26464374101420363 0 -0.27133120761871732 -0.28189340739643942 0 -0.27515819589766383 -0.26464374101420363 0 -0.28660153871046029 -0.2757847482270343 0 -0.25898248853935268 -0.28862984213938842 0 -0.27133120761871732 -0.28189340739643942 0 -0.25549012390218001 -0.27156072195817282 0 -0.25549012390218001 -0.27156072195817282 0 -0.26119777948991751 -0.25972238653198942 0 -0.27515819589766383 -0.26464374101420363 0 -0.25549012390218001 -0.27156072195817282 0 -0.26119777948991751 -0.25972238653198942 0 -0.24686496979937381 -0.25551888127341332 0 -0.26119777948991751 -0.25972238653198942 0 -0.24686496979937381 -0.25551888127341332 0 -0.25723339985396632 -0.24528001249266571 0 -0.26119777948991751 -0.25972238653198942 0 -0.26968452270859528 -0.25105584918283508 0 -0.25723339985396632 -0.24528001249266571 0 -0.26968452270859528 -0.25105584918283508 0 -0.27515819589766383 -0.26464374101420363 0 -0.28227790444285261 -0.24748029260235141 0 -0.26119777948991751 -0.25972238653198942 0 -0.26968452270859528 -0.25105584918283508 0 -0.27515819589766383 -0.26464374101420363 0 -0.30059364284392781 -0.26073206230967899 0 -0.28227790444285261 -0.24748029260235141 0 -0.30059364284392781 -0.26073206230967899 0 -0.29429240070356588 -0.24288348042963359 0 -0.28227790444285261 -0.24748029260235141 0 -0.27515819589766383 -0.26464374101420363 0 -0.30059364284392781 -0.26073206230967899 0 -0.28227790444285261 -0.24748029260235141 0 -0.28660153871046029 -0.2757847482270343 0 -0.29931117242879479 -0.27942816725509678 0 -0.30059364284392781 -0.26073206230967899 0 -0.27515819589766383 -0.26464374101420363 0 -0.28660153871046029 -0.2757847482270343 0 -0.30059364284392781 -0.26073206230967899 0 -0.31890938124500418 -0.27398383201700488 0 -0.30059364284392781 -0.26073206230967899 0 -0.31890938124500418 -0.27398383201700488 0 -0.29931117242879479 -0.27942816725509678 0 -0.30059364284392781 -0.26073206230967899 0 -0.31629866879799751 -0.25491618832279089 0 -0.30059364284392781 -0.26073206230967899 0 -0.3059790900976298 -0.24100614775169921 0 -0.31629866879799751 -0.25491618832279089 0 -0.31890938124500418 -0.27398383201700488 0 -0.30059364284392781 -0.26073206230967899 0 -0.33834377864894671 -0.46625532863698088 0 -0.33472284862059432 -0.45238771363295638 0 -0.35276948376948658 -0.46014804944980697 0 -0.33834377864894671 -0.46625532863698088 0 -0.33472284862059432 -0.45238771363295638 0 -0.32376589242371018 -0.46162713953880269 0 -0.33834377864894671 -0.46625532863698088 0 -0.32376589242371018 -0.46162713953880269 0 -0.33472284862059432 -0.45238771363295638 0 -0.35010082805862541 -0.44329224462255101 0 -0.32503386408226531 -0.43191887561224362 0 -0.32503386408226531 -0.43191887561224362 0 -0.30918800619847359 -0.45699895044062511 0 -0.33472284862059432 -0.45238771363295638 0 -0.32503386408226531 -0.43191887561224362 0 -0.30918800619847359 -0.45699895044062511 0 -0.32376589242371018 -0.46162713953880269 0 -0.31346348317331718 -0.47291278894192312 0 -0.30918800619847359 -0.45699895044062511 0 -0.33472284862059432 -0.45238771363295638 0 -0.32376589242371018 -0.46162713953880269 0 -0.30918800619847359 -0.45699895044062511 0 -0.32376589242371018 -0.46162713953880269 0 -0.30918800619847359 -0.45699895044062511 0 -0.32376589242371018 -0.46162713953880269 0 -0.31346348317331718 -0.47291278894192312 0 -0.32544835812253209 -0.48160053627475591 0 -0.31346348317331718 -0.47291278894192312 0 -0.32544835812253209 -0.48160053627475591 0 -0.31186733739172617 -0.48308416012834521 0 -0.32544835812253209 -0.48160053627475591 0 -0.31252655715665201 -0.50000000000000022 0 -0.33339989901866812 -0.5 0 -0.32544835812253209 -0.48160053627475591 0 -0.31252655715665201 -0.50000000000000022 0 -0.31186733739172617 -0.48308416012834521 0 -0.34208810594961447 -0.4844276066299843 0 -0.33339989901866812 -0.5 0 -0.35427324088068429 -0.49999999999999989 0 -0.32544835812253209 -0.48160053627475591 0 -0.34208810594961447 -0.4844276066299843 0 -0.33339989901866812 -0.5 0 -0.33834377864894671 -0.46625532863698088 0 -0.32544835812253209 -0.48160053627475591 0 -0.34208810594961447 -0.4844276066299843 0 -0.33834377864894671 -0.46625532863698088 0 -0.32376589242371018 -0.46162713953880269 0 -0.32544835812253209 -0.48160053627475591 0 -0.37879141953959611 -0.48359336281349108 0 -0.38812413330218692 -0.5 0 -0.35427324088068429 -0.49999999999999989 0 -0.33834377864894671 -0.46625532863698088 0 -0.34208810594961447 -0.4844276066299843 0 -0.3589752530772416 -0.47428216823818481 0 -0.34208810594961447 -0.4844276066299843 0 -0.3589752530772416 -0.47428216823818481 0 -0.35427324088068429 -0.49999999999999989 0 -0.37879141953959611 -0.48359336281349108 0 -0.35427324088068429 -0.49999999999999989 0 -0.37879141953959611 -0.48359336281349108 0 -0.3589752530772416 -0.47428216823818481 0 -0.35427324088068429 -0.49999999999999989 0 -0.38393187030959491 -0.46475190734764837 0 -0.37879141953959611 -0.48359336281349108 0 -0.3589752530772416 -0.47428216823818481 0 -0.3589752530772416 -0.47428216823818481 0 -0.36735324222862981 -0.45442845011941468 0 -0.35276948376948658 -0.46014804944980697 0 -0.38393187030959491 -0.46475190734764837 0 -0.3589752530772416 -0.47428216823818481 0 -0.36735324222862981 -0.45442845011941468 0 -0.33834377864894671 -0.46625532863698088 0 -0.3589752530772416 -0.47428216823818481 0 -0.35276948376948658 -0.46014804944980697 0 -0.36735324222862981 -0.45442845011941468 0 -0.35276948376948658 -0.46014804944980697 0 -0.35010082805862541 -0.44329224462255101 0 -0.33472284862059432 -0.45238771363295638 0 -0.35276948376948658 -0.46014804944980697 0 -0.35010082805862541 -0.44329224462255101 0 -0.36735324222862981 -0.45442845011941468 0 -0.35010082805862541 -0.44329224462255101 0 -0.36551663301697418 -0.4373224669429574 0 -0.39070796240371652 -0.44565500202714498 0 -0.36735324222862981 -0.45442845011941468 0 -0.36551663301697418 -0.4373224669429574 0 -0.37719128285578268 -0.42468560242003139 0 -0.36551663301697418 -0.4373224669429574 0 -0.35520889663380212 -0.42354791197792752 0 -0.37719128285578268 -0.42468560242003139 0 -0.35520889663380212 -0.42354791197792752 0 -0.3597746372485367 -0.40476964528248027 0 -0.37686886400322728 -0.40435096115169189 0 -0.37719128285578268 -0.42468560242003139 0 -0.3597746372485367 -0.40476964528248027 0 -0.35520889663380212 -0.42354791197792752 0 -0.3597746372485367 -0.40476964528248027 0 -0.34087972196605693 -0.40683880078386209 0 -0.35010082805862541 -0.44329224462255101 0 -0.36551663301697418 -0.4373224669429574 0 -0.35520889663380212 -0.42354791197792752 0 -0.36873860885424259 -0.37355125743602657 0 -0.3520725259715099 -0.36981438072479289 0 -0.35910846118020812 -0.38439753558803352 0 -0.38164725830613899 -0.37914075032936601 0 -0.36873860885424259 -0.37355125743602657 0 -0.37184907483835877 -0.38939705677335812 0 -0.36873860885424259 -0.37355125743602657 0 -0.37184907483835877 -0.38939705677335812 0 -0.35910846118020812 -0.38439753558803352 0 -0.37184907483835877 -0.38939705677335812 0 -0.3597746372485367 -0.40476964528248027 0 -0.35910846118020812 -0.38439753558803352 0 -0.37686886400322728 -0.40435096115169189 0 -0.37184907483835877 -0.38939705677335812 0 -0.3597746372485367 -0.40476964528248027 0 -0.3597746372485367 -0.40476964528248027 0 -0.34537459840499279 -0.3889077280384502 0 -0.34087972196605693 -0.40683880078386209 0 -0.3597746372485367 -0.40476964528248027 0 -0.35910846118020812 -0.38439753558803352 0 -0.34537459840499279 -0.3889077280384502 0 -0.3520725259715099 -0.36981438072479289 0 -0.33573697335346131 -0.37372402889696937 0 -0.34537459840499279 -0.3889077280384502 0 -0.3520725259715099 -0.36981438072479289 0 -0.35910846118020812 -0.38439753558803352 0 -0.34537459840499279 -0.3889077280384502 0 -0.33573697335346131 -0.37372402889696937 0 -0.34537459840499279 -0.3889077280384502 0 -0.32611059933407721 -0.39550521941270278 0 -0.34537459840499279 -0.3889077280384502 0 -0.32611059933407721 -0.39550521941270278 0 -0.34087972196605693 -0.40683880078386209 0 -0.32611059933407721 -0.39550521941270278 0 -0.34087972196605693 -0.40683880078386209 0 -0.32078409058263357 -0.40990653920623332 0 -0.32611059933407721 -0.39550521941270278 0 -0.32078409058263357 -0.40990653920623332 0 -0.30651815218769352 -0.39846161845944111 0 -0.32611059933407721 -0.39550521941270278 0 -0.30593816313132471 -0.37893637713733658 0 -0.30651815218769352 -0.39846161845944111 0 -0.33573697335346131 -0.37372402889696937 0 -0.32144903772325051 -0.37367451513015382 0 -0.32611059933407721 -0.39550521941270278 0 -0.32611059933407721 -0.39550521941270278 0 -0.30593816313132471 -0.37893637713733658 0 -0.32144903772325051 -0.37367451513015382 0 -0.32611059933407721 -0.39550521941270278 0 -0.30593816313132471 -0.37893637713733658 0 -0.35010082805862541 -0.44329224462255101 0 -0.35520889663380212 -0.42354791197792752 0 -0.32503386408226531 -0.43191887561224362 0 -0.34087972196605693 -0.40683880078386209 0 -0.32078409058263357 -0.40990653920623332 0 -0.32503386408226531 -0.43191887561224362 0 -0.35520889663380212 -0.42354791197792752 0 -0.34087972196605693 -0.40683880078386209 0 -0.32503386408226531 -0.43191887561224362 0 -0.34087972196605693 -0.40683880078386209 0 -0.32503386408226531 -0.43191887561224362 0 -0.32078409058263357 -0.40990653920623332 0 -0.32503386408226531 -0.43191887561224362 0 -0.30480962973460402 -0.41716736904422669 0 -0.29996151270961041 -0.43733595118856722 0 -0.30480962973460402 -0.41716736904422669 0 -0.28718405522327722 -0.42529310679457338 0 -0.32503386408226531 -0.43191887561224362 0 -0.29996151270961041 -0.43733595118856722 0 -0.30480962973460402 -0.41716736904422669 0 -0.30480962973460402 -0.41716736904422669 0 -0.28560446903265241 -0.40905053005628922 0 -0.30651815218769352 -0.39846161845944111 0 -0.32078409058263357 -0.40990653920623332 0 -0.30480962973460402 -0.41716736904422669 0 -0.30651815218769352 -0.39846161845944111 0 -0.30480962973460402 -0.41716736904422669 0 -0.28560446903265241 -0.40905053005628922 0 -0.28718405522327722 -0.42529310679457338 0 -0.28560446903265241 -0.40905053005628922 0 -0.28718405522327722 -0.42529310679457338 0 -0.2718589079866926 -0.41704375382455222 0 -0.30480962973460402 -0.41716736904422669 0 -0.28560446903265241 -0.40905053005628922 0 -0.28718405522327722 -0.42529310679457338 0 -0.27449239233201839 -0.4308914694751062 0 -0.28475185204868891 -0.4379317350748797 0 -0.29996151270961041 -0.43733595118856722 0 -0.28718405522327722 -0.42529310679457338 0 -0.28475185204868891 -0.4379317350748797 0 -0.30593816313132471 -0.37893637713733658 0 -0.30651815218769352 -0.39846161845944111 0 -0.28616950908068067 -0.38632767537126772 0 -0.28560446903265241 -0.40905053005628922 0 -0.30651815218769352 -0.39846161845944111 0 -0.28616950908068067 -0.38632767537126772 0 -0.28576572692857588 -0.36236753486196599 0 -0.30593816313132471 -0.37893637713733658 0 -0.28616950908068067 -0.38632767537126772 0 -0.28616950908068067 -0.38632767537126772 0 -0.26647993727866232 -0.37759219347118911 0 -0.26639930833070091 -0.40093369106835169 0 -0.28576572692857588 -0.36236753486196599 0 -0.28616950908068067 -0.38632767537126772 0 -0.26647993727866232 -0.37759219347118911 0 -0.28560446903265241 -0.40905053005628922 0 -0.28616950908068067 -0.38632767537126772 0 -0.26639930833070091 -0.40093369106835169 0 -0.28560446903265241 -0.40905053005628922 0 -0.26639930833070091 -0.40093369106835169 0 -0.26639930833070091 -0.40093369106835169 0 -0.25804030914834558 -0.41248339377456977 0 -0.24719414762874969 -0.39281685208041339 0 -0.26639930833070091 -0.40093369106835169 0 -0.24719414762874969 -0.39281685208041339 0 -0.26647993727866232 -0.37759219347118911 0 -0.26639930833070091 -0.40093369106835169 0 -0.24719414762874969 -0.39281685208041339 0 -0.26647993727866232 -0.37759219347118911 0 -0.24719414762874969 -0.39281685208041339 0 -0.24016629735153239 -0.37772335159208148 0 -0.26647993727866232 -0.37759219347118911 0 -0.24719414762874969 -0.39281685208041339 0 -0.27449239233201839 -0.4308914694751062 0 -0.25803428708296988 -0.42674061873833252 0 -0.27168486458620161 -0.44509244846389079 0 -0.27449239233201839 -0.4308914694751062 0 -0.2718589079866926 -0.41704375382455222 0 -0.25803428708296988 -0.42674061873833252 0 -0.28718405522327722 -0.42529310679457338 0 -0.27449239233201839 -0.4308914694751062 0 -0.2718589079866926 -0.41704375382455222 0 -0.28560446903265241 -0.40905053005628922 0 -0.26639930833070091 -0.40093369106835169 0 -0.2718589079866926 -0.41704375382455222 0 -0.26639930833070091 -0.40093369106835169 0 -0.2718589079866926 -0.41704375382455222 0 -0.25804030914834558 -0.41248339377456977 0 -0.25804030914834558 -0.41248339377456977 0 -0.25803428708296988 -0.42674061873833252 0 -0.24438370957973701 -0.40838878901277531 0 -0.25803428708296988 -0.42674061873833252 0 -0.24438370957973701 -0.40838878901277531 0 -0.2718589079866926 -0.41704375382455222 0 -0.25804030914834558 -0.41248339377456977 0 -0.25803428708296988 -0.42674061873833252 0 -0.25803428708296988 -0.42674061873833252 0 -0.27168486458620161 -0.44509244846389079 0 -0.25803428708296988 -0.42674061873833252 0 -0.25622023076634082 -0.43981542342792679 0 -0.26370079802950658 -0.44255766603893087 0 -0.25803428708296988 -0.42674061873833252 0 -0.25622023076634082 -0.43981542342792679 0 -0.2479662229572703 -0.43737564425290482 0 -0.25622023076634082 -0.43981542342792679 0 -0.25180377249224001 -0.44672214052479509 0 -0.2479662229572703 -0.43737564425290482 0 -0.25622023076634082 -0.43981542342792679 0 -0.25180377249224001 -0.44672214052479509 0 -0.25972817340954057 -0.44520480822843161 0 -0.25803428708296988 -0.42674061873833252 0 -0.26370079802950658 -0.44255766603893087 0 -0.27168486458620161 -0.44509244846389079 0 -0.25180377249224001 -0.44672214052479509 0 -0.25972817340954057 -0.44520480822843161 0 -0.25322613599723981 -0.45529029647641128 0 -0.26370079802950658 -0.44255766603893087 0 -0.25972817340954057 -0.44520480822843161 0 -0.27168486458620161 -0.44509244846389079 0 -0.25622023076634082 -0.43981542342792679 0 -0.26370079802950658 -0.44255766603893087 0 -0.25972817340954057 -0.44520480822843161 0 -0.25972817340954057 -0.44520480822843161 0 -0.25981646110861539 -0.46243820130272112 0 -0.27364392455589642 -0.46821802890611658 0 -0.25972817340954057 -0.44520480822843161 0 -0.25322613599723981 -0.45529029647641128 0 -0.25981646110861539 -0.46243820130272112 0 -0.25193292848121102 -0.46724962897527389 0 -0.25322613599723981 -0.45529029647641128 0 -0.25981646110861539 -0.46243820130272112 0 -0.27222871760048573 -0.45499329186968401 0 -0.27168486458620161 -0.44509244846389079 0 -0.2838579078503049 -0.46145788188029518 0 -0.27168486458620161 -0.44509244846389079 0 -0.2838579078503049 -0.46145788188029518 0 -0.25972817340954057 -0.44520480822843161 0 -0.27364392455589642 -0.46821802890611658 0 -0.25972817340954057 -0.44520480822843161 0 -0.27222871760048573 -0.45499329186968401 0 -0.27364392455589642 -0.46821802890611658 0 -0.27222871760048573 -0.45499329186968401 0 -0.27364392455589642 -0.46821802890611658 0 -0.2838579078503049 -0.46145788188029518 0 -0.27364392455589642 -0.46821802890611658 0 -0.2838579078503049 -0.46145788188029518 0 -0.28527311480571421 -0.4746826189167288 0 -0.27168486458620161 -0.44509244846389079 0 -0.29043643539233738 -0.4510456994522587 0 -0.26370079802950658 -0.44255766603893087 0 -0.27168486458620161 -0.44509244846389079 0 -0.25972817340954057 -0.44520480822843161 0 -0.27222871760048573 -0.45499329186968401 0 -0.27168486458620161 -0.44509244846389079 0 -0.27449239233201839 -0.4308914694751062 0 -0.27168486458620161 -0.44509244846389079 0 -0.28475185204868891 -0.4379317350748797 0 -0.27168486458620161 -0.44509244846389079 0 -0.28475185204868891 -0.4379317350748797 0 -0.29043643539233738 -0.4510456994522587 0 -0.27168486458620161 -0.44509244846389079 0 -0.29043643539233738 -0.4510456994522587 0 -0.2838579078503049 -0.46145788188029518 0 -0.29996151270961041 -0.43733595118856722 0 -0.28475185204868891 -0.4379317350748797 0 -0.29043643539233738 -0.4510456994522587 0 -0.2838579078503049 -0.46145788188029518 0 -0.30918800619847359 -0.45699895044062511 0 -0.29603095111440458 -0.4778233152967023 0 -0.29043643539233738 -0.4510456994522587 0 -0.2838579078503049 -0.46145788188029518 0 -0.30918800619847359 -0.45699895044062511 0 -0.29043643539233738 -0.4510456994522587 0 -0.30918800619847359 -0.45699895044062511 0 -0.30918800619847359 -0.45699895044062511 0 -0.29603095111440458 -0.4778233152967023 0 -0.29996151270961041 -0.43733595118856722 0 -0.29043643539233738 -0.4510456994522587 0 -0.30918800619847359 -0.45699895044062511 0 -0.32503386408226531 -0.43191887561224362 0 -0.29996151270961041 -0.43733595118856722 0 -0.30918800619847359 -0.45699895044062511 0 -0.31252655715665201 -0.50000000000000022 0 -0.29603095111440458 -0.4778233152967023 0 -0.29286200823385888 -0.50000000000000067 0 -0.31252655715665201 -0.50000000000000022 0 -0.29603095111440458 -0.4778233152967023 0 -0.31252655715665201 -0.50000000000000022 0 -0.31186733739172617 -0.48308416012834521 0 -0.29603095111440458 -0.4778233152967023 0 -0.31346348317331718 -0.47291278894192312 0 -0.30918800619847359 -0.45699895044062511 0 -0.29603095111440458 -0.4778233152967023 0 -0.31346348317331718 -0.47291278894192312 0 -0.31186733739172617 -0.48308416012834521 0 -0.29603095111440458 -0.4778233152967023 0 -0.2838579078503049 -0.46145788188029518 0 -0.29603095111440458 -0.4778233152967023 0 -0.2838579078503049 -0.46145788188029518 0 -0.29603095111440458 -0.4778233152967023 0 -0.28527311480571421 -0.4746826189167288 0 -0.27364392455589642 -0.46821802890611658 0 -0.28527311480571421 -0.4746826189167288 0 -0.28755967570225199 -0.49123124958380182 0 -0.29603095111440458 -0.4778233152967023 0 -0.28527311480571421 -0.4746826189167288 0 -0.28755967570225199 -0.49123124958380182 0 -0.29603095111440458 -0.4778233152967023 0 -0.28755967570225199 -0.49123124958380182 0 -0.29286200823385888 -0.50000000000000067 0 -0.29603095111440458 -0.4778233152967023 0 -0.28755967570225199 -0.49123124958380182 0 -0.28755967570225199 -0.49123124958380182 0 -0.29286200823385888 -0.50000000000000067 0 -0.28755967570225199 -0.49123124958380182 0 -0.29286200823385888 -0.50000000000000067 0 -0.28201948597537502 -0.49999999999999939 0 -0.28755967570225199 -0.49123124958380182 0 -0.28201948597537502 -0.49999999999999939 0 -0.28201948597537502 -0.49999999999999939 0 -0.27147210097495028 -0.48713550448345821 0 -0.25358627554203861 -0.5 0 -0.28755967570225199 -0.49123124958380182 0 -0.28201948597537502 -0.49999999999999939 0 -0.27147210097495028 -0.48713550448345821 0 -0.27364392455589642 -0.46821802890611658 0 -0.28755967570225199 -0.49123124958380182 0 -0.27147210097495028 -0.48713550448345821 0 -0.27364392455589642 -0.46821802890611658 0 -0.27147210097495028 -0.48713550448345821 0 -0.25951297142272528 -0.47696437161678518 0 -0.27364392455589642 -0.46821802890611658 0 -0.28755967570225199 -0.49123124958380182 0 -0.25193292848121102 -0.46724962897527389 0 -0.25951297142272528 -0.47696437161678518 0 -0.24064626901720709 -0.48098496152415737 0 -0.25981646110861539 -0.46243820130272112 0 -0.27364392455589642 -0.46821802890611658 0 -0.25951297142272528 -0.47696437161678518 0 -0.25193292848121102 -0.46724962897527389 0 -0.25981646110861539 -0.46243820130272112 0 -0.25951297142272528 -0.47696437161678518 0 -0.27147210097495028 -0.48713550448345821 0 -0.25951297142272528 -0.47696437161678518 0 -0.25358627554203861 -0.5 0 -0.25951297142272528 -0.47696437161678518 0 -0.25358627554203861 -0.5 0 -0.24064626901720709 -0.48098496152415737 0 -0.25358627554203861 -0.5 0 -0.24064626901720709 -0.48098496152415737 0 -0.22515306510870231 -0.5 0 -0.25193292848121102 -0.46724962897527389 0 -0.24064626901720709 -0.48098496152415737 0 -0.2410935058891035 -0.46197658476934039 0 -0.24064626901720709 -0.48098496152415737 0 -0.2410935058891035 -0.46197658476934039 0 -0.22926949431751381 -0.4657194313555012 0 -0.24064626901720709 -0.48098496152415737 0 -0.22575733347110341 -0.47922278130515478 0 -0.22926949431751381 -0.4657194313555012 0 -0.21906832995508221 -0.47079809881675633 0 -0.22575733347110341 -0.47922278130515478 0 -0.22926949431751381 -0.4657194313555012 0 -0.24064626901720709 -0.48098496152415737 0 -0.22575733347110341 -0.47922278130515478 0 -0.22515306510870231 -0.5 0 -0.22575733347110341 -0.47922278130515478 0 -0.22515306510870231 -0.5 0 -0.20995029040217439 -0.47922293004071348 0 -0.25180377249224001 -0.44672214052479509 0 -0.24375497811741961 -0.44915812146485451 0 -0.2479662229572703 -0.43737564425290482 0 -0.23495887894972561 -0.43755610327874878 0 -0.24375497811741961 -0.44915812146485451 0 -0.2479662229572703 -0.43737564425290482 0 -0.25180377249224001 -0.44672214052479509 0 -0.25322613599723981 -0.45529029647641128 0 -0.24375497811741961 -0.44915812146485451 0 -0.23495887894972561 -0.43755610327874878 0 -0.24375497811741961 -0.44915812146485451 0 -0.23055544367404801 -0.45200882068247339 0 -0.24375497811741961 -0.44915812146485451 0 -0.2410935058891035 -0.46197658476934039 0 -0.23055544367404801 -0.45200882068247339 0 -0.25322613599723981 -0.45529029647641128 0 -0.24375497811741961 -0.44915812146485451 0 -0.2410935058891035 -0.46197658476934039 0 -0.25193292848121102 -0.46724962897527389 0 -0.25322613599723981 -0.45529029647641128 0 -0.2410935058891035 -0.46197658476934039 0 -0.21906832995508221 -0.47079809881675633 0 -0.22926949431751381 -0.4657194313555012 0 -0.21129620162953741 -0.45902725256565552 0 -0.22926949431751381 -0.4657194313555012 0 -0.23055544367404801 -0.45200882068247339 0 -0.21129620162953741 -0.45902725256565552 0 -0.2410935058891035 -0.46197658476934039 0 -0.22926949431751381 -0.4657194313555012 0 -0.23055544367404801 -0.45200882068247339 0 -0.23495887894972561 -0.43755610327874878 0 -0.21917944197989431 -0.44494986685205729 0 -0.22105824904101359 -0.43264269058830362 0 -0.21917944197989431 -0.44494986685205729 0 -0.23055544367404801 -0.45200882068247339 0 -0.21129620162953741 -0.45902725256565552 0 -0.23495887894972561 -0.43755610327874878 0 -0.21917944197989431 -0.44494986685205729 0 -0.23055544367404801 -0.45200882068247339 0 -0.21917944197989431 -0.44494986685205729 0 -0.20352444906826789 -0.44104609125811628 0 -0.22105824904101359 -0.43264269058830362 0 -0.21917944197989431 -0.44494986685205729 0 -0.20352444906826789 -0.44104609125811628 0 -0.21129620162953741 -0.45902725256565552 0 -0.21129620162953741 -0.45902725256565552 0 -0.192269507931567 -0.46368635406325581 0 -0.20995029040217439 -0.47922293004071348 0 -0.20352444906826789 -0.44104609125811628 0 -0.21129620162953741 -0.45902725256565552 0 -0.192269507931567 -0.46368635406325581 0 -0.192269507931567 -0.46368635406325581 0 -0.18978967878864481 -0.45127587055463309 0 -0.18207765255776789 -0.46135975608669788 0 -0.20352444906826789 -0.44104609125811628 0 -0.192269507931567 -0.46368635406325581 0 -0.20352444906826789 -0.44104609125811628 0 -0.192269507931567 -0.46368635406325581 0 -0.18978967878864481 -0.45127587055463309 0 -0.20352444906826789 -0.44104609125811628 0 -0.18978967878864481 -0.45127587055463309 0 -0.19175626266214929 -0.4365808300120988 0 -0.22515306510870231 -0.5 0 -0.20995029040217439 -0.47922293004071348 0 -0.19671985467536579 -0.5 0 -0.21906832995508221 -0.47079809881675633 0 -0.22575733347110341 -0.47922278130515478 0 -0.20995029040217439 -0.47922293004071348 0 -0.21906832995508221 -0.47079809881675633 0 -0.21129620162953741 -0.45902725256565552 0 -0.20995029040217439 -0.47922293004071348 0 -0.192269507931567 -0.46368635406325581 0 -0.20995029040217439 -0.47922293004071348 0 -0.19500038360649311 -0.47916159160473848 0 -0.192269507931567 -0.46368635406325581 0 -0.19500038360649311 -0.47916159160473848 0 -0.18101456679486611 -0.48632661686839529 0 -0.19500038360649311 -0.47916159160473848 0 -0.19671985467536579 -0.5 0 -0.18101456679486611 -0.48632661686839529 0 -0.20995029040217439 -0.47922293004071348 0 -0.19500038360649311 -0.47916159160473848 0 -0.19671985467536579 -0.5 0 -0.19671985467536579 -0.5 0 -0.18101456679486611 -0.48632661686839529 0 -0.16828664424202941 -0.5 0 -0.18101456679486611 -0.48632661686839529 0 -0.16828664424202941 -0.5 0 -0.16662154710244459 -0.48455991172827212 0 -0.16828664424202941 -0.5 0 -0.16662154710244459 -0.48455991172827212 0 -0.1540405815893027 -0.48837249712221709 0 -0.15659121409381871 -0.47770290453257469 0 -0.16529203058772901 -0.47389898013390419 0 -0.15919769226278821 -0.4665288062361182 0 -0.16529203058772901 -0.47389898013390419 0 -0.16534027048966221 -0.46717068600780709 0 -0.15919769226278821 -0.4665288062361182 0 -0.16662154710244459 -0.48455991172827212 0 -0.15659121409381871 -0.47770290453257469 0 -0.1540405815893027 -0.48837249712221709 0 -0.16662154710244459 -0.48455991172827212 0 -0.15659121409381871 -0.47770290453257469 0 -0.16529203058772901 -0.47389898013390419 0 -0.16662154710244459 -0.48455991172827212 0 -0.16529203058772901 -0.47389898013390419 0 -0.17271611076248569 -0.47695766147040991 0 -0.16529203058772901 -0.47389898013390419 0 -0.17112107789524189 -0.46934606036897197 0 -0.17271611076248569 -0.47695766147040991 0 -0.16529203058772901 -0.47389898013390419 0 -0.17112107789524189 -0.46934606036897197 0 -0.16534027048966221 -0.46717068600780709 0 -0.192269507931567 -0.46368635406325581 0 -0.18101456679486611 -0.48632661686839529 0 -0.1795313314321472 -0.47065673825250581 0 -0.18101456679486611 -0.48632661686839529 0 -0.1795313314321472 -0.47065673825250581 0 -0.17271611076248569 -0.47695766147040991 0 -0.192269507931567 -0.46368635406325581 0 -0.18101456679486611 -0.48632661686839529 0 -0.17112107789524189 -0.46934606036897197 0 -0.1795313314321472 -0.47065673825250581 0 -0.17271611076248569 -0.47695766147040991 0 -0.18101456679486611 -0.48632661686839529 0 -0.16662154710244459 -0.48455991172827212 0 -0.17271611076248569 -0.47695766147040991 0 -0.192269507931567 -0.46368635406325581 0 -0.1795313314321472 -0.47065673825250581 0 -0.18207765255776789 -0.46135975608669788 0 -0.18978967878864481 -0.45127587055463309 0 -0.18207765255776789 -0.46135975608669788 0 -0.17905596642033841 -0.45320843266902489 0 -0.17905596642033841 -0.45320843266902489 0 -0.171758326327973 -0.45705580254739592 0 -0.16873313511932711 -0.45475583157121741 0 -0.18207765255776789 -0.46135975608669788 0 -0.17905596642033841 -0.45320843266902489 0 -0.17370624177575911 -0.45853674992723398 0 -0.17905596642033841 -0.45320843266902489 0 -0.17370624177575911 -0.45853674992723398 0 -0.171758326327973 -0.45705580254739592 0 -0.17370624177575911 -0.45853674992723398 0 -0.17428340621424171 -0.4637285191180836 0 -0.17136409109520759 -0.46041706662587872 0 -0.17370624177575911 -0.45853674992723398 0 -0.17136409109520759 -0.46041706662587872 0 -0.171758326327973 -0.45705580254739592 0 -0.17370624177575911 -0.45853674992723398 0 -0.171758326327973 -0.45705580254739592 0 -0.1795313314321472 -0.47065673825250581 0 -0.18207765255776789 -0.46135975608669788 0 -0.17428340621424171 -0.4637285191180836 0 -0.17112107789524189 -0.46934606036897197 0 -0.1795313314321472 -0.47065673825250581 0 -0.17428340621424171 -0.4637285191180836 0 -0.18207765255776789 -0.46135975608669788 0 -0.17370624177575911 -0.45853674992723398 0 -0.17428340621424171 -0.4637285191180836 0 -0.18978967878864481 -0.45127587055463309 0 -0.17905596642033841 -0.45320843266902489 0 -0.19175626266214929 -0.4365808300120988 0 -0.16873313511932711 -0.45475583157121741 0 -0.19175626266214929 -0.4365808300120988 0 -0.17905596642033841 -0.45320843266902489 0 -0.16873313511932711 -0.45475583157121741 0 -0.19175626266214929 -0.4365808300120988 0 -0.16873313511932711 -0.45475583157121741 0 -0.17140276084947059 -0.43142498197081458 0 -0.19175626266214929 -0.4365808300120988 0 -0.16873313511932711 -0.45475583157121741 0 -0.16652760982731379 -0.45649692541463899 0 -0.15186768571397699 -0.44193348697969032 0 -0.16873313511932711 -0.45475583157121741 0 -0.15186768571397699 -0.44193348697969032 0 -0.16873313511932711 -0.45475583157121741 0 -0.15186768571397699 -0.44193348697969032 0 -0.17140276084947059 -0.43142498197081458 0 -0.16652760982731379 -0.45649692541463899 0 -0.15919769226278821 -0.4665288062361182 0 -0.14815848100999451 -0.47099795027642499 0 -0.16652760982731379 -0.45649692541463899 0 -0.14815848100999451 -0.47099795027642499 0 -0.1653648786115311 -0.46142740043650737 0 -0.16842926959799001 -0.46345610483140792 0 -0.16864321156007361 -0.45930815670527247 0 -0.16452120352593699 -0.46427922266875338 0 -0.1653648786115311 -0.46142740043650737 0 -0.16842926959799001 -0.46345610483140792 0 -0.16452120352593699 -0.46427922266875338 0 -0.16534027048966221 -0.46717068600780709 0 -0.16842926959799001 -0.46345610483140792 0 -0.17112107789524189 -0.46934606036897197 0 -0.17428340621424171 -0.4637285191180836 0 -0.16842926959799001 -0.46345610483140792 0 -0.17112107789524189 -0.46934606036897197 0 -0.16534027048966221 -0.46717068600780709 0 -0.16842926959799001 -0.46345610483140792 0 -0.16842926959799001 -0.46345610483140792 0 -0.17136409109520759 -0.46041706662587872 0 -0.16864321156007361 -0.45930815670527247 0 -0.17428340621424171 -0.4637285191180836 0 -0.16842926959799001 -0.46345610483140792 0 -0.17136409109520759 -0.46041706662587872 0 -0.171758326327973 -0.45705580254739592 0 -0.16864321156007361 -0.45930815670527247 0 -0.16652760982731379 -0.45649692541463899 0 -0.17136409109520759 -0.46041706662587872 0 -0.171758326327973 -0.45705580254739592 0 -0.16864321156007361 -0.45930815670527247 0 -0.171758326327973 -0.45705580254739592 0 -0.16873313511932711 -0.45475583157121741 0 -0.16652760982731379 -0.45649692541463899 0 -0.171758326327973 -0.45705580254739592 0 -0.16652760982731379 -0.45649692541463899 0 -0.171758326327973 -0.45705580254739592 0 -0.16873313511932711 -0.45475583157121741 0 -0.16873313511932711 -0.45475583157121741 0 -0.16652760982731379 -0.45649692541463899 0 -0.1653648786115311 -0.46142740043650737 0 -0.16864321156007361 -0.45930815670527247 0 -0.16652760982731379 -0.45649692541463899 0 -0.1653648786115311 -0.46142740043650737 0 -0.16652760982731379 -0.45649692541463899 0 -0.15919769226278821 -0.4665288062361182 0 -0.16452120352593699 -0.46427922266875338 0 -0.1653648786115311 -0.46142740043650737 0 -0.15919769226278821 -0.4665288062361182 0 -0.16452120352593699 -0.46427922266875338 0 -0.16534027048966221 -0.46717068600780709 0 -0.15919769226278821 -0.4665288062361182 0 -0.16652760982731379 -0.45649692541463899 0 -0.15080733863324911 -0.46107198963936102 0 -0.14215199802992609 -0.45389250744840809 0 -0.16652760982731379 -0.45649692541463899 0 -0.15080733863324911 -0.46107198963936102 0 -0.14815848100999451 -0.47099795027642499 0 -0.16652760982731379 -0.45649692541463899 0 -0.14215199802992609 -0.45389250744840809 0 -0.15080733863324911 -0.46107198963936102 0 -0.14215199802992609 -0.45389250744840809 0 -0.14548233158636881 -0.46319413696830158 0 -0.14215199802992609 -0.45389250744840809 0 -0.14548233158636881 -0.46319413696830158 0 -0.13935721414527691 -0.46728379898954092 0 -0.15080733863324911 -0.46107198963936102 0 -0.14548233158636881 -0.46319413696830158 0 -0.14815848100999451 -0.47099795027642499 0 -0.14548233158636881 -0.46319413696830158 0 -0.13935721414527691 -0.46728379898954092 0 -0.14815848100999451 -0.47099795027642499 0 -0.14215199802992609 -0.45389250744840809 0 -0.15186768571397699 -0.44193348697969032 0 -0.13305433470143349 -0.44205523321931012 0 -0.16652760982731379 -0.45649692541463899 0 -0.14215199802992609 -0.45389250744840809 0 -0.15186768571397699 -0.44193348697969032 0 -0.14215199802992609 -0.45389250744840809 0 -0.13305433470143349 -0.44205523321931012 0 -0.1177763862325383 -0.45128808948217841 0 -0.15186768571397699 -0.44193348697969032 0 -0.13305433470143349 -0.44205523321931012 0 -0.13500223630862621 -0.42911114238816411 0 -0.14215199802992609 -0.45389250744840809 0 -0.1177763862325383 -0.45128808948217841 0 -0.13935721414527691 -0.46728379898954092 0 -0.12746237983447389 -0.45829161939780888 0 -0.11056392093015451 -0.46070208167110838 0 -0.14215199802992609 -0.45389250744840809 0 -0.12746237983447389 -0.45829161939780888 0 -0.1177763862325383 -0.45128808948217841 0 -0.14215199802992609 -0.45389250744840809 0 -0.13935721414527691 -0.46728379898954092 0 -0.12746237983447389 -0.45829161939780888 0 -0.1351914457104908 -0.47358375949063403 0 -0.12978935219267479 -0.4854989751382105 0 -0.14815848100999451 -0.47099795027642499 0 -0.1351914457104908 -0.47358375949063403 0 -0.12978935219267479 -0.4854989751382105 0 -0.1234607354940172 -0.47055431355835919 0 -0.13935721414527691 -0.46728379898954092 0 -0.1351914457104908 -0.47358375949063403 0 -0.1234607354940172 -0.47055431355835919 0 -0.12978935219267479 -0.4854989751382105 0 -0.14815848100999451 -0.47099795027642499 0 -0.12978935219267479 -0.4854989751382105 0 -0.14297209773022451 -0.48863415573183311 0 -0.1462369520106532 -0.48185928169851189 0 -0.12978935219267479 -0.4854989751382105 0 -0.139853433808693 -0.5 0 -0.11142022337535649 -0.49999999999999739 0 -0.12978935219267479 -0.4854989751382105 0 -0.139853433808693 -0.5 0 -0.14297209773022451 -0.48863415573183311 0 -0.16828664424202941 -0.5 0 -0.139853433808693 -0.5 0 -0.1540405815893027 -0.48837249712221709 0 -0.14297209773022451 -0.48863415573183311 0 -0.1540405815893027 -0.48837249712221709 0 -0.1462369520106532 -0.48185928169851189 0 -0.139853433808693 -0.5 0 -0.14297209773022451 -0.48863415573183311 0 -0.1540405815893027 -0.48837249712221709 0 -0.15659121409381871 -0.47770290453257469 0 -0.14815848100999451 -0.47099795027642499 0 -0.1462369520106532 -0.48185928169851189 0 -0.12978935219267479 -0.4854989751382105 0 -0.14815848100999451 -0.47099795027642499 0 -0.1462369520106532 -0.48185928169851189 0 -0.15659121409381871 -0.47770290453257469 0 -0.1540405815893027 -0.48837249712221709 0 -0.1462369520106532 -0.48185928169851189 0 -0.15659121409381871 -0.47770290453257469 0 -0.15919769226278821 -0.4665288062361182 0 -0.14815848100999451 -0.47099795027642499 0 -0.13935721414527691 -0.46728379898954092 0 -0.1351914457104908 -0.47358375949063403 0 -0.14815848100999451 -0.47099795027642499 0 -0.1381102710773959 -0.39448425427776462 0 -0.14477604572190911 -0.41183397654271597 0 -0.15807891256747481 -0.39385858898986259 0 -0.1381102710773959 -0.39448425427776462 0 -0.15807891256747481 -0.39385858898986259 0 -0.15808375525151711 -0.37267971075889 0 -0.1381102710773959 -0.39448425427776462 0 -0.15808375525151711 -0.37267971075889 0 -0.1381102710773959 -0.39448425427776462 0 -0.15808375525151711 -0.37267971075889 0 -0.13363954654254681 -0.37329861950086068 0 -0.1381102710773959 -0.39448425427776462 0 -0.13363954654254681 -0.37329861950086068 0 -0.1201769342067032 -0.39271001729944099 0 -0.1381102710773959 -0.39448425427776462 0 -0.1181367869032745 -0.41628879779663908 0 -0.1381102710773959 -0.39448425427776462 0 -0.1181367869032745 -0.41628879779663908 0 -0.1201769342067032 -0.39271001729944099 0 -0.13500223630862621 -0.42911114238816411 0 -0.14477604572190911 -0.41183397654271597 0 -0.1181367869032745 -0.41628879779663908 0 -0.1381102710773959 -0.39448425427776462 0 -0.14477604572190911 -0.41183397654271597 0 -0.1181367869032745 -0.41628879779663908 0 -0.13305433470143349 -0.44205523321931012 0 -0.13500223630862621 -0.42911114238816411 0 -0.1184733672221002 -0.43405093979810938 0 -0.13500223630862621 -0.42911114238816411 0 -0.1181367869032745 -0.41628879779663908 0 -0.13500223630862621 -0.42911114238816411 0 -0.15280782798519921 -0.42529497180482723 0 -0.14477604572190911 -0.41183397654271597 0 -0.15186768571397699 -0.44193348697969032 0 -0.13500223630862621 -0.42911114238816411 0 -0.15280782798519921 -0.42529497180482723 0 -0.15186768571397699 -0.44193348697969032 0 -0.13500223630862621 -0.42911114238816411 0 -0.15280782798519921 -0.42529497180482723 0 -0.14477604572190911 -0.41183397654271597 0 -0.1665202394894833 -0.41196610399903988 0 -0.15186768571397699 -0.44193348697969032 0 -0.15280782798519921 -0.42529497180482723 0 -0.17140276084947059 -0.43142498197081458 0 -0.15280782798519921 -0.42529497180482723 0 -0.1665202394894833 -0.41196610399903988 0 -0.17140276084947059 -0.43142498197081458 0 -0.17140276084947059 -0.43142498197081458 0 -0.19175626266214929 -0.4365808300120988 0 -0.19418478303368 -0.4181993697275625 0 -0.1665202394894833 -0.41196610399903988 0 -0.17140276084947059 -0.43142498197081458 0 -0.19418478303368 -0.4181993697275625 0 -0.1665202394894833 -0.41196610399903988 0 -0.19635311125028779 -0.39704158935512429 0 -0.19418478303368 -0.4181993697275625 0 -0.1665202394894833 -0.41196610399903988 0 -0.17671128251580809 -0.38549867200884957 0 -0.19635311125028779 -0.39704158935512429 0 -0.1665202394894833 -0.41196610399903988 0 -0.15807891256747481 -0.39385858898986259 0 -0.17671128251580809 -0.38549867200884957 0 -0.14477604572190911 -0.41183397654271597 0 -0.1665202394894833 -0.41196610399903988 0 -0.15807891256747481 -0.39385858898986259 0 -0.15807891256747481 -0.39385858898986259 0 -0.17671128251580809 -0.38549867200884957 0 -0.15808375525151711 -0.37267971075889 0 -0.17671128251580809 -0.38549867200884957 0 -0.19532555828242271 -0.37558446749128682 0 -0.1826975000379778 -0.36640647878045091 0 -0.19532555828242271 -0.37558446749128682 0 -0.19635311125028779 -0.39704158935512429 0 -0.20476559050141019 -0.37962398736088138 0 -0.17671128251580809 -0.38549867200884957 0 -0.19532555828242271 -0.37558446749128682 0 -0.19635311125028779 -0.39704158935512429 0 -0.19635311125028779 -0.39704158935512429 0 -0.20760665995444871 -0.40537540885533319 0 -0.21354614669716329 -0.39269402868075781 0 -0.21489020334131589 -0.40049261778401868 0 -0.21923585439697529 -0.39507685788437757 0 -0.2215936706661368 -0.40469832891166918 0 -0.20760665995444871 -0.40537540885533319 0 -0.21489020334131589 -0.40049261778401868 0 -0.2215936706661368 -0.40469832891166918 0 -0.20760665995444871 -0.40537540885533319 0 -0.21489020334131589 -0.40049261778401868 0 -0.21354614669716329 -0.39269402868075781 0 -0.21489020334131589 -0.40049261778401868 0 -0.21354614669716329 -0.39269402868075781 0 -0.21923585439697529 -0.39507685788437757 0 -0.21354614669716329 -0.39269402868075781 0 -0.220793649871766 -0.38820430902100689 0 -0.21923585439697529 -0.39507685788437757 0 -0.19635311125028779 -0.39704158935512429 0 -0.21354614669716329 -0.39269402868075781 0 -0.21833432640860431 -0.37905807616118531 0 -0.19635311125028779 -0.39704158935512429 0 -0.21833432640860431 -0.37905807616118531 0 -0.19635311125028779 -0.39704158935512429 0 -0.21833432640860431 -0.37905807616118531 0 -0.20476559050141019 -0.37962398736088138 0 -0.21354614669716329 -0.39269402868075781 0 -0.21833432640860431 -0.37905807616118531 0 -0.220793649871766 -0.38820430902100689 0 -0.21833432640860431 -0.37905807616118531 0 -0.20476559050141019 -0.37962398736088138 0 -0.20904936606432631 -0.36681181643592908 0 -0.19175626266214929 -0.4365808300120988 0 -0.19418478303368 -0.4181993697275625 0 -0.214779390204969 -0.41840582845297708 0 -0.19635311125028779 -0.39704158935512429 0 -0.20760665995444871 -0.40537540885533319 0 -0.19418478303368 -0.4181993697275625 0 -0.20760665995444871 -0.40537540885533319 0 -0.19418478303368 -0.4181993697275625 0 -0.214779390204969 -0.41840582845297708 0 -0.214779390204969 -0.41840582845297708 0 -0.2215936706661368 -0.40469832891166918 0 -0.20760665995444871 -0.40537540885533319 0 -0.214779390204969 -0.41840582845297708 0 -0.2215936706661368 -0.40469832891166918 0 -0.20352444906826789 -0.44104609125811628 0 -0.19175626266214929 -0.4365808300120988 0 -0.214779390204969 -0.41840582845297708 0 -0.20352444906826789 -0.44104609125811628 0 -0.214779390204969 -0.41840582845297708 0 -0.22105824904101359 -0.43264269058830362 0 -0.20352444906826789 -0.44104609125811628 0 -0.214779390204969 -0.41840582845297708 0 -0.19175626266214929 -0.4365808300120988 0 -0.214779390204969 -0.41840582845297708 0 -0.214779390204969 -0.41840582845297708 0 -0.22105824904101359 -0.43264269058830362 0 -0.23284908500221091 -0.42125556309961848 0 -0.23495887894972561 -0.43755610327874878 0 -0.22105824904101359 -0.43264269058830362 0 -0.23284908500221091 -0.42125556309961848 0 -0.214779390204969 -0.41840582845297708 0 -0.23284908500221091 -0.42125556309961848 0 -0.23098676891685929 -0.40561134026669521 0 -0.214779390204969 -0.41840582845297708 0 -0.23098676891685929 -0.40561134026669521 0 -0.214779390204969 -0.41840582845297708 0 -0.2215936706661368 -0.40469832891166918 0 -0.23098676891685929 -0.40561134026669521 0 -0.23284908500221091 -0.42125556309961848 0 -0.24438370957973701 -0.40838878901277531 0 -0.23098676891685929 -0.40561134026669521 0 -0.23284908500221091 -0.42125556309961848 0 -0.24438370957973701 -0.40838878901277531 0 -0.24363843671438271 -0.426263343676476 0 -0.25803428708296988 -0.42674061873833252 0 -0.24438370957973701 -0.40838878901277531 0 -0.24363843671438271 -0.426263343676476 0 -0.23495887894972561 -0.43755610327874878 0 -0.23284908500221091 -0.42125556309961848 0 -0.24363843671438271 -0.426263343676476 0 -0.23495887894972561 -0.43755610327874878 0 -0.24363843671438271 -0.426263343676476 0 -0.2479662229572703 -0.43737564425290482 0 -0.25803428708296988 -0.42674061873833252 0 -0.24363843671438271 -0.426263343676476 0 -0.2479662229572703 -0.43737564425290482 0 -0.21833432640860431 -0.37905807616118531 0 -0.22444397072878211 -0.38320175300835257 0 -0.24016629735153239 -0.37772335159208148 0 -0.22444397072878211 -0.38320175300835257 0 -0.228407951127305 -0.39099082937036139 0 -0.24719414762874969 -0.39281685208041339 0 -0.21833432640860431 -0.37905807616118531 0 -0.22444397072878211 -0.38320175300835257 0 -0.220793649871766 -0.38820430902100689 0 -0.22444397072878211 -0.38320175300835257 0 -0.220793649871766 -0.38820430902100689 0 -0.228407951127305 -0.39099082937036139 0 -0.21923585439697529 -0.39507685788437757 0 -0.2215936706661368 -0.40469832891166918 0 -0.228407951127305 -0.39099082937036139 0 -0.2215936706661368 -0.40469832891166918 0 -0.228407951127305 -0.39099082937036139 0 -0.220793649871766 -0.38820430902100689 0 -0.21923585439697529 -0.39507685788437757 0 -0.228407951127305 -0.39099082937036139 0 -0.2215936706661368 -0.40469832891166918 0 -0.23098676891685929 -0.40561134026669521 0 -0.228407951127305 -0.39099082937036139 0 -0.23098676891685929 -0.40561134026669521 0 -0.24719414762874969 -0.39281685208041339 0 -0.25804030914834558 -0.41248339377456977 0 -0.24438370957973701 -0.40838878901277531 0 -0.24719414762874969 -0.39281685208041339 0 -0.24438370957973701 -0.40838878901277531 0 -0.23098676891685929 -0.40561134026669521 0 -0.24719414762874969 -0.39281685208041339 0 -0.23098676891685929 -0.40561134026669521 0 -0.228407951127305 -0.39099082937036139 0 -0.24719414762874969 -0.39281685208041339 0 -0.22444397072878211 -0.38320175300835257 0 -0.24719414762874969 -0.39281685208041339 0 -0.24016629735153239 -0.37772335159208148 0 -0.22444397072878211 -0.38320175300835257 0 -0.24719414762874969 -0.39281685208041339 0 -0.25800822730005701 -0.36027474419253258 0 -0.24016629735153239 -0.37772335159208148 0 -0.24031554156692081 -0.36107456296724638 0 -0.21833432640860431 -0.37905807616118531 0 -0.24031554156692081 -0.36107456296724638 0 -0.21833432640860431 -0.37905807616118531 0 -0.24016629735153239 -0.37772335159208148 0 -0.24031554156692081 -0.36107456296724638 0 -0.24031554156692081 -0.36107456296724638 0 -0.2216197989855585 -0.36488179242887292 0 -0.21877996190238261 -0.35258271415113079 0 -0.21833432640860431 -0.37905807616118531 0 -0.24031554156692081 -0.36107456296724638 0 -0.2216197989855585 -0.36488179242887292 0 -0.24031554156692081 -0.36107456296724638 0 -0.21877996190238261 -0.35258271415113079 0 -0.23626411321476129 -0.34318559711417262 0 -0.26229675672523772 -0.34309104977330751 0 -0.24031554156692081 -0.36107456296724638 0 -0.23626411321476129 -0.34318559711417262 0 -0.26229675672523772 -0.34309104977330751 0 -0.23626411321476129 -0.34318559711417262 0 -0.23924578887242809 -0.32415789530406269 0 -0.25641376959848522 -0.32632460665722052 0 -0.23924578887242809 -0.32415789530406269 0 -0.24157385016591629 -0.31148198461051441 0 -0.23924578887242809 -0.32415789530406269 0 -0.21864104972665499 -0.32111105356015468 0 -0.21619482101962101 -0.30522474083481521 0 -0.23924578887242809 -0.32415789530406269 0 -0.24157385016591629 -0.31148198461051441 0 -0.21619482101962101 -0.30522474083481521 0 -0.23924578887242809 -0.32415789530406269 0 -0.22068251700683841 -0.33502176337511452 0 -0.21864104972665499 -0.32111105356015468 0 -0.23924578887242809 -0.32415789530406269 0 -0.21619482101962101 -0.30522474083481521 0 -0.21877996190238261 -0.35258271415113079 0 -0.23626411321476129 -0.34318559711417262 0 -0.22068251700683841 -0.33502176337511452 0 -0.23626411321476129 -0.34318559711417262 0 -0.23924578887242809 -0.32415789530406269 0 -0.22068251700683841 -0.33502176337511452 0 -0.21877996190238261 -0.35258271415113079 0 -0.22068251700683841 -0.33502176337511452 0 -0.2056233501328549 -0.34106709278900921 0 -0.22068251700683841 -0.33502176337511452 0 -0.2056233501328549 -0.34106709278900921 0 -0.20853510220188559 -0.32671895266676559 0 -0.2056233501328549 -0.34106709278900921 0 -0.20853510220188559 -0.32671895266676559 0 -0.19762268866510699 -0.32975815921978141 0 -0.21864104972665499 -0.32111105356015468 0 -0.20854701953250121 -0.31443191562001738 0 -0.21619482101962101 -0.30522474083481521 0 -0.21864104972665499 -0.32111105356015468 0 -0.20853510220188559 -0.32671895266676559 0 -0.20854701953250121 -0.31443191562001738 0 -0.22068251700683841 -0.33502176337511452 0 -0.21864104972665499 -0.32111105356015468 0 -0.20853510220188559 -0.32671895266676559 0 -0.20853510220188559 -0.32671895266676559 0 -0.20854701953250121 -0.31443191562001738 0 -0.19806499088289861 -0.32167886297289883 0 -0.20854701953250121 -0.31443191562001738 0 -0.19806499088289861 -0.32167886297289883 0 -0.18870282160261201 -0.31208654307805223 0 -0.20854701953250121 -0.31443191562001738 0 -0.18870282160261201 -0.31208654307805223 0 -0.20853510220188559 -0.32671895266676559 0 -0.19806499088289861 -0.32167886297289883 0 -0.19762268866510699 -0.32975815921978141 0 -0.19806499088289861 -0.32167886297289883 0 -0.19762268866510699 -0.32975815921978141 0 -0.1869173224123874 -0.32539874427987792 0 -0.19806499088289861 -0.32167886297289883 0 -0.18870282160261201 -0.31208654307805223 0 -0.1869173224123874 -0.32539874427987792 0 -0.2056233501328549 -0.34106709278900921 0 -0.19762268866510699 -0.32975815921978141 0 -0.18748492798964431 -0.33892332475164338 0 -0.2056233501328549 -0.34106709278900921 0 -0.19304503591333391 -0.35121026957331219 0 -0.18748492798964431 -0.33892332475164338 0 -0.19762268866510699 -0.32975815921978141 0 -0.18748492798964431 -0.33892332475164338 0 -0.1869173224123874 -0.32539874427987792 0 -0.2056233501328549 -0.34106709278900921 0 -0.19304503591333391 -0.35121026957331219 0 -0.20489658048258669 -0.35414554212881311 0 -0.19304503591333391 -0.35121026957331219 0 -0.19709211545103009 -0.36248845150129722 0 -0.20489658048258669 -0.35414554212881311 0 -0.19304503591333391 -0.35121026957331219 0 -0.19709211545103009 -0.36248845150129722 0 -0.1826975000379778 -0.36640647878045091 0 -0.19532555828242271 -0.37558446749128682 0 -0.19709211545103009 -0.36248845150129722 0 -0.1826975000379778 -0.36640647878045091 0 -0.19532555828242271 -0.37558446749128682 0 -0.19709211545103009 -0.36248845150129722 0 -0.20904936606432631 -0.36681181643592908 0 -0.19532555828242271 -0.37558446749128682 0 -0.20476559050141019 -0.37962398736088138 0 -0.20904936606432631 -0.36681181643592908 0 -0.19709211545103009 -0.36248845150129722 0 -0.20904936606432631 -0.36681181643592908 0 -0.20489658048258669 -0.35414554212881311 0 -0.21833432640860431 -0.37905807616118531 0 -0.2216197989855585 -0.36488179242887292 0 -0.20904936606432631 -0.36681181643592908 0 -0.2216197989855585 -0.36488179242887292 0 -0.21877996190238261 -0.35258271415113079 0 -0.20904936606432631 -0.36681181643592908 0 -0.21877996190238261 -0.35258271415113079 0 -0.2056233501328549 -0.34106709278900921 0 -0.20489658048258669 -0.35414554212881311 0 -0.21877996190238261 -0.35258271415113079 0 -0.20904936606432631 -0.36681181643592908 0 -0.20489658048258669 -0.35414554212881311 0 -0.22977156871879331 -0.26606357592135232 0 -0.23726921172755491 -0.24006168934922731 0 -0.25549012390218001 -0.27156072195817282 0 -0.24686496979937381 -0.25551888127341332 0 -0.22977156871879331 -0.26606357592135232 0 -0.24686496979937381 -0.25551888127341332 0 -0.22977156871879331 -0.26606357592135232 0 -0.23726921172755491 -0.24006168934922731 0 -0.22977156871879331 -0.26606357592135232 0 -0.23144151464577251 -0.28350505525307013 0 -0.2459317459832219 -0.28610690006171291 0 -0.25549012390218001 -0.27156072195817282 0 -0.22977156871879331 -0.26606357592135232 0 -0.2459317459832219 -0.28610690006171291 0 -0.22977156871879331 -0.26606357592135232 0 -0.23144151464577251 -0.28350505525307013 0 -0.21767260928078669 -0.28601347879250411 0 -0.23239013460028801 -0.29583626623671122 0 -0.21619482101962101 -0.30522474083481521 0 -0.21767260928078669 -0.28601347879250411 0 -0.23239013460028801 -0.29583626623671122 0 -0.23144151464577251 -0.28350505525307013 0 -0.21767260928078669 -0.28601347879250411 0 -0.23239013460028801 -0.29583626623671122 0 -0.23144151464577251 -0.28350505525307013 0 -0.2459317459832219 -0.28610690006171291 0 -0.23239013460028801 -0.29583626623671122 0 -0.2459317459832219 -0.28610690006171291 0 -0.2459044992999613 -0.29816430982094938 0 -0.23239013460028801 -0.29583626623671122 0 -0.24157385016591629 -0.31148198461051441 0 -0.2459044992999613 -0.29816430982094938 0 -0.25932328347812877 -0.30223131190574293 0 -0.24157385016591629 -0.31148198461051441 0 -0.2459044992999613 -0.29816430982094938 0 -0.23239013460028801 -0.29583626623671122 0 -0.24157385016591629 -0.31148198461051441 0 -0.21619482101962101 -0.30522474083481521 0 -0.24157385016591629 -0.31148198461051441 0 -0.21619482101962101 -0.30522474083481521 0 -0.21619482101962101 -0.30522474083481521 0 -0.19291841767051199 -0.29948590310633461 0 -0.21619482101962101 -0.30522474083481521 0 -0.19702715433237891 -0.29710263582714891 0 -0.20147539905160211 -0.29313478905500312 0 -0.20854701953250121 -0.31443191562001738 0 -0.21619482101962101 -0.30522474083481521 0 -0.19291841767051199 -0.29948590310633461 0 -0.21619482101962101 -0.30522474083481521 0 -0.20147539905160211 -0.29313478905500312 0 -0.21619482101962101 -0.30522474083481521 0 -0.19291841767051199 -0.29948590310633461 0 -0.19702715433237891 -0.29710263582714891 0 -0.20854701953250121 -0.31443191562001738 0 -0.18870282160261201 -0.31208654307805223 0 -0.19291841767051199 -0.29948590310633461 0 -0.19702715433237891 -0.29710263582714891 0 -0.1867559770835841 -0.28104483727518997 0 -0.18678835683569109 -0.29095499315793871 0 -0.19702715433237891 -0.29710263582714891 0 -0.20147539905160211 -0.29313478905500312 0 -0.1867559770835841 -0.28104483727518997 0 -0.19702715433237891 -0.29710263582714891 0 -0.1867559770835841 -0.28104483727518997 0 -0.20147539905160211 -0.29313478905500312 0 -0.20486605165754981 -0.2739538644324957 0 -0.1867559770835841 -0.28104483727518997 0 -0.19291841767051199 -0.29948590310633461 0 -0.19702715433237891 -0.29710263582714891 0 -0.18678835683569109 -0.29095499315793871 0 -0.20147539905160211 -0.29313478905500312 0 -0.1867559770835841 -0.28104483727518997 0 -0.21619482101962101 -0.30522474083481521 0 -0.20147539905160211 -0.29313478905500312 0 -0.21767260928078669 -0.28601347879250411 0 -0.20147539905160211 -0.29313478905500312 0 -0.21767260928078669 -0.28601347879250411 0 -0.20486605165754981 -0.2739538644324957 0 -0.22977156871879331 -0.26606357592135232 0 -0.20486605165754981 -0.2739538644324957 0 -0.2068462228634691 -0.25904214751857058 0 -0.22977156871879331 -0.26606357592135232 0 -0.21767260928078669 -0.28601347879250411 0 -0.20486605165754981 -0.2739538644324957 0 -0.20486605165754981 -0.2739538644324957 0 -0.18873449468763381 -0.2613232209441117 0 -0.1867559770835841 -0.28104483727518997 0 -0.20486605165754981 -0.2739538644324957 0 -0.18873449468763381 -0.2613232209441117 0 -0.2068462228634691 -0.25904214751857058 0 -0.18873449468763381 -0.2613232209441117 0 -0.20730871517481039 -0.23946610943513549 0 -0.18873449468763381 -0.2613232209441117 0 -0.2068462228634691 -0.25904214751857058 0 -0.20730871517481039 -0.23946610943513549 0 -0.22977156871879331 -0.26606357592135232 0 -0.2068462228634691 -0.25904214751857058 0 -0.20730871517481039 -0.23946610943513549 0 -0.17443605785634689 -0.26178406742034488 0 -0.16211613862911001 -0.2425232975654997 0 -0.17443605785634689 -0.26178406742034488 0 -0.15326062808292121 -0.25865132635456722 0 -0.16211613862911001 -0.2425232975654997 0 -0.15326062808292121 -0.25865132635456722 0 -0.16211613862911001 -0.2425232975654997 0 -0.18873449468763381 -0.2613232209441117 0 -0.17443605785634689 -0.26178406742034488 0 -0.18212515061485379 -0.24320666055055981 0 -0.17443605785634689 -0.26178406742034488 0 -0.1741695575882751 -0.27201448509619691 0 -0.18268052997134679 -0.27769742599944841 0 -0.18873449468763381 -0.2613232209441117 0 -0.17443605785634689 -0.26178406742034488 0 -0.1867559770835841 -0.28104483727518997 0 -0.17443605785634689 -0.26178406742034488 0 -0.1867559770835841 -0.28104483727518997 0 -0.18268052997134679 -0.27769742599944841 0 -0.17443605785634689 -0.26178406742034488 0 -0.1867559770835841 -0.28104483727518997 0 -0.1867559770835841 -0.28104483727518997 0 -0.18268052997134679 -0.27769742599944841 0 -0.17763672042279369 -0.28204598920190682 0 -0.1867559770835841 -0.28104483727518997 0 -0.18268052997134679 -0.27769742599944841 0 -0.1741695575882751 -0.27201448509619691 0 -0.165082767624147 -0.27672221452375401 0 -0.17763672042279369 -0.28204598920190682 0 -0.1741695575882751 -0.27201448509619691 0 -0.18268052997134679 -0.27769742599944841 0 -0.17763672042279369 -0.28204598920190682 0 -0.165082767624147 -0.27672221452375401 0 -0.154706168075645 -0.27962826364895399 0 -0.15326062808292121 -0.25865132635456722 0 -0.17443605785634689 -0.26178406742034488 0 -0.165082767624147 -0.27672221452375401 0 -0.15326062808292121 -0.25865132635456722 0 -0.17443605785634689 -0.26178406742034488 0 -0.1741695575882751 -0.27201448509619691 0 -0.165082767624147 -0.27672221452375401 0 -0.165082767624147 -0.27672221452375401 0 -0.1696420143214025 -0.29374706537785578 0 -0.17763672042279369 -0.28204598920190682 0 -0.1696420143214025 -0.29374706537785578 0 -0.1463656109722932 -0.2880082276493765 0 -0.1696420143214025 -0.29374706537785578 0 -0.1463656109722932 -0.2880082276493765 0 -0.154706168075645 -0.27962826364895399 0 -0.165082767624147 -0.27672221452375401 0 -0.1696420143214025 -0.29374706537785578 0 -0.154706168075645 -0.27962826364895399 0 -0.1696420143214025 -0.29374706537785578 0 -0.1599129334783683 -0.30128677317737479 0 -0.1463656109722932 -0.2880082276493765 0 -0.1696420143214025 -0.29374706537785578 0 -0.17763672042279369 -0.28204598920190682 0 -0.18678835683569109 -0.29095499315793871 0 -0.19291841767051199 -0.29948590310633461 0 -0.1696420143214025 -0.29374706537785578 0 -0.19291841767051199 -0.29948590310633461 0 -0.1696420143214025 -0.29374706537785578 0 -0.18678835683569109 -0.29095499315793871 0 -0.1867559770835841 -0.28104483727518997 0 -0.17763672042279369 -0.28204598920190682 0 -0.18678835683569109 -0.29095499315793871 0 -0.18870282160261201 -0.31208654307805223 0 -0.19291841767051199 -0.29948590310633461 0 -0.17693229627296869 -0.30107888652210318 0 -0.18870282160261201 -0.31208654307805223 0 -0.16885862367272239 -0.30974117053608929 0 -0.19291841767051199 -0.29948590310633461 0 -0.1696420143214025 -0.29374706537785578 0 -0.17693229627296869 -0.30107888652210318 0 -0.18870282160261201 -0.31208654307805223 0 -0.17693229627296869 -0.30107888652210318 0 -0.16885862367272239 -0.30974117053608929 0 -0.17693229627296869 -0.30107888652210318 0 -0.16885862367272239 -0.30974117053608929 0 -0.1696420143214025 -0.29374706537785578 0 -0.16885862367272239 -0.30974117053608929 0 -0.1599129334783683 -0.30128677317737479 0 -0.16885862367272239 -0.30974117053608929 0 -0.14924281185144789 -0.30742279079625029 0 -0.1696420143214025 -0.29374706537785578 0 -0.17693229627296869 -0.30107888652210318 0 -0.16885862367272239 -0.30974117053608929 0 -0.16885862367272239 -0.30974117053608929 0 -0.1599129334783683 -0.30128677317737479 0 -0.14924281185144789 -0.30742279079625029 0 -0.1599129334783683 -0.30128677317737479 0 -0.14924281185144789 -0.30742279079625029 0 -0.1463656109722932 -0.2880082276493765 0 -0.14924281185144789 -0.30742279079625029 0 -0.1463656109722932 -0.2880082276493765 0 -0.14924281185144789 -0.30742279079625029 0 -0.13587514144797699 -0.29604558077783227 0 -0.1463656109722932 -0.2880082276493765 0 -0.14924281185144789 -0.30742279079625029 0 -0.12794034328626799 -0.30490506621875008 0 -0.13760179648024701 -0.32075036129823398 0 -0.14924281185144789 -0.30742279079625029 0 -0.12794034328626799 -0.30490506621875008 0 -0.13587514144797699 -0.29604558077783227 0 -0.14924281185144789 -0.30742279079625029 0 -0.12794034328626799 -0.30490506621875008 0 -0.13587514144797699 -0.29604558077783227 0 -0.13800056787643381 -0.28985095111092962 0 -0.1463656109722932 -0.2880082276493765 0 -0.12794034328626799 -0.30490506621875008 0 -0.13587514144797699 -0.29604558077783227 0 -0.12559001194630109 -0.28534481691232289 0 -0.13587514144797699 -0.29604558077783227 0 -0.13800056787643381 -0.28985095111092962 0 -0.12559001194630109 -0.28534481691232289 0 -0.12559001194630109 -0.28534481691232289 0 -0.13494350468547231 -0.28347306925467558 0 -0.1350148275241321 -0.27689650628718371 0 -0.13800056787643381 -0.28985095111092962 0 -0.12559001194630109 -0.28534481691232289 0 -0.13494350468547231 -0.28347306925467558 0 -0.13800056787643381 -0.28985095111092962 0 -0.13494350468547231 -0.28347306925467558 0 -0.1395028938934767 -0.28383410238571888 0 -0.13800056787643381 -0.28985095111092962 0 -0.1395028938934767 -0.28383410238571888 0 -0.1440928677678894 -0.28744787885953382 0 -0.13494350468547231 -0.28347306925467558 0 -0.1395028938934767 -0.28383410238571888 0 -0.1379612284680248 -0.2804276687060332 0 -0.1463656109722932 -0.2880082276493765 0 -0.1440928677678894 -0.28744787885953382 0 -0.14256299535285341 -0.27813430565265779 0 -0.13800056787643381 -0.28985095111092962 0 -0.1463656109722932 -0.2880082276493765 0 -0.1440928677678894 -0.28744787885953382 0 -0.1463656109722932 -0.2880082276493765 0 -0.14440511753673341 -0.27477935514363522 0 -0.1395028938934767 -0.28383410238571888 0 -0.1440928677678894 -0.28744787885953382 0 -0.14256299535285341 -0.27813430565265779 0 -0.1463656109722932 -0.2880082276493765 0 -0.1440928677678894 -0.28744787885953382 0 -0.154706168075645 -0.27962826364895399 0 -0.14440511753673341 -0.27477935514363522 0 -0.15326062808292121 -0.25865132635456722 0 -0.14440511753673341 -0.27477935514363522 0 -0.15326062808292121 -0.25865132635456722 0 -0.1463656109722932 -0.2880082276493765 0 -0.154706168075645 -0.27962826364895399 0 -0.14440511753673341 -0.27477935514363522 0 -0.1463656109722932 -0.2880082276493765 0 -0.14440511753673341 -0.27477935514363522 0 -0.14256299535285341 -0.27813430565265779 0 -0.14440511753673341 -0.27477935514363522 0 -0.14256299535285341 -0.27813430565265779 0 -0.1350148275241321 -0.27689650628718371 0 -0.14440511753673341 -0.27477935514363522 0 -0.14256299535285341 -0.27813430565265779 0 -0.14256299535285341 -0.27813430565265779 0 -0.1379612284680248 -0.2804276687060332 0 -0.1350148275241321 -0.27689650628718371 0 -0.12559001194630109 -0.28534481691232289 0 -0.1350148275241321 -0.27689650628718371 0 -0.12978422947042589 -0.26831649308812888 0 -0.1395028938934767 -0.28383410238571888 0 -0.14256299535285341 -0.27813430565265779 0 -0.1379612284680248 -0.2804276687060332 0 -0.14440511753673341 -0.27477935514363522 0 -0.12978422947042589 -0.26831649308812888 0 -0.14153719722658659 -0.25542741473343161 0 -0.13494350468547231 -0.28347306925467558 0 -0.1379612284680248 -0.2804276687060332 0 -0.1350148275241321 -0.27689650628718371 0 -0.14440511753673341 -0.27477935514363522 0 -0.1350148275241321 -0.27689650628718371 0 -0.12978422947042589 -0.26831649308812888 0 -0.12978422947042589 -0.26831649308812888 0 -0.14153719722658659 -0.25542741473343161 0 -0.12401638012337329 -0.25082205957363191 0 -0.14440511753673341 -0.27477935514363522 0 -0.14153719722658659 -0.25542741473343161 0 -0.14440511753673341 -0.27477935514363522 0 -0.14153719722658659 -0.25542741473343161 0 -0.15326062808292121 -0.25865132635456722 0 -0.14153719722658659 -0.25542741473343161 0 -0.15326062808292121 -0.25865132635456722 0 -0.1489882367964219 -0.24305096927696951 0 -0.15808375525151711 -0.37267971075889 0 -0.174723365870148 -0.35211942268654228 0 -0.15248300730946771 -0.35292709868129868 0 -0.174723365870148 -0.35211942268654228 0 -0.17251356445592439 -0.33572456059588279 0 -0.15248300730946771 -0.35292709868129868 0 -0.15808375525151711 -0.37267971075889 0 -0.1826975000379778 -0.36640647878045091 0 -0.174723365870148 -0.35211942268654228 0 -0.17671128251580809 -0.38549867200884957 0 -0.15808375525151711 -0.37267971075889 0 -0.1826975000379778 -0.36640647878045091 0 -0.19304503591333391 -0.35121026957331219 0 -0.174723365870148 -0.35211942268654228 0 -0.18748492798964431 -0.33892332475164338 0 -0.19304503591333391 -0.35121026957331219 0 -0.1826975000379778 -0.36640647878045091 0 -0.174723365870148 -0.35211942268654228 0 -0.174723365870148 -0.35211942268654228 0 -0.18748492798964431 -0.33892332475164338 0 -0.17251356445592439 -0.33572456059588279 0 -0.18748492798964431 -0.33892332475164338 0 -0.17251356445592439 -0.33572456059588279 0 -0.1869173224123874 -0.32539874427987792 0 -0.18870282160261201 -0.31208654307805223 0 -0.16885862367272239 -0.30974117053608929 0 -0.1734725477720549 -0.32231544370420412 0 -0.18870282160261201 -0.31208654307805223 0 -0.1869173224123874 -0.32539874427987792 0 -0.1734725477720549 -0.32231544370420412 0 -0.17251356445592439 -0.33572456059588279 0 -0.1869173224123874 -0.32539874427987792 0 -0.1734725477720549 -0.32231544370420412 0 -0.16885862367272239 -0.30974117053608929 0 -0.14906921025189859 -0.33097333190911649 0 -0.15205708352054889 -0.32641272487700929 0 -0.16885862367272239 -0.30974117053608929 0 -0.14924281185144789 -0.30742279079625029 0 -0.15205708352054889 -0.32641272487700929 0 -0.16885862367272239 -0.30974117053608929 0 -0.14906921025189859 -0.33097333190911649 0 -0.16885862367272239 -0.30974117053608929 0 -0.1734725477720549 -0.32231544370420412 0 -0.14906921025189859 -0.33097333190911649 0 -0.17251356445592439 -0.33572456059588279 0 -0.14906921025189859 -0.33097333190911649 0 -0.15248300730946771 -0.35292709868129868 0 -0.17251356445592439 -0.33572456059588279 0 -0.1734725477720549 -0.32231544370420412 0 -0.14906921025189859 -0.33097333190911649 0 -0.14924281185144789 -0.30742279079625029 0 -0.15205708352054889 -0.32641272487700929 0 -0.13760179648024701 -0.32075036129823398 0 -0.14924281185144789 -0.30742279079625029 0 -0.15205708352054889 -0.32641272487700929 0 -0.14906921025189859 -0.33097333190911649 0 -0.15205708352054889 -0.32641272487700929 0 -0.13760179648024701 -0.32075036129823398 0 -0.12794034328626799 -0.30490506621875008 0 -0.13760179648024701 -0.32075036129823398 0 -0.1179442253946635 -0.31710871756529058 0 -0.13760179648024701 -0.32075036129823398 0 -0.1256400056428085 -0.33415989499219773 0 -0.1179442253946635 -0.31710871756529058 0 -0.14906921025189859 -0.33097333190911649 0 -0.13760179648024701 -0.32075036129823398 0 -0.1256400056428085 -0.33415989499219773 0 -0.14906921025189859 -0.33097333190911649 0 -0.12927979683107391 -0.35220549328214268 0 -0.14906921025189859 -0.33097333190911649 0 -0.1256400056428085 -0.33415989499219773 0 -0.12927979683107391 -0.35220549328214268 0 -0.14906921025189859 -0.33097333190911649 0 -0.12927979683107391 -0.35220549328214268 0 -0.15248300730946771 -0.35292709868129868 0 -0.15808375525151711 -0.37267971075889 0 -0.15248300730946771 -0.35292709868129868 0 -0.13363954654254681 -0.37329861950086068 0 -0.12927979683107391 -0.35220549328214268 0 -0.15248300730946771 -0.35292709868129868 0 -0.13363954654254681 -0.37329861950086068 0 -0.12927979683107391 -0.35220549328214268 0 -0.13363954654254681 -0.37329861950086068 0 -0.10949038341024921 -0.37343765465516898 0 -0.12927979683107391 -0.35220549328214268 0 -0.10949038341024921 -0.37343765465516898 0 -0.10949038341024921 -0.37343765465516898 0 -0.10289832384793331 -0.35087260627300731 0 -0.088535584910975879 -0.37065320031021792 0 -0.12927979683107391 -0.35220549328214268 0 -0.10949038341024921 -0.37343765465516898 0 -0.10289832384793331 -0.35087260627300731 0 -0.1256400056428085 -0.33415989499219773 0 -0.12927979683107391 -0.35220549328214268 0 -0.10289832384793331 -0.35087260627300731 0 -0.1256400056428085 -0.33415989499219773 0 -0.10289832384793331 -0.35087260627300731 0 -0.10221164408342109 -0.32927958983293198 0 -0.1256400056428085 -0.33415989499219773 0 -0.1179442253946635 -0.31710871756529058 0 -0.10221164408342109 -0.32927958983293198 0 -0.1003351808441465 -0.31264747363135081 0 -0.10221164408342109 -0.32927958983293198 0 -0.082541500885567304 -0.32007337082663201 0 -0.1179442253946635 -0.31710871756529058 0 -0.1003351808441465 -0.31264747363135081 0 -0.10221164408342109 -0.32927958983293198 0 -0.10221164408342109 -0.32927958983293198 0 -0.082541500885567304 -0.32007337082663201 0 -0.075995473989913617 -0.33710967800052671 0 -0.10289832384793331 -0.35087260627300731 0 -0.10221164408342109 -0.32927958983293198 0 -0.075995473989913617 -0.33710967800052671 0 -0.082541500885567304 -0.32007337082663201 0 -0.070351449129610943 -0.30757711798459381 0 -0.06034131946993488 -0.32908706218537409 0 -0.082541500885567304 -0.32007337082663201 0 -0.075995473989913617 -0.33710967800052671 0 -0.06034131946993488 -0.32908706218537409 0 -0.075995473989913617 -0.33710967800052671 0 -0.051857495717657479 -0.34812240420531237 0 -0.06034131946993488 -0.32908706218537409 0 -0.070755211462005183 -0.36564959925018897 0 -0.081196952145830351 -0.35391323545859021 0 -0.051857495717657479 -0.34812240420531237 0 -0.075995473989913617 -0.33710967800052671 0 -0.081196952145830351 -0.35391323545859021 0 -0.051857495717657479 -0.34812240420531237 0 -0.070755211462005183 -0.36564959925018897 0 -0.088535584910975879 -0.37065320031021792 0 -0.074398399125636547 -0.38303568568064789 0 -0.070755211462005183 -0.36564959925018897 0 -0.057787625409925637 -0.37252347059617641 0 -0.074398399125636547 -0.38303568568064789 0 -0.070755211462005183 -0.36564959925018897 0 -0.088535584910975879 -0.37065320031021792 0 -0.081196952145830351 -0.35391323545859021 0 -0.10289832384793331 -0.35087260627300731 0 -0.088535584910975879 -0.37065320031021792 0 -0.081196952145830351 -0.35391323545859021 0 -0.10289832384793331 -0.35087260627300731 0 -0.075995473989913617 -0.33710967800052671 0 -0.081196952145830351 -0.35391323545859021 0 -0.1116818158534346 -0.26815276642539981 0 -0.092579677343991376 -0.25939675604566331 0 -0.1061516596888413 -0.24979484311864231 0 -0.092579677343991376 -0.25939675604566331 0 -0.091897538062651885 -0.24508293332865611 0 -0.1061516596888413 -0.24979484311864231 0 -0.12978422947042589 -0.26831649308812888 0 -0.12401638012337329 -0.25082205957363191 0 -0.1116818158534346 -0.26815276642539981 0 -0.12401638012337329 -0.25082205957363191 0 -0.1116818158534346 -0.26815276642539981 0 -0.1061516596888413 -0.24979484311864231 0 -0.12559001194630109 -0.28534481691232289 0 -0.12978422947042589 -0.26831649308812888 0 -0.1116818158534346 -0.26815276642539981 0 -0.12559001194630109 -0.28534481691232289 0 -0.1116818158534346 -0.26815276642539981 0 -0.1063179859138156 -0.28571593875774082 0 -0.1116818158534346 -0.26815276642539981 0 -0.091691005666821507 -0.27684861416074952 0 -0.092579677343991376 -0.25939675604566331 0 -0.1116818158534346 -0.26815276642539981 0 -0.1063179859138156 -0.28571593875774082 0 -0.091691005666821507 -0.27684861416074952 0 -0.1063179859138156 -0.28571593875774082 0 -0.1121209719142351 -0.30055924195951822 0 -0.090506124188285575 -0.29767425433071348 0 -0.1063179859138156 -0.28571593875774082 0 -0.090506124188285575 -0.29767425433071348 0 -0.091691005666821507 -0.27684861416074952 0 -0.12559001194630109 -0.28534481691232289 0 -0.1063179859138156 -0.28571593875774082 0 -0.1121209719142351 -0.30055924195951822 0 -0.1179442253946635 -0.31710871756529058 0 -0.1003351808441465 -0.31264747363135081 0 -0.1121209719142351 -0.30055924195951822 0 -0.12794034328626799 -0.30490506621875008 0 -0.12559001194630109 -0.28534481691232289 0 -0.1121209719142351 -0.30055924195951822 0 -0.12794034328626799 -0.30490506621875008 0 -0.1179442253946635 -0.31710871756529058 0 -0.1121209719142351 -0.30055924195951822 0 -0.1003351808441465 -0.31264747363135081 0 -0.1121209719142351 -0.30055924195951822 0 -0.090506124188285575 -0.29767425433071348 0 -0.1003351808441465 -0.31264747363135081 0 -0.082541500885567304 -0.32007337082663201 0 -0.090506124188285575 -0.29767425433071348 0 -0.082541500885567304 -0.32007337082663201 0 -0.090506124188285575 -0.29767425433071348 0 -0.070351449129610943 -0.30757711798459381 0 -0.090506124188285575 -0.29767425433071348 0 -0.070351449129610943 -0.30757711798459381 0 -0.068117110455587951 -0.28752853251063049 0 -0.070351449129610943 -0.30757711798459381 0 -0.068117110455587951 -0.28752853251063049 0 -0.050251190648679049 -0.30352237006961902 0 -0.090506124188285575 -0.29767425433071348 0 -0.068117110455587951 -0.28752853251063049 0 -0.091691005666821507 -0.27684861416074952 0 -0.091691005666821507 -0.27684861416074952 0 -0.073702015698489581 -0.26463556045173903 0 -0.092579677343991376 -0.25939675604566331 0 -0.068117110455587951 -0.28752853251063049 0 -0.091691005666821507 -0.27684861416074952 0 -0.073702015698489581 -0.26463556045173903 0 -0.068117110455587951 -0.28752853251063049 0 -0.073702015698489581 -0.26463556045173903 0 -0.058638598832622152 -0.27146280400905748 0 -0.073702015698489581 -0.26463556045173903 0 -0.052574207348987892 -0.2557294451199969 0 -0.068987956184213758 -0.24580350920846361 0 -0.073702015698489581 -0.26463556045173903 0 -0.08165710104129964 -0.25115670310468269 0 -0.068987956184213758 -0.24580350920846361 0 -0.073702015698489581 -0.26463556045173903 0 -0.08165710104129964 -0.25115670310468269 0 -0.092579677343991376 -0.25939675604566331 0 -0.08165710104129964 -0.25115670310468269 0 -0.092579677343991376 -0.25939675604566331 0 -0.091897538062651885 -0.24508293332865611 0 -0.040161061827423218 -0.27795767795386389 0 -0.0300709330061673 -0.25239298583810871 0 -0.052574207348987892 -0.2557294451199969 0 -0.0300709330061673 -0.25239298583810871 0 -0.042706023303749632 -0.24286150533196069 0 -0.052574207348987892 -0.2557294451199969 0 -0.040161061827423218 -0.27795767795386389 0 -0.0300709330061673 -0.25239298583810871 0 -0.073702015698489581 -0.26463556045173903 0 -0.052574207348987892 -0.2557294451199969 0 -0.058638598832622152 -0.27146280400905748 0 -0.068117110455587951 -0.28752853251063049 0 -0.058638598832622152 -0.27146280400905748 0 -0.040161061827423218 -0.27795767795386389 0 -0.052574207348987892 -0.2557294451199969 0 -0.058638598832622152 -0.27146280400905748 0 -0.040161061827423218 -0.27795767795386389 0 -0.040161061827423218 -0.27795767795386389 0 -0.050251190648679049 -0.30352237006961902 0 -0.028254373750392889 -0.30476686600165959 0 -0.040161061827423218 -0.27795767795386389 0 -0.050251190648679049 -0.30352237006961902 0 -0.068117110455587951 -0.28752853251063049 0 -0.040161061827423218 -0.27795767795386389 0 -0.050251190648679049 -0.30352237006961902 0 -0.050251190648679049 -0.30352237006961902 0 -0.028254373750392889 -0.30476686600165959 0 -0.037784092508259572 -0.32315311181558881 0 -0.028254373750392889 -0.30476686600165959 0 -0.01107060322914191 -0.31116966035993948 0 -0.017079420322786431 -0.28708660431910932 0 -0.01107060322914191 -0.31116966035993948 0 -0.017079420322786431 -0.28708660431910932 0 0.0026659282157936669 -0.28817997861608108 0 -0.040161061827423218 -0.27795767795386389 0 -0.028254373750392889 -0.30476686600165959 0 -0.017079420322786431 -0.28708660431910932 0 -0.040161061827423218 -0.27795767795386389 0 -0.017079420322786431 -0.28708660431910932 0 -0.0207308006364227 -0.26867467852799581 0 -0.040161061827423218 -0.27795767795386389 0 -0.0207308006364227 -0.26867467852799581 0 -0.0300709330061673 -0.25239298583810871 0 -0.017079420322786431 -0.28708660431910932 0 -0.0207308006364227 -0.26867467852799581 0 -0.00095796240604086101 -0.26761911539816108 0 -0.017079420322786431 -0.28708660431910932 0 -0.00095796240604086101 -0.26761911539816108 0 0.0026659282157936669 -0.28817997861608108 0 -0.0207308006364227 -0.26867467852799581 0 -0.00095796240604086101 -0.26761911539816108 0 -0.01241213471794524 -0.25308273483886817 0 -0.0207308006364227 -0.26867467852799581 0 -0.01241213471794524 -0.25308273483886817 0 -0.0300709330061673 -0.25239298583810871 0 -0.043927366339478441 -0.36291317662497141 0 -0.051857495717657479 -0.34812240420531237 0 -0.030984543785425651 -0.35502389287100311 0 -0.051857495717657479 -0.34812240420531237 0 -0.037468009334648 -0.34054273306994032 0 -0.030984543785425651 -0.35502389287100311 0 -0.043927366339478441 -0.36291317662497141 0 -0.057787625409925637 -0.37252347059617641 0 -0.035079800444904989 -0.37598293882739348 0 -0.043927366339478441 -0.36291317662497141 0 -0.030984543785425651 -0.35502389287100311 0 -0.035079800444904989 -0.37598293882739348 0 -0.057787625409925637 -0.37252347059617641 0 -0.051857495717657479 -0.34812240420531237 0 -0.070755211462005183 -0.36564959925018897 0 -0.057787625409925637 -0.37252347059617641 0 -0.051857495717657479 -0.34812240420531237 0 -0.043927366339478441 -0.36291317662497141 0 -0.057787625409925637 -0.37252347059617641 0 -0.051857495717657479 -0.34812240420531237 0 -0.051857495717657479 -0.34812240420531237 0 -0.06034131946993488 -0.32908706218537409 0 -0.037468009334648 -0.34054273306994032 0 -0.050251190648679049 -0.30352237006961902 0 -0.06034131946993488 -0.32908706218537409 0 -0.037784092508259572 -0.32315311181558881 0 -0.070351449129610943 -0.30757711798459381 0 -0.050251190648679049 -0.30352237006961902 0 -0.06034131946993488 -0.32908706218537409 0 -0.050251190648679049 -0.30352237006961902 0 -0.06034131946993488 -0.32908706218537409 0 -0.06034131946993488 -0.32908706218537409 0 -0.037784092508259572 -0.32315311181558881 0 -0.037468009334648 -0.34054273306994032 0 -0.037784092508259572 -0.32315311181558881 0 -0.037468009334648 -0.34054273306994032 0 -0.02311379876035519 -0.33919600329984517 0 -0.037784092508259572 -0.32315311181558881 0 -0.02311379876035519 -0.33919600329984517 0 -0.01583525169102137 -0.32501277762788611 0 -0.028254373750392889 -0.30476686600165959 0 -0.01107060322914191 -0.31116966035993948 0 -0.01583525169102137 -0.32501277762788611 0 -0.028254373750392889 -0.30476686600165959 0 -0.037784092508259572 -0.32315311181558881 0 -0.01583525169102137 -0.32501277762788611 0 -0.01107060322914191 -0.31116966035993948 0 -0.0050082009084007157 -0.32890289478594992 0 0.0061848665858570042 -0.33025236046317002 0 -0.01107060322914191 -0.31116966035993948 0 -0.01583525169102137 -0.32501277762788611 0 -0.0050082009084007157 -0.32890289478594992 0 -0.01107060322914191 -0.31116966035993948 0 0.0061848665858570042 -0.33025236046317002 0 -0.02311379876035519 -0.33919600329984517 0 -0.0063357093066939594 -0.33871482610717601 0 -0.014423796070031291 -0.34996085912160951 0 -0.02311379876035519 -0.33919600329984517 0 -0.01583525169102137 -0.32501277762788611 0 -0.0063357093066939594 -0.33871482610717601 0 -0.01583525169102137 -0.32501277762788611 0 -0.0050082009084007157 -0.32890289478594992 0 -0.0063357093066939594 -0.33871482610717601 0 -0.0050082009084007157 -0.32890289478594992 0 -0.0063357093066939594 -0.33871482610717601 0 0.002015693098996661 -0.33936484937157779 0 -0.0063357093066939594 -0.33871482610717601 0 0.001354150165678658 -0.35122785741203172 0 0.002015693098996661 -0.33936484937157779 0 -0.0063357093066939594 -0.33871482610717601 0 -0.014423796070031291 -0.34996085912160951 0 0.001354150165678658 -0.35122785741203172 0 -0.014423796070031291 -0.34996085912160951 0 -0.01303907866336031 -0.36564171591799122 0 0.001354150165678658 -0.35122785741203172 0 -0.02311379876035519 -0.33919600329984517 0 -0.014423796070031291 -0.34996085912160951 0 -0.030984543785425651 -0.35502389287100311 0 -0.037468009334648 -0.34054273306994032 0 -0.02311379876035519 -0.33919600329984517 0 -0.030984543785425651 -0.35502389287100311 0 -0.014423796070031291 -0.34996085912160951 0 -0.030984543785425651 -0.35502389287100311 0 -0.01303907866336031 -0.36564171591799122 0 -0.030984543785425651 -0.35502389287100311 0 -0.01303907866336031 -0.36564171591799122 0 -0.035079800444904989 -0.37598293882739348 0 -0.01303907866336031 -0.36564171591799122 0 0.001354150165678658 -0.35122785741203172 0 0.0071201472627590362 -0.36181985524754839 0 -0.01303907866336031 -0.36564171591799122 0 0.0013770767683104789 -0.38011590404628531 0 0.0071201472627590362 -0.36181985524754839 0 -0.01303907866336031 -0.36564171591799122 0 -0.01837316428448426 -0.39027735116279422 0 0.0013770767683104789 -0.38011590404628531 0 -0.01837316428448426 -0.39027735116279422 0 -0.0062873074276530438 -0.41028004106899568 0 0.0013770767683104789 -0.38011590404628531 0 -0.01837316428448426 -0.39027735116279422 0 -0.034713613958958431 -0.39884321050724503 0 -0.02631127752585647 -0.4088845352250603 0 -0.01837316428448426 -0.39027735116279422 0 -0.02631127752585647 -0.4088845352250603 0 -0.0062873074276530438 -0.41028004106899568 0 -0.01303907866336031 -0.36564171591799122 0 -0.01837316428448426 -0.39027735116279422 0 -0.035079800444904989 -0.37598293882739348 0 -0.01837316428448426 -0.39027735116279422 0 -0.035079800444904989 -0.37598293882739348 0 -0.034713613958958431 -0.39884321050724503 0 -0.035079800444904989 -0.37598293882739348 0 -0.034713613958958431 -0.39884321050724503 0 -0.048147545859366057 -0.38778740027866287 0 -0.034713613958958431 -0.39884321050724503 0 -0.051755356141877103 -0.40419869609709991 0 -0.048147545859366057 -0.38778740027866287 0 -0.051755356141877103 -0.40419869609709991 0 -0.048147545859366057 -0.38778740027866287 0 -0.063717755102193796 -0.39692453698704022 0 -0.057787625409925637 -0.37252347059617641 0 -0.035079800444904989 -0.37598293882739348 0 -0.048147545859366057 -0.38778740027866287 0 -0.057787625409925637 -0.37252347059617641 0 -0.063717755102193796 -0.39692453698704022 0 -0.057787625409925637 -0.37252347059617641 0 -0.048147545859366057 -0.38778740027866287 0 -0.063717755102193796 -0.39692453698704022 0 -0.051544228852689791 -0.42998243393196239 0 -0.042549980994405268 -0.41611272933464721 0 -0.069647884794461962 -0.42132560337790409 0 -0.051544228852689791 -0.42998243393196239 0 -0.069647884794461962 -0.42132560337790409 0 -0.06291362301089061 -0.43602584586139698 0 -0.051755356141877103 -0.40419869609709991 0 -0.042549980994405268 -0.41611272933464721 0 -0.069647884794461962 -0.42132560337790409 0 -0.051755356141877103 -0.40419869609709991 0 -0.063717755102193796 -0.39692453698704022 0 -0.069647884794461962 -0.42132560337790409 0 -0.034713613958958431 -0.39884321050724503 0 -0.051755356141877103 -0.40419869609709991 0 -0.042549980994405268 -0.41611272933464721 0 -0.034713613958958431 -0.39884321050724503 0 -0.042549980994405268 -0.41611272933464721 0 -0.02631127752585647 -0.4088845352250603 0 -0.042549980994405268 -0.41611272933464721 0 -0.02963232096378134 -0.4289093440516199 0 -0.02631127752585647 -0.4088845352250603 0 -0.051544228852689791 -0.42998243393196239 0 -0.042549980994405268 -0.41611272933464721 0 -0.02963232096378134 -0.4289093440516199 0 -0.051544228852689791 -0.42998243393196239 0 -0.02963232096378134 -0.4289093440516199 0 -0.05297733449990974 -0.44753864703424379 0 -0.02963232096378134 -0.4289093440516199 0 -0.003725153265320566 -0.43628033310049702 0 -0.02835124388261516 -0.44190949006737018 0 -0.02963232096378134 -0.4289093440516199 0 -0.02631127752585647 -0.4088845352250603 0 -0.0062873074276530438 -0.41028004106899568 0 -0.02963232096378134 -0.4289093440516199 0 -0.0062873074276530438 -0.41028004106899568 0 -0.0062873074276530438 -0.41028004106899568 0 -0.003725153265320566 -0.43628033310049702 0 0.0064316810639237169 -0.42250890551817522 0 -0.02963232096378134 -0.4289093440516199 0 -0.0062873074276530438 -0.41028004106899568 0 -0.003725153265320566 -0.43628033310049702 0 -0.01431938028413344 -0.44769027456095062 0 -0.016737139260682151 -0.45889270705763258 0 0.00065851142660783291 -0.45036111998345613 0 -0.003725153265320566 -0.43628033310049702 0 -0.01431938028413344 -0.44769027456095062 0 0.00065851142660783291 -0.45036111998345613 0 -0.003725153265320566 -0.43628033310049702 0 -0.01431938028413344 -0.44769027456095062 0 -0.02835124388261516 -0.44190949006737018 0 -0.016737139260682151 -0.45889270705763258 0 -0.0074335007915662908 -0.47939027681154361 0 0.00065851142660783291 -0.45036111998345613 0 -0.016737139260682151 -0.45889270705763258 0 -0.023887096263328599 -0.47079207595976957 0 -0.032690508668914021 -0.45714767493996727 0 -0.016737139260682151 -0.45889270705763258 0 -0.02344187643865717 -0.45100772259579719 0 -0.032690508668914021 -0.45714767493996727 0 -0.02344187643865717 -0.45100772259579719 0 -0.02835124388261516 -0.44190949006737018 0 -0.032690508668914021 -0.45714767493996727 0 -0.003725153265320566 -0.43628033310049702 0 -0.02835124388261516 -0.44190949006737018 0 -0.01431938028413344 -0.44769027456095062 0 -0.016737139260682151 -0.45889270705763258 0 -0.02344187643865717 -0.45100772259579719 0 -0.01431938028413344 -0.44769027456095062 0 -0.02344187643865717 -0.45100772259579719 0 -0.02835124388261516 -0.44190949006737018 0 -0.0074335007915662908 -0.47939027681154361 0 -0.02517680648442944 -0.5 0 0.0035709991458796608 -0.5 0 -0.016737139260682151 -0.45889270705763258 0 -0.0074335007915662908 -0.47939027681154361 0 -0.023887096263328599 -0.47079207595976957 0 -0.0074335007915662908 -0.47939027681154361 0 -0.023887096263328599 -0.47079207595976957 0 -0.02365891358004139 -0.48251906492691998 0 -0.023887096263328599 -0.47079207595976957 0 -0.02365891358004139 -0.48251906492691998 0 -0.032264552754736581 -0.48014176960907151 0 -0.02365891358004139 -0.48251906492691998 0 -0.030972473626313921 -0.48734501281093923 0 -0.032264552754736581 -0.48014176960907151 0 -0.0074335007915662908 -0.47939027681154361 0 -0.02517680648442944 -0.5 0 -0.0266336467069552 -0.49877342735830998 0 -0.02365891358004139 -0.48251906492691998 0 -0.030972473626313921 -0.48734501281093923 0 -0.0266336467069552 -0.49877342735830998 0 -0.0074335007915662908 -0.47939027681154361 0 -0.02365891358004139 -0.48251906492691998 0 -0.0266336467069552 -0.49877342735830998 0 -0.0074335007915662908 -0.47939027681154361 0 -0.0266336467069552 -0.49877342735830998 0 -0.0266336467069552 -0.49877342735830998 0 -0.040546916155328759 -0.48782775465681782 0 -0.053924612114738417 -0.5 0 -0.02517680648442944 -0.5 0 -0.0266336467069552 -0.49877342735830998 0 -0.053924612114738417 -0.5 0 -0.030972473626313921 -0.48734501281093923 0 -0.0266336467069552 -0.49877342735830998 0 -0.040546916155328759 -0.48782775465681782 0 -0.030972473626313921 -0.48734501281093923 0 -0.040546916155328759 -0.48782775465681782 0 -0.032264552754736581 -0.48014176960907151 0 -0.040546916155328759 -0.48782775465681782 0 -0.038485210669340283 -0.47165837316625042 0 -0.054725782139620843 -0.47465441600461988 0 -0.038485210669340283 -0.47165837316625042 0 -0.054725782139620843 -0.47465441600461988 0 -0.047212396427151797 -0.46218177313261821 0 -0.040546916155328759 -0.48782775465681782 0 -0.032264552754736581 -0.48014176960907151 0 -0.038485210669340283 -0.47165837316625042 0 -0.023887096263328599 -0.47079207595976957 0 -0.032264552754736581 -0.48014176960907151 0 -0.038485210669340283 -0.47165837316625042 0 -0.054725782139620843 -0.47465441600461988 0 -0.058197204412568461 -0.46339364654458809 0 -0.064516739023396122 -0.47024865518675912 0 -0.040546916155328759 -0.48782775465681782 0 -0.054725782139620843 -0.47465441600461988 0 -0.053924612114738417 -0.5 0 -0.054725782139620843 -0.47465441600461988 0 -0.053924612114738417 -0.5 0 -0.071740069221396391 -0.47917621330120153 0 -0.02963232096378134 -0.4289093440516199 0 -0.05297733449990974 -0.44753864703424379 0 -0.02835124388261516 -0.44190949006737018 0 -0.05297733449990974 -0.44753864703424379 0 -0.02835124388261516 -0.44190949006737018 0 -0.032690508668914021 -0.45714767493996727 0 -0.05297733449990974 -0.44753864703424379 0 -0.02963232096378134 -0.4289093440516199 0 -0.02835124388261516 -0.44190949006737018 0 -0.05297733449990974 -0.44753864703424379 0 -0.032690508668914021 -0.45714767493996727 0 -0.047212396427151797 -0.46218177313261821 0 -0.05297733449990974 -0.44753864703424379 0 -0.023887096263328599 -0.47079207595976957 0 -0.038485210669340283 -0.47165837316625042 0 -0.032690508668914021 -0.45714767493996727 0 -0.038485210669340283 -0.47165837316625042 0 -0.032690508668914021 -0.45714767493996727 0 -0.047212396427151797 -0.46218177313261821 0 -0.047212396427151797 -0.46218177313261821 0 -0.058197204412568461 -0.46339364654458809 0 -0.05297733449990974 -0.44753864703424379 0 -0.058197204412568461 -0.46339364654458809 0 -0.05297733449990974 -0.44753864703424379 0 -0.070902315625145845 -0.46184276829007709 0 -0.05297733449990974 -0.44753864703424379 0 -0.070902315625145845 -0.46184276829007709 0 -0.054725782139620843 -0.47465441600461988 0 -0.047212396427151797 -0.46218177313261821 0 -0.058197204412568461 -0.46339364654458809 0 -0.051544228852689791 -0.42998243393196239 0 -0.05297733449990974 -0.44753864703424379 0 -0.06291362301089061 -0.43602584586139698 0 -0.05297733449990974 -0.44753864703424379 0 -0.075578014486730113 -0.44572666976876801 0 -0.081770627715032143 -0.45412036435267611 0 -0.05297733449990974 -0.44753864703424379 0 -0.075578014486730113 -0.44572666976876801 0 -0.06291362301089061 -0.43602584586139698 0 -0.05297733449990974 -0.44753864703424379 0 -0.081770627715032143 -0.45412036435267611 0 -0.05297733449990974 -0.44753864703424379 0 -0.070902315625145845 -0.46184276829007709 0 -0.081770627715032143 -0.45412036435267611 0 -0.058197204412568461 -0.46339364654458809 0 -0.070902315625145845 -0.46184276829007709 0 -0.064516739023396122 -0.47024865518675912 0 -0.081770627715032143 -0.45412036435267611 0 -0.08433493977692659 -0.45318941264478591 0 -0.11056392093015451 -0.46070208167110838 0 -0.081770627715032143 -0.45412036435267611 0 -0.088827296750382145 -0.47614688954591028 0 -0.096132201142348078 -0.46465403021460239 0 -0.070902315625145845 -0.46184276829007709 0 -0.081770627715032143 -0.45412036435267611 0 -0.088827296750382145 -0.47614688954591028 0 -0.08433493977692659 -0.45318941264478591 0 -0.093400774435150546 -0.4486836715159484 0 -0.1012358633401006 -0.43473910522071257 0 -0.08433493977692659 -0.45318941264478591 0 -0.1012358633401006 -0.43473910522071257 0 -0.08433493977692659 -0.45318941264478591 0 -0.088210056492205854 -0.43977313325318929 0 -0.1012358633401006 -0.43473910522071257 0 -0.075578014486730113 -0.44572666976876801 0 -0.088210056492205854 -0.43977313325318929 0 -0.081059336198343934 -0.44816392527493643 0 -0.08433493977692659 -0.45318941264478591 0 -0.088210056492205854 -0.43977313325318929 0 -0.081059336198343934 -0.44816392527493643 0 -0.075578014486730113 -0.44572666976876801 0 -0.081770627715032143 -0.45412036435267611 0 -0.081059336198343934 -0.44816392527493643 0 -0.081770627715032143 -0.45412036435267611 0 -0.08433493977692659 -0.45318941264478591 0 -0.081059336198343934 -0.44816392527493643 0 -0.053924612114738417 -0.5 0 -0.071740069221396391 -0.47917621330120153 0 -0.082672417745047466 -0.5 0 -0.070902315625145845 -0.46184276829007709 0 -0.071740069221396391 -0.47917621330120153 0 -0.064516739023396122 -0.47024865518675912 0 -0.070902315625145845 -0.46184276829007709 0 -0.071740069221396391 -0.47917621330120153 0 -0.088827296750382145 -0.47614688954591028 0 -0.054725782139620843 -0.47465441600461988 0 -0.071740069221396391 -0.47917621330120153 0 -0.064516739023396122 -0.47024865518675912 0 -0.071740069221396391 -0.47917621330120153 0 -0.088827296750382145 -0.47614688954591028 0 -0.092574486378058388 -0.48983442125584992 0 -0.070902315625145845 -0.46184276829007709 0 -0.088827296750382145 -0.47614688954591028 0 -0.071740069221396391 -0.47917621330120153 0 -0.082672417745047466 -0.5 0 -0.092574486378058388 -0.48983442125584992 0 -0.088827296750382145 -0.47614688954591028 0 -0.092574486378058388 -0.48983442125584992 0 -0.10675227787561831 -0.49045101080174341 0 -0.082672417745047466 -0.5 0 -0.092574486378058388 -0.48983442125584992 0 -0.11142022337535649 -0.49999999999999739 0 -0.092574486378058388 -0.48983442125584992 0 -0.10675227787561831 -0.49045101080174341 0 -0.11142022337535649 -0.49999999999999739 0 -0.088827296750382145 -0.47614688954591028 0 -0.1091235691764062 -0.47635029865628142 0 -0.1035545323111647 -0.46824403076276311 0 -0.088827296750382145 -0.47614688954591028 0 -0.10675227787561831 -0.49045101080174341 0 -0.1091235691764062 -0.47635029865628142 0 -0.088827296750382145 -0.47614688954591028 0 -0.10675227787561831 -0.49045101080174341 0 -0.088827296750382145 -0.47614688954591028 0 -0.096132201142348078 -0.46465403021460239 0 -0.1035545323111647 -0.46824403076276311 0 -0.1091235691764062 -0.47635029865628142 0 -0.1116756894779356 -0.46896268116212803 0 -0.1035545323111647 -0.46824403076276311 0 -0.1091235691764062 -0.47635029865628142 0 -0.1116756894779356 -0.46896268116212803 0 -0.1234607354940172 -0.47055431355835919 0 -0.12978935219267479 -0.4854989751382105 0 -0.1234607354940172 -0.47055431355835919 0 -0.1161092316228146 -0.48457091963091892 0 -0.10675227787561831 -0.49045101080174341 0 -0.1091235691764062 -0.47635029865628142 0 -0.1161092316228146 -0.48457091963091892 0 -0.1091235691764062 -0.47635029865628142 0 -0.1234607354940172 -0.47055431355835919 0 -0.1161092316228146 -0.48457091963091892 0 -0.12978935219267479 -0.4854989751382105 0 -0.1161092316228146 -0.48457091963091892 0 -0.11142022337535649 -0.49999999999999739 0 -0.12978935219267479 -0.4854989751382105 0 -0.11142022337535649 -0.49999999999999739 0 -0.10675227787561831 -0.49045101080174341 0 -0.1161092316228146 -0.48457091963091892 0 -0.11142022337535649 -0.49999999999999739 0 -0.093400774435150546 -0.4486836715159484 0 -0.1077215978074724 -0.44219045150423708 0 -0.1177763862325383 -0.45128808948217841 0 -0.093400774435150546 -0.4486836715159484 0 -0.1177763862325383 -0.45128808948217841 0 -0.093400774435150546 -0.4486836715159484 0 -0.1077215978074724 -0.44219045150423708 0 -0.1012358633401006 -0.43473910522071257 0 -0.081770627715032143 -0.45412036435267611 0 -0.11056392093015451 -0.46070208167110838 0 -0.093400774435150546 -0.4486836715159484 0 -0.11056392093015451 -0.46070208167110838 0 -0.1177763862325383 -0.45128808948217841 0 -0.08433493977692659 -0.45318941264478591 0 -0.093400774435150546 -0.4486836715159484 0 -0.11056392093015451 -0.46070208167110838 0 -0.081770627715032143 -0.45412036435267611 0 -0.096132201142348078 -0.46465403021460239 0 -0.11056392093015451 -0.46070208167110838 0 -0.096132201142348078 -0.46465403021460239 0 -0.1035545323111647 -0.46824403076276311 0 -0.11056392093015451 -0.46070208167110838 0 -0.1116756894779356 -0.46896268116212803 0 -0.1035545323111647 -0.46824403076276311 0 -0.11056392093015451 -0.46070208167110838 0 -0.12746237983447389 -0.45829161939780888 0 -0.11056392093015451 -0.46070208167110838 0 -0.1177763862325383 -0.45128808948217841 0 -0.13935721414527691 -0.46728379898954092 0 -0.1234607354940172 -0.47055431355835919 0 -0.11056392093015451 -0.46070208167110838 0 -0.13935721414527691 -0.46728379898954092 0 -0.11056392093015451 -0.46070208167110838 0 -0.1116756894779356 -0.46896268116212803 0 -0.1234607354940172 -0.47055431355835919 0 -0.11056392093015451 -0.46070208167110838 0 -0.13305433470143349 -0.44205523321931012 0 -0.1177763862325383 -0.45128808948217841 0 -0.1184733672221002 -0.43405093979810938 0 -0.1077215978074724 -0.44219045150423708 0 -0.1177763862325383 -0.45128808948217841 0 -0.1184733672221002 -0.43405093979810938 0 -0.13500223630862621 -0.42911114238816411 0 -0.1184733672221002 -0.43405093979810938 0 -0.1181367869032745 -0.41628879779663908 0 -0.1012358633401006 -0.43473910522071257 0 -0.1181367869032745 -0.41628879779663908 0 -0.1184733672221002 -0.43405093979810938 0 -0.1012358633401006 -0.43473910522071257 0 -0.1181367869032745 -0.41628879779663908 0 -0.1077215978074724 -0.44219045150423708 0 -0.1184733672221002 -0.43405093979810938 0 -0.1012358633401006 -0.43473910522071257 0 -0.1012358633401006 -0.43473910522071257 0 -0.1018189717088715 -0.41791871759964722 0 -0.088721822311749771 -0.42091241392223061 0 -0.1012358633401006 -0.43473910522071257 0 -0.1018189717088715 -0.41791871759964722 0 -0.1181367869032745 -0.41628879779663908 0 -0.1018189717088715 -0.41791871759964722 0 -0.1181367869032745 -0.41628879779663908 0 -0.10391887844635091 -0.40547930691241502 0 -0.1018189717088715 -0.41791871759964722 0 -0.10391887844635091 -0.40547930691241502 0 -0.092474810499768481 -0.40755759368105338 0 -0.1018189717088715 -0.41791871759964722 0 -0.088721822311749771 -0.42091241392223061 0 -0.092474810499768481 -0.40755759368105338 0 -0.1181367869032745 -0.41628879779663908 0 -0.10391887844635091 -0.40547930691241502 0 -0.10949038341024921 -0.37343765465516898 0 -0.1201769342067032 -0.39271001729944099 0 -0.10391887844635091 -0.40547930691241502 0 -0.1181367869032745 -0.41628879779663908 0 -0.1201769342067032 -0.39271001729944099 0 -0.10391887844635091 -0.40547930691241502 0 -0.10949038341024921 -0.37343765465516898 0 -0.10391887844635091 -0.40547930691241502 0 -0.089700969989424173 -0.39466981602819501 0 -0.13363954654254681 -0.37329861950086068 0 -0.10949038341024921 -0.37343765465516898 0 -0.1201769342067032 -0.39271001729944099 0 -0.10949038341024921 -0.37343765465516898 0 -0.089700969989424173 -0.39466981602819501 0 -0.10949038341024921 -0.37343765465516898 0 -0.088535584910975879 -0.37065320031021792 0 -0.089700969989424173 -0.39466981602819501 0 -0.10391887844635091 -0.40547930691241502 0 -0.089700969989424173 -0.39466981602819501 0 -0.092474810499768481 -0.40755759368105338 0 -0.10391887844635091 -0.40547930691241502 0 -0.089700969989424173 -0.39466981602819501 0 -0.089700969989424173 -0.39466981602819501 0 -0.085910561597869459 -0.39873656429039878 0 -0.092474810499768481 -0.40755759368105338 0 -0.089700969989424173 -0.39466981602819501 0 -0.085910561597869459 -0.39873656429039878 0 -0.089700969989424173 -0.39466981602819501 0 -0.085910561597869459 -0.39873656429039878 0 -0.077928614359584453 -0.39641116842552548 0 -0.089700969989424173 -0.39466981602819501 0 -0.074398399125636547 -0.38303568568064789 0 -0.077928614359584453 -0.39641116842552548 0 -0.085910561597869459 -0.39873656429039878 0 -0.077897754663343838 -0.40781521776910401 0 -0.092474810499768481 -0.40755759368105338 0 -0.085910561597869459 -0.39873656429039878 0 -0.077928614359584453 -0.39641116842552548 0 -0.077897754663343838 -0.40781521776910401 0 -0.088535584910975879 -0.37065320031021792 0 -0.089700969989424173 -0.39466981602819501 0 -0.074398399125636547 -0.38303568568064789 0 -0.089700969989424173 -0.39466981602819501 0 -0.074398399125636547 -0.38303568568064789 0 -0.057787625409925637 -0.37252347059617641 0 -0.074398399125636547 -0.38303568568064789 0 -0.063717755102193796 -0.39692453698704022 0 -0.077928614359584453 -0.39641116842552548 0 -0.063717755102193796 -0.39692453698704022 0 -0.077897754663343838 -0.40781521776910401 0 -0.074398399125636547 -0.38303568568064789 0 -0.077928614359584453 -0.39641116842552548 0 -0.063717755102193796 -0.39692453698704022 0 -0.063717755102193796 -0.39692453698704022 0 -0.069647884794461962 -0.42132560337790409 0 -0.077897754663343838 -0.40781521776910401 0 -0.063717755102193796 -0.39692453698704022 0 -0.069647884794461962 -0.42132560337790409 0 -0.075578014486730113 -0.44572666976876801 0 -0.069647884794461962 -0.42132560337790409 0 -0.075578014486730113 -0.44572666976876801 0 -0.088210056492205854 -0.43977313325318929 0 -0.069647884794461962 -0.42132560337790409 0 -0.075578014486730113 -0.44572666976876801 0 -0.069647884794461962 -0.42132560337790409 0 -0.06291362301089061 -0.43602584586139698 0 -0.088210056492205854 -0.43977313325318929 0 -0.069647884794461962 -0.42132560337790409 0 -0.088721822311749771 -0.42091241392223061 0 -0.088210056492205854 -0.43977313325318929 0 -0.1012358633401006 -0.43473910522071257 0 -0.088721822311749771 -0.42091241392223061 0 -0.069647884794461962 -0.42132560337790409 0 -0.077897754663343838 -0.40781521776910401 0 -0.088721822311749771 -0.42091241392223061 0 -0.077897754663343838 -0.40781521776910401 0 -0.088721822311749771 -0.42091241392223061 0 -0.092474810499768481 -0.40755759368105338 0 -0.092655175782176927 -0.08732755346905563 0 -0.07826407895501486 -0.09106189459007008 0 -0.076597322057705738 -0.075568222321581238 0 -0.090240124141503619 -0.066598901073743874 0 -0.076597322057705738 -0.075568222321581238 0 -0.071164599774181686 -0.059769372973379732 0 -0.092655175782176927 -0.08732755346905563 0 -0.090240124141503619 -0.066598901073743874 0 -0.076597322057705738 -0.075568222321581238 0 -0.076597322057705738 -0.075568222321581238 0 -0.071164599774181686 -0.059769372973379732 0 -0.060137266250704681 -0.066365220902111874 0 -0.076597322057705738 -0.075568222321581238 0 -0.060324671715374707 -0.075288996906516317 0 -0.060137266250704681 -0.066365220902111874 0 -0.076597322057705738 -0.075568222321581238 0 -0.060137266250704681 -0.066365220902111874 0 -0.076597322057705738 -0.075568222321581238 0 -0.065985872419931826 -0.085541341542039698 0 -0.060324671715374707 -0.075288996906516317 0 -0.07826407895501486 -0.09106189459007008 0 -0.076597322057705738 -0.075568222321581238 0 -0.065985872419931826 -0.085541341542039698 0 -0.07826407895501486 -0.09106189459007008 0 -0.065985872419931826 -0.085541341542039698 0 -0.06609579143039751 -0.099821382562985297 0 -0.065985872419931826 -0.085541341542039698 0 -0.06609579143039751 -0.099821382562985297 0 -0.056596744946637488 -0.088059774439632699 0 -0.07826407895501486 -0.09106189459007008 0 -0.06609579143039751 -0.099821382562985297 0 -0.089986233084862366 -0.1070509730546885 0 -0.06609579143039751 -0.099821382562985297 0 -0.073884290062487062 -0.1129727679911611 0 -0.089986233084862366 -0.1070509730546885 0 -0.06609579143039751 -0.099821382562985297 0 -0.089986233084862366 -0.1070509730546885 0 -0.06609579143039751 -0.099821382562985297 0 -0.063757542672744749 -0.10923391483938839 0 -0.073884290062487062 -0.1129727679911611 0 -0.065492762033570073 -0.1224778386206422 0 -0.073884290062487062 -0.1129727679911611 0 -0.083660905721910955 -0.1244068478256465 0 -0.063757542672744749 -0.10923391483938839 0 -0.065492762033570073 -0.1224778386206422 0 -0.073884290062487062 -0.1129727679911611 0 -0.073884290062487062 -0.1129727679911611 0 -0.083660905721910955 -0.1244068478256465 0 -0.089986233084862366 -0.1070509730546885 0 -0.083660905721910955 -0.1244068478256465 0 -0.089986233084862366 -0.1070509730546885 0 -0.1002786375683075 -0.1325069584026233 0 -0.092655175782176927 -0.08732755346905563 0 -0.07826407895501486 -0.09106189459007008 0 -0.089986233084862366 -0.1070509730546885 0 -0.089986233084862366 -0.1070509730546885 0 -0.1075165413432862 -0.096226210104282658 0 -0.1138766747393273 -0.11428056354639179 0 -0.092655175782176927 -0.08732755346905563 0 -0.089986233084862366 -0.1070509730546885 0 -0.1075165413432862 -0.096226210104282658 0 -0.089986233084862366 -0.1070509730546885 0 -0.1138766747393273 -0.11428056354639179 0 -0.089986233084862366 -0.1070509730546885 0 -0.1138766747393273 -0.11428056354639179 0 -0.1002786375683075 -0.1325069584026233 0 -0.1075165413432862 -0.096226210104282658 0 -0.1138766747393273 -0.11428056354639179 0 -0.1312908544755215 -0.092470264183890094 0 -0.10938310320872741 -0.077847050360222408 0 -0.12669216417476731 -0.070885596599344153 0 -0.1312908544755215 -0.092470264183890094 0 -0.1075165413432862 -0.096226210104282658 0 -0.10938310320872741 -0.077847050360222408 0 -0.1312908544755215 -0.092470264183890094 0 -0.092655175782176927 -0.08732755346905563 0 -0.1075165413432862 -0.096226210104282658 0 -0.10938310320872741 -0.077847050360222408 0 -0.090240124141503619 -0.066598901073743874 0 -0.10938310320872741 -0.077847050360222408 0 -0.1080246755676703 -0.054625099827685923 0 -0.092655175782176927 -0.08732755346905563 0 -0.090240124141503619 -0.066598901073743874 0 -0.10938310320872741 -0.077847050360222408 0 -0.10938310320872741 -0.077847050360222408 0 -0.1080246755676703 -0.054625099827685923 0 -0.12669216417476731 -0.070885596599344153 0 -0.1080246755676703 -0.054625099827685923 0 -0.12669216417476731 -0.070885596599344153 0 -0.13493405143952761 -0.054577001896876483 0 -0.1200399666966657 -0.034245437065707263 0 -0.1080246755676703 -0.054625099827685923 0 -0.13493405143952761 -0.054577001896876483 0 -0.094628370038424087 -0.03155440931783024 0 -0.1080246755676703 -0.054625099827685923 0 -0.081419969465412884 -0.048135163314422837 0 -0.1200399666966657 -0.034245437065707263 0 -0.094628370038424087 -0.03155440931783024 0 -0.1080246755676703 -0.054625099827685923 0 -0.1051458819538037 -0.013913872234538089 0 -0.13050725110392569 -0.01787843097546897 0 -0.1289042152683513 0.0036931705937147661 0 -0.1051458819538037 -0.013913872234538089 0 -0.1289042152683513 0.0036931705937147661 0 -0.10949852996144149 0.008215710650763694 0 -0.1200399666966657 -0.034245437065707263 0 -0.1051458819538037 -0.013913872234538089 0 -0.1200399666966657 -0.034245437065707263 0 -0.1051458819538037 -0.013913872234538089 0 -0.13050725110392569 -0.01787843097546897 0 -0.094628370038424087 -0.03155440931783024 0 -0.1051458819538037 -0.013913872234538089 0 -0.084689412958856458 -0.01302347359941588 0 -0.1200399666966657 -0.034245437065707263 0 -0.094628370038424087 -0.03155440931783024 0 -0.1051458819538037 -0.013913872234538089 0 -0.1051458819538037 -0.013913872234538089 0 -0.0902517972109418 0.0064176925966310744 0 -0.084689412958856458 -0.01302347359941588 0 -0.066411623782526366 -0.0027931021134092919 0 -0.0902517972109418 0.0064176925966310744 0 -0.1051458819538037 -0.013913872234538089 0 -0.084689412958856458 -0.01302347359941588 0 -0.0902517972109418 0.0064176925966310744 0 -0.094628370038424087 -0.03155440931783024 0 -0.084689412958856458 -0.01302347359941588 0 -0.06989123536768474 -0.027493142802490041 0 -0.06989123536768474 -0.027493142802490041 0 -0.066411623782526366 -0.0027931021134092919 0 -0.053811971049329763 -0.018591524237316519 0 -0.084689412958856458 -0.01302347359941588 0 -0.06989123536768474 -0.027493142802490041 0 -0.066411623782526366 -0.0027931021134092919 0 -0.090240124141503619 -0.066598901073743874 0 -0.081419969465412884 -0.048135163314422837 0 -0.071164599774181686 -0.059769372973379732 0 -0.090240124141503619 -0.066598901073743874 0 -0.1080246755676703 -0.054625099827685923 0 -0.081419969465412884 -0.048135163314422837 0 -0.094628370038424087 -0.03155440931783024 0 -0.06989123536768474 -0.027493142802490041 0 -0.081419969465412884 -0.048135163314422837 0 -0.06989123536768474 -0.027493142802490041 0 -0.081419969465412884 -0.048135163314422837 0 -0.063584240544400608 -0.0457320959888965 0 -0.081419969465412884 -0.048135163314422837 0 -0.063584240544400608 -0.0457320959888965 0 -0.071164599774181686 -0.059769372973379732 0 -0.063584240544400608 -0.0457320959888965 0 -0.071164599774181686 -0.059769372973379732 0 -0.057424874172502111 -0.055269705322059853 0 -0.071164599774181686 -0.059769372973379732 0 -0.057424874172502111 -0.055269705322059853 0 -0.060137266250704681 -0.066365220902111874 0 -0.043677210443703429 -0.05716221948264294 0 -0.060137266250704681 -0.066365220902111874 0 -0.057424874172502111 -0.055269705322059853 0 -0.043677210443703429 -0.05716221948264294 0 -0.060137266250704681 -0.066365220902111874 0 -0.057424874172502111 -0.055269705322059853 0 -0.051411497984503798 -0.046462419957327972 0 -0.043677210443703429 -0.05716221948264294 0 -0.063584240544400608 -0.0457320959888965 0 -0.057424874172502111 -0.055269705322059853 0 -0.051411497984503798 -0.046462419957327972 0 -0.063584240544400608 -0.0457320959888965 0 -0.052350932325130432 -0.033740994873064922 0 -0.051411497984503798 -0.046462419957327972 0 -0.06989123536768474 -0.027493142802490041 0 -0.063584240544400608 -0.0457320959888965 0 -0.052350932325130432 -0.033740994873064922 0 -0.052350932325130432 -0.033740994873064922 0 -0.051411497984503798 -0.046462419957327972 0 -0.040020232436783071 -0.040407084119975477 0 -0.052350932325130432 -0.033740994873064922 0 -0.040020232436783071 -0.040407084119975477 0 -0.036363254429862817 -0.023651948757307969 0 -0.036363254429862817 -0.023651948757307969 0 -0.02733541563936118 -0.048025339113313907 0 -0.040020232436783071 -0.040407084119975477 0 -0.036363254429862817 -0.023651948757307969 0 -0.02733541563936118 -0.048025339113313907 0 -0.040020232436783071 -0.040407084119975477 0 -0.036363254429862817 -0.023651948757307969 0 -0.043677210443703429 -0.05716221948264294 0 -0.028853785578572311 -0.057607045030171042 0 -0.02733541563936118 -0.048025339113313907 0 -0.043677210443703429 -0.05716221948264294 0 -0.02733541563936118 -0.048025339113313907 0 -0.040020232436783071 -0.040407084119975477 0 -0.043677210443703429 -0.05716221948264294 0 -0.02733541563936118 -0.048025339113313907 0 -0.040020232436783071 -0.040407084119975477 0 -0.043677210443703429 -0.05716221948264294 0 -0.051411497984503798 -0.046462419957327972 0 -0.040020232436783071 -0.040407084119975477 0 -0.043677210443703429 -0.05716221948264294 0 -0.066411623782526366 -0.0027931021134092919 0 -0.054432639673103557 -0.0054449776461233052 0 -0.053811971049329763 -0.018591524237316519 0 -0.054432639673103557 -0.0054449776461233052 0 -0.043869853131501289 -0.0033856076487974169 0 -0.053637110729056837 0.002990323415030006 0 -0.066411623782526366 -0.0027931021134092919 0 -0.054432639673103557 -0.0054449776461233052 0 -0.053637110729056837 0.002990323415030006 0 -0.054432639673103557 -0.0054449776461233052 0 -0.053811971049329763 -0.018591524237316519 0 -0.043869853131501289 -0.0033856076487974169 0 -0.06989123536768474 -0.027493142802490041 0 -0.052350932325130432 -0.033740994873064922 0 -0.053811971049329763 -0.018591524237316519 0 -0.052350932325130432 -0.033740994873064922 0 -0.053811971049329763 -0.018591524237316519 0 -0.036363254429862817 -0.023651948757307969 0 -0.036363254429862817 -0.023651948757307969 0 -0.032603002991312642 -0.0064236466643313554 0 -0.025546622716413531 -0.017418084054329978 0 -0.036363254429862817 -0.023651948757307969 0 -0.032603002991312642 -0.0064236466643313554 0 -0.053811971049329763 -0.018591524237316519 0 -0.036363254429862817 -0.023651948757307969 0 -0.043869853131501289 -0.0033856076487974169 0 -0.036363254429862817 -0.023651948757307969 0 -0.032603002991312642 -0.0064236466643313554 0 -0.043869853131501289 -0.0033856076487974169 0 -0.036363254429862817 -0.023651948757307969 0 -0.043869853131501289 -0.0033856076487974169 0 -0.021405201553429981 -0.0056405961426311546 0 -0.025546622716413531 -0.017418084054329978 0 -0.01396765155409738 -0.022085847713907342 0 -0.032603002991312642 -0.0064236466643313554 0 -0.021405201553429981 -0.0056405961426311546 0 -0.028842751552762211 0.01080465542864523 0 -0.021405201553429981 -0.0056405961426311546 0 -0.01396765155409738 -0.022085847713907342 0 -0.032603002991312642 -0.0064236466643313554 0 -0.021405201553429981 -0.0056405961426311546 0 -0.025546622716413531 -0.017418084054329978 0 -0.025546622716413531 -0.017418084054329978 0 -0.023764465284037879 -0.030530080430775739 0 -0.01396765155409738 -0.022085847713907342 0 -0.036363254429862817 -0.023651948757307969 0 -0.025546622716413531 -0.017418084054329978 0 -0.023764465284037879 -0.030530080430775739 0 -0.01396765155409738 -0.022085847713907342 0 -0.01560938208045486 -0.041469182515019708 0 0.0015075461902561359 -0.0206127781360903 0 -0.01560938208045486 -0.041469182515019708 0 0.0015075461902561359 -0.0206127781360903 0 -0.01396765155409738 -0.022085847713907342 0 -0.00071596282873132163 -0.008595039857743892 0 0.0015075461902561359 -0.0206127781360903 0 -0.021405201553429981 -0.0056405961426311546 0 -0.01396765155409738 -0.022085847713907342 0 -0.010898625486627719 -0.0086693871907334904 0 -0.01396765155409738 -0.022085847713907342 0 -0.010898625486627719 -0.0086693871907334904 0 -0.00071596282873132163 -0.008595039857743892 0 -0.010898625486627719 -0.0086693871907334904 0 -0.00071596282873132163 -0.008595039857743892 0 -0.0040144348922586757 -0.0020453828929084031 0 -0.00071596282873132163 -0.008595039857743892 0 -0.0040144348922586757 -0.0020453828929084031 0 0.0044529143093724691 0.001599530544337085 0 -0.010898625486627719 -0.0086693871907334904 0 -0.0040144348922586757 -0.0020453828929084031 0 -0.01357803753568306 0.0023392803976896841 0 -0.021405201553429981 -0.0056405961426311546 0 -0.010898625486627719 -0.0086693871907334904 0 -0.01357803753568306 0.0023392803976896841 0 -0.025362192007991322 -0.053352655090384019 0 -0.02733541563936118 -0.048025339113313907 0 -0.01560938208045486 -0.041469182515019708 0 -0.025362192007991322 -0.053352655090384019 0 -0.01560938208045486 -0.041469182515019708 0 -0.025362192007991322 -0.053352655090384019 0 -0.01560938208045486 -0.041469182515019708 0 -0.014701959107139151 -0.052157727798657988 0 -0.025362192007991322 -0.053352655090384019 0 -0.021445276605362051 -0.063927556826580439 0 -0.025362192007991322 -0.053352655090384019 0 -0.014701959107139151 -0.052157727798657988 0 -0.021445276605362051 -0.063927556826580439 0 -0.028853785578572311 -0.057607045030171042 0 -0.025362192007991322 -0.053352655090384019 0 -0.028853785578572311 -0.057607045030171042 0 -0.025362192007991322 -0.053352655090384019 0 -0.021445276605362051 -0.063927556826580439 0 -0.028853785578572311 -0.057607045030171042 0 -0.025362192007991322 -0.053352655090384019 0 -0.02733541563936118 -0.048025339113313907 0 -0.025362192007991322 -0.053352655090384019 0 -0.02733541563936118 -0.048025339113313907 0 -0.023764465284037879 -0.030530080430775739 0 -0.01396765155409738 -0.022085847713907342 0 -0.01560938208045486 -0.041469182515019708 0 -0.036363254429862817 -0.023651948757307969 0 -0.023764465284037879 -0.030530080430775739 0 -0.02733541563936118 -0.048025339113313907 0 -0.023764465284037879 -0.030530080430775739 0 -0.02733541563936118 -0.048025339113313907 0 -0.01560938208045486 -0.041469182515019708 0 -0.02733541563936118 -0.048025339113313907 0 -0.01560938208045486 -0.041469182515019708 0 -0.01560938208045486 -0.041469182515019708 0 0.0015075461902561359 -0.0206127781360903 0 9.3668589405805289e-05 -0.032689431139981337 0 -0.01560938208045486 -0.041469182515019708 0 -0.001359163330916917 -0.044638420598685717 0 -0.014701959107139151 -0.052157727798657988 0 -0.01560938208045486 -0.041469182515019708 0 -0.001359163330916917 -0.044638420598685717 0 9.3668589405805289e-05 -0.032689431139981337 0 -0.01560938208045486 -0.041469182515019708 0 9.3668589405805289e-05 -0.032689431139981337 0 -0.001359163330916917 -0.044638420598685717 0 -0.014701959107139151 -0.052157727798657988 0 -0.0047714937038859373 -0.056214114566174041 0 -0.0047714937038859373 -0.056214114566174041 0 -0.021445276605362051 -0.063927556826580439 0 -0.014701959107139151 -0.052157727798657988 0 -0.0047714937038859373 -0.056214114566174041 0 -0.021445276605362051 -0.063927556826580439 0 -0.0076763567387179588 -0.069332516870295069 0 -0.0028374965336953402 -0.080678514719808053 0 0.0045214092930832986 -0.064584551569048368 0 -0.0047714937038859373 -0.056214114566174041 0 -0.0076763567387179588 -0.069332516870295069 0 -0.021445276605362051 -0.063927556826580439 0 -0.0047714937038859373 -0.056214114566174041 0 -0.0076763567387179588 -0.069332516870295069 0 0.0045214092930832986 -0.064584551569048368 0 -0.0076763567387179588 -0.069332516870295069 0 -0.013990638167726371 -0.084053615434823106 0 -0.021445276605362051 -0.063927556826580439 0 -0.0076763567387179588 -0.069332516870295069 0 -0.0028374965336953402 -0.080678514719808053 0 -0.013990638167726371 -0.084053615434823106 0 -0.0052299334647438146 -0.085833971909291165 0 -0.0059317575587944328 -0.1058110091446678 0 0.0052922863549169771 -0.088257816050998153 0 -0.0052299334647438146 -0.085833971909291165 0 -0.013990638167726371 -0.084053615434823106 0 -0.0059317575587944328 -0.1058110091446678 0 -0.0052299334647438146 -0.085833971909291165 0 -0.0028374965336953402 -0.080678514719808053 0 -0.013990638167726371 -0.084053615434823106 0 -0.0052299334647438146 -0.085833971909291165 0 -0.0028374965336953402 -0.080678514719808053 0 0.0052922863549169771 -0.088257816050998153 0 -0.0052299334647438146 -0.085833971909291165 0 -0.0028374965336953402 -0.080678514719808053 0 -0.0028374965336953402 -0.080678514719808053 0 -0.013990638167726371 -0.084053615434823106 0 -0.013990638167726371 -0.084053615434823106 0 -0.042205349775933113 -0.092591792071280529 0 -0.018668455477795519 -0.098157457290224195 0 -0.013990638167726371 -0.084053615434823106 0 -0.042205349775933113 -0.092591792071280529 0 -0.013990638167726371 -0.084053615434823106 0 -0.031130097593418438 -0.079066612264424088 0 -0.042205349775933113 -0.092591792071280529 0 -0.013990638167726371 -0.084053615434823106 0 -0.031130097593418438 -0.079066612264424088 0 -0.021445276605362051 -0.063927556826580439 0 -0.013990638167726371 -0.084053615434823106 0 -0.021445276605362051 -0.063927556826580439 0 -0.043677210443703429 -0.05716221948264294 0 -0.049027332956765687 -0.067926517719426358 0 -0.047350148036657498 -0.073990476702720978 0 -0.043677210443703429 -0.05716221948264294 0 -0.028853785578572311 -0.057607045030171042 0 -0.047350148036657498 -0.073990476702720978 0 -0.021445276605362051 -0.063927556826580439 0 -0.046879125824652201 -0.075693484725012306 0 -0.028853785578572311 -0.057607045030171042 0 -0.021445276605362051 -0.063927556826580439 0 -0.047350148036657498 -0.073990476702720978 0 -0.043677210443703429 -0.05716221948264294 0 -0.047350148036657498 -0.073990476702720978 0 -0.021445276605362051 -0.063927556826580439 0 -0.047350148036657498 -0.073990476702720978 0 -0.046879125824652201 -0.075693484725012306 0 -0.031130097593418438 -0.079066612264424088 0 -0.021445276605362051 -0.063927556826580439 0 -0.046879125824652201 -0.075693484725012306 0 -0.031130097593418438 -0.079066612264424088 0 -0.042205349775933113 -0.092591792071280529 0 -0.046879125824652201 -0.075693484725012306 0 -0.042205349775933113 -0.092591792071280529 0 -0.046879125824652201 -0.075693484725012306 0 -0.042205349775933113 -0.092591792071280529 0 -0.050336677896006578 -0.081680171984751138 0 -0.046879125824652201 -0.075693484725012306 0 -0.06609579143039751 -0.099821382562985297 0 -0.042205349775933113 -0.092591792071280529 0 -0.056596744946637488 -0.088059774439632699 0 -0.050336677896006578 -0.081680171984751138 0 -0.057339260936804852 -0.081815371688228875 0 -0.051416628166991801 -0.075901525278196977 0 -0.042205349775933113 -0.092591792071280529 0 -0.050336677896006578 -0.081680171984751138 0 -0.056596744946637488 -0.088059774439632699 0 -0.065985872419931826 -0.085541341542039698 0 -0.056596744946637488 -0.088059774439632699 0 -0.057339260936804852 -0.081815371688228875 0 -0.065985872419931826 -0.085541341542039698 0 -0.057339260936804852 -0.081815371688228875 0 -0.060324671715374707 -0.075288996906516317 0 -0.050336677896006578 -0.081680171984751138 0 -0.056596744946637488 -0.088059774439632699 0 -0.057339260936804852 -0.081815371688228875 0 -0.057339260936804852 -0.081815371688228875 0 -0.060324671715374707 -0.075288996906516317 0 -0.051416628166991801 -0.075901525278196977 0 -0.043677210443703429 -0.05716221948264294 0 -0.060137266250704681 -0.066365220902111874 0 -0.049027332956765687 -0.067926517719426358 0 -0.060324671715374707 -0.075288996906516317 0 -0.060137266250704681 -0.066365220902111874 0 -0.049027332956765687 -0.067926517719426358 0 -0.060324671715374707 -0.075288996906516317 0 -0.049027332956765687 -0.067926517719426358 0 -0.051416628166991801 -0.075901525278196977 0 -0.049027332956765687 -0.067926517719426358 0 -0.047350148036657498 -0.073990476702720978 0 -0.049027332956765687 -0.067926517719426358 0 -0.047350148036657498 -0.073990476702720978 0 -0.051416628166991801 -0.075901525278196977 0 -0.047350148036657498 -0.073990476702720978 0 -0.046879125824652201 -0.075693484725012306 0 -0.047350148036657498 -0.073990476702720978 0 -0.046879125824652201 -0.075693484725012306 0 -0.051416628166991801 -0.075901525278196977 0 -0.050336677896006578 -0.081680171984751138 0 -0.046879125824652201 -0.075693484725012306 0 -0.051416628166991801 -0.075901525278196977 0 -0.063757542672744749 -0.10923391483938839 0 -0.065492762033570073 -0.1224778386206422 0 -0.049557327164524323 -0.101663670182765 0 -0.065492762033570073 -0.1224778386206422 0 -0.049557327164524323 -0.101663670182765 0 -0.065492762033570073 -0.1224778386206422 0 -0.050342428112584492 -0.1175698026846546 0 -0.049557327164524323 -0.101663670182765 0 -0.050342428112584492 -0.1175698026846546 0 -0.034611117482187911 -0.12004917770999469 0 -0.058019657192402471 -0.1316705923842561 0 -0.065492762033570073 -0.1224778386206422 0 -0.050342428112584492 -0.1175698026846546 0 -0.058019657192402471 -0.1316705923842561 0 -0.06609579143039751 -0.099821382562985297 0 -0.063757542672744749 -0.10923391483938839 0 -0.049557327164524323 -0.101663670182765 0 -0.06609579143039751 -0.099821382562985297 0 -0.042205349775933113 -0.092591792071280529 0 -0.06609579143039751 -0.099821382562985297 0 -0.042205349775933113 -0.092591792071280529 0 -0.049557327164524323 -0.101663670182765 0 -0.042205349775933113 -0.092591792071280529 0 -0.049557327164524323 -0.101663670182765 0 -0.034611117482187911 -0.12004917770999469 0 -0.042205349775933113 -0.092591792071280529 0 -0.034611117482187911 -0.12004917770999469 0 -0.042205349775933113 -0.092591792071280529 0 -0.034611117482187911 -0.12004917770999469 0 -0.020271437520491559 -0.1129300934273305 0 -0.050342428112584492 -0.1175698026846546 0 -0.049557327164524323 -0.101663670182765 0 -0.034611117482187911 -0.12004917770999469 0 -0.034611117482187911 -0.12004917770999469 0 -0.020271437520491559 -0.1129300934273305 0 -0.021176215693484279 -0.12677675417529971 0 -0.034611117482187911 -0.12004917770999469 0 -0.020271437520491559 -0.1129300934273305 0 -0.020271437520491559 -0.1129300934273305 0 -0.011649811192148449 -0.1209503378096933 0 -0.021176215693484279 -0.12677675417529971 0 -0.042205349775933113 -0.092591792071280529 0 -0.020271437520491559 -0.1129300934273305 0 -0.018668455477795519 -0.098157457290224195 0 -0.013990638167726371 -0.084053615434823106 0 -0.018668455477795519 -0.098157457290224195 0 -0.0059317575587944328 -0.1058110091446678 0 -0.013990638167726371 -0.084053615434823106 0 -0.0059317575587944328 -0.1058110091446678 0 -0.020271437520491559 -0.1129300934273305 0 -0.018668455477795519 -0.098157457290224195 0 -0.0059317575587944328 -0.1058110091446678 0 -0.020271437520491559 -0.1129300934273305 0 -0.0059317575587944328 -0.1058110091446678 0 -0.0059317575587944328 -0.1058110091446678 0 0.00050623466739229545 -0.1231923227989264 0 -0.0059317575587944328 -0.1058110091446678 0 -0.011649811192148449 -0.1209503378096933 0 0.00050623466739229545 -0.1231923227989264 0 -0.020271437520491559 -0.1129300934273305 0 -0.0059317575587944328 -0.1058110091446678 0 -0.011649811192148449 -0.1209503378096933 0 -0.011375879855364351 -0.13604150950224209 0 0.0069442268935788268 -0.14057363645318521 0 0.00050623466739229545 -0.1231923227989264 0 -0.011649811192148449 -0.1209503378096933 0 -0.011375879855364351 -0.13604150950224209 0 0.00050623466739229545 -0.1231923227989264 0 -0.011649811192148449 -0.1209503378096933 0 -0.011375879855364351 -0.13604150950224209 0 -0.021176215693484279 -0.12677675417529971 0 -0.034611117482187911 -0.12004917770999469 0 -0.021176215693484279 -0.12677675417529971 0 -0.02811937301852847 -0.14352045489932741 0 -0.011375879855364351 -0.13604150950224209 0 -0.021176215693484279 -0.12677675417529971 0 -0.02811937301852847 -0.14352045489932741 0 -0.02811937301852847 -0.14352045489932741 0 -0.014127484564515 -0.160080921606751 0 -0.035669422888468201 -0.16017944991396441 0 -0.011375879855364351 -0.13604150950224209 0 -0.02811937301852847 -0.14352045489932741 0 -0.014127484564515 -0.160080921606751 0 -0.014127484564515 -0.160080921606751 0 0.0069442268935788268 -0.14057363645318521 0 -0.011375879855364351 -0.13604150950224209 0 -0.014127484564515 -0.160080921606751 0 0.0069442268935788268 -0.14057363645318521 0 -0.014127484564515 -0.160080921606751 0 0.001367190774887289 -0.15601023548811599 0 0.0069442268935788268 -0.14057363645318521 0 -0.0011051753364124341 -0.16441906961975289 0 -0.014127484564515 -0.160080921606751 0 0.001367190774887289 -0.15601023548811599 0 -0.014127484564515 -0.160080921606751 0 -0.0069173441012338873 -0.17363317982223259 0 -0.016781382259483779 -0.1806026567430398 0 -0.0011051753364124341 -0.16441906961975289 0 -0.014127484564515 -0.160080921606751 0 -0.0069173441012338873 -0.17363317982223259 0 -0.0059430438752078214 -0.18543064001305129 0 0.0033703655294495928 -0.1776326111285679 0 0.0016888367019596579 -0.18480537576534531 0 -0.0059430438752078214 -0.18543064001305129 0 0.0016748753455320599 -0.189865468091719 0 0.0016888367019596579 -0.18480537576534531 0 -0.0059430438752078214 -0.18543064001305129 0 -0.0069173441012338873 -0.17363317982223259 0 0.0033703655294495928 -0.1776326111285679 0 -0.0011051753364124341 -0.16441906961975289 0 -0.0069173441012338873 -0.17363317982223259 0 0.0033703655294495928 -0.1776326111285679 0 -0.0059430438752078214 -0.18543064001305129 0 -0.016781382259483779 -0.1806026567430398 0 -0.014947202302913531 -0.19069555450792089 0 -0.0059430438752078214 -0.18543064001305129 0 -0.0069173441012338873 -0.17363317982223259 0 -0.016781382259483779 -0.1806026567430398 0 -0.014127484564515 -0.160080921606751 0 -0.016781382259483779 -0.1806026567430398 0 -0.035199196022608549 -0.17958820676031709 0 -0.016781382259483779 -0.1806026567430398 0 -0.035199196022608549 -0.17958820676031709 0 -0.024180292440678049 -0.18827718721555481 0 -0.016781382259483779 -0.1806026567430398 0 -0.014947202302913531 -0.19069555450792089 0 -0.024180292440678049 -0.18827718721555481 0 -0.014127484564515 -0.160080921606751 0 -0.035669422888468201 -0.16017944991396441 0 -0.035199196022608549 -0.17958820676031709 0 -0.014127484564515 -0.160080921606751 0 -0.035199196022608549 -0.17958820676031709 0 -0.035669422888468201 -0.16017944991396441 0 -0.046079128754800067 -0.17078810841229319 0 -0.054419395141026533 -0.15953155070667521 0 -0.035669422888468201 -0.16017944991396441 0 -0.046079128754800067 -0.17078810841229319 0 -0.035199196022608549 -0.17958820676031709 0 -0.046079128754800067 -0.17078810841229319 0 -0.035199196022608549 -0.17958820676031709 0 -0.052452753816055998 -0.18684064722560961 0 -0.046079128754800067 -0.17078810841229319 0 -0.052452753816055998 -0.18684064722560961 0 -0.05856648734625669 -0.1731397226299172 0 -0.052452753816055998 -0.18684064722560961 0 -0.05856648734625669 -0.1731397226299172 0 -0.066160925849264238 -0.18553731315601019 0 -0.046079128754800067 -0.17078810841229319 0 -0.05856648734625669 -0.1731397226299172 0 -0.054419395141026533 -0.15953155070667521 0 -0.05856648734625669 -0.1731397226299172 0 -0.054419395141026533 -0.15953155070667521 0 -0.06723840093829328 -0.16751220363180769 0 -0.054419395141026533 -0.15953155070667521 0 -0.061702051974756547 -0.1466646217077453 0 -0.045195157690746203 -0.14374541722912609 0 -0.061702051974756547 -0.1466646217077453 0 -0.058019657192402471 -0.1316705923842561 0 -0.045195157690746203 -0.14374541722912609 0 -0.054419395141026533 -0.15953155070667521 0 -0.061702051974756547 -0.1466646217077453 0 -0.069838661508507621 -0.15685599743636949 0 -0.034611117482187911 -0.12004917770999469 0 -0.058019657192402471 -0.1316705923842561 0 -0.045195157690746203 -0.14374541722912609 0 -0.034611117482187911 -0.12004917770999469 0 -0.058019657192402471 -0.1316705923842561 0 -0.034611117482187911 -0.12004917770999469 0 -0.02811937301852847 -0.14352045489932741 0 -0.045195157690746203 -0.14374541722912609 0 -0.034611117482187911 -0.12004917770999469 0 -0.02811937301852847 -0.14352045489932741 0 -0.035669422888468201 -0.16017944991396441 0 -0.054419395141026533 -0.15953155070667521 0 -0.045195157690746203 -0.14374541722912609 0 -0.02811937301852847 -0.14352045489932741 0 -0.035669422888468201 -0.16017944991396441 0 -0.045195157690746203 -0.14374541722912609 0 -0.0300709330061673 -0.25239298583810871 0 -0.0069288431661283859 -0.23594006882876251 0 -0.034682600956165627 -0.22958712280152979 0 -0.01241213471794524 -0.25308273483886817 0 -0.0300709330061673 -0.25239298583810871 0 -0.0069288431661283859 -0.23594006882876251 0 -0.0069288431661283859 -0.23594006882876251 0 -0.018862446544927761 -0.2163220495783082 0 -0.0024249296216109759 -0.21380289379123299 0 -0.018862446544927761 -0.2163220495783082 0 -0.030851612420924511 -0.21453676391850379 0 -0.034682600956165627 -0.22958712280152979 0 -0.0069288431661283859 -0.23594006882876251 0 -0.034682600956165627 -0.22958712280152979 0 -0.0069288431661283859 -0.23594006882876251 0 -0.018862446544927761 -0.2163220495783082 0 -0.034682600956165627 -0.22958712280152979 0 -0.018862446544927761 -0.2163220495783082 0 -0.013148096270509909 -0.20686204464667199 0 -0.029191972132067919 -0.19880624237700931 0 -0.018862446544927761 -0.2163220495783082 0 -0.030851612420924511 -0.21453676391850379 0 -0.029191972132067919 -0.19880624237700931 0 -0.018862446544927761 -0.2163220495783082 0 -0.0024249296216109759 -0.21380289379123299 0 -0.013148096270509909 -0.20686204464667199 0 -0.0024249296216109759 -0.21380289379123299 0 -0.013148096270509909 -0.20686204464667199 0 -0.0021130367834329982 -0.1985169928401376 0 -0.013148096270509909 -0.20686204464667199 0 -0.0057221473242836281 -0.19855554433926489 0 -0.0021130367834329982 -0.1985169928401376 0 -0.0057221473242836281 -0.19855554433926489 0 -0.0021130367834329982 -0.1985169928401376 0 -0.0059430438752078214 -0.18543064001305129 0 -0.0066656061957871071 -0.1917506472726821 0 0.0016748753455320599 -0.189865468091719 0 -0.0057221473242836281 -0.19855554433926489 0 -0.0066656061957871071 -0.1917506472726821 0 0.0016748753455320599 -0.189865468091719 0 -0.0059430438752078214 -0.18543064001305129 0 -0.0066656061957871071 -0.1917506472726821 0 -0.014947202302913531 -0.19069555450792089 0 -0.0057221473242836281 -0.19855554433926489 0 -0.0066656061957871071 -0.1917506472726821 0 -0.014947202302913531 -0.19069555450792089 0 -0.0057221473242836281 -0.19855554433926489 0 -0.029191972132067919 -0.19880624237700931 0 -0.035199196022608549 -0.17958820676031709 0 -0.029191972132067919 -0.19880624237700931 0 -0.024180292440678049 -0.18827718721555481 0 -0.014947202302913531 -0.19069555450792089 0 -0.029191972132067919 -0.19880624237700931 0 -0.024180292440678049 -0.18827718721555481 0 -0.013148096270509909 -0.20686204464667199 0 -0.0057221473242836281 -0.19855554433926489 0 -0.029191972132067919 -0.19880624237700931 0 -0.0057221473242836281 -0.19855554433926489 0 -0.014947202302913531 -0.19069555450792089 0 -0.029191972132067919 -0.19880624237700931 0 -0.029191972132067919 -0.19880624237700931 0 -0.056270907480702799 -0.1990954919138824 0 -0.029191972132067919 -0.19880624237700931 0 -0.056270907480702799 -0.1990954919138824 0 -0.050317607044667569 -0.2068598467745856 0 -0.035199196022608549 -0.17958820676031709 0 -0.029191972132067919 -0.19880624237700931 0 -0.056270907480702799 -0.1990954919138824 0 -0.035199196022608549 -0.17958820676031709 0 -0.056270907480702799 -0.1990954919138824 0 -0.035199196022608549 -0.17958820676031709 0 -0.052452753816055998 -0.18684064722560961 0 -0.056270907480702799 -0.1990954919138824 0 -0.052452753816055998 -0.18684064722560961 0 -0.068004898086566568 -0.19922083108636701 0 -0.052452753816055998 -0.18684064722560961 0 -0.056270907480702799 -0.1990954919138824 0 -0.068004898086566568 -0.19922083108636701 0 -0.052452753816055998 -0.18684064722560961 0 -0.068004898086566568 -0.19922083108636701 0 -0.066160925849264238 -0.18553731315601019 0 -0.056270907480702799 -0.1990954919138824 0 -0.061041302753851868 -0.20351171890491929 0 -0.068004898086566568 -0.19922083108636701 0 -0.056270907480702799 -0.1990954919138824 0 -0.068004898086566568 -0.19922083108636701 0 -0.056270907480702799 -0.1990954919138824 0 -0.061041302753851868 -0.20351171890491929 0 -0.050317607044667569 -0.2068598467745856 0 -0.058456762703683211 -0.20958270788219879 0 -0.051839173066132643 -0.21607854235044041 0 -0.056270907480702799 -0.1990954919138824 0 -0.050317607044667569 -0.2068598467745856 0 -0.061041302753851868 -0.20351171890491929 0 -0.050317607044667569 -0.2068598467745856 0 -0.058456762703683211 -0.20958270788219879 0 -0.061041302753851868 -0.20351171890491929 0 -0.058456762703683211 -0.20958270788219879 0 -0.061041302753851868 -0.20351171890491929 0 -0.065135265894499916 -0.20782291161326619 0 -0.051839173066132643 -0.21607854235044041 0 -0.062436358746202722 -0.22323417677429711 0 -0.063950464759264025 -0.21364051976778239 0 -0.058456762703683211 -0.20958270788219879 0 -0.051839173066132643 -0.21607854235044041 0 -0.063950464759264025 -0.21364051976778239 0 -0.050317607044667569 -0.2068598467745856 0 -0.051839173066132643 -0.21607854235044041 0 -0.04066943005053672 -0.21343164091716799 0 -0.029191972132067919 -0.19880624237700931 0 -0.050317607044667569 -0.2068598467745856 0 -0.04066943005053672 -0.21343164091716799 0 -0.030851612420924511 -0.21453676391850379 0 -0.029191972132067919 -0.19880624237700931 0 -0.04066943005053672 -0.21343164091716799 0 -0.030851612420924511 -0.21453676391850379 0 -0.04066943005053672 -0.21343164091716799 0 -0.034682600956165627 -0.22958712280152979 0 -0.051839173066132643 -0.21607854235044041 0 -0.04066943005053672 -0.21343164091716799 0 -0.034682600956165627 -0.22958712280152979 0 -0.034682600956165627 -0.22958712280152979 0 -0.054315141885729619 -0.2335544054264021 0 -0.062436358746202722 -0.22323417677429711 0 -0.034682600956165627 -0.22958712280152979 0 -0.062436358746202722 -0.22323417677429711 0 -0.051839173066132643 -0.21607854235044041 0 -0.034682600956165627 -0.22958712280152979 0 -0.062436358746202722 -0.22323417677429711 0 -0.052574207348987892 -0.2557294451199969 0 -0.054315141885729619 -0.2335544054264021 0 -0.068987956184213758 -0.24580350920846361 0 -0.052574207348987892 -0.2557294451199969 0 -0.054315141885729619 -0.2335544054264021 0 -0.042706023303749632 -0.24286150533196069 0 -0.0300709330061673 -0.25239298583810871 0 -0.034682600956165627 -0.22958712280152979 0 -0.042706023303749632 -0.24286150533196069 0 -0.034682600956165627 -0.22958712280152979 0 -0.054315141885729619 -0.2335544054264021 0 -0.042706023303749632 -0.24286150533196069 0 -0.091897538062651885 -0.24508293332865611 0 -0.081118317917151628 -0.24086475648889119 0 -0.088781325171095202 -0.23371234154356441 0 -0.091897538062651885 -0.24508293332865611 0 -0.088781325171095202 -0.23371234154356441 0 -0.099793410054498988 -0.2375407338321972 0 -0.08165710104129964 -0.25115670310468269 0 -0.091897538062651885 -0.24508293332865611 0 -0.081118317917151628 -0.24086475648889119 0 -0.081118317917151628 -0.24086475648889119 0 -0.068987956184213758 -0.24580350920846361 0 -0.075570741074087816 -0.22785917957497889 0 -0.08165710104129964 -0.25115670310468269 0 -0.081118317917151628 -0.24086475648889119 0 -0.068987956184213758 -0.24580350920846361 0 -0.054315141885729619 -0.2335544054264021 0 -0.068987956184213758 -0.24580350920846361 0 -0.075570741074087816 -0.22785917957497889 0 -0.062436358746202722 -0.22323417677429711 0 -0.090190116536239567 -0.21688123074706361 0 -0.054315141885729619 -0.2335544054264021 0 -0.075570741074087816 -0.22785917957497889 0 -0.054315141885729619 -0.2335544054264021 0 -0.062436358746202722 -0.22323417677429711 0 -0.075570741074087816 -0.22785917957497889 0 -0.062436358746202722 -0.22323417677429711 0 -0.075570741074087816 -0.22785917957497889 0 -0.090190116536239567 -0.21688123074706361 0 -0.075570741074087816 -0.22785917957497889 0 -0.096826340262445881 -0.2221639537235556 0 -0.075570741074087816 -0.22785917957497889 0 -0.088781325171095202 -0.23371234154356441 0 -0.096826340262445881 -0.2221639537235556 0 -0.075570741074087816 -0.22785917957497889 0 -0.090190116536239567 -0.21688123074706361 0 -0.096826340262445881 -0.2221639537235556 0 -0.081118317917151628 -0.24086475648889119 0 -0.075570741074087816 -0.22785917957497889 0 -0.088781325171095202 -0.23371234154356441 0 -0.090190116536239567 -0.21688123074706361 0 -0.096826340262445881 -0.2221639537235556 0 -0.090190116536239567 -0.21688123074706361 0 -0.068004898086566568 -0.19922083108636701 0 -0.090190116536239567 -0.21688123074706361 0 -0.087293528184044511 -0.2060100627129747 0 -0.068004898086566568 -0.19922083108636701 0 -0.087293528184044511 -0.2060100627129747 0 -0.09092411477996018 -0.1994656476837951 0 -0.1000549833334118 -0.20847254133467311 0 -0.090190116536239567 -0.21688123074706361 0 -0.087293528184044511 -0.2060100627129747 0 -0.1000549833334118 -0.20847254133467311 0 -0.062436358746202722 -0.22323417677429711 0 -0.090190116536239567 -0.21688123074706361 0 -0.073701087032857882 -0.21302354123998299 0 -0.090190116536239567 -0.21688123074706361 0 -0.073701087032857882 -0.21302354123998299 0 -0.068004898086566568 -0.19922083108636701 0 -0.062436358746202722 -0.22323417677429711 0 -0.073701087032857882 -0.21302354123998299 0 -0.063950464759264025 -0.21364051976778239 0 -0.073701087032857882 -0.21302354123998299 0 -0.063950464759264025 -0.21364051976778239 0 -0.065135265894499916 -0.20782291161326619 0 -0.061041302753851868 -0.20351171890491929 0 -0.065135265894499916 -0.20782291161326619 0 -0.068004898086566568 -0.19922083108636701 0 -0.073701087032857882 -0.21302354123998299 0 -0.065135265894499916 -0.20782291161326619 0 -0.068004898086566568 -0.19922083108636701 0 -0.058456762703683211 -0.20958270788219879 0 -0.063950464759264025 -0.21364051976778239 0 -0.065135265894499916 -0.20782291161326619 0 -0.068004898086566568 -0.19922083108636701 0 -0.077631600445423415 -0.1879465567712614 0 -0.066160925849264238 -0.18553731315601019 0 -0.077631600445423415 -0.1879465567712614 0 -0.09092411477996018 -0.1994656476837951 0 -0.088643579789712823 -0.17926346524829009 0 -0.087293528184044511 -0.2060100627129747 0 -0.068004898086566568 -0.19922083108636701 0 -0.09092411477996018 -0.1994656476837951 0 -0.068004898086566568 -0.19922083108636701 0 -0.09092411477996018 -0.1994656476837951 0 -0.068004898086566568 -0.19922083108636701 0 -0.077631600445423415 -0.1879465567712614 0 -0.09092411477996018 -0.1994656476837951 0 -0.09092411477996018 -0.1994656476837951 0 -0.11384333147335381 -0.1997104642812231 0 -0.104766926752105 -0.20475589040648029 0 -0.09092411477996018 -0.1994656476837951 0 -0.11384333147335381 -0.1997104642812231 0 -0.09092411477996018 -0.1994656476837951 0 -0.1025126688863308 -0.18751642424386461 0 -0.088643579789712823 -0.17926346524829009 0 -0.09092411477996018 -0.1994656476837951 0 -0.1025126688863308 -0.18751642424386461 0 -0.11384333147335381 -0.1997104642812231 0 -0.11384333147335381 -0.1997104642812231 0 -0.122717614015785 -0.2052438120816705 0 -0.13676254816674741 -0.19995528087865119 0 -0.1025126688863308 -0.18751642424386461 0 -0.1139379094659559 -0.18781899965913529 0 -0.11384333147335381 -0.1997104642812231 0 -0.1139379094659559 -0.18781899965913529 0 -0.11384333147335381 -0.1997104642812231 0 -0.1256059747293754 -0.1874014143750182 0 -0.11384333147335381 -0.1997104642812231 0 -0.11424527742169439 -0.21137490832622999 0 -0.104766926752105 -0.20475589040648029 0 -0.11384333147335381 -0.1997104642812231 0 -0.122717614015785 -0.2052438120816705 0 -0.11424527742169439 -0.21137490832622999 0 -0.112975005268332 -0.21783707996231791 0 -0.12912367027421809 -0.21351020620107999 0 -0.112975005268332 -0.21783707996231791 0 -0.11424527742169439 -0.21137490832622999 0 -0.12912367027421809 -0.21351020620107999 0 -0.122717614015785 -0.2052438120816705 0 -0.11424527742169439 -0.21137490832622999 0 -0.12912367027421809 -0.21351020620107999 0 -0.090190116536239567 -0.21688123074706361 0 -0.11424527742169439 -0.21137490832622999 0 -0.096826340262445881 -0.2221639537235556 0 -0.090190116536239567 -0.21688123074706361 0 -0.11424527742169439 -0.21137490832622999 0 -0.112975005268332 -0.21783707996231791 0 -0.11424527742169439 -0.21137490832622999 0 -0.096826340262445881 -0.2221639537235556 0 -0.090190116536239567 -0.21688123074706361 0 -0.11424527742169439 -0.21137490832622999 0 -0.1000549833334118 -0.20847254133467311 0 -0.11424527742169439 -0.21137490832622999 0 -0.104766926752105 -0.20475589040648029 0 -0.1000549833334118 -0.20847254133467311 0 -0.09092411477996018 -0.1994656476837951 0 -0.104766926752105 -0.20475589040648029 0 -0.1000549833334118 -0.20847254133467311 0 -0.112975005268332 -0.21783707996231791 0 -0.096826340262445881 -0.2221639537235556 0 -0.1139262386138251 -0.2357762172100609 0 -0.112975005268332 -0.21783707996231791 0 -0.096826340262445881 -0.2221639537235556 0 -0.096826340262445881 -0.2221639537235556 0 -0.1139262386138251 -0.2357762172100609 0 -0.099793410054498988 -0.2375407338321972 0 -0.096826340262445881 -0.2221639537235556 0 -0.1139262386138251 -0.2357762172100609 0 -0.088781325171095202 -0.23371234154356441 0 -0.096826340262445881 -0.2221639537235556 0 -0.099793410054498988 -0.2375407338321972 0 -0.112975005268332 -0.21783707996231791 0 -0.12633438828145929 -0.2274892403869134 0 -0.12912367027421809 -0.21351020620107999 0 -0.112975005268332 -0.21783707996231791 0 -0.1139262386138251 -0.2357762172100609 0 -0.12633438828145929 -0.2274892403869134 0 -0.1139262386138251 -0.2357762172100609 0 -0.12573657098377419 -0.2375407478734585 0 -0.12633438828145929 -0.2274892403869134 0 -0.12401638012337329 -0.25082205957363191 0 -0.1139262386138251 -0.2357762172100609 0 -0.1061516596888413 -0.24979484311864231 0 -0.12401638012337329 -0.25082205957363191 0 -0.1139262386138251 -0.2357762172100609 0 -0.12573657098377419 -0.2375407478734585 0 -0.1139262386138251 -0.2357762172100609 0 -0.1061516596888413 -0.24979484311864231 0 -0.099793410054498988 -0.2375407338321972 0 -0.091897538062651885 -0.24508293332865611 0 -0.1061516596888413 -0.24979484311864231 0 -0.099793410054498988 -0.2375407338321972 0 -0.081428196902616351 -0.14329200705851899 0 -0.091985420615060265 -0.15708139118220019 0 -0.1069612954555965 -0.15596818121873329 0 -0.081428196902616351 -0.14329200705851899 0 -0.080881548161040984 -0.16416299454332811 0 -0.091985420615060265 -0.15708139118220019 0 -0.081428196902616351 -0.14329200705851899 0 -0.091985420615060265 -0.15708139118220019 0 -0.083660905721910955 -0.1244068478256465 0 -0.081428196902616351 -0.14329200705851899 0 -0.1002786375683075 -0.1325069584026233 0 -0.061702051974756547 -0.1466646217077453 0 -0.058019657192402471 -0.1316705923842561 0 -0.081428196902616351 -0.14329200705851899 0 -0.065492762033570073 -0.1224778386206422 0 -0.083660905721910955 -0.1244068478256465 0 -0.081428196902616351 -0.14329200705851899 0 -0.065492762033570073 -0.1224778386206422 0 -0.058019657192402471 -0.1316705923842561 0 -0.081428196902616351 -0.14329200705851899 0 -0.065492762033570073 -0.1224778386206422 0 -0.081428196902616351 -0.14329200705851899 0 -0.058019657192402471 -0.1316705923842561 0 -0.081428196902616351 -0.14329200705851899 0 -0.061702051974756547 -0.1466646217077453 0 -0.081428196902616351 -0.14329200705851899 0 -0.069838661508507621 -0.15685599743636949 0 -0.081428196902616351 -0.14329200705851899 0 -0.069838661508507621 -0.15685599743636949 0 -0.080881548161040984 -0.16416299454332811 0 -0.054419395141026533 -0.15953155070667521 0 -0.069838661508507621 -0.15685599743636949 0 -0.06723840093829328 -0.16751220363180769 0 -0.06723840093829328 -0.16751220363180769 0 -0.073642375733079093 -0.17663370484288521 0 -0.080881548161040984 -0.16416299454332811 0 -0.069838661508507621 -0.15685599743636949 0 -0.06723840093829328 -0.16751220363180769 0 -0.080881548161040984 -0.16416299454332811 0 -0.05856648734625669 -0.1731397226299172 0 -0.06723840093829328 -0.16751220363180769 0 -0.073642375733079093 -0.17663370484288521 0 -0.05856648734625669 -0.1731397226299172 0 -0.066160925849264238 -0.18553731315601019 0 -0.073642375733079093 -0.17663370484288521 0 -0.077631600445423415 -0.1879465567712614 0 -0.066160925849264238 -0.18553731315601019 0 -0.073642375733079093 -0.17663370484288521 0 -0.077631600445423415 -0.1879465567712614 0 -0.073642375733079093 -0.17663370484288521 0 -0.088643579789712823 -0.17926346524829009 0 -0.073642375733079093 -0.17663370484288521 0 -0.088643579789712823 -0.17926346524829009 0 -0.080881548161040984 -0.16416299454332811 0 -0.088643579789712823 -0.17926346524829009 0 -0.080881548161040984 -0.16416299454332811 0 -0.09180116428055797 -0.16810702053800999 0 -0.080881548161040984 -0.16416299454332811 0 -0.09180116428055797 -0.16810702053800999 0 -0.091985420615060265 -0.15708139118220019 0 -0.10254264432750471 -0.17087077530588099 0 -0.1137896627747635 -0.1766476957364351 0 -0.1069612954555965 -0.15596818121873329 0 -0.091985420615060265 -0.15708139118220019 0 -0.10254264432750471 -0.17087077530588099 0 -0.1069612954555965 -0.15596818121873329 0 -0.091985420615060265 -0.15708139118220019 0 -0.10254264432750471 -0.17087077530588099 0 -0.09180116428055797 -0.16810702053800999 0 -0.091985420615060265 -0.15708139118220019 0 -0.10254264432750471 -0.17087077530588099 0 -0.1025126688863308 -0.18751642424386461 0 -0.088643579789712823 -0.17926346524829009 0 -0.10254264432750471 -0.17087077530588099 0 -0.1025126688863308 -0.18751642424386461 0 -0.10254264432750471 -0.17087077530588099 0 -0.1137896627747635 -0.1766476957364351 0 -0.088643579789712823 -0.17926346524829009 0 -0.09180116428055797 -0.16810702053800999 0 -0.10254264432750471 -0.17087077530588099 0 -0.1137896627747635 -0.1766476957364351 0 -0.1324943940085764 -0.16864435537894831 0 -0.1256059747293754 -0.1874014143750182 0 -0.1025126688863308 -0.18751642424386461 0 -0.1139379094659559 -0.18781899965913529 0 -0.1137896627747635 -0.1766476957364351 0 -0.1139379094659559 -0.18781899965913529 0 -0.1137896627747635 -0.1766476957364351 0 -0.1256059747293754 -0.1874014143750182 0 -0.1069612954555965 -0.15596818121873329 0 -0.1324943940085764 -0.16864435537894831 0 -0.1137896627747635 -0.1766476957364351 0 -0.1069612954555965 -0.15596818121873329 0 -0.1324943940085764 -0.16864435537894831 0 -0.116686768617799 -0.14207523556712889 0 -0.1069612954555965 -0.15596818121873329 0 -0.1324943940085764 -0.16864435537894831 0 -0.116686768617799 -0.14207523556712889 0 -0.1069612954555965 -0.15596818121873329 0 -0.1002786375683075 -0.1325069584026233 0 -0.081428196902616351 -0.14329200705851899 0 -0.1069612954555965 -0.15596818121873329 0 -0.081428196902616351 -0.14329200705851899 0 -0.1069612954555965 -0.15596818121873329 0 -0.1002786375683075 -0.1325069584026233 0 -0.1138766747393273 -0.11428056354639179 0 -0.116686768617799 -0.14207523556712889 0 -0.1002786375683075 -0.1325069584026233 0 -0.1138766747393273 -0.11428056354639179 0 -0.116686768617799 -0.14207523556712889 0 -0.133236203963843 -0.1380077330530273 0 -0.133236203963843 -0.1380077330530273 0 -0.15799897819137321 -0.1366118501663226 0 -0.14499946091529561 -0.11531469857071509 0 -0.133236203963843 -0.1380077330530273 0 -0.1487968282537584 -0.15537492798691571 0 -0.15799897819137321 -0.1366118501663226 0 -0.133236203963843 -0.1380077330530273 0 -0.1487968282537584 -0.15537492798691571 0 -0.1324943940085764 -0.16864435537894831 0 -0.116686768617799 -0.14207523556712889 0 -0.133236203963843 -0.1380077330530273 0 -0.1324943940085764 -0.16864435537894831 0 -0.1324943940085764 -0.16864435537894831 0 -0.1256059747293754 -0.1874014143750182 0 -0.14278530096317921 -0.18943965836811241 0 -0.1324943940085764 -0.16864435537894831 0 -0.15802749256155629 -0.18132052953916339 0 -0.1324943940085764 -0.16864435537894831 0 -0.15802749256155629 -0.18132052953916339 0 -0.14278530096317921 -0.18943965836811241 0 -0.1487968282537584 -0.15537492798691571 0 -0.1324943940085764 -0.16864435537894831 0 -0.15802749256155629 -0.18132052953916339 0 -0.16886419317598439 -0.15832872013232621 0 -0.15802749256155629 -0.18132052953916339 0 -0.18367356924672371 -0.1758208541924465 0 -0.1487968282537584 -0.15537492798691571 0 -0.16886419317598439 -0.15832872013232621 0 -0.15802749256155629 -0.18132052953916339 0 -0.15802749256155629 -0.18132052953916339 0 -0.18367356924672371 -0.1758208541924465 0 -0.18356059111453629 -0.19399670369937841 0 -0.16886419317598439 -0.15832872013232621 0 -0.18367356924672371 -0.1758208541924465 0 -0.1913190124713314 -0.16058093951252919 0 -0.16886419317598439 -0.15832872013232621 0 -0.17891043578420759 -0.13733831330012591 0 -0.1913190124713314 -0.16058093951252919 0 -0.17891043578420759 -0.13733831330012591 0 -0.15799897819137321 -0.1366118501663226 0 -0.16648518530681911 -0.12039016258129399 0 -0.1487968282537584 -0.15537492798691571 0 -0.16886419317598439 -0.15832872013232621 0 -0.15799897819137321 -0.1366118501663226 0 -0.16886419317598439 -0.15832872013232621 0 -0.17891043578420759 -0.13733831330012591 0 -0.15799897819137321 -0.1366118501663226 0 -0.14153719722658659 -0.25542741473343161 0 -0.1489882367964219 -0.24305096927696951 0 -0.13866927691643921 -0.23607547432322801 0 -0.15326062808292121 -0.25865132635456722 0 -0.1489882367964219 -0.24305096927696951 0 -0.16211613862911001 -0.2425232975654997 0 -0.1489882367964219 -0.24305096927696951 0 -0.14935794312705239 -0.22257733340812119 0 -0.16211613862911001 -0.2425232975654997 0 -0.14153719722658659 -0.25542741473343161 0 -0.13866927691643921 -0.23607547432322801 0 -0.14153719722658659 -0.25542741473343161 0 -0.12401638012337329 -0.25082205957363191 0 -0.13866927691643921 -0.23607547432322801 0 -0.12401638012337329 -0.25082205957363191 0 -0.12573657098377419 -0.2375407478734585 0 -0.13866927691643921 -0.23607547432322801 0 -0.13866927691643921 -0.23607547432322801 0 -0.12633438828145929 -0.2274892403869134 0 -0.1366878705214595 -0.22306762807223801 0 -0.12573657098377419 -0.2375407478734585 0 -0.13866927691643921 -0.23607547432322801 0 -0.12633438828145929 -0.2274892403869134 0 -0.12633438828145929 -0.2274892403869134 0 -0.1366878705214595 -0.22306762807223801 0 -0.12912367027421809 -0.21351020620107999 0 -0.1366878705214595 -0.22306762807223801 0 -0.14935794312705239 -0.22257733340812119 0 -0.1365856457215206 -0.2136367315803791 0 -0.14935794312705239 -0.22257733340812119 0 -0.16211613862911001 -0.2425232975654997 0 -0.1489882367964219 -0.24305096927696951 0 -0.13866927691643921 -0.23607547432322801 0 -0.14935794312705239 -0.22257733340812119 0 -0.13866927691643921 -0.23607547432322801 0 -0.1366878705214595 -0.22306762807223801 0 -0.14935794312705239 -0.22257733340812119 0 -0.14935794312705239 -0.22257733340812119 0 -0.13659974762499449 -0.2026313692507429 0 -0.14935794312705239 -0.22257733340812119 0 -0.1365856457215206 -0.2136367315803791 0 -0.13659974762499449 -0.2026313692507429 0 -0.14935794312705239 -0.22257733340812119 0 -0.1472291365140799 -0.20193501473360201 0 -0.16239797299804709 -0.2100746211210488 0 -0.14935794312705239 -0.22257733340812119 0 -0.13659974762499449 -0.2026313692507429 0 -0.1472291365140799 -0.20193501473360201 0 -0.1472291365140799 -0.20193501473360201 0 -0.15659225979873989 -0.1973813553032914 0 -0.16239797299804709 -0.2100746211210488 0 -0.1366878705214595 -0.22306762807223801 0 -0.1365856457215206 -0.2136367315803791 0 -0.12912367027421809 -0.21351020620107999 0 -0.1365856457215206 -0.2136367315803791 0 -0.12912367027421809 -0.21351020620107999 0 -0.13092191736628259 -0.20625289557124291 0 -0.122717614015785 -0.2052438120816705 0 -0.12912367027421809 -0.21351020620107999 0 -0.13092191736628259 -0.20625289557124291 0 -0.122717614015785 -0.2052438120816705 0 -0.13092191736628259 -0.20625289557124291 0 -0.13676254816674741 -0.19995528087865119 0 -0.1365856457215206 -0.2136367315803791 0 -0.13092191736628259 -0.20625289557124291 0 -0.13659974762499449 -0.2026313692507429 0 -0.11384333147335381 -0.1997104642812231 0 -0.1256059747293754 -0.1874014143750182 0 -0.13676254816674741 -0.19995528087865119 0 -0.13676254816674741 -0.19995528087865119 0 -0.13659974762499449 -0.2026313692507429 0 -0.1472291365140799 -0.20193501473360201 0 -0.1256059747293754 -0.1874014143750182 0 -0.13676254816674741 -0.19995528087865119 0 -0.14278530096317921 -0.18943965836811241 0 -0.11384333147335381 -0.1997104642812231 0 -0.13676254816674741 -0.19995528087865119 0 -0.13092191736628259 -0.20625289557124291 0 -0.13676254816674741 -0.19995528087865119 0 -0.13659974762499449 -0.2026313692507429 0 -0.15802749256155629 -0.18132052953916339 0 -0.14278530096317921 -0.18943965836811241 0 -0.15659225979873989 -0.1973813553032914 0 -0.13676254816674741 -0.19995528087865119 0 -0.14278530096317921 -0.18943965836811241 0 -0.1472291365140799 -0.20193501473360201 0 -0.14278530096317921 -0.18943965836811241 0 -0.1472291365140799 -0.20193501473360201 0 -0.15659225979873989 -0.1973813553032914 0 -0.15802749256155629 -0.18132052953916339 0 -0.15659225979873989 -0.1973813553032914 0 -0.1679563497714309 -0.19883528162946831 0 -0.15802749256155629 -0.18132052953916339 0 -0.1679563497714309 -0.19883528162946831 0 -0.18356059111453629 -0.19399670369937841 0 -0.15802749256155629 -0.18132052953916339 0 -0.18356059111453629 -0.19399670369937841 0 -0.15659225979873989 -0.1973813553032914 0 -0.1679563497714309 -0.19883528162946831 0 -0.16239797299804709 -0.2100746211210488 0 -0.1679563497714309 -0.19883528162946831 0 -0.18356059111453629 -0.19399670369937841 0 -0.17920343238427491 -0.21140319848445949 0 -0.18356059111453629 -0.19399670369937841 0 -0.17920343238427491 -0.21140319848445949 0 -0.19389039806632591 -0.21223940358998991 0 -0.1679563497714309 -0.19883528162946831 0 -0.17920343238427491 -0.21140319848445949 0 -0.16239797299804709 -0.2100746211210488 0 -0.17920343238427491 -0.21140319848445949 0 -0.16239797299804709 -0.2100746211210488 0 -0.17065978550669211 -0.22696324802497941 0 -0.14935794312705239 -0.22257733340812119 0 -0.17065978550669211 -0.22696324802497941 0 -0.16211613862911001 -0.2425232975654997 0 -0.14935794312705239 -0.22257733340812119 0 -0.16239797299804709 -0.2100746211210488 0 -0.17065978550669211 -0.22696324802497941 0 -0.17065978550669211 -0.22696324802497941 0 -0.18212515061485379 -0.24320666055055981 0 -0.19022768202441731 -0.22610017292339771 0 -0.17920343238427491 -0.21140319848445949 0 -0.17065978550669211 -0.22696324802497941 0 -0.17920343238427491 -0.21140319848445949 0 -0.17065978550669211 -0.22696324802497941 0 -0.19022768202441731 -0.22610017292339771 0 -0.17443605785634689 -0.26178406742034488 0 -0.18212515061485379 -0.24320666055055981 0 -0.16211613862911001 -0.2425232975654997 0 -0.17065978550669211 -0.22696324802497941 0 -0.18212515061485379 -0.24320666055055981 0 -0.16211613862911001 -0.2425232975654997 0 -0.17065978550669211 -0.22696324802497941 0 -0.16211613862911001 -0.2425232975654997 0 -0.18212515061485379 -0.24320666055055981 0 -0.20730871517481039 -0.23946610943513549 0 -0.19022768202441731 -0.22610017292339771 0 -0.18873449468763381 -0.2613232209441117 0 -0.18212515061485379 -0.24320666055055981 0 -0.20730871517481039 -0.23946610943513549 0 -0.20730871517481039 -0.23946610943513549 0 -0.19022768202441731 -0.22610017292339771 0 -0.20528068411901129 -0.22041751234685519 0 -0.19022768202441731 -0.22610017292339771 0 -0.20528068411901129 -0.22041751234685519 0 -0.19389039806632591 -0.21223940358998991 0 -0.20730871517481039 -0.23946610943513549 0 -0.22588293566198689 -0.21760899792615951 0 -0.20730871517481039 -0.23946610943513549 0 -0.20528068411901129 -0.22041751234685519 0 -0.22588293566198689 -0.21760899792615951 0 -0.20528068411901129 -0.22041751234685519 0 -0.20909368966751621 -0.20667287785959351 0 -0.22588293566198689 -0.21760899792615951 0 -0.18356059111453629 -0.19399670369937841 0 -0.20909368966751621 -0.20667287785959351 0 -0.19389039806632591 -0.21223940358998991 0 -0.20528068411901129 -0.22041751234685519 0 -0.20909368966751621 -0.20667287785959351 0 -0.19389039806632591 -0.21223940358998991 0 -0.17920343238427491 -0.21140319848445949 0 -0.19022768202441731 -0.22610017292339771 0 -0.19389039806632591 -0.21223940358998991 0 -0.18356059111453629 -0.19399670369937841 0 -0.20909368966751621 -0.20667287785959351 0 -0.19706552347646819 -0.18655285549912229 0 -0.18356059111453629 -0.19399670369937841 0 -0.20909368966751621 -0.20667287785959351 0 -0.20909368966751621 -0.20667287785959351 0 -0.21182878273281261 -0.1910070950816746 0 -0.19706552347646819 -0.18655285549912229 0 -0.20909368966751621 -0.20667287785959351 0 -0.21182878273281261 -0.1910070950816746 0 -0.2264676018914924 -0.1987135886687727 0 -0.21182878273281261 -0.1910070950816746 0 -0.2264676018914924 -0.1987135886687727 0 -0.22764602783316451 -0.1835552859548705 0 -0.2264676018914924 -0.1987135886687727 0 -0.23480345023091939 -0.1895428977342706 0 -0.22764602783316451 -0.1835552859548705 0 -0.24445715614916341 -0.19575188641718341 0 -0.24476685473631651 -0.21405980277710229 0 -0.25226449774507809 -0.1880579162049773 0 -0.23480345023091939 -0.1895428977342706 0 -0.24445715614916341 -0.19575188641718341 0 -0.2425852920552439 -0.1817601080430922 0 -0.24476685473631651 -0.21405980277710229 0 -0.25226449774507809 -0.1880579162049773 0 -0.2264676018914924 -0.1987135886687727 0 -0.23480345023091939 -0.1895428977342706 0 -0.24445715614916341 -0.19575188641718341 0 -0.24445715614916341 -0.19575188641718341 0 -0.2425852920552439 -0.1817601080430922 0 -0.25226449774507809 -0.1880579162049773 0 -0.24445715614916341 -0.19575188641718341 0 -0.22588293566198689 -0.21760899792615951 0 -0.24445715614916341 -0.19575188641718341 0 -0.24476685473631651 -0.21405980277710229 0 -0.22588293566198689 -0.21760899792615951 0 -0.20909368966751621 -0.20667287785959351 0 -0.2264676018914924 -0.1987135886687727 0 -0.22588293566198689 -0.21760899792615951 0 -0.2264676018914924 -0.1987135886687727 0 -0.24445715614916341 -0.19575188641718341 0 -0.22588293566198689 -0.21760899792615951 0 -0.20730871517481039 -0.23946610943513549 0 -0.22588293566198689 -0.21760899792615951 0 -0.23726921172755491 -0.24006168934922731 0 -0.24476685473631651 -0.21405980277710229 0 -0.23726921172755491 -0.24006168934922731 0 -0.24476685473631651 -0.21405980277710229 0 -0.23726921172755491 -0.24006168934922731 0 -0.25681069471921369 -0.22882700100864781 0 -0.24476685473631651 -0.21405980277710229 0 -0.22588293566198689 -0.21760899792615951 0 -0.23726921172755491 -0.24006168934922731 0 -0.24686496979937381 -0.25551888127341332 0 -0.23726921172755491 -0.24006168934922731 0 -0.25723339985396632 -0.24528001249266571 0 -0.22977156871879331 -0.26606357592135232 0 -0.20730871517481039 -0.23946610943513549 0 -0.23726921172755491 -0.24006168934922731 0 -0.20157373147680191 -0.13565225155161689 0 -0.20928579291195509 -0.15787443899094231 0 -0.2203349118568971 -0.14546826414417771 0 -0.2203349118568971 -0.14546826414417771 0 -0.21696483175745601 -0.1203183701713678 0 -0.20157373147680191 -0.13565225155161689 0 -0.2203349118568971 -0.14546826414417771 0 -0.21696483175745601 -0.1203183701713678 0 -0.17891043578420759 -0.13733831330012591 0 -0.20157373147680191 -0.13565225155161689 0 -0.18722151408293591 -0.1124659558566667 0 -0.17891043578420759 -0.13733831330012591 0 -0.20157373147680191 -0.13565225155161689 0 -0.1913190124713314 -0.16058093951252919 0 -0.20157373147680191 -0.13565225155161689 0 -0.1913190124713314 -0.16058093951252919 0 -0.20928579291195509 -0.15787443899094231 0 -0.18367356924672371 -0.1758208541924465 0 -0.1913190124713314 -0.16058093951252919 0 -0.20320460268046589 -0.17414537677215949 0 -0.1913190124713314 -0.16058093951252919 0 -0.20320460268046589 -0.17414537677215949 0 -0.20928579291195509 -0.15787443899094231 0 -0.18367356924672371 -0.1758208541924465 0 -0.19706552347646819 -0.18655285549912229 0 -0.20320460268046589 -0.17414537677215949 0 -0.18367356924672371 -0.1758208541924465 0 -0.18356059111453629 -0.19399670369937841 0 -0.19706552347646819 -0.18655285549912229 0 -0.21182878273281261 -0.1910070950816746 0 -0.20320460268046589 -0.17414537677215949 0 -0.22403225455350151 -0.17081595476541311 0 -0.21182878273281261 -0.1910070950816746 0 -0.22403225455350151 -0.17081595476541311 0 -0.21182878273281261 -0.1910070950816746 0 -0.19706552347646819 -0.18655285549912229 0 -0.20320460268046589 -0.17414537677215949 0 -0.20320460268046589 -0.17414537677215949 0 -0.20928579291195509 -0.15787443899094231 0 -0.22403225455350151 -0.17081595476541311 0 -0.20928579291195509 -0.15787443899094231 0 -0.22403225455350151 -0.17081595476541311 0 -0.2203349118568971 -0.14546826414417771 0 -0.22403225455350151 -0.17081595476541311 0 -0.2203349118568971 -0.14546826414417771 0 -0.22403225455350151 -0.17081595476541311 0 -0.22696908310910971 -0.16595685250972891 0 -0.2203349118568971 -0.14546826414417771 0 -0.22403225455350151 -0.17081595476541311 0 -0.22696908310910971 -0.16595685250972891 0 -0.22696908310910971 -0.16595685250972891 0 -0.23463798993904261 -0.1746127836876141 0 -0.23948677963458909 -0.16033454009397011 0 -0.21182878273281261 -0.1910070950816746 0 -0.22403225455350151 -0.17081595476541311 0 -0.22764602783316451 -0.1835552859548705 0 -0.22696908310910971 -0.16595685250972891 0 -0.22764602783316451 -0.1835552859548705 0 -0.23463798993904261 -0.1746127836876141 0 -0.22403225455350151 -0.17081595476541311 0 -0.22696908310910971 -0.16595685250972891 0 -0.22764602783316451 -0.1835552859548705 0 -0.22764602783316451 -0.1835552859548705 0 -0.23492316891185369 -0.18226737641882451 0 -0.23463798993904261 -0.1746127836876141 0 -0.23480345023091939 -0.1895428977342706 0 -0.22764602783316451 -0.1835552859548705 0 -0.23492316891185369 -0.18226737641882451 0 -0.23480345023091939 -0.1895428977342706 0 -0.23492316891185369 -0.18226737641882451 0 -0.2425852920552439 -0.1817601080430922 0 -0.23492316891185369 -0.18226737641882451 0 -0.23463798993904261 -0.1746127836876141 0 -0.2425852920552439 -0.1817601080430922 0 -0.23463798993904261 -0.1746127836876141 0 -0.2425852920552439 -0.1817601080430922 0 -0.24422020208295089 -0.167514444885139 0 -0.2425852920552439 -0.1817601080430922 0 -0.24422020208295089 -0.167514444885139 0 -0.25976214075384019 -0.16205602963285251 0 -0.23463798993904261 -0.1746127836876141 0 -0.23948677963458909 -0.16033454009397011 0 -0.24422020208295089 -0.167514444885139 0 -0.23948677963458909 -0.16033454009397011 0 -0.24422020208295089 -0.167514444885139 0 -0.24998907486214761 -0.1541215804146413 0 -0.23948677963458909 -0.16033454009397011 0 -0.24210938348540681 -0.14090660993778309 0 -0.24998907486214761 -0.1541215804146413 0 -0.22696908310910971 -0.16595685250972891 0 -0.23948677963458909 -0.16033454009397011 0 -0.24210938348540681 -0.14090660993778309 0 -0.22696908310910971 -0.16595685250972891 0 -0.24210938348540681 -0.14090660993778309 0 -0.22696908310910971 -0.16595685250972891 0 -0.24210938348540681 -0.14090660993778309 0 -0.2203349118568971 -0.14546826414417771 0 -0.2203349118568971 -0.14546826414417771 0 -0.23779563392209979 -0.1211988910636997 0 -0.21696483175745601 -0.1203183701713678 0 -0.24210938348540681 -0.14090660993778309 0 -0.2203349118568971 -0.14546826414417771 0 -0.23779563392209979 -0.1211988910636997 0 -0.24210938348540681 -0.14090660993778309 0 -0.25724968386170383 -0.1158563673658374 0 -0.24210938348540681 -0.14090660993778309 0 -0.23779563392209979 -0.1211988910636997 0 -0.25724968386170383 -0.1158563673658374 0 -0.23779563392209979 -0.1211988910636997 0 -0.24831251401145021 -0.1068594192199797 0 -0.25724968386170383 -0.1158563673658374 0 -0.23779563392209979 -0.1211988910636997 0 -0.24831251401145021 -0.1068594192199797 0 -0.23704596178553969 -0.1010385187902894 0 -0.24831251401145021 -0.1068594192199797 0 -0.24864405758726629 -0.09478409224515072 0 -0.23704596178553969 -0.1010385187902894 0 -0.23704596178553969 -0.1010385187902894 0 -0.21696483175745601 -0.1203183701713678 0 -0.21359475165801489 -0.095168476198558033 0 -0.23779563392209979 -0.1211988910636997 0 -0.23704596178553969 -0.1010385187902894 0 -0.21696483175745601 -0.1203183701713678 0 -0.24012555059909241 -0.065174416141362018 0 -0.23191623607876499 -0.072306636468660285 0 -0.2324619981995274 -0.061858816087879027 0 -0.24012555059909241 -0.065174416141362018 0 -0.24996424734416089 -0.063901621117924232 0 -0.24432075154354529 -0.073863429162164665 0 -0.24432075154354529 -0.073863429162164665 0 -0.2389128513443711 -0.084793401256800044 0 -0.23191623607876499 -0.072306636468660285 0 -0.24012555059909241 -0.065174416141362018 0 -0.24432075154354529 -0.073863429162164665 0 -0.23191623607876499 -0.072306636468660285 0 -0.24864405758726629 -0.09478409224515072 0 -0.23704596178553969 -0.1010385187902894 0 -0.2389128513443711 -0.084793401256800044 0 -0.24432075154354529 -0.073863429162164665 0 -0.2389128513443711 -0.084793401256800044 0 -0.25203833747956028 -0.084054520604373878 0 -0.24864405758726629 -0.09478409224515072 0 -0.2389128513443711 -0.084793401256800044 0 -0.25203833747956028 -0.084054520604373878 0 -0.23704596178553969 -0.1010385187902894 0 -0.22003719568652261 -0.082098806954281664 0 -0.21359475165801489 -0.095168476198558033 0 -0.23704596178553969 -0.1010385187902894 0 -0.2389128513443711 -0.084793401256800044 0 -0.22003719568652261 -0.082098806954281664 0 -0.2389128513443711 -0.084793401256800044 0 -0.22003719568652261 -0.082098806954281664 0 -0.23191623607876499 -0.072306636468660285 0 -0.23704596178553969 -0.1010385187902894 0 -0.22003719568652261 -0.082098806954281664 0 -0.22003719568652261 -0.082098806954281664 0 -0.23191623607876499 -0.072306636468660285 0 -0.22112550982785681 -0.064153184602810026 0 -0.23191623607876499 -0.072306636468660285 0 -0.22112550982785681 -0.064153184602810026 0 -0.2324619981995274 -0.061858816087879027 0 -0.22003719568652261 -0.082098806954281664 0 -0.22112550982785681 -0.064153184602810026 0 -0.20302842958750561 -0.063159095118273917 0 -0.22003719568652261 -0.082098806954281664 0 -0.20588340962973289 -0.082618720104636389 0 -0.20302842958750561 -0.063159095118273917 0 -0.22003719568652261 -0.082098806954281664 0 -0.20302842958750561 -0.063159095118273917 0 -0.20588340962973289 -0.082618720104636389 0 -0.1912838750517572 -0.087856193354240622 0 -0.21359475165801489 -0.095168476198558033 0 -0.22003719568652261 -0.082098806954281664 0 -0.20588340962973289 -0.082618720104636389 0 -0.21359475165801489 -0.095168476198558033 0 -0.20302842958750561 -0.063159095118273917 0 -0.17761694359701641 -0.068551766922754623 0 -0.18641009937808439 -0.057677134495881029 0 -0.1912838750517572 -0.087856193354240622 0 -0.20302842958750561 -0.063159095118273917 0 -0.17761694359701641 -0.068551766922754623 0 -0.20588340962973289 -0.082618720104636389 0 -0.1912838750517572 -0.087856193354240622 0 -0.20302842958750561 -0.063159095118273917 0 -0.20157373147680191 -0.13565225155161689 0 -0.2044449784500498 -0.10940000624144421 0 -0.21696483175745601 -0.1203183701713678 0 -0.21696483175745601 -0.1203183701713678 0 -0.21359475165801489 -0.095168476198558033 0 -0.2044449784500498 -0.10940000624144421 0 -0.21696483175745601 -0.1203183701713678 0 -0.21359475165801489 -0.095168476198558033 0 -0.1912838750517572 -0.087856193354240622 0 -0.2044449784500498 -0.10940000624144421 0 -0.21359475165801489 -0.095168476198558033 0 -0.1912838750517572 -0.087856193354240622 0 -0.2044449784500498 -0.10940000624144421 0 -0.18722151408293591 -0.1124659558566667 0 -0.20157373147680191 -0.13565225155161689 0 -0.2044449784500498 -0.10940000624144421 0 -0.18722151408293591 -0.1124659558566667 0 -0.17891043578420759 -0.13733831330012591 0 -0.18722151408293591 -0.1124659558566667 0 -0.16648518530681911 -0.12039016258129399 0 -0.16648518530681911 -0.12039016258129399 0 -0.16472222092525171 -0.095240131559215097 0 -0.14499946091529561 -0.11531469857071509 0 -0.15799897819137321 -0.1366118501663226 0 -0.16648518530681911 -0.12039016258129399 0 -0.14499946091529561 -0.11531469857071509 0 -0.18722151408293591 -0.1124659558566667 0 -0.16648518530681911 -0.12039016258129399 0 -0.16472222092525171 -0.095240131559215097 0 -0.1912838750517572 -0.087856193354240622 0 -0.18722151408293591 -0.1124659558566667 0 -0.16472222092525171 -0.095240131559215097 0 -0.1912838750517572 -0.087856193354240622 0 -0.16472222092525171 -0.095240131559215097 0 -0.17761694359701641 -0.068551766922754623 0 -0.17761694359701641 -0.068551766922754623 0 -0.14982813618238969 -0.074908566728045786 0 -0.16270402140471449 -0.048195562070063161 0 -0.16472222092525171 -0.095240131559215097 0 -0.14982813618238969 -0.074908566728045786 0 -0.16472222092525171 -0.095240131559215097 0 -0.17761694359701641 -0.068551766922754623 0 -0.14982813618238969 -0.074908566728045786 0 -0.16472222092525171 -0.095240131559215097 0 -0.14982813618238969 -0.074908566728045786 0 -0.1312908544755215 -0.092470264183890094 0 -0.14982813618238969 -0.074908566728045786 0 -0.13493405143952761 -0.054577001896876483 0 -0.14982813618238969 -0.074908566728045786 0 -0.12669216417476731 -0.070885596599344153 0 -0.13493405143952761 -0.054577001896876483 0 -0.14982813618238969 -0.074908566728045786 0 -0.12669216417476731 -0.070885596599344153 0 -0.1312908544755215 -0.092470264183890094 0 -0.16472222092525171 -0.095240131559215097 0 -0.1312908544755215 -0.092470264183890094 0 -0.14499946091529561 -0.11531469857071509 0 -0.1138766747393273 -0.11428056354639179 0 -0.1312908544755215 -0.092470264183890094 0 -0.14499946091529561 -0.11531469857071509 0 -0.1138766747393273 -0.11428056354639179 0 -0.133236203963843 -0.1380077330530273 0 -0.14499946091529561 -0.11531469857071509 0 -0.15437001484480981 -0.012401361562457349 0 -0.13050725110392569 -0.01787843097546897 0 -0.1440761767559979 -0.03252465460835692 0 -0.15437001484480981 -0.012401361562457349 0 -0.1440761767559979 -0.03252465460835692 0 -0.16148480107720059 -0.029148020196998369 0 -0.15437001484480981 -0.012401361562457349 0 -0.1289042152683513 0.0036931705937147661 0 -0.1480717631732047 0.0053903871034023214 0 -0.15437001484480981 -0.012401361562457349 0 -0.13050725110392569 -0.01787843097546897 0 -0.1289042152683513 0.0036931705937147661 0 -0.1200399666966657 -0.034245437065707263 0 -0.13050725110392569 -0.01787843097546897 0 -0.1440761767559979 -0.03252465460835692 0 -0.1200399666966657 -0.034245437065707263 0 -0.13493405143952761 -0.054577001896876483 0 -0.1200399666966657 -0.034245437065707263 0 -0.13493405143952761 -0.054577001896876483 0 -0.1440761767559979 -0.03252465460835692 0 -0.14982813618238969 -0.074908566728045786 0 -0.13493405143952761 -0.054577001896876483 0 -0.16270402140471449 -0.048195562070063161 0 -0.1440761767559979 -0.03252465460835692 0 -0.16270402140471449 -0.048195562070063161 0 -0.16148480107720059 -0.029148020196998369 0 -0.13493405143952761 -0.054577001896876483 0 -0.1440761767559979 -0.03252465460835692 0 -0.16270402140471449 -0.048195562070063161 0 -0.16270402140471449 -0.048195562070063161 0 -0.1729772418830858 -0.03609751506066905 0 -0.16148480107720059 -0.029148020196998369 0 -0.17761694359701641 -0.068551766922754623 0 -0.16270402140471449 -0.048195562070063161 0 -0.17897536083932711 -0.054778292660229433 0 -0.16270402140471449 -0.048195562070063161 0 -0.17897536083932711 -0.054778292660229433 0 -0.1860196634884885 -0.044219383282266142 0 -0.17897536083932711 -0.054778292660229433 0 -0.18641009937808439 -0.057677134495881029 0 -0.1860196634884885 -0.044219383282266142 0 -0.17761694359701641 -0.068551766922754623 0 -0.17897536083932711 -0.054778292660229433 0 -0.18641009937808439 -0.057677134495881029 0 -0.16270402140471449 -0.048195562070063161 0 -0.1729772418830858 -0.03609751506066905 0 -0.18746062882530889 -0.04258853217053582 0 -0.16270402140471449 -0.048195562070063161 0 -0.18746062882530889 -0.04258853217053582 0 -0.16270402140471449 -0.048195562070063161 0 -0.1860196634884885 -0.044219383282266142 0 -0.18746062882530889 -0.04258853217053582 0 -0.1729772418830858 -0.03609751506066905 0 -0.18746062882530889 -0.04258853217053582 0 -0.1816154509850568 -0.0362269824913454 0 -0.18746062882530889 -0.04258853217053582 0 -0.18637367400948951 -0.037577691507542067 0 -0.1816154509850568 -0.0362269824913454 0 -0.18637367400948951 -0.037577691507542067 0 -0.1816154509850568 -0.0362269824913454 0 -0.18751407751088531 -0.029727098247847542 0 -0.1816154509850568 -0.0362269824913454 0 -0.17489014526756461 -0.02135776263609878 0 -0.18751407751088531 -0.029727098247847542 0 -0.17489014526756461 -0.02135776263609878 0 -0.18859042127181869 -0.01466628775364316 0 -0.18751407751088531 -0.029727098247847542 0 -0.1729772418830858 -0.03609751506066905 0 -0.1816154509850568 -0.0362269824913454 0 -0.17489014526756461 -0.02135776263609878 0 -0.15437001484480981 -0.012401361562457349 0 -0.17489014526756461 -0.02135776263609878 0 -0.16148480107720059 -0.029148020196998369 0 -0.1729772418830858 -0.03609751506066905 0 -0.17489014526756461 -0.02135776263609878 0 -0.16148480107720059 -0.029148020196998369 0 -0.15437001484480981 -0.012401361562457349 0 -0.17489014526756461 -0.02135776263609878 0 -0.17339482477880311 0.0046843474987315293 0 -0.15437001484480981 -0.012401361562457349 0 -0.1480717631732047 0.0053903871034023214 0 -0.17339482477880311 0.0046843474987315293 0 -0.17489014526756461 -0.02135776263609878 0 -0.18859042127181869 -0.01466628775364316 0 -0.17339482477880311 0.0046843474987315293 0 -0.19724989752095329 -0.0022969708879181862 0 -0.18859042127181869 -0.01466628775364316 0 -0.17339482477880311 0.0046843474987315293 0 -0.19724989752095329 -0.0022969708879181862 0 -0.19676041356730581 -0.027364230678610109 0 -0.20380804585817919 -0.01655314086405681 0 -0.19724989752095329 -0.0022969708879181862 0 -0.19676041356730581 -0.027364230678610109 0 -0.19724989752095329 -0.0022969708879181862 0 -0.18859042127181869 -0.01466628775364316 0 -0.19676041356730581 -0.027364230678610109 0 -0.18859042127181869 -0.01466628775364316 0 -0.18751407751088531 -0.029727098247847542 0 -0.19676041356730581 -0.027364230678610109 0 -0.18751407751088531 -0.029727098247847542 0 -0.19676041356730581 -0.027364230678610109 0 -0.19664432976116841 -0.033309068919509827 0 -0.18751407751088531 -0.029727098247847542 0 -0.19676041356730581 -0.027364230678610109 0 -0.19676041356730581 -0.027364230678610109 0 -0.20545027613743611 -0.030507468584336801 0 -0.19664432976116841 -0.033309068919509827 0 -0.19676041356730581 -0.027364230678610109 0 -0.19664432976116841 -0.033309068919509827 0 -0.20380804585817919 -0.01655314086405681 0 -0.21156674107252491 -0.023580527504929869 0 -0.20965513127193311 -0.01297083438476905 0 -0.19676041356730581 -0.027364230678610109 0 -0.20380804585817919 -0.01655314086405681 0 -0.21156674107252491 -0.023580527504929869 0 -0.19676041356730581 -0.027364230678610109 0 -0.21156674107252491 -0.023580527504929869 0 -0.20545027613743611 -0.030507468584336801 0 -0.21156674107252491 -0.023580527504929869 0 -0.2122172362459033 -0.036981502271008493 0 -0.19676041356730581 -0.027364230678610109 0 -0.20545027613743611 -0.030507468584336801 0 -0.21156674107252491 -0.023580527504929869 0 -0.21156674107252491 -0.023580527504929869 0 -0.2122172362459033 -0.036981502271008493 0 -0.221052020687212 -0.029836378827815691 0 -0.21156674107252491 -0.023580527504929869 0 -0.21750188167384341 -0.018298792924541799 0 -0.20965513127193311 -0.01297083438476905 0 -0.21156674107252491 -0.023580527504929869 0 -0.21750188167384341 -0.018298792924541799 0 -0.226373068577744 -0.01979682433124973 0 -0.21606567424505549 -0.011002136600326879 0 -0.21392853364036579 -0.0033176694410896532 0 -0.22317715039408001 -0.0094212496509069963 0 -0.19724989752095329 -0.0022969708879181862 0 -0.21392853364036579 -0.0033176694410896532 0 -0.20965513127193311 -0.01297083438476905 0 -0.21750188167384341 -0.018298792924541799 0 -0.21606567424505549 -0.011002136600326879 0 -0.20965513127193311 -0.01297083438476905 0 -0.21606567424505549 -0.011002136600326879 0 -0.21392853364036579 -0.0033176694410896532 0 -0.20965513127193311 -0.01297083438476905 0 -0.19724989752095329 -0.0022969708879181862 0 -0.20380804585817919 -0.01655314086405681 0 -0.20965513127193311 -0.01297083438476905 0 -0.20302842958750561 -0.063159095118273917 0 -0.18641009937808439 -0.057677134495881029 0 -0.1860196634884885 -0.044219383282266142 0 -0.20302842958750561 -0.063159095118273917 0 -0.1860196634884885 -0.044219383282266142 0 -0.20302842958750561 -0.063159095118273917 0 -0.1860196634884885 -0.044219383282266142 0 -0.2008182484018175 -0.047493804069199667 0 -0.18746062882530889 -0.04258853217053582 0 -0.2008182484018175 -0.047493804069199667 0 -0.2122172362459033 -0.036981502271008493 0 -0.18746062882530889 -0.04258853217053582 0 -0.19450311911254589 -0.037124598543968018 0 -0.2122172362459033 -0.036981502271008493 0 -0.18746062882530889 -0.04258853217053582 0 -0.2122172362459033 -0.036981502271008493 0 -0.19450311911254589 -0.037124598543968018 0 -0.19664432976116841 -0.033309068919509827 0 -0.2122172362459033 -0.036981502271008493 0 -0.18746062882530889 -0.04258853217053582 0 -0.18637367400948951 -0.037577691507542067 0 -0.19450311911254589 -0.037124598543968018 0 -0.1860196634884885 -0.044219383282266142 0 -0.18746062882530889 -0.04258853217053582 0 -0.2008182484018175 -0.047493804069199667 0 -0.18637367400948951 -0.037577691507542067 0 -0.18751407751088531 -0.029727098247847542 0 -0.18981972672085939 -0.035166197851243891 0 -0.18637367400948951 -0.037577691507542067 0 -0.19450311911254589 -0.037124598543968018 0 -0.18981972672085939 -0.035166197851243891 0 -0.18751407751088531 -0.029727098247847542 0 -0.18981972672085939 -0.035166197851243891 0 -0.19664432976116841 -0.033309068919509827 0 -0.19450311911254589 -0.037124598543968018 0 -0.18981972672085939 -0.035166197851243891 0 -0.19664432976116841 -0.033309068919509827 0 -0.20545027613743611 -0.030507468584336801 0 -0.19664432976116841 -0.033309068919509827 0 -0.2122172362459033 -0.036981502271008493 0 -0.2122172362459033 -0.036981502271008493 0 -0.215365283861881 -0.050520507503914007 0 -0.22605299792622949 -0.04293299581087813 0 -0.2008182484018175 -0.047493804069199667 0 -0.2122172362459033 -0.036981502271008493 0 -0.215365283861881 -0.050520507503914007 0 -0.22112550982785681 -0.064153184602810026 0 -0.20302842958750561 -0.063159095118273917 0 -0.215365283861881 -0.050520507503914007 0 -0.20302842958750561 -0.063159095118273917 0 -0.2008182484018175 -0.047493804069199667 0 -0.215365283861881 -0.050520507503914007 0 -0.2324619981995274 -0.061858816087879027 0 -0.2285190812779801 -0.052617873052172831 0 -0.24115982942957651 -0.055257365204772022 0 -0.22112550982785681 -0.064153184602810026 0 -0.2324619981995274 -0.061858816087879027 0 -0.2285190812779801 -0.052617873052172831 0 -0.22112550982785681 -0.064153184602810026 0 -0.215365283861881 -0.050520507503914007 0 -0.2285190812779801 -0.052617873052172831 0 -0.215365283861881 -0.050520507503914007 0 -0.2285190812779801 -0.052617873052172831 0 -0.22605299792622949 -0.04293299581087813 0 -0.2122172362459033 -0.036981502271008493 0 -0.22605299792622949 -0.04293299581087813 0 -0.23697384366649771 -0.031374472371481138 0 -0.2122172362459033 -0.036981502271008493 0 -0.23697384366649771 -0.031374472371481138 0 -0.221052020687212 -0.029836378827815691 0 -0.2122172362459033 -0.036981502271008493 0 -0.23697384366649771 -0.031374472371481138 0 -0.2285190812779801 -0.052617873052172831 0 -0.22605299792622949 -0.04293299581087813 0 -0.23755145932475921 -0.044148523672036137 0 -0.22605299792622949 -0.04293299581087813 0 -0.23697384366649771 -0.031374472371481138 0 -0.23755145932475921 -0.044148523672036137 0 -0.23697384366649771 -0.031374472371481138 0 -0.24838003049798971 -0.037691690345494057 0 -0.26173045108709198 -0.025767442471952871 0 -0.23697384366649771 -0.031374472371481138 0 -0.24838003049798971 -0.037691690345494057 0 -0.23755145932475921 -0.044148523672036137 0 -0.24838003049798971 -0.037691690345494057 0 -0.24816204064839309 -0.045570456877888188 0 -0.23755145932475921 -0.044148523672036137 0 -0.2285190812779801 -0.052617873052172831 0 -0.23755145932475921 -0.044148523672036137 0 -0.24115982942957651 -0.055257365204772022 0 -0.24816204064839309 -0.045570456877888188 0 -0.23755145932475921 -0.044148523672036137 0 -0.24115982942957651 -0.055257365204772022 0 -0.24816204064839309 -0.045570456877888188 0 -0.24115982942957651 -0.055257365204772022 0 -0.25387919010868132 -0.054023704264645582 0 -0.24012555059909241 -0.065174416141362018 0 -0.24996424734416089 -0.063901621117924232 0 -0.24115982942957651 -0.055257365204772022 0 -0.24996424734416089 -0.063901621117924232 0 -0.24115982942957651 -0.055257365204772022 0 -0.25387919010868132 -0.054023704264645582 0 -0.24012555059909241 -0.065174416141362018 0 -0.2324619981995274 -0.061858816087879027 0 -0.24115982942957651 -0.055257365204772022 0 -0.23297612027450859 -0.01195476332762792 0 -0.22317715039408001 -0.0094212496509069963 0 -0.226373068577744 -0.01979682433124973 0 -0.23297612027450859 -0.01195476332762792 0 -0.23309364173555941 -0.0042944221710940287 0 -0.22317715039408001 -0.0094212496509069963 0 -0.23309364173555941 -0.0042944221710940287 0 -0.22317715039408001 -0.0094212496509069963 0 -0.22558511437967621 0.0017107284761218491 0 -0.21392853364036579 -0.0033176694410896532 0 -0.22317715039408001 -0.0094212496509069963 0 -0.22558511437967621 0.0017107284761218491 0 -0.21750188167384341 -0.018298792924541799 0 -0.21606567424505549 -0.011002136600326879 0 -0.22317715039408001 -0.0094212496509069963 0 -0.23697384366649771 -0.031374472371481138 0 -0.221052020687212 -0.029836378827815691 0 -0.2321126731909679 -0.02594745223303686 0 -0.21750188167384341 -0.018298792924541799 0 -0.226373068577744 -0.01979682433124973 0 -0.21750188167384341 -0.018298792924541799 0 -0.22317715039408001 -0.0094212496509069963 0 -0.226373068577744 -0.01979682433124973 0 -0.21156674107252491 -0.023580527504929869 0 -0.226373068577744 -0.01979682433124973 0 -0.226373068577744 -0.01979682433124973 0 -0.2321126731909679 -0.02594745223303686 0 -0.24405175983241811 -0.022782133401600891 0 -0.226373068577744 -0.01979682433124973 0 -0.221052020687212 -0.029836378827815691 0 -0.2321126731909679 -0.02594745223303686 0 -0.21156674107252491 -0.023580527504929869 0 -0.226373068577744 -0.01979682433124973 0 -0.221052020687212 -0.029836378827815691 0 -0.23697384366649771 -0.031374472371481138 0 -0.24405175983241811 -0.022782133401600891 0 -0.26173045108709198 -0.025767442471952871 0 -0.23697384366649771 -0.031374472371481138 0 -0.26173045108709198 -0.025767442471952871 0 -0.226373068577744 -0.01979682433124973 0 -0.2455990518399013 -0.01488369419411718 0 -0.226373068577744 -0.01979682433124973 0 -0.24405175983241811 -0.022782133401600891 0 -0.226373068577744 -0.01979682433124973 0 -0.24405175983241811 -0.022782133401600891 0 -0.2455990518399013 -0.01488369419411718 0 -0.23697384366649771 -0.031374472371481138 0 -0.2321126731909679 -0.02594745223303686 0 -0.24405175983241811 -0.022782133401600891 0 -0.23297612027450859 -0.01195476332762792 0 -0.226373068577744 -0.01979682433124973 0 -0.2455990518399013 -0.01488369419411718 0 -0.2455990518399013 -0.01488369419411718 0 -0.23900537051013199 -0.0085749873233502086 0 -0.24435266819055859 -0.0031670696005617009 0 -0.23297612027450859 -0.01195476332762792 0 -0.2455990518399013 -0.01488369419411718 0 -0.23900537051013199 -0.0085749873233502086 0 -0.23297612027450859 -0.01195476332762792 0 -0.23309364173555941 -0.0042944221710940287 0 -0.23900537051013199 -0.0085749873233502086 0 -0.23309364173555941 -0.0042944221710940287 0 -0.23900537051013199 -0.0085749873233502086 0 -0.24435266819055859 -0.0031670696005617009 0 -0.23309364173555941 -0.0042944221710940287 0 -0.24435266819055859 -0.0031670696005617009 0 -0.2376792400997387 0.0056738125745543124 0 -0.2455990518399013 -0.01488369419411718 0 -0.24435266819055859 -0.0031670696005617009 0 -0.25382201275908262 -0.003718397405113353 0 -0.24435266819055859 -0.0031670696005617009 0 -0.25382201275908262 -0.003718397405113353 0 -0.2511806455824796 0.0060036871011076654 0 -0.2455990518399013 -0.01488369419411718 0 -0.25382201275908262 -0.003718397405113353 0 -0.26482503510205863 -0.0099705640569846422 0 -0.2455990518399013 -0.01488369419411718 0 -0.26482503510205863 -0.0099705640569846422 0 -0.25382201275908262 -0.003718397405113353 0 -0.26482503510205863 -0.0099705640569846422 0 -0.26315266308041457 0.003425653724989099 0 -0.24405175983241811 -0.022782133401600891 0 -0.26173045108709198 -0.025767442471952871 0 -0.2455990518399013 -0.01488369419411718 0 -0.26482503510205863 -0.0099705640569846422 0 -0.26173045108709198 -0.025767442471952871 0 -0.24405175983241811 -0.022782133401600891 0 -0.2455990518399013 -0.01488369419411718 0 -0.26173045108709198 -0.025767442471952871 0 -0.26173045108709198 -0.025767442471952871 0 -0.29067728595059877 -0.01921138388852511 0 -0.26173045108709198 -0.025767442471952871 0 -0.27952904816324931 -0.02877299941762973 0 -0.26934893902048651 -0.037623466730294951 0 -0.26173045108709198 -0.025767442471952871 0 -0.27952904816324931 -0.02877299941762973 0 -0.26173045108709198 -0.025767442471952871 0 -0.27952904816324931 -0.02877299941762973 0 -0.29067728595059877 -0.01921138388852511 0 -0.26482503510205863 -0.0099705640569846422 0 -0.26173045108709198 -0.025767442471952871 0 -0.29067728595059877 -0.01921138388852511 0 -0.26482503510205863 -0.0099705640569846422 0 -0.27590268998574019 -0.0027832089829183701 0 -0.29067728595059877 -0.01921138388852511 0 -0.26482503510205863 -0.0099705640569846422 0 -0.27590268998574019 -0.0027832089829183701 0 -0.26315266308041457 0.003425653724989099 0 -0.29067728595059877 -0.01921138388852511 0 -0.28621886465719759 0.001186204879363336 0 -0.30287073765804928 0.0033491012984734102 0 -0.27590268998574019 -0.0027832089829183701 0 -0.29067728595059877 -0.01921138388852511 0 -0.28621886465719759 0.001186204879363336 0 -0.27952904816324931 -0.02877299941762973 0 -0.29732764523940641 -0.031778556363308119 0 -0.27952904816324931 -0.02877299941762973 0 -0.29067728595059877 -0.01921138388852511 0 -0.29732764523940641 -0.031778556363308119 0 -0.29067728595059877 -0.01921138388852511 0 -0.29796669903104989 -0.029562312647220632 0 -0.29732764523940641 -0.031778556363308119 0 -0.29067728595059877 -0.01921138388852511 0 -0.31962412081410702 -0.012655325305103391 0 -0.29067728595059877 -0.01921138388852511 0 -0.29796669903104989 -0.029562312647220632 0 -0.31962412081410702 -0.012655325305103391 0 -0.29796669903104989 -0.029562312647220632 0 -0.30707160757565821 -0.033423968838958901 0 -0.31962412081410702 -0.012655325305103391 0 -0.29796669903104989 -0.029562312647220632 0 -0.29732764523940641 -0.031778556363308119 0 -0.29067728595059877 -0.01921138388852511 0 -0.31962412081410702 -0.012655325305103391 0 -0.30287073765804928 0.0033491012984734102 0 -0.29730094609497859 -0.049589925530452612 0 -0.30568189548884001 -0.058214289902683451 0 -0.31059498724329448 -0.046589149522204727 0 -0.30568189548884001 -0.058214289902683451 0 -0.31059498724329448 -0.046589149522204727 0 -0.31837448765103182 -0.060919368721913218 0 -0.29730094609497859 -0.049589925530452612 0 -0.30707160757565821 -0.033423968838958901 0 -0.29732764523940641 -0.031778556363308119 0 -0.29730094609497859 -0.049589925530452612 0 -0.31059498724329448 -0.046589149522204727 0 -0.30707160757565821 -0.033423968838958901 0 -0.31059498724329448 -0.046589149522204727 0 -0.30707160757565821 -0.033423968838958901 0 -0.31646762555963381 -0.042185741284114918 0 -0.29730094609497859 -0.049589925530452612 0 -0.30707160757565821 -0.033423968838958901 0 -0.29796669903104989 -0.029562312647220632 0 -0.30707160757565821 -0.033423968838958901 0 -0.29732764523940641 -0.031778556363308119 0 -0.30707160757565821 -0.033423968838958901 0 -0.29732764523940641 -0.031778556363308119 0 -0.29732764523940641 -0.031778556363308119 0 -0.29242896492685538 -0.048767219292627811 0 -0.29732764523940641 -0.031778556363308119 0 -0.29242896492685538 -0.048767219292627811 0 -0.27980765245285799 -0.042751757781812109 0 -0.27952904816324931 -0.02877299941762973 0 -0.29732764523940641 -0.031778556363308119 0 -0.27980765245285799 -0.042751757781812109 0 -0.29730094609497859 -0.049589925530452612 0 -0.29732764523940641 -0.031778556363308119 0 -0.29242896492685538 -0.048767219292627811 0 -0.29730094609497859 -0.049589925530452612 0 -0.29242896492685538 -0.048767219292627811 0 -0.28753028461429819 -0.065755882221945797 0 -0.29730094609497859 -0.049589925530452612 0 -0.30568189548884001 -0.058214289902683451 0 -0.28753028461429819 -0.065755882221945797 0 -0.29242896492685538 -0.048767219292627811 0 -0.28753028461429819 -0.065755882221945797 0 -0.29242896492685538 -0.048767219292627811 0 -0.27639926899421968 -0.05671283032915822 0 -0.27980765245285799 -0.042751757781812109 0 -0.29242896492685538 -0.048767219292627811 0 -0.27639926899421968 -0.05671283032915822 0 -0.28753028461429819 -0.065755882221945797 0 -0.29730094609497859 -0.049589925530452612 0 -0.28753028461429819 -0.065755882221945797 0 -0.27639926899421968 -0.05671283032915822 0 -0.26674640793410931 -0.048893332332291817 0 -0.27980765245285799 -0.042751757781812109 0 -0.27639926899421968 -0.05671283032915822 0 -0.26674640793410931 -0.048893332332291817 0 -0.26211709313864168 -0.062070785509071032 0 -0.27952904816324931 -0.02877299941762973 0 -0.27980765245285799 -0.042751757781812109 0 -0.26934893902048651 -0.037623466730294951 0 -0.26674640793410931 -0.048893332332291817 0 -0.27980765245285799 -0.042751757781812109 0 -0.26934893902048651 -0.037623466730294951 0 -0.24838003049798971 -0.037691690345494057 0 -0.26173045108709198 -0.025767442471952871 0 -0.2574823577632066 -0.041597556334112808 0 -0.26173045108709198 -0.025767442471952871 0 -0.26934893902048651 -0.037623466730294951 0 -0.2574823577632066 -0.041597556334112808 0 -0.26674640793410931 -0.048893332332291817 0 -0.26934893902048651 -0.037623466730294951 0 -0.2574823577632066 -0.041597556334112808 0 -0.24838003049798971 -0.037691690345494057 0 -0.24816204064839309 -0.045570456877888188 0 -0.2574823577632066 -0.041597556334112808 0 -0.26674640793410931 -0.048893332332291817 0 -0.26211709313864168 -0.062070785509071032 0 -0.25387919010868132 -0.054023704264645582 0 -0.26674640793410931 -0.048893332332291817 0 -0.2574823577632066 -0.041597556334112808 0 -0.25387919010868132 -0.054023704264645582 0 -0.24816204064839309 -0.045570456877888188 0 -0.2574823577632066 -0.041597556334112808 0 -0.25387919010868132 -0.054023704264645582 0 -0.24996424734416089 -0.063901621117924232 0 -0.26211709313864168 -0.062070785509071032 0 -0.25387919010868132 -0.054023704264645582 0 -0.24996424734416089 -0.063901621117924232 0 -0.26211709313864168 -0.062070785509071032 0 -0.25697828682216539 -0.073132083951301066 0 -0.24996424734416089 -0.063901621117924232 0 -0.24432075154354529 -0.073863429162164665 0 -0.25697828682216539 -0.073132083951301066 0 -0.26211709313864168 -0.062070785509071032 0 -0.25697828682216539 -0.073132083951301066 0 -0.26976521089855549 -0.072038004837200742 0 -0.25697828682216539 -0.073132083951301066 0 -0.26287149438749441 -0.082318670102670313 0 -0.26976521089855549 -0.072038004837200742 0 -0.24432075154354529 -0.073863429162164665 0 -0.25697828682216539 -0.073132083951301066 0 -0.25203833747956028 -0.084054520604373878 0 -0.25697828682216539 -0.073132083951301066 0 -0.25203833747956028 -0.084054520604373878 0 -0.26287149438749441 -0.082318670102670313 0 -0.24864405758726629 -0.09478409224515072 0 -0.25203833747956028 -0.084054520604373878 0 -0.25870569325466009 -0.090510322783886044 0 -0.25870569325466009 -0.090510322783886044 0 -0.26287149438749441 -0.082318670102670313 0 -0.27238998423800093 -0.090806124793891635 0 -0.25203833747956028 -0.084054520604373878 0 -0.25870569325466009 -0.090510322783886044 0 -0.26287149438749441 -0.082318670102670313 0 -0.27238998423800093 -0.090806124793891635 0 -0.27923461089560442 -0.094525345748119383 0 -0.28753028461429819 -0.065755882221945797 0 -0.27238998423800093 -0.090806124793891635 0 -0.28753028461429819 -0.065755882221945797 0 -0.26287149438749441 -0.082318670102670313 0 -0.27238998423800093 -0.090806124793891635 0 -0.26976521089855549 -0.072038004837200742 0 -0.27639926899421968 -0.05671283032915822 0 -0.26976521089855549 -0.072038004837200742 0 -0.28753028461429819 -0.065755882221945797 0 -0.27238998423800093 -0.090806124793891635 0 -0.26976521089855549 -0.072038004837200742 0 -0.28753028461429819 -0.065755882221945797 0 -0.27639926899421968 -0.05671283032915822 0 -0.26211709313864168 -0.062070785509071032 0 -0.26976521089855549 -0.072038004837200742 0 -0.26340914045703512 -0.12065220398372289 0 -0.25724968386170383 -0.1158563673658374 0 -0.26122075901893838 -0.12769872472474911 0 -0.26340914045703512 -0.12065220398372289 0 -0.25724968386170383 -0.1158563673658374 0 -0.26584115370304501 -0.1164901716750585 0 -0.26340914045703512 -0.12065220398372289 0 -0.26932496524445332 -0.1225635521692469 0 -0.26122075901893838 -0.12769872472474911 0 -0.25724968386170383 -0.1158563673658374 0 -0.26938083107554212 -0.1087834695942691 0 -0.26584115370304501 -0.1164901716750585 0 -0.24831251401145021 -0.1068594192199797 0 -0.25724968386170383 -0.1158563673658374 0 -0.25811002467595101 -0.099973802857463934 0 -0.27238998423800093 -0.090806124793891635 0 -0.25724968386170383 -0.1158563673658374 0 -0.27238998423800093 -0.090806124793891635 0 -0.25724968386170383 -0.1158563673658374 0 -0.25811002467595101 -0.099973802857463934 0 -0.25724968386170383 -0.1158563673658374 0 -0.26956377751771282 -0.10249282687552939 0 -0.26938083107554212 -0.1087834695942691 0 -0.24831251401145021 -0.1068594192199797 0 -0.24864405758726629 -0.09478409224515072 0 -0.25811002467595101 -0.099973802857463934 0 -0.24864405758726629 -0.09478409224515072 0 -0.25870569325466009 -0.090510322783886044 0 -0.25811002467595101 -0.099973802857463934 0 -0.25870569325466009 -0.090510322783886044 0 -0.27238998423800093 -0.090806124793891635 0 -0.25811002467595101 -0.099973802857463934 0 -0.27923461089560442 -0.094525345748119383 0 -0.26938083107554212 -0.1087834695942691 0 -0.27093893717690898 -0.1232948092742925 0 -0.27923461089560442 -0.094525345748119383 0 -0.27093893717690898 -0.1232948092742925 0 -0.27238998423800093 -0.090806124793891635 0 -0.25724968386170383 -0.1158563673658374 0 -0.26956377751771282 -0.10249282687552939 0 -0.27238998423800093 -0.090806124793891635 0 -0.27923461089560442 -0.094525345748119383 0 -0.26956377751771282 -0.10249282687552939 0 -0.27923461089560442 -0.094525345748119383 0 -0.26956377751771282 -0.10249282687552939 0 -0.26938083107554212 -0.1087834695942691 0 -0.27093893717690898 -0.1232948092742925 0 -0.28530353892885529 -0.1203234830329185 0 -0.28714930642550851 -0.13063939033551369 0 -0.27923461089560442 -0.094525345748119383 0 -0.27093893717690898 -0.1232948092742925 0 -0.2832886420804655 -0.1112750858512689 0 -0.26938083107554212 -0.1087834695942691 0 -0.26584115370304501 -0.1164901716750585 0 -0.27093893717690898 -0.1232948092742925 0 -0.27093893717690898 -0.1232948092742925 0 -0.28530353892885529 -0.1203234830329185 0 -0.2832886420804655 -0.1112750858512689 0 -0.27093893717690898 -0.1232948092742925 0 -0.26932496524445332 -0.1225635521692469 0 -0.26122075901893838 -0.12769872472474911 0 -0.27093893717690898 -0.1232948092742925 0 -0.26932496524445332 -0.1225635521692469 0 -0.26584115370304501 -0.1164901716750585 0 -0.27093893717690898 -0.1232948092742925 0 -0.26932496524445332 -0.1225635521692469 0 -0.26340914045703512 -0.12065220398372289 0 -0.26584115370304501 -0.1164901716750585 0 -0.26932496524445332 -0.1225635521692469 0 -0.28530353892885529 -0.1203234830329185 0 -0.2832886420804655 -0.1112750858512689 0 -0.29983727003253607 -0.11608464667059799 0 -0.28530353892885529 -0.1203234830329185 0 -0.29983727003253607 -0.11608464667059799 0 -0.28714930642550851 -0.13063939033551369 0 -0.29983727003253607 -0.11608464667059799 0 -0.28714930642550851 -0.13063939033551369 0 -0.2832886420804655 -0.1112750858512689 0 -0.29544304091792351 -0.1000911281614132 0 -0.29983727003253607 -0.11608464667059799 0 -0.27923461089560442 -0.094525345748119383 0 -0.2832886420804655 -0.1112750858512689 0 -0.28715729622650188 -0.098330131331867687 0 -0.2832886420804655 -0.1112750858512689 0 -0.28715729622650188 -0.098330131331867687 0 -0.29544304091792351 -0.1000911281614132 0 -0.28715729622650188 -0.098330131331867687 0 -0.29544304091792351 -0.1000911281614132 0 -0.2906628910120142 -0.087428965566669153 0 -0.29544304091792351 -0.1000911281614132 0 -0.29983727003253607 -0.11608464667059799 0 -0.31346306436644411 -0.1019062923748411 0 -0.29544304091792351 -0.1000911281614132 0 -0.30583113019670882 -0.084578913038653045 0 -0.31346306436644411 -0.1019062923748411 0 -0.29983727003253607 -0.11608464667059799 0 -0.31924464944549169 -0.1193981324436013 0 -0.30658026208313738 -0.13944315209663249 0 -0.29983727003253607 -0.11608464667059799 0 -0.31924464944549169 -0.1193981324436013 0 -0.31346306436644411 -0.1019062923748411 0 -0.28753028461429819 -0.065755882221945797 0 -0.29727201246821411 -0.076938016654315058 0 -0.30506374404983522 -0.069988305789992211 0 -0.28753028461429819 -0.065755882221945797 0 -0.2906628910120142 -0.087428965566669153 0 -0.29727201246821411 -0.076938016654315058 0 -0.27923461089560442 -0.094525345748119383 0 -0.28753028461429819 -0.065755882221945797 0 -0.2906628910120142 -0.087428965566669153 0 -0.27923461089560442 -0.094525345748119383 0 -0.28753028461429819 -0.065755882221945797 0 -0.27923461089560442 -0.094525345748119383 0 -0.28715729622650188 -0.098330131331867687 0 -0.2906628910120142 -0.087428965566669153 0 -0.2906628910120142 -0.087428965566669153 0 -0.30583113019670882 -0.084578913038653045 0 -0.29727201246821411 -0.076938016654315058 0 -0.29544304091792351 -0.1000911281614132 0 -0.2906628910120142 -0.087428965566669153 0 -0.30583113019670882 -0.084578913038653045 0 -0.30568189548884001 -0.058214289902683451 0 -0.28753028461429819 -0.065755882221945797 0 -0.30506374404983522 -0.069988305789992211 0 -0.30583113019670882 -0.084578913038653045 0 -0.30506374404983522 -0.069988305789992211 0 -0.31699704455617628 -0.073676566274627112 0 -0.30583113019670882 -0.084578913038653045 0 -0.29727201246821411 -0.076938016654315058 0 -0.30506374404983522 -0.069988305789992211 0 -0.30568189548884001 -0.058214289902683451 0 -0.30506374404983522 -0.069988305789992211 0 -0.31837448765103182 -0.060919368721913218 0 -0.30506374404983522 -0.069988305789992211 0 -0.31699704455617628 -0.073676566274627112 0 -0.31837448765103182 -0.060919368721913218 0 -0.31699704455617628 -0.073676566274627112 0 -0.3319847312080102 -0.072689822547052016 0 -0.31837448765103182 -0.060919368721913218 0 -0.31699704455617628 -0.073676566274627112 0 -0.32767586801463022 -0.083592314874995438 0 -0.3319847312080102 -0.072689822547052016 0 -0.30583113019670882 -0.084578913038653045 0 -0.31699704455617628 -0.073676566274627112 0 -0.32767586801463022 -0.083592314874995438 0 -0.30583113019670882 -0.084578913038653045 0 -0.32767586801463022 -0.083592314874995438 0 -0.31346306436644411 -0.1019062923748411 0 -0.32767586801463022 -0.083592314874995438 0 -0.34218050755590712 -0.088349944314527626 0 -0.33274642759137413 -0.10769261905978569 0 -0.32767586801463022 -0.083592314874995438 0 -0.34218050755590712 -0.088349944314527626 0 -0.3319847312080102 -0.072689822547052016 0 -0.3319847312080102 -0.072689822547052016 0 -0.34924633882036432 -0.071306058234705788 0 -0.33743414064995209 -0.058294682861542962 0 -0.34218050755590712 -0.088349944314527626 0 -0.3319847312080102 -0.072689822547052016 0 -0.34924633882036432 -0.071306058234705788 0 -0.3319847312080102 -0.072689822547052016 0 -0.31837448765103182 -0.060919368721913218 0 -0.33743414064995209 -0.058294682861542962 0 -0.31924464944549169 -0.1193981324436013 0 -0.31346306436644411 -0.1019062923748411 0 -0.33274642759137413 -0.10769261905978569 0 -0.32767586801463022 -0.083592314874995438 0 -0.31346306436644411 -0.1019062923748411 0 -0.33274642759137413 -0.10769261905978569 0 -0.34218050755590712 -0.088349944314527626 0 -0.33274642759137413 -0.10769261905978569 0 -0.34608642825667668 -0.10426205535270031 0 -0.32767586801463022 -0.083592314874995438 0 -0.33274642759137413 -0.10769261905978569 0 -0.31924464944549169 -0.1193981324436013 0 -0.33274642759137413 -0.10769261905978569 0 -0.33781698716811809 -0.131792923244576 0 -0.33274642759137413 -0.10769261905978569 0 -0.33781698716811809 -0.131792923244576 0 -0.33274642759137413 -0.10769261905978569 0 -0.3479295457816895 -0.11708174174598091 0 -0.33781698716811809 -0.131792923244576 0 -0.33274642759137413 -0.10769261905978569 0 -0.3479295457816895 -0.11708174174598091 0 -0.34608642825667668 -0.10426205535270031 0 -0.3479295457816895 -0.11708174174598091 0 -0.36436978055373709 -0.1177810376174618 0 -0.35333410800397269 -0.1297329932894101 0 -0.3479295457816895 -0.11708174174598091 0 -0.35645267196046182 -0.10870514753195221 0 -0.36436978055373709 -0.1177810376174618 0 -0.3479295457816895 -0.11708174174598091 0 -0.35645267196046182 -0.10870514753195221 0 -0.34608642825667668 -0.10426205535270031 0 -0.34218050755590712 -0.088349944314527626 0 -0.34608642825667668 -0.10426205535270031 0 -0.35423284793934962 -0.096793201187273428 0 -0.35645267196046182 -0.10870514753195221 0 -0.34608642825667668 -0.10426205535270031 0 -0.35423284793934962 -0.096793201187273428 0 -0.35645267196046182 -0.10870514753195221 0 -0.35423284793934962 -0.096793201187273428 0 -0.36667926069258372 -0.1018630527524803 0 -0.35423284793934962 -0.096793201187273428 0 -0.36667926069258372 -0.1018630527524803 0 -0.35879057917297918 -0.084155621082660281 0 -0.36667926069258372 -0.1018630527524803 0 -0.37332665909224061 -0.08612038218917073 0 -0.38215926331170658 -0.1045982486550327 0 -0.36667926069258372 -0.1018630527524803 0 -0.37586199958902577 -0.11471433524842251 0 -0.38215926331170658 -0.1045982486550327 0 -0.36667926069258372 -0.1018630527524803 0 -0.36436978055373709 -0.1177810376174618 0 -0.37586199958902577 -0.11471433524842251 0 -0.35645267196046182 -0.10870514753195221 0 -0.36667926069258372 -0.1018630527524803 0 -0.36436978055373709 -0.1177810376174618 0 -0.36436978055373709 -0.1177810376174618 0 -0.37450924494895871 -0.1297507813620131 0 -0.37586199958902577 -0.11471433524842251 0 -0.34924633882036432 -0.071306058234705788 0 -0.36755006916143612 -0.072558080549145212 0 -0.35874279087194988 -0.058004261239129558 0 -0.34924633882036432 -0.071306058234705788 0 -0.35879057917297918 -0.084155621082660281 0 -0.36755006916143612 -0.072558080549145212 0 -0.34924633882036432 -0.071306058234705788 0 -0.35874279087194988 -0.058004261239129558 0 -0.33743414064995209 -0.058294682861542962 0 -0.34218050755590712 -0.088349944314527626 0 -0.35423284793934962 -0.096793201187273428 0 -0.35879057917297918 -0.084155621082660281 0 -0.34218050755590712 -0.088349944314527626 0 -0.34924633882036432 -0.071306058234705788 0 -0.35879057917297918 -0.084155621082660281 0 -0.36667926069258372 -0.1018630527524803 0 -0.35879057917297918 -0.084155621082660281 0 -0.37332665909224061 -0.08612038218917073 0 -0.35879057917297918 -0.084155621082660281 0 -0.37332665909224061 -0.08612038218917073 0 -0.36755006916143612 -0.072558080549145212 0 -0.36755006916143612 -0.072558080549145212 0 -0.35874279087194988 -0.058004261239129558 0 -0.38084548646524102 -0.061585626789706749 0 -0.37332665909224061 -0.08612038218917073 0 -0.36755006916143612 -0.072558080549145212 0 -0.38300214128270432 -0.075652690928650512 0 -0.35874279087194988 -0.058004261239129558 0 -0.37156710019964101 -0.044314988787971042 0 -0.38084548646524102 -0.061585626789706749 0 -0.35874279087194988 -0.058004261239129558 0 -0.34581360993506521 -0.039966130211705628 0 -0.37156710019964101 -0.044314988787971042 0 -0.35874279087194988 -0.058004261239129558 0 -0.34581360993506521 -0.039966130211705628 0 -0.33743414064995209 -0.058294682861542962 0 -0.34581360993506521 -0.039966130211705628 0 -0.37156710019964101 -0.044314988787971042 0 -0.37156710019964101 -0.044314988787971042 0 -0.36564471060928821 -0.026694204919340991 0 -0.38529434146045483 -0.034278459522657942 0 -0.34581360993506521 -0.039966130211705628 0 -0.37156710019964101 -0.044314988787971042 0 -0.36564471060928821 -0.026694204919340991 0 -0.36564471060928821 -0.026694204919340991 0 -0.37081023416420861 -0.0088368789994708111 0 -0.35012258671727919 -0.0183642647286342 0 -0.37081023416420861 -0.0088368789994708111 0 -0.35294124532442639 0.00089412184765842381 0 -0.37081023416420861 -0.0088368789994708111 0 -0.35012258671727919 -0.0183642647286342 0 -0.35294124532442639 0.00089412184765842381 0 -0.35012258671727919 -0.0183642647286342 0 -0.34305195426649399 -0.0089721878387813963 0 -0.35294124532442639 0.00089412184765842381 0 -0.3408318510851775 -7.0430601114411463e-05 0 -0.34305195426649399 -0.0089721878387813963 0 -0.35294124532442639 0.00089412184765842381 0 -0.34581360993506521 -0.039966130211705628 0 -0.36564471060928821 -0.026694204919340991 0 -0.35012258671727919 -0.0183642647286342 0 -0.35012258671727919 -0.0183642647286342 0 -0.33440678971386151 -0.026517724129313629 0 -0.3377958854385637 -0.0148296381766775 0 -0.33440678971386151 -0.026517724129313629 0 -0.3377958854385637 -0.0148296381766775 0 -0.32814068186403 -0.010726441769610641 0 -0.34581360993506521 -0.039966130211705628 0 -0.35012258671727919 -0.0183642647286342 0 -0.33440678971386151 -0.026517724129313629 0 -0.32814068186403 -0.010726441769610641 0 -0.33325741463115371 -0.0095675724170476255 0 -0.33507225648464423 0.010625122694787451 0 -0.32814068186403 -0.010726441769610641 0 -0.33507225648464423 0.010625122694787451 0 -0.3408318510851775 -7.0430601114411463e-05 0 -0.34305195426649399 -0.0089721878387813963 0 -0.33325741463115371 -0.0095675724170476255 0 -0.34305195426649399 -0.0089721878387813963 0 -0.3377958854385637 -0.0148296381766775 0 -0.33325741463115371 -0.0095675724170476255 0 -0.35012258671727919 -0.0183642647286342 0 -0.34305195426649399 -0.0089721878387813963 0 -0.3377958854385637 -0.0148296381766775 0 -0.3377958854385637 -0.0148296381766775 0 -0.32814068186403 -0.010726441769610641 0 -0.33325741463115371 -0.0095675724170476255 0 -0.32814068186403 -0.010726441769610641 0 -0.33325741463115371 -0.0095675724170476255 0 -0.31962412081410702 -0.012655325305103391 0 -0.33507225648464423 0.010625122694787451 0 -0.31962412081410702 -0.012655325305103391 0 -0.30287073765804928 0.0033491012984734102 0 -0.3174427573646198 0.0055651620128599998 0 -0.32814068186403 -0.010726441769610641 0 -0.31962412081410702 -0.012655325305103391 0 -0.33507225648464423 0.010625122694787451 0 -0.32814068186403 -0.010726441769610641 0 -0.31962412081410702 -0.012655325305103391 0 -0.33440678971386151 -0.026517724129313629 0 -0.32814068186403 -0.010726441769610641 0 -0.32006011967048997 -0.035617271635437028 0 -0.32814068186403 -0.010726441769610641 0 -0.31962412081410702 -0.012655325305103391 0 -0.32006011967048997 -0.035617271635437028 0 -0.30707160757565821 -0.033423968838958901 0 -0.31962412081410702 -0.012655325305103391 0 -0.32814068186403 -0.010726441769610641 0 -0.32006011967048997 -0.035617271635437028 0 -0.30707160757565821 -0.033423968838958901 0 -0.31962412081410702 -0.012655325305103391 0 -0.32006011967048997 -0.035617271635437028 0 -0.30707160757565821 -0.033423968838958901 0 -0.32006011967048997 -0.035617271635437028 0 -0.31646762555963381 -0.042185741284114918 0 -0.30707160757565821 -0.033423968838958901 0 -0.32006011967048997 -0.035617271635437028 0 -0.31059498724329448 -0.046589149522204727 0 -0.32413410857288899 -0.046250402106425462 0 -0.31646762555963381 -0.042185741284114918 0 -0.32006011967048997 -0.035617271635437028 0 -0.32413410857288899 -0.046250402106425462 0 -0.31646762555963381 -0.042185741284114918 0 -0.31059498724329448 -0.046589149522204727 0 -0.32413410857288899 -0.046250402106425462 0 -0.31837448765103182 -0.060919368721913218 0 -0.32413410857288899 -0.046250402106425462 0 -0.31837448765103182 -0.060919368721913218 0 -0.33743414064995209 -0.058294682861542962 0 -0.34581360993506521 -0.039966130211705628 0 -0.32413410857288899 -0.046250402106425462 0 -0.33743414064995209 -0.058294682861542962 0 -0.34581360993506521 -0.039966130211705628 0 -0.32006011967048997 -0.035617271635437028 0 -0.32413410857288899 -0.046250402106425462 0 -0.34581360993506521 -0.039966130211705628 0 -0.32006011967048997 -0.035617271635437028 0 -0.34581360993506521 -0.039966130211705628 0 -0.33440678971386151 -0.026517724129313629 0 -0.32006011967048997 -0.035617271635437028 0 -0.30059364284392781 -0.26073206230967899 0 -0.3059790900976298 -0.24100614775169921 0 -0.29429240070356588 -0.24288348042963359 0 -0.3059790900976298 -0.24100614775169921 0 -0.29883643845181412 -0.22689400996038231 0 -0.29429240070356588 -0.24288348042963359 0 -0.29883643845181412 -0.22689400996038231 0 -0.31631794163962851 -0.2095557210199219 0 -0.32197620539698241 -0.23222827380590991 0 -0.3059790900976298 -0.24100614775169921 0 -0.29883643845181412 -0.22689400996038231 0 -0.32197620539698241 -0.23222827380590991 0 -0.29883643845181412 -0.22689400996038231 0 -0.28248542569765228 -0.22421882609015059 0 -0.29241551753672917 -0.2102848389073364 0 -0.29883643845181412 -0.22689400996038231 0 -0.28248542569765228 -0.22421882609015059 0 -0.28408591232549979 -0.23586476335450701 0 -0.29883643845181412 -0.22689400996038231 0 -0.28408591232549979 -0.23586476335450701 0 -0.29429240070356588 -0.24288348042963359 0 -0.28408591232549979 -0.23586476335450701 0 -0.29429240070356588 -0.24288348042963359 0 -0.28227790444285261 -0.24748029260235141 0 -0.26968452270859528 -0.25105584918283508 0 -0.28227790444285261 -0.24748029260235141 0 -0.27255533385857622 -0.23815281327296561 0 -0.28408591232549979 -0.23586476335450701 0 -0.28227790444285261 -0.24748029260235141 0 -0.27255533385857622 -0.23815281327296561 0 -0.26968452270859528 -0.25105584918283508 0 -0.27255533385857622 -0.23815281327296561 0 -0.25723339985396632 -0.24528001249266571 0 -0.27255533385857622 -0.23815281327296561 0 -0.25723339985396632 -0.24528001249266571 0 -0.25681069471921369 -0.22882700100864781 0 -0.23726921172755491 -0.24006168934922731 0 -0.25723339985396632 -0.24528001249266571 0 -0.25681069471921369 -0.22882700100864781 0 -0.25681069471921369 -0.22882700100864781 0 -0.26931939133882332 -0.22265922476031191 0 -0.25902516243353968 -0.21130337598408419 0 -0.27255533385857622 -0.23815281327296561 0 -0.25681069471921369 -0.22882700100864781 0 -0.26931939133882332 -0.22265922476031191 0 -0.28248542569765228 -0.22421882609015059 0 -0.27255533385857622 -0.23815281327296561 0 -0.28248542569765228 -0.22421882609015059 0 -0.28408591232549979 -0.23586476335450701 0 -0.27255533385857622 -0.23815281327296561 0 -0.28248542569765228 -0.22421882609015059 0 -0.27255533385857622 -0.23815281327296561 0 -0.26931939133882332 -0.22265922476031191 0 -0.28248542569765228 -0.22421882609015059 0 -0.26931939133882332 -0.22265922476031191 0 -0.27572033998513451 -0.21079410744571109 0 -0.27572033998513451 -0.21079410744571109 0 -0.25902516243353968 -0.21130337598408419 0 -0.26896398050014259 -0.1983059157608725 0 -0.27572033998513451 -0.21079410744571109 0 -0.25902516243353968 -0.21130337598408419 0 -0.26931939133882332 -0.22265922476031191 0 -0.27572033998513451 -0.21079410744571109 0 -0.25902516243353968 -0.21130337598408419 0 -0.24476685473631651 -0.21405980277710229 0 -0.25681069471921369 -0.22882700100864781 0 -0.25902516243353968 -0.21130337598408419 0 -0.25902516243353968 -0.21130337598408419 0 -0.25747534191789212 -0.1998206152762696 0 -0.26896398050014259 -0.1983059157608725 0 -0.24476685473631651 -0.21405980277710229 0 -0.25902516243353968 -0.21130337598408419 0 -0.25747534191789212 -0.1998206152762696 0 -0.24476685473631651 -0.21405980277710229 0 -0.25226449774507809 -0.1880579162049773 0 -0.25747534191789212 -0.1998206152762696 0 -0.25226449774507809 -0.1880579162049773 0 -0.25747534191789212 -0.1998206152762696 0 -0.26306977518420771 -0.18803299592647069 0 -0.25747534191789212 -0.1998206152762696 0 -0.26306977518420771 -0.18803299592647069 0 -0.26896398050014259 -0.1983059157608725 0 -0.26896398050014259 -0.1983059157608725 0 -0.2857848870053088 -0.19566851356437309 0 -0.27769519514398089 -0.18246397688370569 0 -0.27572033998513451 -0.21079410744571109 0 -0.26896398050014259 -0.1983059157608725 0 -0.2857848870053088 -0.19566851356437309 0 -0.26306977518420771 -0.18803299592647069 0 -0.26896398050014259 -0.1983059157608725 0 -0.27769519514398089 -0.18246397688370569 0 -0.2857848870053088 -0.19566851356437309 0 -0.30449033356976551 -0.19334135695713839 0 -0.29709549386514822 -0.1781904966225395 0 -0.2857848870053088 -0.19566851356437309 0 -0.29241551753672917 -0.2102848389073364 0 -0.30449033356976551 -0.19334135695713839 0 -0.27572033998513451 -0.21079410744571109 0 -0.29241551753672917 -0.2102848389073364 0 -0.27572033998513451 -0.21079410744571109 0 -0.2857848870053088 -0.19566851356437309 0 -0.29241551753672917 -0.2102848389073364 0 -0.28248542569765228 -0.22421882609015059 0 -0.27572033998513451 -0.21079410744571109 0 -0.29241551753672917 -0.2102848389073364 0 -0.28248542569765228 -0.22421882609015059 0 -0.29241551753672917 -0.2102848389073364 0 -0.29241551753672917 -0.2102848389073364 0 -0.30449033356976551 -0.19334135695713839 0 -0.31631794163962851 -0.2095557210199219 0 -0.29883643845181412 -0.22689400996038231 0 -0.29241551753672917 -0.2102848389073364 0 -0.31631794163962851 -0.2095557210199219 0 -0.29241551753672917 -0.2102848389073364 0 -0.31631794163962851 -0.2095557210199219 0 -0.29241551753672917 -0.2102848389073364 0 -0.30449033356976551 -0.19334135695713839 0 -0.30449033356976551 -0.19334135695713839 0 -0.31656514960280269 -0.1763978750069411 0 -0.30449033356976551 -0.19334135695713839 0 -0.29709549386514822 -0.1781904966225395 0 -0.31656514960280269 -0.1763978750069411 0 -0.29709549386514822 -0.1781904966225395 0 -0.30991182112959031 -0.15793510562429841 0 -0.31656514960280269 -0.1763978750069411 0 -0.29709549386514822 -0.1781904966225395 0 -0.30991182112959031 -0.15793510562429841 0 -0.28812557673944128 -0.16333615169878021 0 -0.30991182112959031 -0.15793510562429841 0 -0.28812557673944128 -0.16333615169878021 0 -0.29304453799347058 -0.14754030194788181 0 -0.2857848870053088 -0.19566851356437309 0 -0.29709549386514822 -0.1781904966225395 0 -0.27769519514398089 -0.18246397688370569 0 -0.29709549386514822 -0.1781904966225395 0 -0.28812557673944128 -0.16333615169878021 0 -0.27769519514398089 -0.18246397688370569 0 -0.27769519514398089 -0.18246397688370569 0 -0.2651721126196136 -0.17724498747975451 0 -0.27343981647922722 -0.16627780839352649 0 -0.26306977518420771 -0.18803299592647069 0 -0.27769519514398089 -0.18246397688370569 0 -0.2651721126196136 -0.17724498747975451 0 -0.25226449774507809 -0.1880579162049773 0 -0.25976214075384019 -0.16205602963285251 0 -0.25226449774507809 -0.1880579162049773 0 -0.26306977518420771 -0.18803299592647069 0 -0.2651721126196136 -0.17724498747975451 0 -0.2425852920552439 -0.1817601080430922 0 -0.25976214075384019 -0.16205602963285251 0 -0.2425852920552439 -0.1817601080430922 0 -0.25226449774507809 -0.1880579162049773 0 -0.25976214075384019 -0.16205602963285251 0 -0.25226449774507809 -0.1880579162049773 0 -0.2651721126196136 -0.17724498747975451 0 -0.25976214075384019 -0.16205602963285251 0 -0.24422020208295089 -0.167514444885139 0 -0.24998907486214761 -0.1541215804146413 0 -0.25976214075384019 -0.16205602963285251 0 -0.25976214075384019 -0.16205602963285251 0 -0.27343981647922722 -0.16627780839352649 0 -0.27345572358967479 -0.1463477099841835 0 -0.28812557673944128 -0.16333615169878021 0 -0.27343981647922722 -0.16627780839352649 0 -0.27345572358967479 -0.1463477099841835 0 -0.28812557673944128 -0.16333615169878021 0 -0.27769519514398089 -0.18246397688370569 0 -0.27343981647922722 -0.16627780839352649 0 -0.2651721126196136 -0.17724498747975451 0 -0.25976214075384019 -0.16205602963285251 0 -0.27343981647922722 -0.16627780839352649 0 -0.25976214075384019 -0.16205602963285251 0 -0.27345572358967479 -0.1463477099841835 0 -0.26535053896537508 -0.14267541945357259 0 -0.25976214075384019 -0.16205602963285251 0 -0.27345572358967479 -0.1463477099841835 0 -0.27345572358967479 -0.1463477099841835 0 -0.26535053896537508 -0.14267541945357259 0 -0.27396698941020142 -0.13492462531044749 0 -0.25976214075384019 -0.16205602963285251 0 -0.26535053896537508 -0.14267541945357259 0 -0.24998907486214761 -0.1541215804146413 0 -0.25976214075384019 -0.16205602963285251 0 -0.26535053896537508 -0.14267541945357259 0 -0.24210938348540681 -0.14090660993778309 0 -0.24998907486214761 -0.1541215804146413 0 -0.26535053896537508 -0.14267541945357259 0 -0.24210938348540681 -0.14090660993778309 0 -0.26535053896537508 -0.14267541945357259 0 -0.26122075901893838 -0.12769872472474911 0 -0.24210938348540681 -0.14090660993778309 0 -0.25724968386170383 -0.1158563673658374 0 -0.26122075901893838 -0.12769872472474911 0 -0.27093893717690898 -0.1232948092742925 0 -0.26535053896537508 -0.14267541945357259 0 -0.27093893717690898 -0.1232948092742925 0 -0.26535053896537508 -0.14267541945357259 0 -0.26122075901893838 -0.12769872472474911 0 -0.27093893717690898 -0.1232948092742925 0 -0.28714930642550851 -0.13063939033551369 0 -0.27093893717690898 -0.1232948092742925 0 -0.26535053896537508 -0.14267541945357259 0 -0.27396698941020142 -0.13492462531044749 0 -0.27345572358967479 -0.1463477099841835 0 -0.27396698941020142 -0.13492462531044749 0 -0.28714930642550851 -0.13063939033551369 0 -0.27093893717690898 -0.1232948092742925 0 -0.27396698941020142 -0.13492462531044749 0 -0.28714930642550851 -0.13063939033551369 0 -0.27345572358967479 -0.1463477099841835 0 -0.28714930642550851 -0.13063939033551369 0 -0.28714930642550851 -0.13063939033551369 0 -0.30658026208313738 -0.13944315209663249 0 -0.28714930642550851 -0.13063939033551369 0 -0.29304453799347058 -0.14754030194788181 0 -0.30658026208313738 -0.13944315209663249 0 -0.28812557673944128 -0.16333615169878021 0 -0.27345572358967479 -0.1463477099841835 0 -0.29304453799347058 -0.14754030194788181 0 -0.27345572358967479 -0.1463477099841835 0 -0.28714930642550851 -0.13063939033551369 0 -0.29304453799347058 -0.14754030194788181 0 -0.30991182112959031 -0.15793510562429841 0 -0.29304453799347058 -0.14754030194788181 0 -0.30658026208313738 -0.13944315209663249 0 -0.29983727003253607 -0.11608464667059799 0 -0.28714930642550851 -0.13063939033551369 0 -0.30658026208313738 -0.13944315209663249 0 -0.31924464944549169 -0.1193981324436013 0 -0.32601121774076641 -0.1482469138577511 0 -0.31924464944549169 -0.1193981324436013 0 -0.30658026208313738 -0.13944315209663249 0 -0.32601121774076641 -0.1482469138577511 0 -0.31924464944549169 -0.1193981324436013 0 -0.32601121774076641 -0.1482469138577511 0 -0.33124808832155311 -0.13954205214944401 0 -0.30658026208313738 -0.13944315209663249 0 -0.32601121774076641 -0.1482469138577511 0 -0.30991182112959031 -0.15793510562429841 0 -0.32601121774076641 -0.1482469138577511 0 -0.32863996563583958 -0.1594543930567435 0 -0.30991182112959031 -0.15793510562429841 0 -0.30658026208313738 -0.13944315209663249 0 -0.32601121774076641 -0.1482469138577511 0 -0.32601121774076641 -0.1482469138577511 0 -0.32863996563583958 -0.1594543930567435 0 -0.3428875467448631 -0.15589322742936601 0 -0.33781698716811809 -0.131792923244576 0 -0.33136008105985892 -0.1471149884084661 0 -0.33674007703452752 -0.14808824959727021 0 -0.33124808832155311 -0.13954205214944401 0 -0.3428875467448631 -0.15589322742936601 0 -0.33674007703452752 -0.14808824959727021 0 -0.33781698716811809 -0.131792923244576 0 -0.32601121774076641 -0.1482469138577511 0 -0.33136008105985892 -0.1471149884084661 0 -0.33124808832155311 -0.13954205214944401 0 -0.3428875467448631 -0.15589322742936601 0 -0.33781698716811809 -0.131792923244576 0 -0.35010999465331372 -0.14206060727601499 0 -0.32601121774076641 -0.1482469138577511 0 -0.33403592304950303 -0.1518827408847947 0 -0.32601121774076641 -0.1482469138577511 0 -0.33136008105985892 -0.1471149884084661 0 -0.33403592304950303 -0.1518827408847947 0 -0.32601121774076641 -0.1482469138577511 0 -0.33403592304950303 -0.1518827408847947 0 -0.32863996563583958 -0.1594543930567435 0 -0.33403592304950303 -0.1518827408847947 0 -0.32863996563583958 -0.1594543930567435 0 -0.33136008105985892 -0.1471149884084661 0 -0.33403592304950303 -0.1518827408847947 0 -0.33674007703452752 -0.14808824959727021 0 -0.33403592304950303 -0.1518827408847947 0 -0.33674007703452752 -0.14808824959727021 0 -0.33403592304950303 -0.1518827408847947 0 -0.3428875467448631 -0.15589322742936601 0 -0.33403592304950303 -0.1518827408847947 0 -0.3428875467448631 -0.15589322742936601 0 -0.33674007703452752 -0.14808824959727021 0 -0.31924464944549169 -0.1193981324436013 0 -0.33124808832155311 -0.13954205214944401 0 -0.33781698716811809 -0.131792923244576 0 -0.33674007703452752 -0.14808824959727021 0 -0.33124808832155311 -0.13954205214944401 0 -0.33781698716811809 -0.131792923244576 0 -0.3479295457816895 -0.11708174174598091 0 -0.33781698716811809 -0.131792923244576 0 -0.35333410800397269 -0.1297329932894101 0 -0.33781698716811809 -0.131792923244576 0 -0.35333410800397269 -0.1297329932894101 0 -0.35010999465331372 -0.14206060727601499 0 -0.35333410800397269 -0.1297329932894101 0 -0.36206268431740002 -0.14026969569852721 0 -0.35010999465331372 -0.14206060727601499 0 -0.35333410800397269 -0.1297329932894101 0 -0.3637843904388231 -0.12833352866140901 0 -0.36206268431740002 -0.14026969569852721 0 -0.36436978055373709 -0.1177810376174618 0 -0.35333410800397269 -0.1297329932894101 0 -0.3637843904388231 -0.12833352866140901 0 -0.3637843904388231 -0.12833352866140901 0 -0.36206268431740002 -0.14026969569852721 0 -0.37450924494895871 -0.1297507813620131 0 -0.36206268431740002 -0.14026969569852721 0 -0.37450924494895871 -0.1297507813620131 0 -0.37753836581969208 -0.14379386440428779 0 -0.36436978055373709 -0.1177810376174618 0 -0.3637843904388231 -0.12833352866140901 0 -0.37450924494895871 -0.1297507813620131 0 -0.36206268431740002 -0.14026969569852721 0 -0.36812994489156969 -0.1533575864653714 0 -0.37753836581969208 -0.14379386440428779 0 -0.36206268431740002 -0.14026969569852721 0 -0.36812994489156969 -0.1533575864653714 0 -0.35671208429496531 -0.1512798040921898 0 -0.36206268431740002 -0.14026969569852721 0 -0.35671208429496531 -0.1512798040921898 0 -0.35010999465331372 -0.14206060727601499 0 -0.3428875467448631 -0.15589322742936601 0 -0.35671208429496531 -0.1512798040921898 0 -0.35010999465331372 -0.14206060727601499 0 -0.34455500141722822 -0.1638186179528672 0 -0.36121391747410753 -0.16419652473954391 0 -0.35263801936113481 -0.17487116212052381 0 -0.3428875467448631 -0.15589322742936601 0 -0.36121391747410753 -0.16419652473954391 0 -0.3428875467448631 -0.15589322742936601 0 -0.34455500141722822 -0.1638186179528672 0 -0.36121391747410753 -0.16419652473954391 0 -0.3428875467448631 -0.15589322742936601 0 -0.35671208429496531 -0.1512798040921898 0 -0.36121391747410753 -0.16419652473954391 0 -0.34455500141722822 -0.1638186179528672 0 -0.35263801936113481 -0.17487116212052381 0 -0.34089034486957492 -0.17133002710633011 0 -0.36812994489156969 -0.1533575864653714 0 -0.35671208429496531 -0.1512798040921898 0 -0.36121391747410753 -0.16419652473954391 0 -0.36121391747410753 -0.16419652473954391 0 -0.37361720577819091 -0.1638329679750688 0 -0.37187522066282508 -0.17805200639884089 0 -0.36812994489156969 -0.1533575864653714 0 -0.36121391747410753 -0.16419652473954391 0 -0.37361720577819091 -0.1638329679750688 0 -0.36812994489156969 -0.1533575864653714 0 -0.37361720577819091 -0.1638329679750688 0 -0.37971124880423429 -0.15504778954554199 0 -0.37187522066282508 -0.17805200639884089 0 -0.35945827081052778 -0.18612631685893019 0 -0.36757691284182809 -0.19568024907814779 0 -0.36121391747410753 -0.16419652473954391 0 -0.37187522066282508 -0.17805200639884089 0 -0.35263801936113481 -0.17487116212052381 0 -0.37187522066282508 -0.17805200639884089 0 -0.35945827081052778 -0.18612631685893019 0 -0.35263801936113481 -0.17487116212052381 0 -0.35945827081052778 -0.18612631685893019 0 -0.35263801936113481 -0.17487116212052381 0 -0.34712355889635188 -0.18299554313977451 0 -0.35263801936113481 -0.17487116212052381 0 -0.34712355889635188 -0.18299554313977451 0 -0.34089034486957492 -0.17133002710633011 0 -0.34712355889635188 -0.18299554313977451 0 -0.33443016568918432 -0.18414049809462421 0 -0.34089034486957492 -0.17133002710633011 0 -0.33443016568918432 -0.18414049809462421 0 -0.34089034486957492 -0.17133002710633011 0 -0.32863996563583958 -0.1594543930567435 0 -0.34455500141722822 -0.1638186179528672 0 -0.34089034486957492 -0.17133002710633011 0 -0.33825131226282318 -0.16116967685930891 0 -0.33443016568918432 -0.18414049809462421 0 -0.32863996563583958 -0.1594543930567435 0 -0.3428875467448631 -0.15589322742936601 0 -0.34455500141722822 -0.1638186179528672 0 -0.33825131226282318 -0.16116967685930891 0 -0.3428875467448631 -0.15589322742936601 0 -0.34455500141722822 -0.1638186179528672 0 -0.33403592304950303 -0.1518827408847947 0 -0.3428875467448631 -0.15589322742936601 0 -0.33825131226282318 -0.16116967685930891 0 -0.34089034486957492 -0.17133002710633011 0 -0.33825131226282318 -0.16116967685930891 0 -0.32863996563583958 -0.1594543930567435 0 -0.33403592304950303 -0.1518827408847947 0 -0.33825131226282318 -0.16116967685930891 0 -0.32863996563583958 -0.1594543930567435 0 -0.30991182112959031 -0.15793510562429841 0 -0.32863996563583958 -0.1594543930567435 0 -0.31656514960280269 -0.1763978750069411 0 -0.32863996563583958 -0.1594543930567435 0 -0.31656514960280269 -0.1763978750069411 0 -0.33443016568918432 -0.18414049809462421 0 -0.31656514960280269 -0.1763978750069411 0 -0.32099197835074889 -0.1937252123032818 0 -0.33443016568918432 -0.18414049809462421 0 -0.32863996563583958 -0.1594543930567435 0 -0.31656514960280269 -0.1763978750069411 0 -0.30449033356976551 -0.19334135695713839 0 -0.31656514960280269 -0.1763978750069411 0 -0.32099197835074889 -0.1937252123032818 0 -0.30449033356976551 -0.19334135695713839 0 -0.32099197835074889 -0.1937252123032818 0 -0.31631794163962851 -0.2095557210199219 0 -0.31631794163962851 -0.2095557210199219 0 -0.34022036574252779 -0.20882660313250531 0 -0.32197620539698241 -0.23222827380590991 0 -0.32099197835074889 -0.1937252123032818 0 -0.31631794163962851 -0.2095557210199219 0 -0.34022036574252779 -0.20882660313250531 0 -0.31631794163962851 -0.2095557210199219 0 -0.34022036574252779 -0.20882660313250531 0 -0.33443016568918432 -0.18414049809462421 0 -0.34022036574252779 -0.20882660313250531 0 -0.34879290184156259 -0.1954491686901878 0 -0.33443016568918432 -0.18414049809462421 0 -0.34022036574252779 -0.20882660313250531 0 -0.33443016568918432 -0.18414049809462421 0 -0.32099197835074889 -0.1937252123032818 0 -0.34022036574252779 -0.20882660313250531 0 -0.34712355889635188 -0.18299554313977451 0 -0.33443016568918432 -0.18414049809462421 0 -0.34879290184156259 -0.1954491686901878 0 -0.35945827081052778 -0.18612631685893019 0 -0.34879290184156259 -0.1954491686901878 0 -0.36757691284182809 -0.19568024907814779 0 -0.34879290184156259 -0.1954491686901878 0 -0.36757691284182809 -0.19568024907814779 0 -0.35659827062369531 -0.20832701265767131 0 -0.35945827081052778 -0.18612631685893019 0 -0.34712355889635188 -0.18299554313977451 0 -0.34879290184156259 -0.1954491686901878 0 -0.37187522066282508 -0.17805200639884089 0 -0.36757691284182809 -0.19568024907814779 0 -0.38098571878036569 -0.1938249982392809 0 -0.36757691284182809 -0.19568024907814779 0 -0.37297617550486278 -0.20782742218283701 0 -0.38098571878036569 -0.1938249982392809 0 -0.37297617550486278 -0.20782742218283701 0 -0.36127794552131182 -0.2282784728838044 0 -0.37297617550486278 -0.20782742218283701 0 -0.35798073102607841 -0.21197486788472819 0 -0.36127794552131182 -0.2282784728838044 0 -0.37297617550486278 -0.20782742218283701 0 -0.35798073102607841 -0.21197486788472819 0 -0.35659827062369531 -0.20832701265767131 0 -0.37297617550486278 -0.20782742218283701 0 -0.35659827062369531 -0.20832701265767131 0 -0.36757691284182809 -0.19568024907814779 0 -0.37297617550486278 -0.20782742218283701 0 -0.35659827062369531 -0.20832701265767131 0 -0.34022036574252779 -0.20882660313250531 0 -0.34879290184156259 -0.1954491686901878 0 -0.35659827062369531 -0.20832701265767131 0 -0.34022036574252779 -0.20882660313250531 0 -0.34855827145879709 -0.21345989254902539 0 -0.34557635476038789 -0.2316614803834674 0 -0.34022036574252779 -0.20882660313250531 0 -0.35659827062369531 -0.20832701265767131 0 -0.34855827145879709 -0.21345989254902539 0 -0.35798073102607841 -0.21197486788472819 0 -0.35659827062369531 -0.20832701265767131 0 -0.34855827145879709 -0.21345989254902539 0 -0.34022036574252779 -0.20882660313250531 0 -0.35659827062369531 -0.20832701265767131 0 -0.35798073102607841 -0.21197486788472819 0 -0.34557635476038789 -0.2316614803834674 0 -0.35798073102607841 -0.21197486788472819 0 -0.34557635476038789 -0.2316614803834674 0 -0.36127794552131182 -0.2282784728838044 0 -0.35798073102607841 -0.21197486788472819 0 -0.34855827145879709 -0.21345989254902539 0 -0.34557635476038789 -0.2316614803834674 0 -0.37297617550486278 -0.20782742218283701 0 -0.36127794552131182 -0.2282784728838044 0 -0.37436681250690218 -0.22416368676438861 0 -0.36127794552131182 -0.2282784728838044 0 -0.37436681250690218 -0.22416368676438861 0 -0.37040568777004051 -0.2353067150245495 0 -0.38363630264229848 -0.25809705366370023 0 -0.3658643060594724 -0.25625595869071832 0 -0.37040568777004051 -0.2353067150245495 0 -0.36127794552131182 -0.2282784728838044 0 -0.37040568777004051 -0.2353067150245495 0 -0.34957971553776052 -0.24872952358477179 0 -0.3658643060594724 -0.25625595869071832 0 -0.37040568777004051 -0.2353067150245495 0 -0.34957971553776052 -0.24872952358477179 0 -0.34557635476038789 -0.2316614803834674 0 -0.36127794552131182 -0.2282784728838044 0 -0.34957971553776052 -0.24872952358477179 0 -0.36127794552131182 -0.2282784728838044 0 -0.34957971553776052 -0.24872952358477179 0 -0.34557635476038789 -0.2316614803834674 0 -0.34957971553776052 -0.24872952358477179 0 -0.33224286800269481 -0.25282265620023531 0 -0.34557635476038789 -0.2316614803834674 0 -0.32197620539698241 -0.23222827380590991 0 -0.33224286800269481 -0.25282265620023531 0 -0.34557635476038789 -0.2316614803834674 0 -0.34957971553776052 -0.24872952358477179 0 -0.33224286800269481 -0.25282265620023531 0 -0.34557635476038789 -0.2316614803834674 0 -0.34022036574252779 -0.20882660313250531 0 -0.34557635476038789 -0.2316614803834674 0 -0.34022036574252779 -0.20882660313250531 0 -0.34557635476038789 -0.2316614803834674 0 -0.32197620539698241 -0.23222827380590991 0 -0.31629866879799751 -0.25491618832279089 0 -0.3059790900976298 -0.24100614775169921 0 -0.32197620539698241 -0.23222827380590991 0 -0.31629866879799751 -0.25491618832279089 0 -0.33224286800269481 -0.25282265620023531 0 -0.32197620539698241 -0.23222827380590991 0 -0.43358298565690417 -0.241082157972731 0 -0.42985242159975362 -0.22740650598564441 0 -0.41036478893875628 -0.24424314929707239 0 -0.42667168072618078 -0.25551905905227312 0 -0.43358298565690417 -0.241082157972731 0 -0.41036478893875628 -0.24424314929707239 0 -0.42985242159975362 -0.22740650598564441 0 -0.4176127522550323 -0.21878823543326559 0 -0.4362001577861121 -0.21132000631676959 0 -0.42985242159975362 -0.22740650598564441 0 -0.4362001577861121 -0.21132000631676959 0 -0.44615636075579429 -0.2293402666779705 0 -0.43358298565690417 -0.241082157972731 0 -0.42985242159975362 -0.22740650598564441 0 -0.44615636075579429 -0.2293402666779705 0 -0.4176127522550323 -0.21878823543326559 0 -0.41036478893875628 -0.24424314929707239 0 -0.4176127522550323 -0.21878823543326559 0 -0.41036478893875628 -0.24424314929707239 0 -0.40236745167738119 -0.2194034089856351 0 -0.42985242159975362 -0.22740650598564441 0 -0.4176127522550323 -0.21878823543326559 0 -0.41036478893875628 -0.24424314929707239 0 -0.38363630264229848 -0.25809705366370023 0 -0.41036478893875628 -0.24424314929707239 0 -0.38485331625252689 -0.24193557382599529 0 -0.41036478893875628 -0.24424314929707239 0 -0.38485331625252689 -0.24193557382599529 0 -0.39262830745029709 -0.23028670435882839 0 -0.38363630264229848 -0.25809705366370023 0 -0.37040568777004051 -0.2353067150245495 0 -0.38363630264229848 -0.25809705366370023 0 -0.37040568777004051 -0.2353067150245495 0 -0.38485331625252689 -0.24193557382599529 0 -0.37040568777004051 -0.2353067150245495 0 -0.38485331625252689 -0.24193557382599529 0 -0.38168530870699091 -0.2300930354990369 0 -0.37436681250690218 -0.22416368676438861 0 -0.38168530870699091 -0.2300930354990369 0 -0.38607285310995049 -0.21953215021016129 0 -0.37436681250690218 -0.22416368676438861 0 -0.37040568777004051 -0.2353067150245495 0 -0.38168530870699091 -0.2300930354990369 0 -0.38485331625252689 -0.24193557382599529 0 -0.38168530870699091 -0.2300930354990369 0 -0.39262830745029709 -0.23028670435882839 0 -0.38168530870699091 -0.2300930354990369 0 -0.38607285310995049 -0.21953215021016129 0 -0.39262830745029709 -0.23028670435882839 0 -0.38607285310995049 -0.21953215021016129 0 -0.39262830745029709 -0.23028670435882839 0 -0.40236745167738119 -0.2194034089856351 0 -0.41036478893875628 -0.24424314929707239 0 -0.39262830745029709 -0.23028670435882839 0 -0.40236745167738119 -0.2194034089856351 0 -0.38607285310995049 -0.21953215021016129 0 -0.40236745167738119 -0.2194034089856351 0 -0.3921741033447001 -0.20724180992321459 0 -0.3921741033447001 -0.20724180992321459 0 -0.41137203118453741 -0.20665619766359231 0 -0.40236745167738119 -0.2194034089856351 0 -0.3921741033447001 -0.20724180992321459 0 -0.41137203118453741 -0.20665619766359231 0 -0.37297617550486278 -0.20782742218283701 0 -0.3921741033447001 -0.20724180992321459 0 -0.37297617550486278 -0.20782742218283701 0 -0.38607285310995049 -0.21953215021016129 0 -0.3921741033447001 -0.20724180992321459 0 -0.37297617550486278 -0.20782742218283701 0 -0.37436681250690218 -0.22416368676438861 0 -0.38607285310995049 -0.21953215021016129 0 -0.37297617550486278 -0.20782742218283701 0 -0.3921741033447001 -0.20724180992321459 0 -0.38098571878036569 -0.1938249982392809 0 -0.37297617550486278 -0.20782742218283701 0 -0.38098571878036569 -0.1938249982392809 0 -0.3921741033447001 -0.20724180992321459 0 -0.38098571878036569 -0.1938249982392809 0 -0.39127234412104378 -0.19295874585362599 0 -0.38098571878036569 -0.1938249982392809 0 -0.39127234412104378 -0.19295874585362599 0 -0.38899526205586848 -0.1798225742957249 0 -0.3921741033447001 -0.20724180992321459 0 -0.39127234412104378 -0.19295874585362599 0 -0.40293429230324079 -0.1909456009562836 0 -0.39127234412104378 -0.19295874585362599 0 -0.40293429230324079 -0.1909456009562836 0 -0.38899526205586848 -0.1798225742957249 0 -0.3921741033447001 -0.20724180992321459 0 -0.40293429230324079 -0.1909456009562836 0 -0.41137203118453741 -0.20665619766359231 0 -0.40293429230324079 -0.1909456009562836 0 -0.41331129962192831 -0.19408209997029141 0 -0.41137203118453741 -0.20665619766359231 0 -0.40293429230324079 -0.1909456009562836 0 -0.41331129962192831 -0.19408209997029141 0 -0.41317698021996768 -0.18045739091590399 0 -0.41331129962192831 -0.19408209997029141 0 -0.42486071557130822 -0.1933333215694589 0 -0.41317698021996768 -0.18045739091590399 0 -0.41331129962192831 -0.19408209997029141 0 -0.41137203118453741 -0.20665619766359231 0 -0.42486071557130822 -0.1933333215694589 0 -0.4176127522550323 -0.21878823543326559 0 -0.41137203118453741 -0.20665619766359231 0 -0.42486071557130822 -0.1933333215694589 0 -0.4176127522550323 -0.21878823543326559 0 -0.42486071557130822 -0.1933333215694589 0 -0.4176127522550323 -0.21878823543326559 0 -0.40236745167738119 -0.2194034089856351 0 -0.41137203118453741 -0.20665619766359231 0 -0.4176127522550323 -0.21878823543326559 0 -0.4362001577861121 -0.21132000631676959 0 -0.42486071557130822 -0.1933333215694589 0 -0.4362001577861121 -0.21132000631676959 0 -0.42486071557130822 -0.1933333215694589 0 -0.44229433502699977 -0.19044164501328531 0 -0.42486071557130822 -0.1933333215694589 0 -0.43210867888758481 -0.16787840770565221 0 -0.44229433502699977 -0.19044164501328531 0 -0.43210867888758481 -0.16787840770565221 0 -0.44229433502699977 -0.19044164501328531 0 -0.42486071557130822 -0.1933333215694589 0 -0.43210867888758481 -0.16787840770565221 0 -0.42167865550202621 -0.17008555973329631 0 -0.42486071557130822 -0.1933333215694589 0 -0.43210867888758481 -0.16787840770565221 0 -0.43210867888758481 -0.16787840770565221 0 -0.43739039813411013 -0.14932896110853469 0 -0.44210695830673458 -0.15809578038124819 0 -0.43210867888758481 -0.16787840770565221 0 -0.4270789713649556 -0.15673661351313631 0 -0.43739039813411013 -0.14932896110853469 0 -0.43210867888758481 -0.16787840770565221 0 -0.43739039813411013 -0.14932896110853469 0 -0.43210867888758481 -0.16787840770565221 0 -0.4270789713649556 -0.15673661351313631 0 -0.43210867888758481 -0.16787840770565221 0 -0.4270789713649556 -0.15673661351313631 0 -0.42167865550202621 -0.17008555973329631 0 -0.42167865550202621 -0.17008555973329631 0 -0.41324220780794108 -0.1643252601605068 0 -0.41317698021996768 -0.18045739091590399 0 -0.4270789713649556 -0.15673661351313631 0 -0.42167865550202621 -0.17008555973329631 0 -0.41324220780794108 -0.1643252601605068 0 -0.4270789713649556 -0.15673661351313631 0 -0.41324220780794108 -0.1643252601605068 0 -0.41428797453641281 -0.14922169607865399 0 -0.41324220780794108 -0.1643252601605068 0 -0.40201938042375163 -0.15835244720266661 0 -0.41428797453641281 -0.14922169607865399 0 -0.42486071557130822 -0.1933333215694589 0 -0.42167865550202621 -0.17008555973329631 0 -0.41317698021996768 -0.18045739091590399 0 -0.41324220780794108 -0.1643252601605068 0 -0.41317698021996768 -0.18045739091590399 0 -0.40121128480053297 -0.17109785351938389 0 -0.40293429230324079 -0.1909456009562836 0 -0.41317698021996768 -0.18045739091590399 0 -0.40121128480053297 -0.17109785351938389 0 -0.40293429230324079 -0.1909456009562836 0 -0.38899526205586848 -0.1798225742957249 0 -0.40121128480053297 -0.17109785351938389 0 -0.38899526205586848 -0.1798225742957249 0 -0.38788083478567331 -0.16519246831536391 0 -0.40121128480053297 -0.17109785351938389 0 -0.38098571878036569 -0.1938249982392809 0 -0.38899526205586848 -0.1798225742957249 0 -0.37187522066282508 -0.17805200639884089 0 -0.38098571878036569 -0.1938249982392809 0 -0.38899526205586848 -0.1798225742957249 0 -0.37187522066282508 -0.17805200639884089 0 -0.38899526205586848 -0.1798225742957249 0 -0.38788083478567331 -0.16519246831536391 0 -0.37361720577819091 -0.1638329679750688 0 -0.37187522066282508 -0.17805200639884089 0 -0.38788083478567331 -0.16519246831536391 0 -0.38788083478567331 -0.16519246831536391 0 -0.39269106485846872 -0.1488642859378928 0 -0.37971124880423429 -0.15504778954554199 0 -0.37361720577819091 -0.1638329679750688 0 -0.38788083478567331 -0.16519246831536391 0 -0.37971124880423429 -0.15504778954554199 0 -0.38788083478567331 -0.16519246831536391 0 -0.40201938042375163 -0.15835244720266661 0 -0.39269106485846872 -0.1488642859378928 0 -0.38788083478567331 -0.16519246831536391 0 -0.40121128480053297 -0.17109785351938389 0 -0.40201938042375163 -0.15835244720266661 0 -0.41324220780794108 -0.1643252601605068 0 -0.40121128480053297 -0.17109785351938389 0 -0.40201938042375163 -0.15835244720266661 0 -0.40201938042375163 -0.15835244720266661 0 -0.40352805512278361 -0.14857409048883061 0 -0.39269106485846872 -0.1488642859378928 0 -0.40352805512278361 -0.14857409048883061 0 -0.39269106485846872 -0.1488642859378928 0 -0.40511380067250152 -0.13785793273610891 0 -0.39269106485846872 -0.1488642859378928 0 -0.37753836581969208 -0.14379386440428779 0 -0.37971124880423429 -0.15504778954554199 0 -0.39269106485846872 -0.1488642859378928 0 -0.37753836581969208 -0.14379386440428779 0 -0.38896967370394853 -0.13485166856425529 0 -0.36812994489156969 -0.1533575864653714 0 -0.37753836581969208 -0.14379386440428779 0 -0.37971124880423429 -0.15504778954554199 0 -0.37450924494895871 -0.1297507813620131 0 -0.38896967370394853 -0.13485166856425529 0 -0.38885942621782488 -0.11883320660732059 0 -0.37450924494895871 -0.1297507813620131 0 -0.37753836581969208 -0.14379386440428779 0 -0.38896967370394853 -0.13485166856425529 0 -0.39269106485846872 -0.1488642859378928 0 -0.38896967370394853 -0.13485166856425529 0 -0.40511380067250152 -0.13785793273610891 0 -0.38896967370394853 -0.13485166856425529 0 -0.40055910045300319 -0.12518897445588739 0 -0.38885942621782488 -0.11883320660732059 0 -0.38896967370394853 -0.13485166856425529 0 -0.40511380067250152 -0.13785793273610891 0 -0.40055910045300319 -0.12518897445588739 0 -0.40511380067250152 -0.13785793273610891 0 -0.41955756701583158 -0.13473073207956951 0 -0.41546929335679977 -0.12187605018846059 0 -0.40511380067250152 -0.13785793273610891 0 -0.40055910045300319 -0.12518897445588739 0 -0.41546929335679977 -0.12187605018846059 0 -0.41955756701583158 -0.13473073207956951 0 -0.41546929335679977 -0.12187605018846059 0 -0.42982198298510338 -0.1216037293172005 0 -0.40511380067250152 -0.13785793273610891 0 -0.41955756701583158 -0.13473073207956951 0 -0.41428797453641281 -0.14922169607865399 0 -0.40352805512278361 -0.14857409048883061 0 -0.40511380067250152 -0.13785793273610891 0 -0.41428797453641281 -0.14922169607865399 0 -0.40201938042375163 -0.15835244720266661 0 -0.40352805512278361 -0.14857409048883061 0 -0.41428797453641281 -0.14922169607865399 0 -0.41955756701583158 -0.13473073207956951 0 -0.41428797453641281 -0.14922169607865399 0 -0.4264536240165418 -0.14584159314617129 0 -0.4270789713649556 -0.15673661351313631 0 -0.41428797453641281 -0.14922169607865399 0 -0.4264536240165418 -0.14584159314617129 0 -0.4270789713649556 -0.15673661351313631 0 -0.4264536240165418 -0.14584159314617129 0 -0.43739039813411013 -0.14932896110853469 0 -0.4264536240165418 -0.14584159314617129 0 -0.43739039813411013 -0.14932896110853469 0 -0.43128079267466968 -0.13718201367826399 0 -0.43739039813411013 -0.14932896110853469 0 -0.43128079267466968 -0.13718201367826399 0 -0.44267211738063611 -0.13077951451141731 0 -0.43128079267466968 -0.13718201367826399 0 -0.44267211738063611 -0.13077951451141731 0 -0.42982198298510338 -0.1216037293172005 0 -0.41955756701583158 -0.13473073207956951 0 -0.43128079267466968 -0.13718201367826399 0 -0.42982198298510338 -0.1216037293172005 0 -0.41955756701583158 -0.13473073207956951 0 -0.4264536240165418 -0.14584159314617129 0 -0.43128079267466968 -0.13718201367826399 0 -0.44267211738063611 -0.13077951451141731 0 -0.44316768406366081 -0.14370396554782991 0 -0.46219681628934162 -0.13286197430266741 0 -0.43739039813411013 -0.14932896110853469 0 -0.44267211738063611 -0.13077951451141731 0 -0.44267211738063611 -0.13077951451141731 0 -0.46219681628934162 -0.13286197430266741 0 -0.45425112615932689 -0.1130450828404206 0 -0.44316768406366081 -0.14370396554782991 0 -0.46219681628934162 -0.13286197430266741 0 -0.43739039813411013 -0.14932896110853469 0 -0.44267211738063611 -0.13077951451141731 0 -0.44316768406366081 -0.14370396554782991 0 -0.43739039813411013 -0.14932896110853469 0 -0.44316768406366081 -0.14370396554782991 0 -0.44552735383881059 -0.15116325021876451 0 -0.43739039813411013 -0.14932896110853469 0 -0.44552735383881059 -0.15116325021876451 0 -0.44210695830673458 -0.15809578038124819 0 -0.44552735383881059 -0.15116325021876451 0 -0.45574577280000439 -0.14748356830132131 0 -0.44922595588954328 -0.15720397575488851 0 -0.44552735383881059 -0.15116325021876451 0 -0.44922595588954328 -0.15720397575488851 0 -0.44210695830673458 -0.15809578038124819 0 -0.44316768406366081 -0.14370396554782991 0 -0.44552735383881059 -0.15116325021876451 0 -0.45574577280000439 -0.14748356830132131 0 -0.44316768406366081 -0.14370396554782991 0 -0.45574577280000439 -0.14748356830132131 0 -0.46219681628934162 -0.13286197430266741 0 -0.45574577280000439 -0.14748356830132131 0 -0.47371056135088518 -0.15151446790381221 0 -0.45868265644558709 -0.1654183356670893 0 -0.45574577280000439 -0.14748356830132131 0 -0.46219681628934162 -0.13286197430266741 0 -0.47371056135088518 -0.15151446790381221 0 -0.46219681628934162 -0.13286197430266741 0 -0.48122594851502221 -0.1220199830575044 0 -0.46219681628934162 -0.13286197430266741 0 -0.48430618115467777 -0.13807476474772301 0 -0.48122594851502221 -0.1220199830575044 0 -0.48430618115467777 -0.13807476474772301 0 -0.49999999999999611 -0.1282663722468812 0 -0.48122594851502221 -0.1220199830575044 0 -0.49999999999999611 -0.1282663722468812 0 -0.48122594851502221 -0.1220199830575044 0 -0.48430618115467777 -0.13807476474772301 0 -0.47371056135088518 -0.15151446790381221 0 -0.5 -0.1568802971094784 0 -0.48430618115467777 -0.13807476474772301 0 -0.49999999999999611 -0.1282663722468812 0 -0.5 -0.1568802971094784 0 -0.46219681628934162 -0.13286197430266741 0 -0.48430618115467777 -0.13807476474772301 0 -0.47371056135088518 -0.15151446790381221 0 -0.47371056135088518 -0.15151446790381221 0 -0.47800860780135751 -0.17183876729596451 0 -0.45868265644558709 -0.1654183356670893 0 -0.47371056135088518 -0.15151446790381221 0 -0.47800860780135751 -0.17183876729596451 0 -0.5 -0.1568802971094784 0 -0.47800860780135751 -0.17183876729596451 0 -0.5 -0.1568802971094784 0 -0.5 -0.18549422197207549 0 -0.47800860780135751 -0.17183876729596451 0 -0.5 -0.18549422197207549 0 -0.47207165330896078 -0.1914923459536593 0 -0.47800860780135751 -0.17183876729596451 0 -0.45931083259201388 -0.1815343582426211 0 -0.47207165330896078 -0.1914923459536593 0 -0.45931083259201388 -0.1815343582426211 0 -0.45868265644558709 -0.1654183356670893 0 -0.44617876242582333 -0.1751074502139702 0 -0.47800860780135751 -0.17183876729596451 0 -0.45931083259201388 -0.1815343582426211 0 -0.45868265644558709 -0.1654183356670893 0 -0.45574577280000439 -0.14748356830132131 0 -0.45868265644558709 -0.1654183356670893 0 -0.44922595588954328 -0.15720397575488851 0 -0.45868265644558709 -0.1654183356670893 0 -0.44747736034761137 -0.16538799678921409 0 -0.44617876242582333 -0.1751074502139702 0 -0.45868265644558709 -0.1654183356670893 0 -0.44747736034761137 -0.16538799678921409 0 -0.44922595588954328 -0.15720397575488851 0 -0.44747736034761137 -0.16538799678921409 0 -0.44922595588954328 -0.15720397575488851 0 -0.44210695830673458 -0.15809578038124819 0 -0.43210867888758481 -0.16787840770565221 0 -0.44747736034761137 -0.16538799678921409 0 -0.44210695830673458 -0.15809578038124819 0 -0.43210867888758481 -0.16787840770565221 0 -0.44747736034761137 -0.16538799678921409 0 -0.44617876242582333 -0.1751074502139702 0 -0.45931083259201388 -0.1815343582426211 0 -0.44617876242582333 -0.1751074502139702 0 -0.44229433502699977 -0.19044164501328531 0 -0.43210867888758481 -0.16787840770565221 0 -0.44617876242582333 -0.1751074502139702 0 -0.44229433502699977 -0.19044164501328531 0 -0.44229433502699977 -0.19044164501328531 0 -0.45247999116641408 -0.2130048823209188 0 -0.4572433548014288 -0.19789955669161161 0 -0.44229433502699977 -0.19044164501328531 0 -0.45247999116641408 -0.2130048823209188 0 -0.45931083259201388 -0.1815343582426211 0 -0.44229433502699977 -0.19044164501328531 0 -0.4572433548014288 -0.19789955669161161 0 -0.4362001577861121 -0.21132000631676959 0 -0.44229433502699977 -0.19044164501328531 0 -0.45247999116641408 -0.2130048823209188 0 -0.4362001577861121 -0.21132000631676959 0 -0.45247999116641408 -0.2130048823209188 0 -0.44615636075579429 -0.2293402666779705 0 -0.45247999116641408 -0.2130048823209188 0 -0.4572433548014288 -0.19789955669161161 0 -0.47301053866096621 -0.2160674720424603 0 -0.4572433548014288 -0.19789955669161161 0 -0.47207165330896078 -0.1914923459536593 0 -0.47301053866096621 -0.2160674720424603 0 -0.45931083259201388 -0.1815343582426211 0 -0.4572433548014288 -0.19789955669161161 0 -0.47207165330896078 -0.1914923459536593 0 -0.5 -0.18549422197207549 0 -0.47207165330896078 -0.1914923459536593 0 -0.48602952694326568 -0.20326569425343299 0 -0.5 -0.18549422197207549 0 -0.5 -0.21410814683467261 0 -0.48602952694326568 -0.20326569425343299 0 -0.5 -0.21410814683467261 0 -0.48602952694326568 -0.20326569425343299 0 -0.4882386961730103 -0.2259673585187503 0 -0.48602952694326568 -0.20326569425343299 0 -0.47301053866096621 -0.2160674720424603 0 -0.4882386961730103 -0.2259673585187503 0 -0.47207165330896078 -0.1914923459536593 0 -0.48602952694326568 -0.20326569425343299 0 -0.47301053866096621 -0.2160674720424603 0 -0.47301053866096621 -0.2160674720424603 0 -0.4882386961730103 -0.2259673585187503 0 -0.47739559617414051 -0.2386715449111575 0 -0.46931789820554792 -0.26722866842968263 0 -0.47739559617414051 -0.2386715449111575 0 -0.46266564730582838 -0.2355681196285522 0 -0.47301053866096621 -0.2160674720424603 0 -0.47739559617414051 -0.2386715449111575 0 -0.46266564730582838 -0.2355681196285522 0 -0.5 -0.21410814683467261 0 -0.4882386961730103 -0.2259673585187503 0 -0.5 -0.24272207169726981 0 -0.4882386961730103 -0.2259673585187503 0 -0.5 -0.24272207169726981 0 -0.47739559617414051 -0.2386715449111575 0 -0.4858679574491267 -0.25648904075215551 0 -0.5 -0.24272207169726981 0 -0.47739559617414051 -0.2386715449111575 0 -0.45247999116641408 -0.2130048823209188 0 -0.47301053866096621 -0.2160674720424603 0 -0.46266564730582838 -0.2355681196285522 0 -0.45247999116641408 -0.2130048823209188 0 -0.46266564730582838 -0.2355681196285522 0 -0.45247999116641408 -0.2130048823209188 0 -0.46266564730582838 -0.2355681196285522 0 -0.44615636075579429 -0.2293402666779705 0 -0.44750537529870138 -0.25369843784153162 0 -0.46266564730582838 -0.2355681196285522 0 -0.44615636075579429 -0.2293402666779705 0 -0.44750537529870138 -0.25369843784153162 0 -0.43358298565690417 -0.241082157972731 0 -0.44615636075579429 -0.2293402666779705 0 -0.4178074536005334 -0.044642816453115193 0 -0.4107368274989231 -0.035532083311074027 0 -0.39732059046421653 -0.048663847364236429 0 -0.4178074536005334 -0.044642816453115193 0 -0.42408349102643261 -0.041833575315700491 0 -0.42189638530823192 -0.035155093584199507 0 -0.4178074536005334 -0.044642816453115193 0 -0.42292610542706388 -0.047797717176331057 0 -0.42408349102643261 -0.041833575315700491 0 -0.4178074536005334 -0.044642816453115193 0 -0.4107368274989231 -0.035532083311074027 0 -0.42189638530823192 -0.035155093584199507 0 -0.4230740807287921 -0.053012705940501822 0 -0.39732059046421653 -0.048663847364236429 0 -0.40645197845322589 -0.070783109078258535 0 -0.4178074536005334 -0.044642816453115193 0 -0.4230740807287921 -0.053012705940501822 0 -0.39732059046421653 -0.048663847364236429 0 -0.4230740807287921 -0.053012705940501822 0 -0.42606744366507371 -0.054349962119545743 0 -0.40645197845322589 -0.070783109078258535 0 -0.4230740807287921 -0.053012705940501822 0 -0.39732059046421653 -0.048663847364236429 0 -0.4178074536005334 -0.044642816453115193 0 -0.42292610542706388 -0.047797717176331057 0 -0.4230740807287921 -0.053012705940501822 0 -0.42606744366507371 -0.054349962119545743 0 -0.42743254761561911 -0.047275409317818498 0 -0.4347085767819806 -0.039844540314743097 0 -0.42292610542706388 -0.047797717176331057 0 -0.42458147878189328 -0.050788407551434843 0 -0.42743254761561911 -0.047275409317818498 0 -0.42606744366507371 -0.054349962119545743 0 -0.43715773992110568 -0.052600055040298153 0 -0.44568290887692152 -0.037916815160833367 0 -0.42292610542706388 -0.047797717176331057 0 -0.4230740807287921 -0.053012705940501822 0 -0.42458147878189328 -0.050788407551434843 0 -0.4230740807287921 -0.053012705940501822 0 -0.42458147878189328 -0.050788407551434843 0 -0.42606744366507371 -0.054349962119545743 0 -0.42458147878189328 -0.050788407551434843 0 -0.42606744366507371 -0.054349962119545743 0 -0.42743254761561911 -0.047275409317818498 0 -0.42606744366507371 -0.054349962119545743 0 -0.43715773992110568 -0.052600055040298153 0 -0.43322093576247572 -0.062708073016021201 0 -0.42606744366507371 -0.054349962119545743 0 -0.4347085767819806 -0.039844540314743097 0 -0.44568290887692152 -0.037916815160833367 0 -0.42743254761561911 -0.047275409317818498 0 -0.4347085767819806 -0.039844540314743097 0 -0.42864298153996272 -0.039255772978804018 0 -0.42606744366507371 -0.054349962119545743 0 -0.44568290887692152 -0.037916815160833367 0 -0.42743254761561911 -0.047275409317818498 0 -0.42864298153996272 -0.039255772978804018 0 -0.42408349102643261 -0.041833575315700491 0 -0.42292610542706388 -0.047797717176331057 0 -0.42743254761561911 -0.047275409317818498 0 -0.42408349102643261 -0.041833575315700491 0 -0.42864298153996272 -0.039255772978804018 0 -0.42189638530823192 -0.035155093584199507 0 -0.43141819220891398 -0.032519860395122183 0 -0.42864298153996272 -0.039255772978804018 0 -0.42408349102643261 -0.041833575315700491 0 -0.42189638530823192 -0.035155093584199507 0 -0.4347085767819806 -0.039844540314743097 0 -0.43141819220891398 -0.032519860395122183 0 -0.44091834711687461 -0.03101758494452149 0 -0.4347085767819806 -0.039844540314743097 0 -0.42864298153996272 -0.039255772978804018 0 -0.43141819220891398 -0.032519860395122183 0 -0.43141819220891398 -0.032519860395122183 0 -0.43453929864575602 -0.024151852255735681 0 -0.42568412295872421 -0.023096813203631598 0 -0.43141819220891398 -0.032519860395122183 0 -0.43453929864575602 -0.024151852255735681 0 -0.44091834711687461 -0.03101758494452149 0 -0.43453929864575602 -0.024151852255735681 0 -0.42568412295872421 -0.023096813203631598 0 -0.43151537580850069 -0.01265190496765988 0 -0.43453929864575602 -0.024151852255735681 0 -0.43151537580850069 -0.01265190496765988 0 -0.44174534378340508 -0.019046505479292378 0 -0.42189638530823192 -0.035155093584199507 0 -0.43141819220891398 -0.032519860395122183 0 -0.42568412295872421 -0.023096813203631598 0 -0.43151537580850069 -0.01265190496765988 0 -0.44399585252460932 -0.0078163753776613661 0 -0.43275016892445639 0.00046701914879945539 0 -0.42568412295872421 -0.023096813203631598 0 -0.43151537580850069 -0.01265190496765988 0 -0.4213930150627242 -0.011076559103186291 0 -0.43151537580850069 -0.01265190496765988 0 -0.42161360453248181 -0.00097516644071870585 0 -0.4213930150627242 -0.011076559103186291 0 -0.43151537580850069 -0.01265190496765988 0 -0.42161360453248181 -0.00097516644071870585 0 -0.43275016892445639 0.00046701914879945539 0 -0.4213930150627242 -0.011076559103186291 0 -0.41477584270431239 -0.020379267431378391 0 -0.41337612930960183 0.001720356527457117 0 -0.41477584270431239 -0.020379267431378391 0 -0.41337612930960183 0.001720356527457117 0 -0.41477584270431239 -0.020379267431378391 0 -0.40238022698241188 -0.010070224190761441 0 -0.41337612930960183 0.001720356527457117 0 -0.42161360453248181 -0.00097516644071870585 0 -0.4213930150627242 -0.011076559103186291 0 -0.41337612930960183 0.001720356527457117 0 -0.42189638530823192 -0.035155093584199507 0 -0.42568412295872421 -0.023096813203631598 0 -0.41477584270431239 -0.020379267431378391 0 -0.4107368274989231 -0.035532083311074027 0 -0.42189638530823192 -0.035155093584199507 0 -0.41477584270431239 -0.020379267431378391 0 -0.42568412295872421 -0.023096813203631598 0 -0.4213930150627242 -0.011076559103186291 0 -0.41477584270431239 -0.020379267431378391 0 -0.4107368274989231 -0.035532083311074027 0 -0.41477584270431239 -0.020379267431378391 0 -0.39997845413334981 -0.02809100109715908 0 -0.39997845413334981 -0.02809100109715908 0 -0.38867922300399083 -0.01856787984660006 0 -0.38529434146045483 -0.034278459522657942 0 -0.39997845413334981 -0.02809100109715908 0 -0.40238022698241188 -0.010070224190761441 0 -0.38867922300399083 -0.01856787984660006 0 -0.41477584270431239 -0.020379267431378391 0 -0.39997845413334981 -0.02809100109715908 0 -0.40238022698241188 -0.010070224190761441 0 -0.40238022698241188 -0.010070224190761441 0 -0.38867922300399083 -0.01856787984660006 0 -0.38970351915524232 0.0094666698894100166 0 -0.37081023416420861 -0.0088368789994708111 0 -0.38867922300399083 -0.01856787984660006 0 -0.37081023416420861 -0.0088368789994708111 0 -0.38867922300399083 -0.01856787984660006 0 -0.38970351915524232 0.0094666698894100166 0 -0.36564471060928821 -0.026694204919340991 0 -0.37081023416420861 -0.0088368789994708111 0 -0.38867922300399083 -0.01856787984660006 0 -0.36564471060928821 -0.026694204919340991 0 -0.38867922300399083 -0.01856787984660006 0 -0.38529434146045483 -0.034278459522657942 0 -0.37156710019964101 -0.044314988787971042 0 -0.38529434146045483 -0.034278459522657942 0 -0.39732059046421653 -0.048663847364236429 0 -0.37156710019964101 -0.044314988787971042 0 -0.39732059046421653 -0.048663847364236429 0 -0.39997845413334981 -0.02809100109715908 0 -0.38529434146045483 -0.034278459522657942 0 -0.39732059046421653 -0.048663847364236429 0 -0.4107368274989231 -0.035532083311074027 0 -0.39997845413334981 -0.02809100109715908 0 -0.39732059046421653 -0.048663847364236429 0 -0.39732059046421653 -0.048663847364236429 0 -0.38084548646524102 -0.061585626789706749 0 -0.40645197845322589 -0.070783109078258535 0 -0.37156710019964101 -0.044314988787971042 0 -0.39732059046421653 -0.048663847364236429 0 -0.38084548646524102 -0.061585626789706749 0 -0.38084548646524102 -0.061585626789706749 0 -0.38300214128270432 -0.075652690928650512 0 -0.40645197845322589 -0.070783109078258535 0 -0.36755006916143612 -0.072558080549145212 0 -0.38084548646524102 -0.061585626789706749 0 -0.38300214128270432 -0.075652690928650512 0 -0.37332665909224061 -0.08612038218917073 0 -0.38300214128270432 -0.075652690928650512 0 -0.38683651324137808 -0.087216256036971321 0 -0.37332665909224061 -0.08612038218917073 0 -0.38683651324137808 -0.087216256036971321 0 -0.40030148144793598 -0.095095282406254006 0 -0.37332665909224061 -0.08612038218917073 0 -0.40030148144793598 -0.095095282406254006 0 -0.38683651324137808 -0.087216256036971321 0 -0.40030148144793598 -0.095095282406254006 0 -0.40645197845322589 -0.070783109078258535 0 -0.38683651324137808 -0.087216256036971321 0 -0.40645197845322589 -0.070783109078258535 0 -0.38300214128270432 -0.075652690928650512 0 -0.38683651324137808 -0.087216256036971321 0 -0.40645197845322589 -0.070783109078258535 0 -0.37450924494895871 -0.1297507813620131 0 -0.38885942621782488 -0.11883320660732059 0 -0.37586199958902577 -0.11471433524842251 0 -0.38885942621782488 -0.11883320660732059 0 -0.37586199958902577 -0.11471433524842251 0 -0.38215926331170658 -0.1045982486550327 0 -0.38885942621782488 -0.11883320660732059 0 -0.38215926331170658 -0.1045982486550327 0 -0.39466863074859582 -0.10742041036860631 0 -0.37332665909224061 -0.08612038218917073 0 -0.38215926331170658 -0.1045982486550327 0 -0.40030148144793598 -0.095095282406254006 0 -0.40030148144793598 -0.095095282406254006 0 -0.39466863074859582 -0.10742041036860631 0 -0.40438330831394131 -0.11252601418329181 0 -0.38215926331170658 -0.1045982486550327 0 -0.40030148144793598 -0.095095282406254006 0 -0.39466863074859582 -0.10742041036860631 0 -0.38885942621782488 -0.11883320660732059 0 -0.39466863074859582 -0.10742041036860631 0 -0.40438330831394131 -0.11252601418329181 0 -0.40055910045300319 -0.12518897445588739 0 -0.38885942621782488 -0.11883320660732059 0 -0.40438330831394131 -0.11252601418329181 0 -0.40438330831394131 -0.11252601418329181 0 -0.41546929335679977 -0.12187605018846059 0 -0.42727630380363152 -0.1040701826233373 0 -0.40055910045300319 -0.12518897445588739 0 -0.40438330831394131 -0.11252601418329181 0 -0.41546929335679977 -0.12187605018846059 0 -0.40030148144793598 -0.095095282406254006 0 -0.42727630380363152 -0.1040701826233373 0 -0.40030148144793598 -0.095095282406254006 0 -0.42727630380363152 -0.1040701826233373 0 -0.41862137962650081 -0.085125008471958058 0 -0.40030148144793598 -0.095095282406254006 0 -0.40438330831394131 -0.11252601418329181 0 -0.42727630380363152 -0.1040701826233373 0 -0.41546929335679977 -0.12187605018846059 0 -0.42727630380363152 -0.1040701826233373 0 -0.42982198298510338 -0.1216037293172005 0 -0.42727630380363152 -0.1040701826233373 0 -0.42982198298510338 -0.1216037293172005 0 -0.45425112615932689 -0.1130450828404206 0 -0.42606744366507371 -0.054349962119545743 0 -0.40645197845322589 -0.070783109078258535 0 -0.42397348906127652 -0.071774105179627554 0 -0.42606744366507371 -0.054349962119545743 0 -0.40645197845322589 -0.070783109078258535 0 -0.40645197845322589 -0.070783109078258535 0 -0.41862137962650081 -0.085125008471958058 0 -0.42397348906127652 -0.071774105179627554 0 -0.40030148144793598 -0.095095282406254006 0 -0.40645197845322589 -0.070783109078258535 0 -0.41862137962650081 -0.085125008471958058 0 -0.42727630380363152 -0.1040701826233373 0 -0.41862137962650081 -0.085125008471958058 0 -0.43756984930250109 -0.076623427816400649 0 -0.42397348906127652 -0.071774105179627554 0 -0.43322093576247572 -0.062708073016021201 0 -0.43756984930250109 -0.076623427816400649 0 -0.42606744366507371 -0.054349962119545743 0 -0.42397348906127652 -0.071774105179627554 0 -0.43322093576247572 -0.062708073016021201 0 -0.41862137962650081 -0.085125008471958058 0 -0.42397348906127652 -0.071774105179627554 0 -0.43756984930250109 -0.076623427816400649 0 -0.43756984930250109 -0.076623427816400649 0 -0.46074990835757729 -0.059734288271920948 0 -0.44365967137995199 -0.05542536986479224 0 -0.43322093576247572 -0.062708073016021201 0 -0.43756984930250109 -0.076623427816400649 0 -0.44365967137995199 -0.05542536986479224 0 -0.43756984930250109 -0.076623427816400649 0 -0.45508055162983779 -0.090972660276278733 0 -0.46074990835757729 -0.059734288271920948 0 -0.42727630380363152 -0.1040701826233373 0 -0.43756984930250109 -0.076623427816400649 0 -0.45508055162983779 -0.090972660276278733 0 -0.45508055162983779 -0.090972660276278733 0 -0.47156469252130329 -0.10248098851470321 0 -0.47581690783822939 -0.081551761383010887 0 -0.47581690783822939 -0.081551761383010887 0 -0.46074990835757729 -0.059734288271920948 0 -0.45508055162983779 -0.090972660276278733 0 -0.47581690783822939 -0.081551761383010887 0 -0.46074990835757729 -0.059734288271920948 0 -0.44267211738063611 -0.13077951451141731 0 -0.42982198298510338 -0.1216037293172005 0 -0.45425112615932689 -0.1130450828404206 0 -0.42727630380363152 -0.1040701826233373 0 -0.45425112615932689 -0.1130450828404206 0 -0.42727630380363152 -0.1040701826233373 0 -0.45508055162983779 -0.090972660276278733 0 -0.45425112615932689 -0.1130450828404206 0 -0.45508055162983779 -0.090972660276278733 0 -0.45425112615932689 -0.1130450828404206 0 -0.47156469252130329 -0.10248098851470321 0 -0.46219681628934162 -0.13286197430266741 0 -0.45425112615932689 -0.1130450828404206 0 -0.48122594851502221 -0.1220199830575044 0 -0.45425112615932689 -0.1130450828404206 0 -0.48122594851502221 -0.1220199830575044 0 -0.45425112615932689 -0.1130450828404206 0 -0.48122594851502221 -0.1220199830575044 0 -0.47156469252130329 -0.10248098851470321 0 -0.48122594851502221 -0.1220199830575044 0 -0.47156469252130329 -0.10248098851470321 0 -0.49088390731888148 -0.1033692344941009 0 -0.47156469252130329 -0.10248098851470321 0 -0.49088390731888148 -0.1033692344941009 0 -0.47581690783822939 -0.081551761383010887 0 -0.49088390731888148 -0.1033692344941009 0 -0.50000000000000044 -0.1113233259833756 0 -0.5 -0.085892750913204474 0 -0.48122594851502221 -0.1220199830575044 0 -0.50000000000000044 -0.1113233259833756 0 -0.49999999999999611 -0.1282663722468812 0 -0.48122594851502221 -0.1220199830575044 0 -0.50000000000000044 -0.1113233259833756 0 -0.48122594851502221 -0.1220199830575044 0 -0.49088390731888148 -0.1033692344941009 0 -0.50000000000000044 -0.1113233259833756 0 -0.47581690783822939 -0.081551761383010887 0 -0.4806311035716711 -0.050811590548365322 0 -0.46074990835757729 -0.059734288271920948 0 -0.49088390731888148 -0.1033692344941009 0 -0.47581690783822939 -0.081551761383010887 0 -0.49088390731888148 -0.1033692344941009 0 -0.47581690783822939 -0.081551761383010887 0 -0.5 -0.085892750913204474 0 -0.47581690783822939 -0.081551761383010887 0 -0.5 -0.085892750913204474 0 -0.5 -0.060462175843033483 0 -0.47581690783822939 -0.081551761383010887 0 -0.5 -0.060462175843033483 0 -0.4806311035716711 -0.050811590548365322 0 -0.5 -0.060462175843033483 0 -0.5 -0.035031600772862492 0 -0.4806311035716711 -0.050811590548365322 0 -0.5 -0.035031600772862492 0 -0.4806311035716711 -0.050811590548365322 0 -0.48219686168266612 -0.027416784475098911 0 -0.4806311035716711 -0.050811590548365322 0 -0.46502294355155371 -0.040672932544265163 0 -0.48219686168266612 -0.027416784475098911 0 -0.4806311035716711 -0.050811590548365322 0 -0.46074990835757729 -0.059734288271920948 0 -0.46502294355155371 -0.040672932544265163 0 -0.46074990835757729 -0.059734288271920948 0 -0.44568290887692152 -0.037916815160833367 0 -0.46502294355155371 -0.040672932544265163 0 -0.44568290887692152 -0.037916815160833367 0 -0.4634657969818004 -0.02301893685808867 0 -0.46074990835757729 -0.059734288271920948 0 -0.46502294355155371 -0.040672932544265163 0 -0.44568290887692152 -0.037916815160833367 0 -0.4347085767819806 -0.039844540314743097 0 -0.44568290887692152 -0.037916815160833367 0 -0.44091834711687461 -0.03101758494452149 0 -0.44568290887692152 -0.037916815160833367 0 -0.44091834711687461 -0.03101758494452149 0 -0.43715773992110568 -0.052600055040298153 0 -0.44568290887692152 -0.037916815160833367 0 -0.44365967137995199 -0.05542536986479224 0 -0.46074990835757729 -0.059734288271920948 0 -0.44568290887692152 -0.037916815160833367 0 -0.44365967137995199 -0.05542536986479224 0 -0.43715773992110568 -0.052600055040298153 0 -0.43322093576247572 -0.062708073016021201 0 -0.44365967137995199 -0.05542536986479224 0 -0.44399585252460932 -0.0078163753776613661 0 -0.46268198186676268 -0.00066775376749940592 0 -0.44428993081756452 0.0039676797828104033 0 -0.44399585252460932 -0.0078163753776613661 0 -0.44174534378340508 -0.019046505479292378 0 -0.4541186654167384 -0.01379228403672202 0 -0.44399585252460932 -0.0078163753776613661 0 -0.44428993081756452 0.0039676797828104033 0 -0.43275016892445639 0.00046701914879945539 0 -0.43151537580850069 -0.01265190496765988 0 -0.44399585252460932 -0.0078163753776613661 0 -0.44174534378340508 -0.019046505479292378 0 -0.44568290887692152 -0.037916815160833367 0 -0.44956693801482661 -0.024696562232098651 0 -0.4634657969818004 -0.02301893685808867 0 -0.43453929864575602 -0.024151852255735681 0 -0.44174534378340508 -0.019046505479292378 0 -0.44091834711687461 -0.03101758494452149 0 -0.44174534378340508 -0.019046505479292378 0 -0.44091834711687461 -0.03101758494452149 0 -0.44956693801482661 -0.024696562232098651 0 -0.44568290887692152 -0.037916815160833367 0 -0.44091834711687461 -0.03101758494452149 0 -0.44956693801482661 -0.024696562232098651 0 -0.44174534378340508 -0.019046505479292378 0 -0.44956693801482661 -0.024696562232098651 0 -0.4541186654167384 -0.01379228403672202 0 -0.44956693801482661 -0.024696562232098651 0 -0.4634657969818004 -0.02301893685808867 0 -0.4541186654167384 -0.01379228403672202 0 -0.44568290887692152 -0.037916815160833367 0 -0.4634657969818004 -0.02301893685808867 0 -0.4634657969818004 -0.02301893685808867 0 -0.46268198186676268 -0.00066775376749940592 0 -0.4541186654167384 -0.01379228403672202 0 -0.44399585252460932 -0.0078163753776613661 0 -0.46268198186676268 -0.00066775376749940592 0 -0.4541186654167384 -0.01379228403672202 0 -0.4634657969818004 -0.02301893685808867 0 -0.48124868508667962 -0.0081210585553442155 0 -0.4634657969818004 -0.02301893685808867 0 -0.46268198186676268 -0.00066775376749940592 0 -0.48124868508667962 -0.0081210585553442155 0 -0.46502294355155371 -0.040672932544265163 0 -0.4634657969818004 -0.02301893685808867 0 -0.48219686168266612 -0.027416784475098911 0 -0.4634657969818004 -0.02301893685808867 0 -0.48124868508667962 -0.0081210585553442155 0 -0.48219686168266612 -0.027416784475098911 0 -0.5 -0.035031600772862492 0 -0.48219686168266612 -0.027416784475098911 0 -0.5 -0.0096010257026913903 0 -0.48124868508667962 -0.0081210585553442155 0 -0.5 -0.0096010257026913903 0 -0.50000000000000044 0.01582954936747966 0 -0.48124868508667962 -0.0081210585553442155 0 -0.48219686168266612 -0.027416784475098911 0 -0.5 -0.0096010257026913903 0 -0.48124868508667962 -0.0081210585553442155 0 -0.50000000000000044 0.01582954936747966 0 -0.47457293675769058 0.01542197626438449 0 -0.50000000000000044 0.01582954936747966 0 -0.5 0.04456290468576557 0 -0.48548652727963748 0.031583120882533282 0 -0.50000000000000044 0.01582954936747966 0 -0.47457293675769058 0.01542197626438449 0 -0.48548652727963748 0.031583120882533282 0 -0.50000000000000044 0.01582954936747966 0 -0.47457293675769058 0.01542197626438449 0 -0.47306481401396361 0.028141368801914531 0 -0.47457293675769058 0.01542197626438449 0 -0.48548652727963748 0.031583120882533282 0 -0.47306481401396361 0.028141368801914531 0 -0.47457293675769058 0.01542197626438449 0 -0.4622829050060383 0.026831218964439268 0 -0.46268198186676268 -0.00066775376749940592 0 -0.48124868508667962 -0.0081210585553442155 0 -0.47457293675769058 0.01542197626438449 0 -0.48520960878308528 0.050238955260537281 0 -0.5 0.04456290468576557 0 -0.5 0.073296260004051594 0 -0.48520960878308528 0.050238955260537281 0 -0.5 0.04456290468576557 0 -0.48548652727963748 0.031583120882533282 0 -0.48520960878308528 0.050238955260537281 0 -0.46991688701248802 0.038729159096301091 0 -0.46619066567599171 0.048649513890696168 0 -0.48520960878308528 0.050238955260537281 0 -0.48548652727963748 0.031583120882533282 0 -0.46991688701248802 0.038729159096301091 0 -0.47306481401396361 0.028141368801914531 0 -0.48548652727963748 0.031583120882533282 0 -0.46991688701248802 0.038729159096301091 0 -0.48520960878308528 0.050238955260537281 0 -0.46591886513858399 0.060398914753291108 0 -0.48520960878308528 0.050238955260537281 0 -0.46591886513858399 0.060398914753291108 0 -0.46619066567599171 0.048649513890696168 0 -0.48520960878308528 0.050238955260537281 0 -0.46591886513858399 0.060398914753291108 0 -0.46864327541780221 0.063132526820982193 0 -0.48520960878308528 0.050238955260537281 0 -0.46864327541780221 0.063132526820982193 0 -0.48193290733273692 0.06662657255411765 0 -0.46591886513858399 0.060398914753291108 0 -0.4537862245821882 0.048225295790346533 0 -0.45727242129551687 0.064952783739413267 0 -0.4537862245821882 0.048225295790346533 0 -0.45727242129551687 0.064952783739413267 0 -0.46591886513858399 0.060398914753291108 0 -0.46864327541780221 0.063132526820982193 0 -0.46591886513858399 0.060398914753291108 0 -0.46619066567599171 0.048649513890696168 0 -0.4537862245821882 0.048225295790346533 0 -0.46591886513858399 0.060398914753291108 0 -0.4537862245821882 0.048225295790346533 0 -0.46001884973968482 0.042794518411457157 0 -0.45828480443024322 0.03492232456952455 0 -0.4522592513751354 0.040898564679064733 0 -0.46619066567599171 0.048649513890696168 0 -0.4537862245821882 0.048225295790346533 0 -0.46001884973968482 0.042794518411457157 0 -0.4537862245821882 0.048225295790346533 0 -0.46001884973968482 0.042794518411457157 0 -0.4522592513751354 0.040898564679064733 0 -0.46991688701248802 0.038729159096301091 0 -0.46619066567599171 0.048649513890696168 0 -0.46001884973968482 0.042794518411457157 0 -0.46991688701248802 0.038729159096301091 0 -0.46001884973968482 0.042794518411457157 0 -0.45828480443024322 0.03492232456952455 0 -0.46991688701248802 0.038729159096301091 0 -0.45828480443024322 0.03492232456952455 0 -0.4622829050060383 0.026831218964439268 0 -0.4537862245821882 0.048225295790346533 0 -0.43434521538154031 0.028718623919235849 0 -0.4537862245821882 0.048225295790346533 0 -0.43434521538154031 0.028718623919235849 0 -0.43734326934221629 0.046299911159676577 0 -0.4537862245821882 0.048225295790346533 0 -0.4522592513751354 0.040898564679064733 0 -0.43434521538154031 0.028718623919235849 0 -0.4522592513751354 0.040898564679064733 0 -0.44802127378429218 0.028278992522471388 0 -0.43434521538154031 0.028718623919235849 0 -0.45828480443024322 0.03492232456952455 0 -0.4522592513751354 0.040898564679064733 0 -0.44802127378429218 0.028278992522471388 0 -0.4537862245821882 0.048225295790346533 0 -0.4522592513751354 0.040898564679064733 0 -0.4537862245821882 0.048225295790346533 0 -0.44365944362825621 0.059062856178093717 0 -0.45727242129551687 0.064952783739413267 0 -0.4537862245821882 0.048225295790346533 0 -0.44365944362825621 0.059062856178093717 0 -0.43734326934221629 0.046299911159676577 0 -0.47457293675769058 0.01542197626438449 0 -0.44914587351538082 0.01501440316128932 0 -0.46268198186676268 -0.00066775376749940592 0 -0.47457293675769058 0.01542197626438449 0 -0.44914587351538082 0.01501440316128932 0 -0.47457293675769058 0.01542197626438449 0 -0.4622829050060383 0.026831218964439268 0 -0.44914587351538082 0.01501440316128932 0 -0.47306481401396361 0.028141368801914531 0 -0.46991688701248802 0.038729159096301091 0 -0.4622829050060383 0.026831218964439268 0 -0.45828480443024322 0.03492232456952455 0 -0.4622829050060383 0.026831218964439268 0 -0.44802127378429218 0.028278992522471388 0 -0.4622829050060383 0.026831218964439268 0 -0.44802127378429218 0.028278992522471388 0 -0.44914587351538082 0.01501440316128932 0 -0.44914587351538082 0.01501440316128932 0 -0.43106136750341412 0.012550298108191719 0 -0.43434521538154031 0.028718623919235849 0 -0.44802127378429218 0.028278992522471388 0 -0.44914587351538082 0.01501440316128932 0 -0.43434521538154031 0.028718623919235849 0 -0.46268198186676268 -0.00066775376749940592 0 -0.44914587351538082 0.01501440316128932 0 -0.44428993081756452 0.0039676797828104033 0 -0.44914587351538082 0.01501440316128932 0 -0.44428993081756452 0.0039676797828104033 0 -0.43106136750341412 0.012550298108191719 0 -0.44428993081756452 0.0039676797828104033 0 -0.43275016892445639 0.00046701914879945539 0 -0.43106136750341412 0.012550298108191719 0 -0.43106136750341412 0.012550298108191719 0 -0.42274109529016951 0.0045948918783708347 0 -0.4149042061808928 0.0092119520481245901 0 -0.42161360453248181 -0.00097516644071870585 0 -0.43275016892445639 0.00046701914879945539 0 -0.42274109529016951 0.0045948918783708347 0 -0.43275016892445639 0.00046701914879945539 0 -0.43106136750341412 0.012550298108191719 0 -0.42274109529016951 0.0045948918783708347 0 -0.42161360453248181 -0.00097516644071870585 0 -0.41337612930960183 0.001720356527457117 0 -0.42161360453248181 -0.00097516644071870585 0 -0.42274109529016951 0.0045948918783708347 0 -0.41337612930960183 0.001720356527457117 0 -0.42274109529016951 0.0045948918783708347 0 -0.4149042061808928 0.0092119520481245901 0 -0.41337612930960183 0.001720356527457117 0 -0.4149042061808928 0.0092119520481245901 0 -0.41337612930960183 0.001720356527457117 0 -0.41148628816406729 0.031558449680000468 0 -0.41337612930960183 0.001720356527457117 0 -0.41148628816406729 0.031558449680000468 0 -0.39878560456299689 0.019928393800039312 0 -0.41337612930960183 0.001720356527457117 0 -0.41148628816406729 0.031558449680000468 0 -0.4149042061808928 0.0092119520481245901 0 -0.43434521538154031 0.028718623919235849 0 -0.41148628816406729 0.031558449680000468 0 -0.43106136750341412 0.012550298108191719 0 -0.4149042061808928 0.0092119520481245901 0 -0.43434521538154031 0.028718623919235849 0 -0.4149042061808928 0.0092119520481245901 0 -0.43434521538154031 0.028718623919235849 0 -0.43434521538154031 0.028718623919235849 0 -0.43734326934221629 0.046299911159676577 0 -0.42452854110731919 0.043193913725692833 0 -0.43434521538154031 0.028718623919235849 0 -0.42452854110731919 0.043193913725692833 0 -0.41148628816406729 0.031558449680000468 0 -0.43734326934221629 0.046299911159676577 0 -0.42452854110731919 0.043193913725692833 0 -0.43092235839331788 0.056601691333019427 0 -0.44365944362825621 0.059062856178093717 0 -0.43734326934221629 0.046299911159676577 0 -0.43092235839331788 0.056601691333019427 0 -0.42452854110731919 0.043193913725692833 0 -0.43092235839331788 0.056601691333019427 0 -0.40959644701853293 0.0613965428325439 0 -0.40959644701853293 0.0613965428325439 0 -0.41148628816406729 0.031558449680000468 0 -0.42452854110731919 0.043193913725692833 0 -0.40959644701853293 0.0613965428325439 0 -0.41148628816406729 0.031558449680000468 0 -0.41148628816406729 0.031558449680000468 0 -0.39560638892699379 0.046700285426541477 0 -0.39455270187365987 0.03228496404554048 0 -0.40959644701853293 0.0613965428325439 0 -0.41148628816406729 0.031558449680000468 0 -0.39560638892699379 0.046700285426541477 0 -0.39560638892699379 0.046700285426541477 0 -0.39455270187365987 0.03228496404554048 0 -0.38373495198669988 0.038772796730078649 0 -0.40959644701853293 0.0613965428325439 0 -0.39560638892699379 0.046700285426541477 0 -0.38698813916789992 0.060907770210175453 0 -0.39560638892699379 0.046700285426541477 0 -0.38698813916789992 0.060907770210175453 0 -0.38108888395909918 0.04938413124520831 0 -0.38108888395909918 0.04938413124520831 0 -0.37456796677091958 0.042380625345535258 0 -0.36975683342996851 0.04909015969521225 0 -0.38108888395909918 0.04938413124520831 0 -0.37543853759690121 0.058490770255522961 0 -0.36975683342996851 0.04909015969521225 0 -0.38698813916789992 0.060907770210175453 0 -0.38108888395909918 0.04938413124520831 0 -0.37543853759690121 0.058490770255522961 0 -0.39455270187365987 0.03228496404554048 0 -0.38373495198669988 0.038772796730078649 0 -0.38315027572754151 0.024464894591042501 0 -0.39560638892699379 0.046700285426541477 0 -0.38108888395909918 0.04938413124520831 0 -0.38373495198669988 0.038772796730078649 0 -0.38108888395909918 0.04938413124520831 0 -0.38373495198669988 0.038772796730078649 0 -0.37456796677091958 0.042380625345535258 0 -0.38373495198669988 0.038772796730078649 0 -0.37123054926455767 0.033165699933513537 0 -0.37456796677091958 0.042380625345535258 0 -0.38373495198669988 0.038772796730078649 0 -0.38315027572754151 0.024464894591042501 0 -0.37123054926455767 0.033165699933513537 0 -0.38315027572754151 0.024464894591042501 0 -0.38970351915524232 0.0094666698894100166 0 -0.39878560456299689 0.019928393800039312 0 -0.38315027572754151 0.024464894591042501 0 -0.38970351915524232 0.0094666698894100166 0 -0.36603090900088292 0.017212983251362831 0 -0.37081023416420861 -0.0088368789994708111 0 -0.38970351915524232 0.0094666698894100166 0 -0.36603090900088292 0.017212983251362831 0 -0.38970351915524232 0.0094666698894100166 0 -0.36603090900088292 0.017212983251362831 0 -0.41337612930960183 0.001720356527457117 0 -0.38970351915524232 0.0094666698894100166 0 -0.39878560456299689 0.019928393800039312 0 -0.40238022698241188 -0.010070224190761441 0 -0.41337612930960183 0.001720356527457117 0 -0.38970351915524232 0.0094666698894100166 0 -0.41337612930960183 0.001720356527457117 0 -0.38970351915524232 0.0094666698894100166 0 -0.41148628816406729 0.031558449680000468 0 -0.39455270187365987 0.03228496404554048 0 -0.39878560456299689 0.019928393800039312 0 -0.39455270187365987 0.03228496404554048 0 -0.38315027572754151 0.024464894591042501 0 -0.39878560456299689 0.019928393800039312 0 -0.39192727675828631 0.099368461734064495 0 -0.40387364955746829 0.1114641874578928 0 -0.41370899160403007 0.087896569069181238 0 -0.39192727675828631 0.099368461734064495 0 -0.40387364955746829 0.1114641874578928 0 -0.38462448899452278 0.1235442590651198 0 -0.40387364955746829 0.1114641874578928 0 -0.38462448899452278 0.1235442590651198 0 -0.40821600484205761 0.12939796327653089 0 -0.39192727675828631 0.099368461734064495 0 -0.38462448899452278 0.1235442590651198 0 -0.37014556191254228 0.11084035439894779 0 -0.39192727675828631 0.099368461734064495 0 -0.37014556191254228 0.11084035439894779 0 -0.39192727675828631 0.099368461734064495 0 -0.37838448872862013 0.084566092585628805 0 -0.37014556191254228 0.11084035439894779 0 -0.39192727675828631 0.099368461734064495 0 -0.37838448872862013 0.084566092585628805 0 -0.39314948663916882 0.077289999464672229 0 -0.38698813916789992 0.060907770210175453 0 -0.37829157655764362 0.069604560356439527 0 -0.39314948663916882 0.077289999464672229 0 -0.38698813916789992 0.060907770210175453 0 -0.37543853759690121 0.058490770255522961 0 -0.37829157655764362 0.069604560356439527 0 -0.37838448872862013 0.084566092585628805 0 -0.37829157655764362 0.069604560356439527 0 -0.39314948663916882 0.077289999464672229 0 -0.40959644701853293 0.0613965428325439 0 -0.38698813916789992 0.060907770210175453 0 -0.39314948663916882 0.077289999464672229 0 -0.40959644701853293 0.0613965428325439 0 -0.39314948663916882 0.077289999464672229 0 -0.41370899160403007 0.087896569069181238 0 -0.39192727675828631 0.099368461734064495 0 -0.39314948663916882 0.077289999464672229 0 -0.41370899160403007 0.087896569069181238 0 -0.39192727675828631 0.099368461734064495 0 -0.41370899160403007 0.087896569069181238 0 -0.40959644701853293 0.0613965428325439 0 -0.41370899160403007 0.087896569069181238 0 -0.43549070644977389 0.076424676404298009 0 -0.43092235839331788 0.056601691333019427 0 -0.40959644701853293 0.0613965428325439 0 -0.43549070644977389 0.076424676404298009 0 -0.44365944362825621 0.059062856178093717 0 -0.43092235839331788 0.056601691333019427 0 -0.43549070644977389 0.076424676404298009 0 -0.41370899160403007 0.087896569069181238 0 -0.43549070644977389 0.076424676404298009 0 -0.41370899160403007 0.087896569069181238 0 -0.43549070644977389 0.076424676404298009 0 -0.44211677774703778 0.095507366079950848 0 -0.41370899160403007 0.087896569069181238 0 -0.42330837957596162 0.1141633905746294 0 -0.44211677774703778 0.095507366079950848 0 -0.40387364955746829 0.1114641874578928 0 -0.41370899160403007 0.087896569069181238 0 -0.42330837957596162 0.1141633905746294 0 -0.40387364955746829 0.1114641874578928 0 -0.42330837957596162 0.1141633905746294 0 -0.40821600484205761 0.12939796327653089 0 -0.42330837957596162 0.1141633905746294 0 -0.44450459624351801 0.11895274529009379 0 -0.43211404398761849 0.13147082840716981 0 -0.42330837957596162 0.1141633905746294 0 -0.44450459624351801 0.11895274529009379 0 -0.44211677774703778 0.095507366079950848 0 -0.44450459624351801 0.11895274529009379 0 -0.44211677774703778 0.095507366079950848 0 -0.46611828027058272 0.1073970321776171 0 -0.44211677774703778 0.095507366079950848 0 -0.46611828027058272 0.1073970321776171 0 -0.4616953507830468 0.086174907958515831 0 -0.46611828027058272 0.1073970321776171 0 -0.4616953507830468 0.086174907958515831 0 -0.46611828027058272 0.1073970321776171 0 -0.47054120975811681 0.12861915639671881 0 -0.44450459624351801 0.11895274529009379 0 -0.46611828027058272 0.1073970321776171 0 -0.45787969212454122 0.1264610540235015 0 -0.46611828027058272 0.1073970321776171 0 -0.47054120975811681 0.12861915639671881 0 -0.45787969212454122 0.1264610540235015 0 -0.44365944362825621 0.059062856178093717 0 -0.43549070644977389 0.076424676404298009 0 -0.45727242129551687 0.064952783739413267 0 -0.43549070644977389 0.076424676404298009 0 -0.44914381406884413 0.08076493354554487 0 -0.45727242129551687 0.064952783739413267 0 -0.43549070644977389 0.076424676404298009 0 -0.45727242129551687 0.064952783739413267 0 -0.43549070644977389 0.076424676404298009 0 -0.44211677774703778 0.095507366079950848 0 -0.44914381406884413 0.08076493354554487 0 -0.44211677774703778 0.095507366079950848 0 -0.44914381406884413 0.08076493354554487 0 -0.4616953507830468 0.086174907958515831 0 -0.44914381406884413 0.08076493354554487 0 -0.4616953507830468 0.086174907958515831 0 -0.45727242129551687 0.064952783739413267 0 -0.4616953507830468 0.086174907958515831 0 -0.45727242129551687 0.064952783739413267 0 -0.4616953507830468 0.086174907958515831 0 -0.45727242129551687 0.064952783739413267 0 -0.46965784321744131 0.073092615465589511 0 -0.46591886513858399 0.060398914753291108 0 -0.46864327541780221 0.063132526820982193 0 -0.45727242129551687 0.064952783739413267 0 -0.46591886513858399 0.060398914753291108 0 -0.45727242129551687 0.064952783739413267 0 -0.46864327541780221 0.063132526820982193 0 -0.45727242129551687 0.064952783739413267 0 -0.46965784321744131 0.073092615465589511 0 -0.46864327541780221 0.063132526820982193 0 -0.48193290733273692 0.06662657255411765 0 -0.46965784321744131 0.073092615465589511 0 -0.48193290733273692 0.06662657255411765 0 -0.46965784321744131 0.073092615465589511 0 -0.48071507763996518 0.079341201715508763 0 -0.4616953507830468 0.086174907958515831 0 -0.48071507763996518 0.079341201715508763 0 -0.47870045322456928 0.097925956561548066 0 -0.4616953507830468 0.086174907958515831 0 -0.46965784321744131 0.073092615465589511 0 -0.48071507763996518 0.079341201715508763 0 -0.48071507763996518 0.079341201715508763 0 -0.5 0.073296260004051594 0 -0.5 0.10202961532233761 0 -0.48071507763996518 0.079341201715508763 0 -0.47870045322456928 0.097925956561548066 0 -0.5 0.10202961532233761 0 -0.48520960878308528 0.050238955260537281 0 -0.48193290733273692 0.06662657255411765 0 -0.5 0.073296260004051594 0 -0.48193290733273692 0.06662657255411765 0 -0.48071507763996518 0.079341201715508763 0 -0.5 0.073296260004051594 0 -0.47795237945647251 0.12155921581865629 0 -0.48497355742925191 0.114687025633761 0 -0.4838466797833415 0.13430166707567509 0 -0.46611828027058272 0.1073970321776171 0 -0.47795237945647251 0.12155921581865629 0 -0.47054120975811681 0.12861915639671881 0 -0.46611828027058272 0.1073970321776171 0 -0.47795237945647251 0.12155921581865629 0 -0.48497355742925191 0.114687025633761 0 -0.46611828027058272 0.1073970321776171 0 -0.4616953507830468 0.086174907958515831 0 -0.47870045322456928 0.097925956561548066 0 -0.46611828027058272 0.1073970321776171 0 -0.47870045322456928 0.097925956561548066 0 -0.48497355742925191 0.114687025633761 0 -0.47870045322456928 0.097925956561548066 0 -0.5 0.10202961532233761 0 -0.48497355742925191 0.114687025633761 0 -0.5 0.10202961532233761 0 -0.48497355742925191 0.114687025633761 0 -0.5 0.13076297064062359 0 -0.48497355742925191 0.114687025633761 0 -0.5 0.13076297064062359 0 -0.4838466797833415 0.13430166707567509 0 -0.5 0.13076297064062359 0 -0.4838466797833415 0.13430166707567509 0 -0.48747846342258438 0.1476150286199521 0 -0.47054120975811681 0.12861915639671881 0 -0.4739189480240748 0.1448262384362895 0 -0.47539638324054118 0.13150359728000541 0 -0.47054120975811681 0.12861915639671881 0 -0.4739189480240748 0.1448262384362895 0 -0.47795237945647251 0.12155921581865629 0 -0.4838466797833415 0.13430166707567509 0 -0.47539638324054118 0.13150359728000541 0 -0.4838466797833415 0.13430166707567509 0 -0.47539638324054118 0.13150359728000541 0 -0.4739189480240748 0.1448262384362895 0 -0.47795237945647251 0.12155921581865629 0 -0.47539638324054118 0.13150359728000541 0 -0.47054120975811681 0.12861915639671881 0 -0.4739189480240748 0.1448262384362895 0 -0.47700538653740132 0.1661010469164112 0 -0.45985622384617048 0.15260718351745681 0 -0.4739189480240748 0.1448262384362895 0 -0.48747846342258438 0.1476150286199521 0 -0.47700538653740132 0.1661010469164112 0 -0.4838466797833415 0.13430166707567509 0 -0.4739189480240748 0.1448262384362895 0 -0.48747846342258438 0.1476150286199521 0 -0.5 0.13076297064062359 0 -0.48747846342258438 0.1476150286199521 0 -0.5 0.15949632595890961 0 -0.5 0.15949632595890961 0 -0.48556972777500912 0.18028145646761601 0 -0.47700538653740132 0.1661010469164112 0 -0.48747846342258438 0.1476150286199521 0 -0.5 0.15949632595890961 0 -0.47700538653740132 0.1661010469164112 0 -0.5 0.15949632595890961 0 -0.48556972777500912 0.18028145646761601 0 -0.5 0.18822968127719561 0 -0.47700538653740132 0.1661010469164112 0 -0.4631864261215396 0.1708172664494893 0 -0.46671285616836011 0.18796562472589351 0 -0.48556972777500912 0.18028145646761601 0 -0.47700538653740132 0.1661010469164112 0 -0.46671285616836011 0.18796562472589351 0 -0.47700538653740132 0.1661010469164112 0 -0.4631864261215396 0.1708172664494893 0 -0.45985622384617048 0.15260718351745681 0 -0.4631864261215396 0.1708172664494893 0 -0.44917123793422647 0.17659521063819569 0 -0.45985622384617048 0.15260718351745681 0 -0.44917123793422647 0.17659521063819569 0 -0.45985622384617048 0.15260718351745681 0 -0.44917123793422647 0.17659521063819569 0 -0.46671285616836011 0.18796562472589351 0 -0.45071045400930082 0.18887714611009329 0 -0.4631864261215396 0.1708172664494893 0 -0.44917123793422647 0.17659521063819569 0 -0.46671285616836011 0.18796562472589351 0 -0.44917123793422647 0.17659521063819569 0 -0.437679206357244 0.18585003546913259 0 -0.43428031125719191 0.16330758113924729 0 -0.44917123793422647 0.17659521063819569 0 -0.44708318916169931 0.15938422166456981 0 -0.45985622384617048 0.15260718351745681 0 -0.44917123793422647 0.17659521063819569 0 -0.44708318916169931 0.15938422166456981 0 -0.43428031125719191 0.16330758113924729 0 -0.44708318916169931 0.15938422166456981 0 -0.4450249836092085 0.1450269113633792 0 -0.43428031125719191 0.16330758113924729 0 -0.44708318916169931 0.15938422166456981 0 -0.4450249836092085 0.1450269113633792 0 -0.45985622384617048 0.15260718351745681 0 -0.4450249836092085 0.1450269113633792 0 -0.44691378669375559 0.13196294982154699 0 -0.43211404398761849 0.13147082840716981 0 -0.44450459624351801 0.11895274529009379 0 -0.44691378669375559 0.13196294982154699 0 -0.43211404398761849 0.13147082840716981 0 -0.44450459624351801 0.11895274529009379 0 -0.44691378669375559 0.13196294982154699 0 -0.45787969212454122 0.1264610540235015 0 -0.4450249836092085 0.1450269113633792 0 -0.44691378669375559 0.13196294982154699 0 -0.45504561750389222 0.13790321002359079 0 -0.47054120975811681 0.12861915639671881 0 -0.45985622384617048 0.15260718351745681 0 -0.47054120975811681 0.12861915639671881 0 -0.46083068580818021 0.136397650990317 0 -0.45985622384617048 0.15260718351745681 0 -0.46083068580818021 0.136397650990317 0 -0.45504561750389222 0.13790321002359079 0 -0.45787969212454122 0.1264610540235015 0 -0.44691378669375559 0.13196294982154699 0 -0.45504561750389222 0.13790321002359079 0 -0.45787969212454122 0.1264610540235015 0 -0.47054120975811681 0.12861915639671881 0 -0.46083068580818021 0.136397650990317 0 -0.45787969212454122 0.1264610540235015 0 -0.47054120975811681 0.12861915639671881 0 -0.4739189480240748 0.1448262384362895 0 -0.45985622384617048 0.15260718351745681 0 -0.46083068580818021 0.136397650990317 0 -0.45504561750389222 0.13790321002359079 0 -0.45985622384617048 0.15260718351745681 0 -0.4450249836092085 0.1450269113633792 0 -0.45504561750389222 0.13790321002359079 0 -0.45985622384617048 0.15260718351745681 0 -0.48123258665022223 0.2338671199023924 0 -0.46470531482263477 0.2425530545157277 0 -0.47790774020397558 0.25144110450113488 0 -0.48123258665022223 0.2338671199023924 0 -0.46722886355654619 0.2300171375048839 0 -0.46470531482263477 0.2425530545157277 0 -0.5 0.24569639191376769 0 -0.48123258665022223 0.2338671199023924 0 -0.47790774020397558 0.25144110450113488 0 -0.5 0.24569639191376769 0 -0.48123258665022223 0.2338671199023924 0 -0.5 0.21696303659548169 0 -0.48123258665022223 0.2338671199023924 0 -0.4703440239527748 0.21457826850503259 0 -0.46722886355654619 0.2300171375048839 0 -0.48123258665022223 0.2338671199023924 0 -0.4703440239527748 0.21457826850503259 0 -0.5 0.21696303659548169 0 -0.4703440239527748 0.21457826850503259 0 -0.5 0.21696303659548169 0 -0.48413039616928372 0.19961460345967 0 -0.5 0.21696303659548169 0 -0.5 0.18822968127719561 0 -0.48413039616928372 0.19961460345967 0 -0.48556972777500912 0.18028145646761601 0 -0.5 0.18822968127719561 0 -0.48413039616928372 0.19961460345967 0 -0.4703440239527748 0.21457826850503259 0 -0.48413039616928372 0.19961460345967 0 -0.46671285616836011 0.18796562472589351 0 -0.48556972777500912 0.18028145646761601 0 -0.48413039616928372 0.19961460345967 0 -0.46671285616836011 0.18796562472589351 0 -0.46671285616836011 0.18796562472589351 0 -0.45683859168060581 0.20059300110400069 0 -0.45071045400930082 0.18887714611009329 0 -0.4703440239527748 0.21457826850503259 0 -0.46671285616836011 0.18796562472589351 0 -0.45683859168060581 0.20059300110400069 0 -0.44917123793422647 0.17659521063819569 0 -0.43848625202228247 0.20058323775893461 0 -0.44917123793422647 0.17659521063819569 0 -0.45071045400930082 0.18887714611009329 0 -0.43848625202228247 0.20058323775893461 0 -0.44917123793422647 0.17659521063819569 0 -0.437679206357244 0.18585003546913259 0 -0.43848625202228247 0.20058323775893461 0 -0.45071045400930082 0.18887714611009329 0 -0.44394159357910429 0.19924043002679309 0 -0.43848625202228247 0.20058323775893461 0 -0.45683859168060581 0.20059300110400069 0 -0.45071045400930082 0.18887714611009329 0 -0.44394159357910429 0.19924043002679309 0 -0.45683859168060581 0.20059300110400069 0 -0.44394159357910429 0.19924043002679309 0 -0.45248403069348941 0.21230353615219091 0 -0.44394159357910429 0.19924043002679309 0 -0.45248403069348941 0.21230353615219091 0 -0.43906194030284562 0.21877912130218399 0 -0.44394159357910429 0.19924043002679309 0 -0.43906194030284562 0.21877912130218399 0 -0.44394159357910429 0.19924043002679309 0 -0.43848625202228247 0.20058323775893461 0 -0.43906194030284562 0.21877912130218399 0 -0.4703440239527748 0.21457826850503259 0 -0.45248403069348941 0.21230353615219091 0 -0.45263352880055341 0.22907010709638281 0 -0.4703440239527748 0.21457826850503259 0 -0.45683859168060581 0.20059300110400069 0 -0.45248403069348941 0.21230353615219091 0 -0.4703440239527748 0.21457826850503259 0 -0.46722886355654619 0.2300171375048839 0 -0.45263352880055341 0.22907010709638281 0 -0.46722886355654619 0.2300171375048839 0 -0.45263352880055341 0.22907010709638281 0 -0.46470531482263477 0.2425530545157277 0 -0.43906194030284562 0.21877912130218399 0 -0.45263352880055341 0.22907010709638281 0 -0.4341822870265869 0.23831781257757501 0 -0.45248403069348941 0.21230353615219091 0 -0.43906194030284562 0.21877912130218399 0 -0.45263352880055341 0.22907010709638281 0 -0.44907064711314898 0.24935538378234501 0 -0.4341822870265869 0.23831781257757501 0 -0.42930263375032468 0.2578565038529651 0 -0.45263352880055341 0.22907010709638281 0 -0.44907064711314898 0.24935538378234501 0 -0.4341822870265869 0.23831781257757501 0 -0.45263352880055341 0.22907010709638281 0 -0.44907064711314898 0.24935538378234501 0 -0.46470531482263477 0.2425530545157277 0 -0.41969550780862702 0.24375442173727249 0 -0.40307080517333382 0.24394062304470629 0 -0.42930263375032468 0.2578565038529651 0 -0.41098228164390371 0.2367207686681905 0 -0.41969550780862702 0.24375442173727249 0 -0.40307080517333382 0.24394062304470629 0 -0.41098228164390371 0.2367207686681905 0 -0.41969550780862702 0.24375442173727249 0 -0.41929803645034058 0.23293063294697749 0 -0.41969550780862702 0.24375442173727249 0 -0.4341822870265869 0.23831781257757501 0 -0.42930263375032468 0.2578565038529651 0 -0.4341822870265869 0.23831781257757501 0 -0.42930263375032468 0.2578565038529651 0 -0.41969550780862702 0.24375442173727249 0 -0.4341822870265869 0.23831781257757501 0 -0.41929803645034058 0.23293063294697749 0 -0.4341822870265869 0.23831781257757501 0 -0.42780126611033847 0.22457126487967349 0 -0.41929803645034058 0.23293063294697749 0 -0.43906194030284562 0.21877912130218399 0 -0.4341822870265869 0.23831781257757501 0 -0.43906194030284562 0.21877912130218399 0 -0.4341822870265869 0.23831781257757501 0 -0.42780126611033847 0.22457126487967349 0 -0.42780126611033847 0.22457126487967349 0 -0.41381664815086572 0.22249090647034159 0 -0.41835888226497198 0.21384280712759021 0 -0.41929803645034058 0.23293063294697749 0 -0.40965988874092563 0.23004709092507961 0 -0.41381664815086572 0.22249090647034159 0 -0.42780126611033847 0.22457126487967349 0 -0.41929803645034058 0.23293063294697749 0 -0.41381664815086572 0.22249090647034159 0 -0.41098228164390371 0.2367207686681905 0 -0.41929803645034058 0.23293063294697749 0 -0.40965988874092563 0.23004709092507961 0 -0.41098228164390371 0.2367207686681905 0 -0.40965988874092563 0.23004709092507961 0 -0.40318717004629151 0.23293107468691671 0 -0.40965988874092563 0.23004709092507961 0 -0.41381664815086572 0.22249090647034159 0 -0.40062062184778291 0.22264733334382819 0 -0.41381664815086572 0.22249090647034159 0 -0.40716119349083468 0.2109063095989003 0 -0.41835888226497198 0.21384280712759021 0 -0.41381664815086572 0.22249090647034159 0 -0.40716119349083468 0.2109063095989003 0 -0.40062062184778291 0.22264733334382819 0 -0.40716119349083468 0.2109063095989003 0 -0.41835888226497198 0.21384280712759021 0 -0.41645141859375301 0.20309036997113869 0 -0.40716119349083468 0.2109063095989003 0 -0.41645141859375301 0.20309036997113869 0 -0.40758641619538749 0.19881017409599941 0 -0.41835888226497198 0.21384280712759021 0 -0.42651698713406061 0.20615960964345181 0 -0.41645141859375301 0.20309036997113869 0 -0.42780126611033847 0.22457126487967349 0 -0.41835888226497198 0.21384280712759021 0 -0.42651698713406061 0.20615960964345181 0 -0.43848625202228247 0.20058323775893461 0 -0.42780126611033847 0.22457126487967349 0 -0.43848625202228247 0.20058323775893461 0 -0.43906194030284562 0.21877912130218399 0 -0.42780126611033847 0.22457126487967349 0 -0.43848625202228247 0.20058323775893461 0 -0.42780126611033847 0.22457126487967349 0 -0.42651698713406061 0.20615960964345181 0 -0.42651698713406061 0.20615960964345181 0 -0.43084665611299161 0.1992680549457474 0 -0.42577534899564268 0.1938702561955982 0 -0.42651698713406061 0.20615960964345181 0 -0.42577534899564268 0.1938702561955982 0 -0.41645141859375301 0.20309036997113869 0 -0.43848625202228247 0.20058323775893461 0 -0.42651698713406061 0.20615960964345181 0 -0.43084665611299161 0.1992680549457474 0 -0.43084665611299161 0.1992680549457474 0 -0.43319686587204009 0.19489289609235319 0 -0.42577534899564268 0.1938702561955982 0 -0.43848625202228247 0.20058323775893461 0 -0.43084665611299161 0.1992680549457474 0 -0.43319686587204009 0.19489289609235319 0 -0.437679206357244 0.18585003546913259 0 -0.43848625202228247 0.20058323775893461 0 -0.43319686587204009 0.19489289609235319 0 -0.437679206357244 0.18585003546913259 0 -0.43319686587204009 0.19489289609235319 0 -0.42577534899564268 0.1938702561955982 0 -0.42577534899564268 0.1938702561955982 0 -0.41076300567647422 0.19006445329450289 0 -0.42155817135765983 0.1793011905095829 0 -0.42577534899564268 0.1938702561955982 0 -0.41645141859375301 0.20309036997113869 0 -0.41076300567647422 0.19006445329450289 0 -0.41645141859375301 0.20309036997113869 0 -0.40758641619538749 0.19881017409599941 0 -0.41076300567647422 0.19006445329450289 0 -0.40758641619538749 0.19881017409599941 0 -0.41076300567647422 0.19006445329450289 0 -0.39724609010807638 0.19136363038149479 0 -0.40758641619538749 0.19881017409599941 0 -0.39724609010807638 0.19136363038149479 0 -0.40018944476190749 0.20445492091772269 0 -0.39189570401334289 0.2002847130957198 0 -0.39724609010807638 0.19136363038149479 0 -0.40018944476190749 0.20445492091772269 0 -0.39724609010807638 0.19136363038149479 0 -0.38189716932850992 0.19467294947844879 0 -0.38898562087408711 0.17738168162727361 0 -0.38189716932850992 0.19467294947844879 0 -0.37660802996916559 0.20951772822643011 0 -0.36674089927193348 0.20375076045597809 0 -0.39189570401334289 0.2002847130957198 0 -0.38189716932850992 0.19467294947844879 0 -0.38597197165564839 0.2072566240601674 0 -0.39189570401334289 0.2002847130957198 0 -0.39724609010807638 0.19136363038149479 0 -0.38189716932850992 0.19467294947844879 0 -0.37660802996916559 0.20951772822643011 0 -0.38466918823292701 0.21825686391841981 0 -0.36859497606693659 0.2161665961221286 0 -0.38189716932850992 0.19467294947844879 0 -0.38597197165564839 0.2072566240601674 0 -0.37660802996916559 0.20951772822643011 0 -0.38597197165564839 0.2072566240601674 0 -0.37660802996916559 0.20951772822643011 0 -0.38466918823292701 0.21825686391841981 0 -0.38597197165564839 0.2072566240601674 0 -0.38466918823292701 0.21825686391841981 0 -0.39432944003756742 0.21160375137169299 0 -0.38466918823292701 0.21825686391841981 0 -0.39432944003756742 0.21160375137169299 0 -0.40062062184778291 0.22264733334382819 0 -0.39189570401334289 0.2002847130957198 0 -0.39432944003756742 0.21160375137169299 0 -0.40018944476190749 0.20445492091772269 0 -0.39189570401334289 0.2002847130957198 0 -0.38597197165564839 0.2072566240601674 0 -0.39432944003756742 0.21160375137169299 0 -0.40716119349083468 0.2109063095989003 0 -0.40758641619538749 0.19881017409599941 0 -0.40018944476190749 0.20445492091772269 0 -0.40716119349083468 0.2109063095989003 0 -0.39432944003756742 0.21160375137169299 0 -0.40018944476190749 0.20445492091772269 0 -0.40716119349083468 0.2109063095989003 0 -0.39432944003756742 0.21160375137169299 0 -0.40062062184778291 0.22264733334382819 0 -0.38466918823292701 0.21825686391841981 0 -0.40062062184778291 0.22264733334382819 0 -0.39367735237933571 0.22956012744606361 0 -0.40062062184778291 0.22264733334382819 0 -0.40318717004629151 0.23293107468691671 0 -0.39367735237933571 0.22956012744606361 0 -0.40965988874092563 0.23004709092507961 0 -0.40062062184778291 0.22264733334382819 0 -0.40318717004629151 0.23293107468691671 0 -0.38466918823292701 0.21825686391841981 0 -0.37683897659634341 0.2300247422364467 0 -0.36859497606693659 0.2161665961221286 0 -0.38466918823292701 0.21825686391841981 0 -0.39367735237933571 0.22956012744606361 0 -0.37683897659634341 0.2300247422364467 0 -0.37683897659634341 0.2300247422364467 0 -0.38511015398572052 0.2486377952911166 0 -0.40307080517333382 0.24394062304470629 0 -0.37683897659634341 0.2300247422364467 0 -0.40307080517333382 0.24394062304470629 0 -0.37683897659634341 0.2300247422364467 0 -0.38511015398572052 0.2486377952911166 0 -0.37398612244221657 0.2434230040747235 0 -0.39367735237933571 0.22956012744606361 0 -0.37683897659634341 0.2300247422364467 0 -0.40307080517333382 0.24394062304470629 0 -0.41098228164390371 0.2367207686681905 0 -0.40318717004629151 0.23293107468691671 0 -0.40307080517333382 0.24394062304470629 0 -0.40318717004629151 0.23293107468691671 0 -0.39367735237933571 0.22956012744606361 0 -0.40307080517333382 0.24394062304470629 0 -0.42330837957596162 0.1141633905746294 0 -0.40821600484205761 0.12939796327653089 0 -0.43211404398761849 0.13147082840716981 0 -0.41873366537200779 0.144563773649967 0 -0.40821600484205761 0.12939796327653089 0 -0.39244234713480708 0.14410063593655481 0 -0.41873366537200779 0.144563773649967 0 -0.40821600484205761 0.12939796327653089 0 -0.43211404398761849 0.13147082840716981 0 -0.4450249836092085 0.1450269113633792 0 -0.41873366537200779 0.144563773649967 0 -0.43211404398761849 0.13147082840716981 0 -0.4450249836092085 0.1450269113633792 0 -0.41873366537200779 0.144563773649967 0 -0.4450249836092085 0.1450269113633792 0 -0.41873366537200779 0.144563773649967 0 -0.43428031125719191 0.16330758113924729 0 -0.43428031125719191 0.16330758113924729 0 -0.42155817135765983 0.1793011905095829 0 -0.41744012090889271 0.164166088687865 0 -0.41873366537200779 0.144563773649967 0 -0.43428031125719191 0.16330758113924729 0 -0.41744012090889271 0.164166088687865 0 -0.437679206357244 0.18585003546913259 0 -0.43428031125719191 0.16330758113924729 0 -0.42155817135765983 0.1793011905095829 0 -0.437679206357244 0.18585003546913259 0 -0.42577534899564268 0.1938702561955982 0 -0.42155817135765983 0.1793011905095829 0 -0.42155817135765983 0.1793011905095829 0 -0.41744012090889271 0.164166088687865 0 -0.40602096636463231 0.1774021822782903 0 -0.41076300567647422 0.19006445329450289 0 -0.42155817135765983 0.1793011905095829 0 -0.40602096636463231 0.1774021822782903 0 -0.41744012090889271 0.164166088687865 0 -0.40013278926260348 0.16213604916902269 0 -0.40602096636463231 0.1774021822782903 0 -0.41873366537200779 0.144563773649967 0 -0.41744012090889271 0.164166088687865 0 -0.40013278926260348 0.16213604916902269 0 -0.40013278926260348 0.16213604916902269 0 -0.38022929389110388 0.1647251370373195 0 -0.39244234713480708 0.14410063593655481 0 -0.39724609010807638 0.19136363038149479 0 -0.40602096636463231 0.1774021822782903 0 -0.38898562087408711 0.17738168162727361 0 -0.40013278926260348 0.16213604916902269 0 -0.40602096636463231 0.1774021822782903 0 -0.38898562087408711 0.17738168162727361 0 -0.41076300567647422 0.19006445329450289 0 -0.39724609010807638 0.19136363038149479 0 -0.40602096636463231 0.1774021822782903 0 -0.38898562087408711 0.17738168162727361 0 -0.38022929389110388 0.1647251370373195 0 -0.37443256976124301 0.1809414258710498 0 -0.38189716932850992 0.19467294947844879 0 -0.38898562087408711 0.17738168162727361 0 -0.37443256976124301 0.1809414258710498 0 -0.40013278926260348 0.16213604916902269 0 -0.38898562087408711 0.17738168162727361 0 -0.38022929389110388 0.1647251370373195 0 -0.39244234713480708 0.14410063593655481 0 -0.37828062067814761 0.13633913162856351 0 -0.36615102889760648 0.1436374982231427 0 -0.38022929389110388 0.1647251370373195 0 -0.39244234713480708 0.14410063593655481 0 -0.37117921582148339 0.1545265733180973 0 -0.39244234713480708 0.14410063593655481 0 -0.36615102889760648 0.1436374982231427 0 -0.37117921582148339 0.1545265733180973 0 -0.39244234713480708 0.14410063593655481 0 -0.36615102889760648 0.1436374982231427 0 -0.41873366537200779 0.144563773649967 0 -0.39244234713480708 0.14410063593655481 0 -0.41873366537200779 0.144563773649967 0 -0.40013278926260348 0.16213604916902269 0 -0.39244234713480708 0.14410063593655481 0 -0.38462448899452278 0.1235442590651198 0 -0.40821600484205761 0.12939796327653089 0 -0.39244234713480708 0.14410063593655481 0 -0.38462448899452278 0.1235442590651198 0 -0.39244234713480708 0.14410063593655481 0 -0.37828062067814761 0.13633913162856351 0 -0.38462448899452278 0.1235442590651198 0 -0.37828062067814761 0.13633913162856351 0 -0.36993273764687201 0.13040331286618101 0 -0.38462448899452278 0.1235442590651198 0 -0.36993273764687201 0.13040331286618101 0 -0.36754771439324119 0.1211315634400118 0 -0.37828062067814761 0.13633913162856351 0 -0.36919034894894959 0.13657483982328039 0 -0.36615102889760648 0.1436374982231427 0 -0.37828062067814761 0.13633913162856351 0 -0.36993273764687201 0.13040331286618101 0 -0.36919034894894959 0.13657483982328039 0 -0.36919034894894959 0.13657483982328039 0 -0.36239700857317247 0.13591941657523471 0 -0.36615102889760648 0.1436374982231427 0 -0.36993273764687201 0.13040331286618101 0 -0.36919034894894959 0.13657483982328039 0 -0.36239700857317247 0.13591941657523471 0 -0.36239700857317247 0.13591941657523471 0 -0.35965584574131171 0.1418703275545902 0 -0.36615102889760648 0.1436374982231427 0 -0.36993273764687201 0.13040331286618101 0 -0.36046544368939981 0.12768217020471401 0 -0.36754771439324119 0.1211315634400118 0 -0.36239700857317247 0.13591941657523471 0 -0.36046544368939981 0.12768217020471401 0 -0.35587786388225362 0.13317610067409771 0 -0.36993273764687201 0.13040331286618101 0 -0.36239700857317247 0.13591941657523471 0 -0.36046544368939981 0.12768217020471401 0 -0.35032517494085241 0.13812670430831739 0 -0.34723062862042331 0.12608174307771439 0 -0.33933587660318232 0.1523425547991793 0 -0.36046544368939981 0.12768217020471401 0 -0.35296047902227751 0.1279893565489667 0 -0.35587786388225362 0.13317610067409771 0 -0.36239700857317247 0.13591941657523471 0 -0.35587786388225362 0.13317610067409771 0 -0.35597769118134848 0.13745445279306881 0 -0.35296047902227751 0.1279893565489667 0 -0.35587786388225362 0.13317610067409771 0 -0.35032517494085241 0.13812670430831739 0 -0.36239700857317247 0.13591941657523471 0 -0.35597769118134848 0.13745445279306881 0 -0.35965584574131171 0.1418703275545902 0 -0.35597769118134848 0.13745445279306881 0 -0.35032517494085241 0.13812670430831739 0 -0.35417704989993798 0.14302602537001841 0 -0.35587786388225362 0.13317610067409771 0 -0.35597769118134848 0.13745445279306881 0 -0.35032517494085241 0.13812670430831739 0 -0.35296047902227751 0.1279893565489667 0 -0.35032517494085241 0.13812670430831739 0 -0.34723062862042331 0.12608174307771439 0 -0.34984102109300458 0.14799562505224989 0 -0.34849285809407332 0.1582836186363267 0 -0.33933587660318232 0.1523425547991793 0 -0.35032517494085241 0.13812670430831739 0 -0.34984102109300458 0.14799562505224989 0 -0.35417704989993798 0.14302602537001841 0 -0.35032517494085241 0.13812670430831739 0 -0.34984102109300458 0.14799562505224989 0 -0.33933587660318232 0.1523425547991793 0 -0.34984102109300458 0.14799562505224989 0 -0.35417704989993798 0.14302602537001841 0 -0.36075827478905081 0.1492171994613869 0 -0.35597769118134848 0.13745445279306881 0 -0.35417704989993798 0.14302602537001841 0 -0.35965584574131171 0.1418703275545902 0 -0.35417704989993798 0.14302602537001841 0 -0.36075827478905081 0.1492171994613869 0 -0.35965584574131171 0.1418703275545902 0 -0.34984102109300458 0.14799562505224989 0 -0.36075827478905081 0.1492171994613869 0 -0.34849285809407332 0.1582836186363267 0 -0.36075827478905081 0.1492171994613869 0 -0.36615102889760648 0.1436374982231427 0 -0.37117921582148339 0.1545265733180973 0 -0.36075827478905081 0.1492171994613869 0 -0.35965584574131171 0.1418703275545902 0 -0.36615102889760648 0.1436374982231427 0 -0.38022929389110388 0.1647251370373195 0 -0.37117921582148339 0.1545265733180973 0 -0.3563151343948488 0.17095239593208261 0 -0.36075827478905081 0.1492171994613869 0 -0.37117921582148339 0.1545265733180973 0 -0.3563151343948488 0.17095239593208261 0 -0.38022929389110388 0.1647251370373195 0 -0.37443256976124301 0.1809414258710498 0 -0.3563151343948488 0.17095239593208261 0 -0.37443256976124301 0.1809414258710498 0 -0.3563151343948488 0.17095239593208261 0 -0.36544533230235998 0.19056523765730579 0 -0.3563151343948488 0.17095239593208261 0 -0.35187199400064689 0.1926875924027783 0 -0.3563151343948488 0.17095239593208261 0 -0.36544533230235998 0.19056523765730579 0 -0.35187199400064689 0.1926875924027783 0 -0.3563151343948488 0.17095239593208261 0 -0.33812671071995021 0.18226191034130479 0 -0.35187199400064689 0.1926875924027783 0 -0.36075827478905081 0.1492171994613869 0 -0.3563151343948488 0.17095239593208261 0 -0.3563151343948488 0.17095239593208261 0 -0.34849285809407332 0.1582836186363267 0 -0.3349679204263642 0.16653724742594839 0 -0.36075827478905081 0.1492171994613869 0 -0.3563151343948488 0.17095239593208261 0 -0.34849285809407332 0.1582836186363267 0 -0.34849285809407332 0.1582836186363267 0 -0.3349679204263642 0.16653724742594839 0 -0.33933587660318232 0.1523425547991793 0 -0.3349679204263642 0.16653724742594839 0 -0.32374993966252652 0.15649072157996699 0 -0.33933587660318232 0.1523425547991793 0 -0.3563151343948488 0.17095239593208261 0 -0.3349679204263642 0.16653724742594839 0 -0.33812671071995021 0.18226191034130479 0 -0.33812671071995021 0.18226191034130479 0 -0.32249972817273731 0.17726798158410559 0 -0.32675351523723262 0.18960474299912741 0 -0.3349679204263642 0.16653724742594839 0 -0.33812671071995021 0.18226191034130479 0 -0.32249972817273731 0.17726798158410559 0 -0.32249972817273731 0.17726798158410559 0 -0.31563216375527342 0.16597501385328009 0 -0.30558790242803502 0.1733887106366773 0 -0.32249972817273731 0.17726798158410559 0 -0.31379224028362612 0.1893793440667132 0 -0.30558790242803502 0.1733887106366773 0 -0.32249972817273731 0.17726798158410559 0 -0.32675351523723262 0.18960474299912741 0 -0.31379224028362612 0.1893793440667132 0 -0.3349679204263642 0.16653724742594839 0 -0.31563216375527342 0.16597501385328009 0 -0.32374993966252652 0.15649072157996699 0 -0.3349679204263642 0.16653724742594839 0 -0.32249972817273731 0.17726798158410559 0 -0.31563216375527342 0.16597501385328009 0 -0.31563216375527342 0.16597501385328009 0 -0.32374993966252652 0.15649072157996699 0 -0.30765195842482351 0.1554988959753896 0 -0.32744129352262341 0.14079031952655199 0 -0.30765195842482351 0.1554988959753896 0 -0.32374993966252652 0.15649072157996699 0 -0.32744129352262341 0.14079031952655199 0 -0.30765195842482351 0.1554988959753896 0 -0.32744129352262341 0.14079031952655199 0 -0.30765195842482351 0.1554988959753896 0 -0.31023316775409809 0.14239473659287999 0 -0.32744129352262341 0.14079031952655199 0 -0.32929850741044842 0.13235349182835551 0 -0.31023316775409809 0.14239473659287999 0 -0.32929850741044842 0.13235349182835551 0 -0.31023316775409809 0.14239473659287999 0 -0.31667255891304391 0.13003847451082251 0 -0.32929850741044842 0.13235349182835551 0 -0.31023316775409809 0.14239473659287999 0 -0.31667255891304391 0.13003847451082251 0 -0.32929850741044842 0.13235349182835551 0 -0.32527376553556459 0.1237844215501353 0 -0.34723062862042331 0.12608174307771439 0 -0.33933587660318232 0.1523425547991793 0 -0.32929850741044842 0.13235349182835551 0 -0.34836384706679879 0.12231224706383149 0 -0.3389681165186228 0.1228068358204103 0 -0.32929850741044842 0.13235349182835551 0 -0.34836384706679879 0.12231224706383149 0 -0.34723062862042331 0.12608174307771439 0 -0.32929850741044842 0.13235349182835551 0 -0.34836384706679879 0.12231224706383149 0 -0.34723062862042331 0.12608174307771439 0 -0.32744129352262341 0.14079031952655199 0 -0.33933587660318232 0.1523425547991793 0 -0.34723062862042331 0.12608174307771439 0 -0.32744129352262341 0.14079031952655199 0 -0.34723062862042331 0.12608174307771439 0 -0.32744129352262341 0.14079031952655199 0 -0.32929850741044842 0.13235349182835551 0 -0.32929850741044842 0.13235349182835551 0 -0.33169094436477869 0.12420238024312789 0 -0.32527376553556459 0.1237844215501353 0 -0.32929850741044842 0.13235349182835551 0 -0.3389681165186228 0.1228068358204103 0 -0.33169094436477869 0.12420238024312789 0 -0.32374993966252652 0.15649072157996699 0 -0.32744129352262341 0.14079031952655199 0 -0.33933587660318232 0.1523425547991793 0 -0.34300505272109227 0.2360633792801719 0 -0.35383122004284839 0.25096525929895958 0 -0.33858125183573962 0.2577039696868697 0 -0.36153416906871921 0.23704611339983861 0 -0.34300505272109227 0.2360633792801719 0 -0.35383122004284839 0.25096525929895958 0 -0.36153416906871921 0.23704611339983861 0 -0.35383122004284839 0.25096525929895958 0 -0.37246119011808321 0.25798336537149219 0 -0.36153416906871921 0.23704611339983861 0 -0.37246119011808321 0.25798336537149219 0 -0.37398612244221657 0.2434230040747235 0 -0.36153416906871921 0.23704611339983861 0 -0.37246119011808321 0.25798336537149219 0 -0.37683897659634341 0.2300247422364467 0 -0.37398612244221657 0.2434230040747235 0 -0.36153416906871921 0.23704611339983861 0 -0.37683897659634341 0.2300247422364467 0 -0.35060714801935361 0.21610886142818581 0 -0.36859497606693659 0.2161665961221286 0 -0.37683897659634341 0.2300247422364467 0 -0.36153416906871921 0.23704611339983861 0 -0.35060714801935361 0.21610886142818581 0 -0.37683897659634341 0.2300247422364467 0 -0.35060714801935361 0.21610886142818581 0 -0.36153416906871921 0.23704611339983861 0 -0.35060714801935361 0.21610886142818581 0 -0.34300505272109227 0.2360633792801719 0 -0.34742885360644382 0.2144227888734738 0 -0.34300505272109227 0.2360633792801719 0 -0.36153416906871921 0.23704611339983861 0 -0.35060714801935361 0.21610886142818581 0 -0.35060714801935361 0.21610886142818581 0 -0.34742885360644382 0.2144227888734738 0 -0.34300505272109227 0.2360633792801719 0 -0.35060714801935361 0.21610886142818581 0 -0.35749455366648109 0.20919132565553139 0 -0.36859497606693659 0.2161665961221286 0 -0.34795474906586821 0.21185018478728551 0 -0.35187199400064689 0.1926875924027783 0 -0.33694748656426438 0.20886246531316729 0 -0.34795474906586821 0.21185018478728551 0 -0.35749455366648109 0.20919132565553139 0 -0.35187199400064689 0.1926875924027783 0 -0.34795474906586821 0.21185018478728551 0 -0.34742885360644382 0.2144227888734738 0 -0.33694748656426438 0.20886246531316729 0 -0.34795474906586821 0.21185018478728551 0 -0.35060714801935361 0.21610886142818581 0 -0.34742885360644382 0.2144227888734738 0 -0.34795474906586821 0.21185018478728551 0 -0.35060714801935361 0.21610886142818581 0 -0.34795474906586821 0.21185018478728551 0 -0.34742885360644382 0.2144227888734738 0 -0.35060714801935361 0.21610886142818581 0 -0.34742885360644382 0.2144227888734738 0 -0.34795474906586821 0.21185018478728551 0 -0.35060714801935361 0.21610886142818581 0 -0.35749455366648109 0.20919132565553139 0 -0.37660802996916559 0.20951772822643011 0 -0.36859497606693659 0.2161665961221286 0 -0.36674089927193348 0.20375076045597809 0 -0.35749455366648109 0.20919132565553139 0 -0.36859497606693659 0.2161665961221286 0 -0.36674089927193348 0.20375076045597809 0 -0.38189716932850992 0.19467294947844879 0 -0.36674089927193348 0.20375076045597809 0 -0.36544533230235998 0.19056523765730579 0 -0.38189716932850992 0.19467294947844879 0 -0.37443256976124301 0.1809414258710498 0 -0.36544533230235998 0.19056523765730579 0 -0.36674089927193348 0.20375076045597809 0 -0.36544533230235998 0.19056523765730579 0 -0.35187199400064689 0.1926875924027783 0 -0.34795474906586821 0.21185018478728551 0 -0.35187199400064689 0.1926875924027783 0 -0.35749455366648109 0.20919132565553139 0 -0.36674089927193348 0.20375076045597809 0 -0.35187199400064689 0.1926875924027783 0 -0.35187199400064689 0.1926875924027783 0 -0.33655454483065239 0.19776019523353691 0 -0.33694748656426438 0.20886246531316729 0 -0.33812671071995021 0.18226191034130479 0 -0.35187199400064689 0.1926875924027783 0 -0.33655454483065239 0.19776019523353691 0 -0.33655454483065239 0.19776019523353691 0 -0.32279435217919678 0.20135428376997669 0 -0.33694748656426438 0.20886246531316729 0 -0.33655454483065239 0.19776019523353691 0 -0.32675351523723262 0.18960474299912741 0 -0.32279435217919678 0.20135428376997669 0 -0.33812671071995021 0.18226191034130479 0 -0.33655454483065239 0.19776019523353691 0 -0.32675351523723262 0.18960474299912741 0 -0.32675351523723262 0.18960474299912741 0 -0.31379224028362612 0.1893793440667132 0 -0.32279435217919678 0.20135428376997669 0 -0.31379224028362612 0.1893793440667132 0 -0.32279435217919678 0.20135428376997669 0 -0.30813138007251262 0.20648306011370371 0 -0.32528554413828231 0.2102548566772785 0 -0.32214186647962229 0.22089887057831639 0 -0.30813138007251262 0.20648306011370371 0 -0.32279435217919678 0.20135428376997669 0 -0.32528554413828231 0.2102548566772785 0 -0.30813138007251262 0.20648306011370371 0 -0.32528554413828231 0.2102548566772785 0 -0.33694748656426438 0.20886246531316729 0 -0.32214186647962229 0.22089887057831639 0 -0.32279435217919678 0.20135428376997669 0 -0.33694748656426438 0.20886246531316729 0 -0.32279435217919678 0.20135428376997669 0 -0.32528554413828231 0.2102548566772785 0 -0.33694748656426438 0.20886246531316729 0 -0.33655454483065239 0.19776019523353691 0 -0.33694748656426438 0.20886246531316729 0 -0.34742885360644382 0.2144227888734738 0 -0.33694748656426438 0.20886246531316729 0 -0.34742885360644382 0.2144227888734738 0 -0.33781174889128213 0.2332815405944941 0 -0.34300505272109227 0.2360633792801719 0 -0.34742885360644382 0.2144227888734738 0 -0.33694748656426438 0.20886246531316729 0 -0.33781174889128213 0.2332815405944941 0 -0.33694748656426438 0.20886246531316729 0 -0.33781174889128213 0.2332815405944941 0 -0.32214186647962229 0.22089887057831639 0 -0.33694748656426438 0.20886246531316729 0 -0.33781174889128213 0.2332815405944941 0 -0.33781174889128213 0.2332815405944941 0 -0.32214186647962229 0.22089887057831639 0 -0.31985228056307641 0.2453748715902791 0 -0.32214186647962229 0.22089887057831639 0 -0.31985228056307641 0.2453748715902791 0 -0.30595943758369581 0.2287682442639461 0 -0.33781174889128213 0.2332815405944941 0 -0.33858125183573962 0.2577039696868697 0 -0.34300505272109227 0.2360633792801719 0 -0.33858125183573962 0.2577039696868697 0 -0.33781174889128213 0.2332815405944941 0 -0.31985228056307641 0.2453748715902791 0 -0.33858125183573962 0.2577039696868697 0 -0.33781174889128213 0.2332815405944941 0 -0.34300505272109227 0.2360633792801719 0 -0.33858125183573962 0.2577039696868697 0 -0.28850717374597562 0.2352174092809341 0 -0.29940859687451638 0.2465419436069875 0 -0.27882243381333138 0.25002155311163943 0 -0.31985228056307641 0.2453748715902791 0 -0.29940859687451638 0.2465419436069875 0 -0.30595943758369581 0.2287682442639461 0 -0.28850717374597562 0.2352174092809341 0 -0.29940859687451638 0.2465419436069875 0 -0.30595943758369581 0.2287682442639461 0 -0.28850717374597562 0.2352174092809341 0 -0.30595943758369581 0.2287682442639461 0 -0.28551683849911658 0.21842066288746309 0 -0.28850717374597562 0.2352174092809341 0 -0.28551683849911658 0.21842066288746309 0 -0.27282856195921779 0.23233464253463421 0 -0.28551683849911658 0.21842066288746309 0 -0.30813138007251262 0.20648306011370371 0 -0.28933507471759612 0.19574986367943351 0 -0.28551683849911658 0.21842066288746309 0 -0.28933507471759612 0.19574986367943351 0 -0.2730696425069013 0.20382919730091531 0 -0.32214186647962229 0.22089887057831639 0 -0.30595943758369581 0.2287682442639461 0 -0.30813138007251262 0.20648306011370371 0 -0.30595943758369581 0.2287682442639461 0 -0.28551683849911658 0.21842066288746309 0 -0.30813138007251262 0.20648306011370371 0 -0.30813138007251262 0.20648306011370371 0 -0.28933507471759612 0.19574986367943351 0 -0.30094184416575859 0.18704169018415101 0 -0.31379224028362612 0.1893793440667132 0 -0.30813138007251262 0.20648306011370371 0 -0.30094184416575859 0.18704169018415101 0 -0.28933507471759612 0.19574986367943351 0 -0.2730696425069013 0.20382919730091531 0 -0.26923135695884692 0.18360419760414531 0 -0.28933507471759612 0.19574986367943351 0 -0.26923135695884692 0.18360419760414531 0 -0.25488177729238148 0.20209275599548221 0 -0.2730696425069013 0.20382919730091531 0 -0.26923135695884692 0.18360419760414531 0 -0.25488177729238148 0.20209275599548221 0 -0.26923135695884692 0.18360419760414531 0 -0.24660498877890061 0.1877491309101994 0 -0.25488177729238148 0.20209275599548221 0 -0.26228521194659632 0.21781242235938611 0 -0.24404014068406429 0.21872308601562079 0 -0.25488177729238148 0.20209275599548221 0 -0.26228521194659632 0.21781242235938611 0 -0.2730696425069013 0.20382919730091531 0 -0.28551683849911658 0.21842066288746309 0 -0.26228521194659632 0.21781242235938611 0 -0.2730696425069013 0.20382919730091531 0 -0.28551683849911658 0.21842066288746309 0 -0.26228521194659632 0.21781242235938611 0 -0.27282856195921779 0.23233464253463421 0 -0.26228521194659632 0.21781242235938611 0 -0.25312730452603122 0.23956148187864251 0 -0.24404014068406429 0.21872308601562079 0 -0.26228521194659632 0.21781242235938611 0 -0.27282856195921779 0.23233464253463421 0 -0.25312730452603122 0.23956148187864251 0 -0.25312730452603122 0.23956148187864251 0 -0.27882243381333138 0.25002155311163943 0 -0.25994981113117638 0.2595370196005905 0 -0.28850717374597562 0.2352174092809341 0 -0.27282856195921779 0.23233464253463421 0 -0.27882243381333138 0.25002155311163943 0 -0.27282856195921779 0.23233464253463421 0 -0.25312730452603122 0.23956148187864251 0 -0.27882243381333138 0.25002155311163943 0 -0.29217985187798012 0.14029761532637039 0 -0.27761587694150741 0.14984093024440079 0 -0.27743083852243922 0.1356472071358007 0 -0.29116782809774788 0.1524359813574046 0 -0.29217985187798012 0.14029761532637039 0 -0.27761587694150741 0.14984093024440079 0 -0.29137975173736119 0.13038826473440959 0 -0.29217985187798012 0.14029761532637039 0 -0.27743083852243922 0.1356472071358007 0 -0.29137975173736119 0.13038826473440959 0 -0.27743083852243922 0.1356472071358007 0 -0.28159901907944951 0.1241201174486907 0 -0.29137975173736119 0.13038826473440959 0 -0.29217985187798012 0.14029761532637039 0 -0.30525164821472722 0.13107857189332661 0 -0.29217985187798012 0.14029761532637039 0 -0.30525164821472722 0.13107857189332661 0 -0.31023316775409809 0.14239473659287999 0 -0.29137975173736119 0.13038826473440959 0 -0.30525164821472722 0.13107857189332661 0 -0.29717428331860679 0.1184356904463149 0 -0.31667255891304391 0.13003847451082251 0 -0.30525164821472722 0.13107857189332661 0 -0.31330570565038113 0.1205811506894149 0 -0.31667255891304391 0.13003847451082251 0 -0.30525164821472722 0.13107857189332661 0 -0.31023316775409809 0.14239473659287999 0 -0.29116782809774788 0.1524359813574046 0 -0.30765195842482351 0.1554988959753896 0 -0.31023316775409809 0.14239473659287999 0 -0.29116782809774788 0.1524359813574046 0 -0.31023316775409809 0.14239473659287999 0 -0.29116782809774788 0.1524359813574046 0 -0.29217985187798012 0.14029761532637039 0 -0.31023316775409809 0.14239473659287999 0 -0.30765195842482351 0.1554988959753896 0 -0.28786262332702361 0.1702074724242271 0 -0.31563216375527342 0.16597501385328009 0 -0.30765195842482351 0.1554988959753896 0 -0.30558790242803502 0.1733887106366773 0 -0.30765195842482351 0.1554988959753896 0 -0.30558790242803502 0.1733887106366773 0 -0.28786262332702361 0.1702074724242271 0 -0.30558790242803502 0.1733887106366773 0 -0.30094184416575859 0.18704169018415101 0 -0.28786262332702361 0.1702074724242271 0 -0.31379224028362612 0.1893793440667132 0 -0.30558790242803502 0.1733887106366773 0 -0.30094184416575859 0.18704169018415101 0 -0.28933507471759612 0.19574986367943351 0 -0.30094184416575859 0.18704169018415101 0 -0.28786262332702361 0.1702074724242271 0 -0.28933507471759612 0.19574986367943351 0 -0.28786262332702361 0.1702074724242271 0 -0.26923135695884692 0.18360419760414531 0 -0.29116782809774788 0.1524359813574046 0 -0.28786262332702361 0.1702074724242271 0 -0.27761587694150741 0.14984093024440079 0 -0.29116782809774788 0.1524359813574046 0 -0.30765195842482351 0.1554988959753896 0 -0.28786262332702361 0.1702074724242271 0 -0.28786262332702361 0.1702074724242271 0 -0.26597628841943782 0.16323444424123509 0 -0.27761587694150741 0.14984093024440079 0 -0.28786262332702361 0.1702074724242271 0 -0.26597628841943782 0.16323444424123509 0 -0.26923135695884692 0.18360419760414531 0 -0.26923135695884692 0.18360419760414531 0 -0.2491276392000977 0.17145853152885709 0 -0.26597628841943782 0.16323444424123509 0 -0.26923135695884692 0.18360419760414531 0 -0.2491276392000977 0.17145853152885709 0 -0.26923135695884692 0.18360419760414531 0 -0.2491276392000977 0.17145853152885709 0 -0.24660498877890061 0.1877491309101994 0 -0.26597628841943782 0.16323444424123509 0 -0.24900748786687429 0.1546158918902473 0 -0.2491276392000977 0.17145853152885709 0 -0.26597628841943782 0.16323444424123509 0 -0.26389407480511018 0.14839116593603949 0 -0.24900748786687429 0.1546158918902473 0 -0.26389407480511018 0.14839116593603949 0 -0.24934602627276969 0.13996994926851331 0 -0.24900748786687429 0.1546158918902473 0 -0.26389407480511018 0.14839116593603949 0 -0.26199297413336109 0.1338215402606015 0 -0.24934602627276969 0.13996994926851331 0 -0.26597628841943782 0.16323444424123509 0 -0.26389407480511018 0.14839116593603949 0 -0.27761587694150741 0.14984093024440079 0 -0.26389407480511018 0.14839116593603949 0 -0.27761587694150741 0.14984093024440079 0 -0.27743083852243922 0.1356472071358007 0 -0.27743083852243922 0.1356472071358007 0 -0.26787441986319532 0.1209133719733219 0 -0.28159901907944951 0.1241201174486907 0 -0.26389407480511018 0.14839116593603949 0 -0.27743083852243922 0.1356472071358007 0 -0.26199297413336109 0.1338215402606015 0 -0.27743083852243922 0.1356472071358007 0 -0.26199297413336109 0.1338215402606015 0 -0.26787441986319532 0.1209133719733219 0 -0.26199297413336109 0.1338215402606015 0 -0.25028749714294168 0.1243589268005264 0 -0.26787441986319532 0.1209133719733219 0 -0.26199297413336109 0.1338215402606015 0 -0.25028749714294168 0.1243589268005264 0 -0.24934602627276969 0.13996994926851331 0 -0.25028749714294168 0.1243589268005264 0 -0.25254032146875027 0.1054194192194756 0 -0.26787441986319532 0.1209133719733219 0 -0.25254032146875027 0.1054194192194756 0 -0.27086959410575262 0.1055344840605326 0 -0.26787441986319532 0.1209133719733219 0 -0.25254032146875027 0.1054194192194756 0 -0.26720517094347412 0.091160751179452479 0 -0.2458374903262652 0.088891741327123644 0 -0.25254032146875027 0.1054194192194756 0 -0.27086959410575262 0.1055344840605326 0 -0.26720517094347412 0.091160751179452479 0 -0.27086959410575262 0.1055344840605326 0 -0.28139726864710468 0.098417874884753356 0 -0.26720517094347412 0.091160751179452479 0 -0.27086959410575262 0.1055344840605326 0 -0.28406875333280379 0.1117079766783614 0 -0.28139726864710468 0.098417874884753356 0 -0.26787441986319532 0.1209133719733219 0 -0.28159901907944951 0.1241201174486907 0 -0.28406875333280379 0.1117079766783614 0 -0.27086959410575262 0.1055344840605326 0 -0.26787441986319532 0.1209133719733219 0 -0.28406875333280379 0.1117079766783614 0 -0.28159901907944951 0.1241201174486907 0 -0.28406875333280379 0.1117079766783614 0 -0.29717428331860679 0.1184356904463149 0 -0.28406875333280379 0.1117079766783614 0 -0.29823879162097622 0.098655648674333379 0 -0.29717428331860679 0.1184356904463149 0 -0.29137975173736119 0.13038826473440959 0 -0.28159901907944951 0.1241201174486907 0 -0.29717428331860679 0.1184356904463149 0 -0.28139726864710468 0.098417874884753356 0 -0.29823879162097622 0.098655648674333379 0 -0.28660403323251687 0.085030513831086882 0 -0.28406875333280379 0.1117079766783614 0 -0.28139726864710468 0.098417874884753356 0 -0.29823879162097622 0.098655648674333379 0 -0.29823879162097622 0.098655648674333379 0 -0.31203328758565912 0.106144035971024 0 -0.29717428331860679 0.1184356904463149 0 -0.29823879162097622 0.098655648674333379 0 -0.31203328758565912 0.106144035971024 0 -0.31301185481297272 0.092046087276156513 0 -0.30525164821472722 0.13107857189332661 0 -0.29717428331860679 0.1184356904463149 0 -0.31330570565038113 0.1205811506894149 0 -0.31203328758565912 0.106144035971024 0 -0.29717428331860679 0.1184356904463149 0 -0.31330570565038113 0.1205811506894149 0 -0.29774619601280972 0.06891408354737949 0 -0.31278723529617308 0.077192570776964897 0 -0.31520394068569318 0.063992949530856824 0 -0.29774619601280972 0.06891408354737949 0 -0.3016776221950897 0.084367780821184235 0 -0.31278723529617308 0.077192570776964897 0 -0.3016776221950897 0.084367780821184235 0 -0.31301185481297272 0.092046087276156513 0 -0.31278723529617308 0.077192570776964897 0 -0.29823879162097622 0.098655648674333379 0 -0.3016776221950897 0.084367780821184235 0 -0.31301185481297272 0.092046087276156513 0 -0.29774619601280972 0.06891408354737949 0 -0.3016776221950897 0.084367780821184235 0 -0.28660403323251687 0.085030513831086882 0 -0.29823879162097622 0.098655648674333379 0 -0.3016776221950897 0.084367780821184235 0 -0.28660403323251687 0.085030513831086882 0 -0.29774619601280972 0.06891408354737949 0 -0.27414277851172431 0.07355809707195532 0 -0.28304874244916128 0.055240477689415243 0 -0.29774619601280972 0.06891408354737949 0 -0.28660403323251687 0.085030513831086882 0 -0.27414277851172431 0.07355809707195532 0 -0.27414277851172431 0.07355809707195532 0 -0.25540908252446171 0.064273543041139872 0 -0.28304874244916128 0.055240477689415243 0 -0.28139726864710468 0.098417874884753356 0 -0.28660403323251687 0.085030513831086882 0 -0.26720517094347412 0.091160751179452479 0 -0.27414277851172431 0.07355809707195532 0 -0.26720517094347412 0.091160751179452479 0 -0.26064863057648141 0.079471033154917825 0 -0.28660403323251687 0.085030513831086882 0 -0.27414277851172431 0.07355809707195532 0 -0.26720517094347412 0.091160751179452479 0 -0.26720517094347412 0.091160751179452479 0 -0.26064863057648141 0.079471033154917825 0 -0.2458374903262652 0.088891741327123644 0 -0.26064863057648141 0.079471033154917825 0 -0.25540908252446171 0.064273543041139872 0 -0.2458374903262652 0.088891741327123644 0 -0.27414277851172431 0.07355809707195532 0 -0.26064863057648141 0.079471033154917825 0 -0.25540908252446171 0.064273543041139872 0 -0.25540908252446171 0.064273543041139872 0 -0.26335106303830452 0.037867119708076123 0 -0.24710102477213031 0.053023165401856677 0 -0.26335106303830452 0.037867119708076123 0 -0.25441423010715641 0.032627046912229347 0 -0.27102322458644418 0.025522700680318991 0 -0.26335106303830452 0.037867119708076123 0 -0.25441423010715641 0.032627046912229347 0 -0.2420305313811334 0.041272291951533147 0 -0.26335106303830452 0.037867119708076123 0 -0.2391003461968062 0.043410611180948799 0 -0.26335106303830452 0.037867119708076123 0 -0.27102322458644418 0.025522700680318991 0 -0.28760177987980318 0.032323628235204641 0 -0.26335106303830452 0.037867119708076123 0 -0.28760177987980318 0.032323628235204641 0 -0.26335106303830452 0.037867119708076123 0 -0.28304874244916128 0.055240477689415243 0 -0.28760177987980318 0.032323628235204641 0 -0.25540908252446171 0.064273543041139872 0 -0.28304874244916128 0.055240477689415243 0 -0.25540908252446171 0.064273543041139872 0 -0.26335106303830452 0.037867119708076123 0 -0.28304874244916128 0.055240477689415243 0 -0.26315266308041457 0.003425653724989099 0 -0.25834616125000143 0.017114860100641009 0 -0.27463960113843172 0.01065404442656546 0 -0.25382201275908262 -0.003718397405113353 0 -0.26315266308041457 0.003425653724989099 0 -0.2511806455824796 0.0060036871011076654 0 -0.26315266308041457 0.003425653724989099 0 -0.2511806455824796 0.0060036871011076654 0 -0.25834616125000143 0.017114860100641009 0 -0.2511806455824796 0.0060036871011076654 0 -0.25834616125000143 0.017114860100641009 0 -0.2447355238744853 0.01451694924518121 0 -0.25441423010715641 0.032627046912229347 0 -0.25834616125000143 0.017114860100641009 0 -0.27102322458644418 0.025522700680318991 0 -0.25834616125000143 0.017114860100641009 0 -0.2478918613503 0.024578192860588641 0 -0.2447355238744853 0.01451694924518121 0 -0.25441423010715641 0.032627046912229347 0 -0.25834616125000143 0.017114860100641009 0 -0.2478918613503 0.024578192860588641 0 -0.27102322458644418 0.025522700680318991 0 -0.27463960113843172 0.01065404442656546 0 -0.28729614131331682 0.01545021496029367 0 -0.25834616125000143 0.017114860100641009 0 -0.27102322458644418 0.025522700680318991 0 -0.27463960113843172 0.01065404442656546 0 -0.27590268998574019 -0.0027832089829183701 0 -0.27463960113843172 0.01065404442656546 0 -0.28621886465719759 0.001186204879363336 0 -0.27590268998574019 -0.0027832089829183701 0 -0.26315266308041457 0.003425653724989099 0 -0.27463960113843172 0.01065404442656546 0 -0.28621886465719759 0.001186204879363336 0 -0.28729614131331682 0.01545021496029367 0 -0.30287073765804928 0.0033491012984734102 0 -0.27463960113843172 0.01065404442656546 0 -0.28621886465719759 0.001186204879363336 0 -0.28729614131331682 0.01545021496029367 0 -0.28729614131331682 0.01545021496029367 0 -0.29877514592152621 0.018256137132315262 0 -0.30287073765804928 0.0033491012984734102 0 -0.27102322458644418 0.025522700680318991 0 -0.28729614131331682 0.01545021496029367 0 -0.28760177987980318 0.032323628235204641 0 -0.28729614131331682 0.01545021496029367 0 -0.29877514592152621 0.018256137132315262 0 -0.28760177987980318 0.032323628235204641 0 -0.311852496721302 0.026780136762333141 0 -0.30637764764835979 0.026251483279460291 0 -0.28760177987980318 0.032323628235204641 0 -0.30637764764835979 0.026251483279460291 0 -0.29877514592152621 0.018256137132315262 0 -0.28760177987980318 0.032323628235204641 0 -0.311852496721302 0.026780136762333141 0 -0.28760177987980318 0.032323628235204641 0 -0.30637764764835979 0.026251483279460291 0 -0.3097294231081017 0.01390625788814428 0 -0.32020676176797208 0.01872049636018952 0 -0.30637764764835979 0.026251483279460291 0 -0.29877514592152621 0.018256137132315262 0 -0.3097294231081017 0.01390625788814428 0 -0.29877514592152621 0.018256137132315262 0 -0.3097294231081017 0.01390625788814428 0 -0.30287073765804928 0.0033491012984734102 0 -0.3097294231081017 0.01390625788814428 0 -0.30287073765804928 0.0033491012984734102 0 -0.3174427573646198 0.0055651620128599998 0 -0.28304874244916128 0.055240477689415243 0 -0.31068840237386108 0.046207412337690559 0 -0.28304874244916128 0.055240477689415243 0 -0.28760177987980318 0.032323628235204641 0 -0.30117572059363612 0.035888892158312202 0 -0.28304874244916128 0.055240477689415243 0 -0.30117572059363612 0.035888892158312202 0 -0.31068840237386108 0.046207412337690559 0 -0.311852496721302 0.026780136762333141 0 -0.30117572059363612 0.035888892158312202 0 -0.31820308580363321 0.034140545710517313 0 -0.311852496721302 0.026780136762333141 0 -0.28760177987980318 0.032323628235204641 0 -0.30117572059363612 0.035888892158312202 0 -0.30117572059363612 0.035888892158312202 0 -0.31068840237386108 0.046207412337690559 0 -0.31820308580363321 0.034140545710517313 0 -0.29774619601280972 0.06891408354737949 0 -0.31068840237386108 0.046207412337690559 0 -0.31520394068569318 0.063992949530856824 0 -0.29774619601280972 0.06891408354737949 0 -0.28304874244916128 0.055240477689415243 0 -0.31068840237386108 0.046207412337690559 0 -0.31068840237386108 0.046207412337690559 0 -0.32986111775940691 0.054632458335287869 0 -0.31520394068569318 0.063992949530856824 0 -0.31068840237386108 0.046207412337690559 0 -0.33832806229856072 0.03717434698596591 0 -0.31068840237386108 0.046207412337690559 0 -0.33832806229856072 0.03717434698596591 0 -0.32986111775940691 0.054632458335287869 0 -0.31068840237386108 0.046207412337690559 0 -0.31820308580363321 0.034140545710517313 0 -0.33832806229856072 0.03717434698596591 0 -0.31820308580363321 0.034140545710517313 0 -0.33832806229856072 0.03717434698596591 0 -0.32758953801275209 0.029792031518345079 0 -0.33832806229856072 0.03717434698596591 0 -0.33997851162709569 0.02573802685963204 0 -0.34926177421199522 0.054333575543771682 0 -0.33832806229856072 0.03717434698596591 0 -0.33967845117147472 0.051218656250134463 0 -0.34926177421199522 0.054333575543771682 0 -0.33832806229856072 0.03717434698596591 0 -0.33967845117147472 0.051218656250134463 0 -0.32986111775940691 0.054632458335287869 0 -0.33967845117147472 0.051218656250134463 0 -0.34126285041593613 0.058734244135512363 0 -0.34926177421199522 0.054333575543771682 0 -0.33967845117147472 0.051218656250134463 0 -0.34126285041593613 0.058734244135512363 0 -0.32986111775940691 0.054632458335287869 0 -0.34126285041593613 0.058734244135512363 0 -0.32986111775940691 0.054632458335287869 0 -0.33614850868696999 0.06629679493724952 0 -0.31962412081410702 -0.012655325305103391 0 -0.3174427573646198 0.0055651620128599998 0 -0.33507225648464423 0.010625122694787451 0 -0.3174427573646198 0.0055651620128599998 0 -0.32020676176797208 0.01872049636018952 0 -0.33507225648464423 0.010625122694787451 0 -0.3097294231081017 0.01390625788814428 0 -0.3174427573646198 0.0055651620128599998 0 -0.32020676176797208 0.01872049636018952 0 -0.32020676176797208 0.01872049636018952 0 -0.33507225648464423 0.010625122694787451 0 -0.311852496721302 0.026780136762333141 0 -0.32020676176797208 0.01872049636018952 0 -0.33610321356280071 0.021236645289461651 0 -0.311852496721302 0.026780136762333141 0 -0.33610321356280071 0.021236645289461651 0 -0.311852496721302 0.026780136762333141 0 -0.32343708352512202 0.027987339820164291 0 -0.33610321356280071 0.021236645289461651 0 -0.30637764764835979 0.026251483279460291 0 -0.32020676176797208 0.01872049636018952 0 -0.311852496721302 0.026780136762333141 0 -0.30637764764835979 0.026251483279460291 0 -0.32020676176797208 0.01872049636018952 0 -0.311852496721302 0.026780136762333141 0 -0.31820308580363321 0.034140545710517313 0 -0.32343708352512202 0.027987339820164291 0 -0.31820308580363321 0.034140545710517313 0 -0.32343708352512202 0.027987339820164291 0 -0.32758953801275209 0.029792031518345079 0 -0.32020676176797208 0.01872049636018952 0 -0.33610321356280071 0.021236645289461651 0 -0.33667074950368131 0.01554901497179401 0 -0.32758953801275209 0.029792031518345079 0 -0.33997851162709569 0.02573802685963204 0 -0.33610321356280071 0.021236645289461651 0 -0.32758953801275209 0.029792031518345079 0 -0.33997851162709569 0.02573802685963204 0 -0.32343708352512202 0.027987339820164291 0 -0.32758953801275209 0.029792031518345079 0 -0.33610321356280071 0.021236645289461651 0 -0.33832806229856072 0.03717434698596591 0 -0.32758953801275209 0.029792031518345079 0 -0.33997851162709569 0.02573802685963204 0 -0.34235829884652252 0.02495929661331342 0 -0.33997851162709569 0.02573802685963204 0 -0.34235829884652252 0.02495929661331342 0 -0.34177538441681449 0.016688782135961752 0 -0.33667074950368131 0.01554901497179401 0 -0.33997851162709569 0.02573802685963204 0 -0.33610321356280071 0.021236645289461651 0 -0.33667074950368131 0.01554901497179401 0 -0.34235829884652252 0.02495929661331342 0 -0.33997851162709569 0.02573802685963204 0 -0.33667074950368131 0.01554901497179401 0 -0.33997851162709569 0.02573802685963204 0 -0.33667074950368131 0.01554901497179401 0 -0.34235829884652252 0.02495929661331342 0 -0.33667074950368131 0.01554901497179401 0 -0.3408318510851775 -7.0430601114411463e-05 0 -0.33325741463115371 -0.0095675724170476255 0 -0.33507225648464423 0.010625122694787451 0 -0.3408318510851775 -7.0430601114411463e-05 0 -0.33507225648464423 0.010625122694787451 0 -0.35294124532442639 0.00089412184765842381 0 -0.32020676176797208 0.01872049636018952 0 -0.33507225648464423 0.010625122694787451 0 -0.33667074950368131 0.01554901497179401 0 -0.33507225648464423 0.010625122694787451 0 -0.33667074950368131 0.01554901497179401 0 -0.34177538441681449 0.016688782135961752 0 -0.33507225648464423 0.010625122694787451 0 -0.33667074950368131 0.01554901497179401 0 -0.34177538441681449 0.016688782135961752 0 -0.33507225648464423 0.010625122694787451 0 -0.34995835123122498 0.01394193433387224 0 -0.35294124532442639 0.00089412184765842381 0 -0.34995835123122498 0.01394193433387224 0 -0.36603090900088292 0.017212983251362831 0 -0.33507225648464423 0.010625122694787451 0 -0.35294124532442639 0.00089412184765842381 0 -0.33507225648464423 0.010625122694787451 0 -0.35294124532442639 0.00089412184765842381 0 -0.34995835123122498 0.01394193433387224 0 -0.34235829884652252 0.02495929661331342 0 -0.36603090900088292 0.017212983251362831 0 -0.34235829884652252 0.02495929661331342 0 -0.34995835123122498 0.01394193433387224 0 -0.36603090900088292 0.017212983251362831 0 -0.34235829884652252 0.02495929661331342 0 -0.35785664447979643 0.030765790901498322 0 -0.36603090900088292 0.017212983251362831 0 -0.34235829884652252 0.02495929661331342 0 -0.34177538441681449 0.016688782135961752 0 -0.34995835123122498 0.01394193433387224 0 -0.35785664447979643 0.030765790901498322 0 -0.36603090900088292 0.017212983251362831 0 -0.37123054926455767 0.033165699933513537 0 -0.38315027572754151 0.024464894591042501 0 -0.36603090900088292 0.017212983251362831 0 -0.37123054926455767 0.033165699933513537 0 -0.37081023416420861 -0.0088368789994708111 0 -0.35294124532442639 0.00089412184765842381 0 -0.36603090900088292 0.017212983251362831 0 -0.35426776080571498 0.058159055310327112 0 -0.35436702880722198 0.044828228604085057 0 -0.36053172506689402 0.061716081049213251 0 -0.35426776080571498 0.058159055310327112 0 -0.34926177421199522 0.054333575543771682 0 -0.35436702880722198 0.044828228604085057 0 -0.35426776080571498 0.058159055310327112 0 -0.36053172506689402 0.061716081049213251 0 -0.35596585394277552 0.064061692377475193 0 -0.35426776080571498 0.058159055310327112 0 -0.35596585394277552 0.064061692377475193 0 -0.34902029058367001 0.063547848605504345 0 -0.34126285041593613 0.058734244135512363 0 -0.34926177421199522 0.054333575543771682 0 -0.34902029058367001 0.063547848605504345 0 -0.35426776080571498 0.058159055310327112 0 -0.34926177421199522 0.054333575543771682 0 -0.34902029058367001 0.063547848605504345 0 -0.34235829884652252 0.02495929661331342 0 -0.35785664447979643 0.030765790901498322 0 -0.35436702880722198 0.044828228604085057 0 -0.33997851162709569 0.02573802685963204 0 -0.34926177421199522 0.054333575543771682 0 -0.35436702880722198 0.044828228604085057 0 -0.33997851162709569 0.02573802685963204 0 -0.34926177421199522 0.054333575543771682 0 -0.34235829884652252 0.02495929661331342 0 -0.33997851162709569 0.02573802685963204 0 -0.35436702880722198 0.044828228604085057 0 -0.34235829884652252 0.02495929661331342 0 -0.35436702880722198 0.044828228604085057 0 -0.35785664447979643 0.030765790901498322 0 -0.35436702880722198 0.044828228604085057 0 -0.36491428301325268 0.041670916044381022 0 -0.35436702880722198 0.044828228604085057 0 -0.36491428301325268 0.041670916044381022 0 -0.36228145942327378 0.050488705685620423 0 -0.35785664447979643 0.030765790901498322 0 -0.36491428301325268 0.041670916044381022 0 -0.37123054926455767 0.033165699933513537 0 -0.36491428301325268 0.041670916044381022 0 -0.37123054926455767 0.033165699933513537 0 -0.37456796677091958 0.042380625345535258 0 -0.36491428301325268 0.041670916044381022 0 -0.37456796677091958 0.042380625345535258 0 -0.36975683342996851 0.04909015969521225 0 -0.35436702880722198 0.044828228604085057 0 -0.36053172506689402 0.061716081049213251 0 -0.366375758767921 0.064697160594856862 0 -0.35436702880722198 0.044828228604085057 0 -0.36228145942327378 0.050488705685620423 0 -0.366375758767921 0.064697160594856862 0 -0.37543853759690121 0.058490770255522961 0 -0.36975683342996851 0.04909015969521225 0 -0.36879332297775869 0.055892326167752249 0 -0.35436702880722198 0.044828228604085057 0 -0.366375758767921 0.064697160594856862 0 -0.36491428301325268 0.041670916044381022 0 -0.36975683342996851 0.04909015969521225 0 -0.36228145942327378 0.050488705685620423 0 -0.36975683342996851 0.04909015969521225 0 -0.36228145942327378 0.050488705685620423 0 -0.36879332297775869 0.055892326167752249 0 -0.36228145942327378 0.050488705685620423 0 -0.36679147644848359 0.057939578280483572 0 -0.366375758767921 0.064697160594856862 0 -0.36228145942327378 0.050488705685620423 0 -0.36679147644848359 0.057939578280483572 0 -0.36879332297775869 0.055892326167752249 0 -0.36679147644848359 0.057939578280483572 0 -0.37073063459641542 0.061336214381067303 0 -0.366375758767921 0.064697160594856862 0 -0.36679147644848359 0.057939578280483572 0 -0.37073063459641542 0.061336214381067303 0 -0.36879332297775869 0.055892326167752249 0 -0.37543853759690121 0.058490770255522961 0 -0.37073063459641542 0.061336214381067303 0 -0.36879332297775869 0.055892326167752249 0 -0.37838448872862013 0.084566092585628805 0 -0.366375758767921 0.064697160594856862 0 -0.36513871671958692 0.066512939797190584 0 -0.37829157655764362 0.069604560356439527 0 -0.37073063459641542 0.061336214381067303 0 -0.366375758767921 0.064697160594856862 0 -0.37543853759690121 0.058490770255522961 0 -0.37829157655764362 0.069604560356439527 0 -0.37073063459641542 0.061336214381067303 0 -0.37838448872862013 0.084566092585628805 0 -0.366375758767921 0.064697160594856862 0 -0.37838448872862013 0.084566092585628805 0 -0.37829157655764362 0.069604560356439527 0 -0.366375758767921 0.064697160594856862 0 -0.36513871671958692 0.066512939797190584 0 -0.36003054267878731 0.065487855804099757 0 -0.35533665894890648 0.07026086827429566 0 -0.36053172506689402 0.061716081049213251 0 -0.366375758767921 0.064697160594856862 0 -0.36317975871577352 0.064887697522324067 0 -0.366375758767921 0.064697160594856862 0 -0.36513871671958692 0.066512939797190584 0 -0.36317975871577352 0.064887697522324067 0 -0.36513871671958692 0.066512939797190584 0 -0.36003054267878731 0.065487855804099757 0 -0.36317975871577352 0.064887697522324067 0 -0.36053172506689402 0.061716081049213251 0 -0.36003054267878731 0.065487855804099757 0 -0.36317975871577352 0.064887697522324067 0 -0.36053172506689402 0.061716081049213251 0 -0.36003054267878731 0.065487855804099757 0 -0.35596585394277552 0.064061692377475193 0 -0.35596585394277552 0.064061692377475193 0 -0.35533665894890648 0.07026086827429566 0 -0.34902029058367001 0.063547848605504345 0 -0.36003054267878731 0.065487855804099757 0 -0.35596585394277552 0.064061692377475193 0 -0.35533665894890648 0.07026086827429566 0 -0.35533665894890648 0.07026086827429566 0 -0.34608595707683348 0.074802172625441921 0 -0.35395902192240969 0.078720178467595325 0 -0.36513871671958692 0.066512939797190584 0 -0.35533665894890648 0.07026086827429566 0 -0.35395902192240969 0.078720178467595325 0 -0.34608595707683348 0.074802172625441921 0 -0.34902029058367001 0.063547848605504345 0 -0.33614850868696999 0.06629679493724952 0 -0.35533665894890648 0.07026086827429566 0 -0.34608595707683348 0.074802172625441921 0 -0.34902029058367001 0.063547848605504345 0 -0.36513871671958692 0.066512939797190584 0 -0.35395902192240969 0.078720178467595325 0 -0.35675128189319327 0.094412593430511199 0 -0.3464824949735284 0.087612318210537277 0 -0.35395902192240969 0.078720178467595325 0 -0.35675128189319327 0.094412593430511199 0 -0.34608595707683348 0.074802172625441921 0 -0.3464824949735284 0.087612318210537277 0 -0.35395902192240969 0.078720178467595325 0 -0.36513871671958692 0.066512939797190584 0 -0.35675128189319327 0.094412593430511199 0 -0.37838448872862013 0.084566092585628805 0 -0.36513871671958692 0.066512939797190584 0 -0.35675128189319327 0.094412593430511199 0 -0.37838448872862013 0.084566092585628805 0 -0.37014556191254228 0.11084035439894779 0 -0.35675128189319327 0.094412593430511199 0 -0.38462448899452278 0.1235442590651198 0 -0.36754771439324119 0.1211315634400118 0 -0.37014556191254228 0.11084035439894779 0 -0.36754771439324119 0.1211315634400118 0 -0.37014556191254228 0.11084035439894779 0 -0.35693777449831021 0.1188668317863901 0 -0.36046544368939981 0.12768217020471401 0 -0.36754771439324119 0.1211315634400118 0 -0.35693777449831021 0.1188668317863901 0 -0.37014556191254228 0.11084035439894779 0 -0.34836384706679879 0.12231224706383149 0 -0.37014556191254228 0.11084035439894779 0 -0.35693777449831021 0.1188668317863901 0 -0.34836384706679879 0.12231224706383149 0 -0.34836384706679879 0.12231224706383149 0 -0.3454034182464189 0.1062116790207298 0 -0.34056986047202492 0.11547123352013031 0 -0.35296047902227751 0.1279893565489667 0 -0.34723062862042331 0.12608174307771439 0 -0.35693777449831021 0.1188668317863901 0 -0.36046544368939981 0.12768217020471401 0 -0.35296047902227751 0.1279893565489667 0 -0.35693777449831021 0.1188668317863901 0 -0.34723062862042331 0.12608174307771439 0 -0.35693777449831021 0.1188668317863901 0 -0.34723062862042331 0.12608174307771439 0 -0.35693777449831021 0.1188668317863901 0 -0.34836384706679879 0.12231224706383149 0 -0.34723062862042331 0.12608174307771439 0 -0.34836384706679879 0.12231224706383149 0 -0.37014556191254228 0.11084035439894779 0 -0.34836384706679879 0.12231224706383149 0 -0.35675128189319327 0.094412593430511199 0 -0.34836384706679879 0.12231224706383149 0 -0.35675128189319327 0.094412593430511199 0 -0.3454034182464189 0.1062116790207298 0 -0.3464824949735284 0.087612318210537277 0 -0.35675128189319327 0.094412593430511199 0 -0.3454034182464189 0.1062116790207298 0 -0.34836384706679879 0.12231224706383149 0 -0.35675128189319327 0.094412593430511199 0 -0.3464824949735284 0.087612318210537277 0 -0.3454034182464189 0.1062116790207298 0 -0.33614363070965553 0.094270589170389885 0 -0.3454034182464189 0.1062116790207298 0 -0.33614363070965553 0.094270589170389885 0 -0.33438767982128581 0.1076984498769106 0 -0.33614363070965553 0.094270589170389885 0 -0.33438767982128581 0.1076984498769106 0 -0.32548442566775371 0.098916941109140871 0 -0.34836384706679879 0.12231224706383149 0 -0.3389681165186228 0.1228068358204103 0 -0.34056986047202492 0.11547123352013031 0 -0.3389681165186228 0.1228068358204103 0 -0.34056986047202492 0.11547123352013031 0 -0.33322338799447909 0.1178647717736105 0 -0.33438767982128581 0.1076984498769106 0 -0.34056986047202492 0.11547123352013031 0 -0.33322338799447909 0.1178647717736105 0 -0.3454034182464189 0.1062116790207298 0 -0.33438767982128581 0.1076984498769106 0 -0.34056986047202492 0.11547123352013031 0 -0.33438767982128581 0.1076984498769106 0 -0.33322338799447909 0.1178647717736105 0 -0.32395137537585378 0.11249829516170599 0 -0.33322338799447909 0.1178647717736105 0 -0.33169094436477869 0.12420238024312789 0 -0.32527376553556459 0.1237844215501353 0 -0.3389681165186228 0.1228068358204103 0 -0.33322338799447909 0.1178647717736105 0 -0.33169094436477869 0.12420238024312789 0 -0.32527376553556459 0.1237844215501353 0 -0.32395137537585378 0.11249829516170599 0 -0.31330570565038113 0.1205811506894149 0 -0.33322338799447909 0.1178647717736105 0 -0.32527376553556459 0.1237844215501353 0 -0.32395137537585378 0.11249829516170599 0 -0.31203328758565912 0.106144035971024 0 -0.32395137537585378 0.11249829516170599 0 -0.31330570565038113 0.1205811506894149 0 -0.31667255891304391 0.13003847451082251 0 -0.32527376553556459 0.1237844215501353 0 -0.31330570565038113 0.1205811506894149 0 -0.31203328758565912 0.106144035971024 0 -0.32395137537585378 0.11249829516170599 0 -0.32548442566775371 0.098916941109140871 0 -0.33438767982128581 0.1076984498769106 0 -0.32395137537585378 0.11249829516170599 0 -0.32548442566775371 0.098916941109140871 0 -0.31203328758565912 0.106144035971024 0 -0.32548442566775371 0.098916941109140871 0 -0.31301185481297272 0.092046087276156513 0 -0.32548442566775371 0.098916941109140871 0 -0.31301185481297272 0.092046087276156513 0 -0.32526723513915062 0.086160526433080656 0 -0.32526723513915062 0.086160526433080656 0 -0.31278723529617308 0.077192570776964897 0 -0.32509388383093279 0.073440655547823364 0 -0.31301185481297272 0.092046087276156513 0 -0.32526723513915062 0.086160526433080656 0 -0.31278723529617308 0.077192570776964897 0 -0.32986111775940691 0.054632458335287869 0 -0.31520394068569318 0.063992949530856824 0 -0.32509388383093279 0.073440655547823364 0 -0.31278723529617308 0.077192570776964897 0 -0.31520394068569318 0.063992949530856824 0 -0.32509388383093279 0.073440655547823364 0 -0.32509388383093279 0.073440655547823364 0 -0.33614850868696999 0.06629679493724952 0 -0.33581314663884199 0.079759001019186565 0 -0.32986111775940691 0.054632458335287869 0 -0.32509388383093279 0.073440655547823364 0 -0.33614850868696999 0.06629679493724952 0 -0.34126285041593613 0.058734244135512363 0 -0.34902029058367001 0.063547848605504345 0 -0.33614850868696999 0.06629679493724952 0 -0.34608595707683348 0.074802172625441921 0 -0.33614850868696999 0.06629679493724952 0 -0.33581314663884199 0.079759001019186565 0 -0.34608595707683348 0.074802172625441921 0 -0.3464824949735284 0.087612318210537277 0 -0.33581314663884199 0.079759001019186565 0 -0.3464824949735284 0.087612318210537277 0 -0.33614363070965553 0.094270589170389885 0 -0.33581314663884199 0.079759001019186565 0 -0.33614363070965553 0.094270589170389885 0 -0.32548442566775371 0.098916941109140871 0 -0.32526723513915062 0.086160526433080656 0 -0.33614363070965553 0.094270589170389885 0 -0.32526723513915062 0.086160526433080656 0 -0.33581314663884199 0.079759001019186565 0 -0.32526723513915062 0.086160526433080656 0 -0.32509388383093279 0.073440655547823364 0 -0.33581314663884199 0.079759001019186565 0 -0.40133868197378092 0.48372276461075059 0 -0.38729979959020522 0.48183441544560601 0 -0.4099295765828932 0.47033435245205307 0 -0.38729979959020522 0.48183441544560601 0 -0.4099295765828932 0.47033435245205307 0 -0.40133868197378092 0.48372276461075059 0 -0.4099295765828932 0.47033435245205307 0 -0.40133868197378092 0.48372276461075059 0 -0.39274778736466898 0.49999999999999972 0 -0.41915355404196958 0.48570351953077201 0 -0.40133868197378092 0.48372276461075059 0 -0.39274778736466898 0.49999999999999972 0 -0.40133868197378092 0.48372276461075059 0 -0.39274778736466898 0.49999999999999972 0 -0.3970921738396333 0.48824980058914119 0 -0.39274778736466898 0.49999999999999972 0 -0.3970921738396333 0.48824980058914119 0 -0.38664161970889488 0.489528150131749 0 -0.3970921738396333 0.48824980058914119 0 -0.38729979959020522 0.48183441544560601 0 -0.40133868197378092 0.48372276461075059 0 -0.3970921738396333 0.48824980058914119 0 -0.38729979959020522 0.48183441544560601 0 -0.38729979959020522 0.48183441544560601 0 -0.36942671804107302 0.49091720772280167 0 -0.3970921738396333 0.48824980058914119 0 -0.38664161970889488 0.489528150131749 0 -0.38729979959020522 0.48183441544560601 0 -0.38664161970889488 0.489528150131749 0 -0.38729979959020522 0.48183441544560601 0 -0.36942671804107302 0.49091720772280167 0 -0.39274778736466898 0.49999999999999972 0 -0.38664161970889488 0.489528150131749 0 -0.36942671804107302 0.49091720772280167 0 -0.38729979959020522 0.48183441544560601 0 -0.36404571291049348 0.46659971154116853 0 -0.38729979959020522 0.48183441544560601 0 -0.382210906452504 0.45369090763042769 0 -0.36404571291049348 0.46659971154116853 0 -0.382210906452504 0.45369090763042769 0 -0.4099295765828932 0.47033435245205307 0 -0.39867990954880339 0.43577155083277708 0 -0.382210906452504 0.45369090763042769 0 -0.39867990954880339 0.43577155083277708 0 -0.3733140392639081 0.42320803518277439 0 -0.38729979959020522 0.48183441544560601 0 -0.382210906452504 0.45369090763042769 0 -0.4099295765828932 0.47033435245205307 0 -0.42404577983369912 0.44833506648277871 0 -0.4099295765828932 0.47033435245205307 0 -0.39867990954880339 0.43577155083277708 0 -0.42404577983369912 0.44833506648277871 0 -0.4099295765828932 0.47033435245205307 0 -0.42404577983369912 0.44833506648277871 0 -0.42258767545481091 0.46256393299446719 0 -0.41217655722022789 0.46919247558411192 0 -0.42404577983369912 0.44833506648277871 0 -0.4099295765828932 0.47033435245205307 0 -0.41217655722022789 0.46919247558411192 0 -0.42258767545481091 0.46256393299446719 0 -0.41933140621899928 0.47366135396445841 0 -0.41217655722022789 0.46919247558411192 0 -0.42404577983369912 0.44833506648277871 0 -0.39867990954880339 0.43577155083277708 0 -0.42404577983369912 0.44833506648277871 0 -0.41884947427126462 0.43483926998467481 0 -0.39867990954880339 0.43577155083277708 0 -0.42404577983369912 0.44833506648277871 0 -0.43930302088475232 0.44227589293596908 0 -0.43484847050348691 0.43149969814329991 0 -0.42404577983369912 0.44833506648277871 0 -0.43484847050348691 0.43149969814329991 0 -0.42404577983369912 0.44833506648277871 0 -0.43484847050348691 0.43149969814329991 0 -0.41884947427126462 0.43483926998467481 0 -0.42404577983369912 0.44833506648277871 0 -0.43200273636243419 0.47054425804191541 0 -0.44936385322246619 0.46087490870680597 0 -0.42404577983369912 0.44833506648277871 0 -0.44936385322246619 0.46087490870680597 0 -0.42404577983369912 0.44833506648277871 0 -0.42258767545481091 0.46256393299446719 0 -0.43200273636243419 0.47054425804191541 0 -0.39274778736466898 0.49999999999999972 0 -0.41915355404196958 0.48570351953077201 0 -0.43360911702960753 0.5 0 -0.43200273636243419 0.47054425804191541 0 -0.41933140621899928 0.47366135396445841 0 -0.41915355404196958 0.48570351953077201 0 -0.42258767545481091 0.46256393299446719 0 -0.43200273636243419 0.47054425804191541 0 -0.41933140621899928 0.47366135396445841 0 -0.40133868197378092 0.48372276461075059 0 -0.41238595520757398 0.47652289322842911 0 -0.41915355404196958 0.48570351953077201 0 -0.41933140621899928 0.47366135396445841 0 -0.41217655722022789 0.46919247558411192 0 -0.41238595520757398 0.47652289322842911 0 -0.41933140621899928 0.47366135396445841 0 -0.41238595520757398 0.47652289322842911 0 -0.41915355404196958 0.48570351953077201 0 -0.40133868197378092 0.48372276461075059 0 -0.4099295765828932 0.47033435245205307 0 -0.41238595520757398 0.47652289322842911 0 -0.4099295765828932 0.47033435245205307 0 -0.41217655722022789 0.46919247558411192 0 -0.41238595520757398 0.47652289322842911 0 -0.4099295765828932 0.47033435245205307 0 -0.41217655722022789 0.46919247558411192 0 -0.43200273636243419 0.47054425804191541 0 -0.41915355404196958 0.48570351953077201 0 -0.43360911702960753 0.5 0 -0.43360911702960753 0.5 0 -0.45595833266343699 0.48191299555707179 0 -0.5 0.5 0 -0.43200273636243419 0.47054425804191541 0 -0.45595833266343699 0.48191299555707179 0 -0.44936385322246619 0.46087490870680597 0 -0.43200273636243419 0.47054425804191541 0 -0.43360911702960753 0.5 0 -0.45595833266343699 0.48191299555707179 0 -0.45595833266343699 0.48191299555707179 0 -0.47468192661123387 0.47341475093083207 0 -0.44936385322246619 0.46087490870680597 0 -0.45595833266343699 0.48191299555707179 0 -0.47468192661123387 0.47341475093083207 0 -0.5 0.5 0 -0.47468192661123387 0.47341475093083207 0 -0.50000000000000144 0.48595459315485889 0 -0.5 0.46480336607695949 0 -0.47468192661123387 0.47341475093083207 0 -0.50000000000000144 0.48595459315485889 0 -0.47468192661123387 0.47341475093083207 0 -0.5 0.5 0 -0.50000000000000144 0.48595459315485889 0 -0.49397993096968051 0.4435156396802592 0 -0.50000000000000022 0.44365213899905998 0 -0.5 0.4279580082458585 0 -0.49397993096968051 0.4435156396802592 0 -0.48930967186484642 0.45787159876389832 0 -0.47981314980466211 0.45554925182389128 0 -0.49397993096968051 0.4435156396802592 0 -0.50000000000000022 0.44365213899905998 0 -0.49397993096968051 0.4435156396802592 0 -0.50000000000000022 0.44365213899905998 0 -0.49807335193865548 0.45207498530754958 0 -0.49397993096968051 0.4435156396802592 0 -0.49807335193865548 0.45207498530754958 0 -0.48930967186484642 0.45787159876389832 0 -0.49397993096968051 0.4435156396802592 0 -0.49807335193865548 0.45207498530754958 0 -0.50000000000000022 0.44365213899905998 0 -0.49807335193865548 0.45207498530754958 0 -0.5 0.46480336607695949 0 -0.47468192661123387 0.47341475093083207 0 -0.5 0.46480336607695949 0 -0.48930967186484642 0.45787159876389832 0 -0.49807335193865548 0.45207498530754958 0 -0.5 0.46480336607695949 0 -0.48930967186484642 0.45787159876389832 0 -0.47468192661123387 0.47341475093083207 0 -0.48930967186484642 0.45787159876389832 0 -0.47981314980466211 0.45554925182389128 0 -0.47468192661123387 0.47341475093083207 0 -0.47981314980466211 0.45554925182389128 0 -0.46873849924230437 0.45355431029669541 0 -0.47981314980466211 0.45554925182389128 0 -0.46522596362716651 0.44286367091788981 0 -0.46873849924230437 0.45355431029669541 0 -0.49397993096968051 0.4435156396802592 0 -0.47981314980466211 0.45554925182389128 0 -0.46522596362716651 0.44286367091788981 0 -0.49397993096968051 0.4435156396802592 0 -0.46522596362716651 0.44286367091788981 0 -0.48648558922113111 0.42784496672455019 0 -0.49397993096968051 0.4435156396802592 0 -0.46522596362716651 0.44286367091788981 0 -0.46522596362716651 0.44286367091788981 0 -0.45841857036617362 0.45804059436782601 0 -0.46522596362716651 0.44286367091788981 0 -0.46873849924230437 0.45355431029669541 0 -0.45841857036617362 0.45804059436782601 0 -0.46522596362716651 0.44286367091788981 0 -0.45841857036617362 0.45804059436782601 0 -0.45231193563533462 0.45023707272514091 0 -0.47468192661123387 0.47341475093083207 0 -0.45841857036617362 0.45804059436782601 0 -0.44936385322246619 0.46087490870680597 0 -0.47468192661123387 0.47341475093083207 0 -0.46873849924230437 0.45355431029669541 0 -0.45841857036617362 0.45804059436782601 0 -0.47468192661123387 0.47341475093083207 0 -0.44936385322246619 0.46087490870680597 0 -0.45841857036617362 0.45804059436782601 0 -0.44936385322246619 0.46087490870680597 0 -0.45231193563533462 0.45023707272514091 0 -0.42404577983369912 0.44833506648277871 0 -0.44936385322246619 0.46087490870680597 0 -0.43930302088475232 0.44227589293596908 0 -0.46522596362716651 0.44286367091788981 0 -0.43930302088475232 0.44227589293596908 0 -0.46522596362716651 0.44286367091788981 0 -0.43930302088475232 0.44227589293596908 0 -0.44820974505702382 0.43363880809980287 0 -0.46522596362716651 0.44286367091788981 0 -0.45231193563533462 0.45023707272514091 0 -0.43930302088475232 0.44227589293596908 0 -0.44936385322246619 0.46087490870680597 0 -0.45231193563533462 0.45023707272514091 0 -0.43930302088475232 0.44227589293596908 0 -0.44523890674544708 0.42253014657595472 0 -0.43393515761333351 0.41308950145724649 0 -0.43484847050348691 0.43149969814329991 0 -0.43930302088475232 0.44227589293596908 0 -0.44820974505702382 0.43363880809980287 0 -0.43484847050348691 0.43149969814329991 0 -0.44523890674544708 0.42253014657595472 0 -0.44820974505702382 0.43363880809980287 0 -0.43484847050348691 0.43149969814329991 0 -0.44523890674544708 0.42253014657595472 0 -0.45764287667255071 0.41938045949358649 0 -0.45643236352426569 0.42902463192590101 0 -0.44523890674544708 0.42253014657595472 0 -0.44820974505702382 0.43363880809980287 0 -0.45643236352426569 0.42902463192590101 0 -0.45000813801426531 0.41082276222360042 0 -0.44086939347217691 0.39609777718157441 0 -0.43393515761333351 0.41308950145724649 0 -0.44523890674544708 0.42253014657595472 0 -0.45000813801426531 0.41082276222360042 0 -0.43393515761333351 0.41308950145724649 0 -0.44523890674544708 0.42253014657595472 0 -0.45000813801426531 0.41082276222360042 0 -0.45764287667255071 0.41938045949358649 0 -0.45764287667255071 0.41938045949358649 0 -0.46476778709849059 0.41112027129806178 0 -0.47210860554987499 0.42751898234336549 0 -0.45000813801426531 0.41082276222360042 0 -0.45764287667255071 0.41938045949358649 0 -0.46476778709849059 0.41112027129806178 0 -0.45000813801426531 0.41082276222360042 0 -0.46476778709849059 0.41112027129806178 0 -0.45595258562289759 0.39990936277527939 0 -0.46522596362716651 0.44286367091788981 0 -0.44820974505702382 0.43363880809980287 0 -0.45643236352426569 0.42902463192590101 0 -0.45764287667255071 0.41938045949358649 0 -0.45643236352426569 0.42902463192590101 0 -0.47210860554987499 0.42751898234336549 0 -0.46522596362716651 0.44286367091788981 0 -0.45643236352426569 0.42902463192590101 0 -0.47210860554987499 0.42751898234336549 0 -0.46522596362716651 0.44286367091788981 0 -0.47210860554987499 0.42751898234336549 0 -0.46522596362716651 0.44286367091788981 0 -0.47210860554987499 0.42751898234336549 0 -0.48648558922113111 0.42784496672455019 0 -0.47210860554987499 0.42751898234336549 0 -0.47899124747258259 0.41217429376884079 0 -0.48648558922113111 0.42784496672455019 0 -0.47210860554987499 0.42751898234336549 0 -0.47899124747258259 0.41217429376884079 0 -0.46476778709849059 0.41112027129806178 0 -0.47899124747258259 0.41217429376884079 0 -0.47123467032600452 0.3959552864433098 0 -0.47899124747258259 0.41217429376884079 0 -0.48648558922113111 0.42784496672455019 0 -0.46476778709849059 0.41112027129806178 0 -0.47210860554987499 0.42751898234336549 0 -0.47899124747258259 0.41217429376884079 0 -0.47899124747258259 0.41217429376884079 0 -0.48321856380378442 0.40274959125827409 0 -0.47899124747258259 0.41217429376884079 0 -0.48859083332659969 0.41413353869362018 0 -0.48321856380378442 0.40274959125827409 0 -0.49999999999999911 0.41226387749265708 0 -0.49830666081250469 0.41539583244233619 0 -0.5 0.4279580082458585 0 -0.48859083332659969 0.41413353869362018 0 -0.49254026155502562 0.42175726438853439 0 -0.48648558922113111 0.42784496672455019 0 -0.47899124747258259 0.41217429376884079 0 -0.48859083332659969 0.41413353869362018 0 -0.48648558922113111 0.42784496672455019 0 -0.48859083332659969 0.41413353869362018 0 -0.49254026155502562 0.42175726438853439 0 -0.4935053169005007 0.41631741030269243 0 -0.49789768230686599 0.41107196208957708 0 -0.48321856380378442 0.40274959125827409 0 -0.48859083332659969 0.41413353869362018 0 -0.49789768230686599 0.41107196208957708 0 -0.48321856380378442 0.40274959125827409 0 -0.48859083332659969 0.41413353869362018 0 -0.49789768230686599 0.41107196208957708 0 -0.4935053169005007 0.41631741030269243 0 -0.49789768230686599 0.41107196208957708 0 -0.49830666081250469 0.41539583244233619 0 -0.49999999999999911 0.41226387749265708 0 -0.49789768230686599 0.41107196208957708 0 -0.49830666081250469 0.41539583244233619 0 -0.49999999999999911 0.41226387749265708 0 -0.49789768230686599 0.41107196208957708 0 -0.49254026155502562 0.42175726438853439 0 -0.49830666081250469 0.41539583244233619 0 -0.5 0.4279580082458585 0 -0.49254026155502562 0.42175726438853439 0 -0.4935053169005007 0.41631741030269243 0 -0.49830666081250469 0.41539583244233619 0 -0.49789768230686599 0.41107196208957708 0 -0.4935053169005007 0.41631741030269243 0 -0.49830666081250469 0.41539583244233619 0 -0.49397993096968051 0.4435156396802592 0 -0.5 0.4279580082458585 0 -0.48648558922113111 0.42784496672455019 0 -0.49254026155502562 0.42175726438853439 0 -0.5 0.4279580082458585 0 -0.48648558922113111 0.42784496672455019 0 -0.49397993096968051 0.4435156396802592 0 -0.48648558922113111 0.42784496672455019 0 -0.49479672805323283 0.37828753949107607 0 -0.48321856380378442 0.40274959125827409 0 -0.48237598545744009 0.39046089056839561 0 -0.49479672805323283 0.37828753949107607 0 -0.5 0.3854747376179799 0 -0.4933353487408163 0.36283730287477439 0 -0.49479672805323283 0.37828753949107607 0 -0.49561651552384139 0.38695463248217582 0 -0.48321856380378442 0.40274959125827409 0 -0.49479672805323283 0.37828753949107607 0 -0.48321856380378442 0.40274959125827409 0 -0.49479672805323283 0.37828753949107607 0 -0.48088688972381832 0.3847912805159816 0 -0.48237598545744009 0.39046089056839561 0 -0.49479672805323283 0.37828753949107607 0 -0.48088688972381832 0.3847912805159816 0 -0.48265697702378879 0.37682160223087918 0 -0.49479672805323283 0.37828753949107607 0 -0.48265697702378879 0.37682160223087918 0 -0.48680067237600899 0.37095585458363151 0 -0.49479672805323283 0.37828753949107607 0 -0.49561651552384139 0.38695463248217582 0 -0.49479672805323283 0.37828753949107607 0 -0.49561651552384139 0.38695463248217582 0 -0.5 0.3854747376179799 0 -0.49789768230686599 0.41107196208957708 0 -0.49561651552384139 0.38695463248217582 0 -0.48321856380378442 0.40274959125827409 0 -0.49789768230686599 0.41107196208957708 0 -0.49561651552384139 0.38695463248217582 0 -0.49789768230686599 0.41107196208957708 0 -0.49561651552384139 0.38695463248217582 0 -0.5 0.3854747376179799 0 -0.49999999999999911 0.41226387749265708 0 -0.49789768230686599 0.41107196208957708 0 -0.5 0.3854747376179799 0 -0.47899124747258259 0.41217429376884079 0 -0.48321856380378442 0.40274959125827409 0 -0.47123467032600452 0.3959552864433098 0 -0.48321856380378442 0.40274959125827409 0 -0.47123467032600452 0.3959552864433098 0 -0.48237598545744009 0.39046089056839561 0 -0.47899124747258259 0.41217429376884079 0 -0.47123467032600452 0.3959552864433098 0 -0.48321856380378442 0.40274959125827409 0 -0.47123467032600452 0.3959552864433098 0 -0.47123467032600452 0.3959552864433098 0 -0.47375966404687281 0.3789750518935831 0 -0.46463622302169483 0.38215792929165099 0 -0.47123467032600452 0.3959552864433098 0 -0.48088688972381832 0.3847912805159816 0 -0.47375966404687281 0.3789750518935831 0 -0.47123467032600452 0.3959552864433098 0 -0.48088688972381832 0.3847912805159816 0 -0.48237598545744009 0.39046089056839561 0 -0.48265697702378879 0.37682160223087918 0 -0.47375966404687281 0.3789750518935831 0 -0.47767384099609078 0.37103842010518368 0 -0.48088688972381832 0.3847912805159816 0 -0.48265697702378879 0.37682160223087918 0 -0.47375966404687281 0.3789750518935831 0 -0.47123467032600452 0.3959552864433098 0 -0.46463622302169483 0.38215792929165099 0 -0.45288293920355049 0.38555071672985108 0 -0.47375966404687281 0.3789750518935831 0 -0.46463622302169483 0.38215792929165099 0 -0.46733549631702009 0.37239052987472571 0 -0.46463622302169483 0.38215792929165099 0 -0.45803777571738519 0.36836057213999213 0 -0.47123467032600452 0.3959552864433098 0 -0.46463622302169483 0.38215792929165099 0 -0.46463622302169483 0.38215792929165099 0 -0.45576711821368743 0.37760907932929011 0 -0.45288293920355049 0.38555071672985108 0 -0.46463622302169483 0.38215792929165099 0 -0.45576711821368743 0.37760907932929011 0 -0.45803777571738519 0.36836057213999213 0 -0.47123467032600452 0.3959552864433098 0 -0.45595258562289759 0.39990936277527939 0 -0.45288293920355049 0.38555071672985108 0 -0.47123467032600452 0.3959552864433098 0 -0.45288293920355049 0.38555071672985108 0 -0.46476778709849059 0.41112027129806178 0 -0.47123467032600452 0.3959552864433098 0 -0.45595258562289759 0.39990936277527939 0 -0.45000813801426531 0.41082276222360042 0 -0.45595258562289759 0.39990936277527939 0 -0.44086939347217691 0.39609777718157441 0 -0.45595258562289759 0.39990936277527939 0 -0.44086939347217691 0.39609777718157441 0 -0.45288293920355049 0.38555071672985108 0 -0.45288293920355049 0.38555071672985108 0 -0.44210163744236852 0.38539111885835109 0 -0.44319162583269878 0.37522763385266061 0 -0.45576711821368743 0.37760907932929011 0 -0.45288293920355049 0.38555071672985108 0 -0.44319162583269878 0.37522763385266061 0 -0.44086939347217691 0.39609777718157441 0 -0.45288293920355049 0.38555071672985108 0 -0.44210163744236852 0.38539111885835109 0 -0.44086939347217691 0.39609777718157441 0 -0.44210163744236852 0.38539111885835109 0 -0.43165782154992588 0.38359235845378697 0 -0.44210163744236852 0.38539111885835109 0 -0.44319162583269878 0.37522763385266061 0 -0.43165782154992588 0.38359235845378697 0 -0.43165782154992588 0.38359235845378697 0 -0.41864738033196569 0.39377719259665772 0 -0.41947102346486181 0.36380362071347289 0 -0.44319162583269878 0.37522763385266061 0 -0.43165782154992588 0.38359235845378697 0 -0.43394796087437681 0.37123482543454889 0 -0.41864738033196569 0.39377719259665772 0 -0.41947102346486181 0.36380362071347289 0 -0.41864738033196569 0.39377719259665772 0 -0.39610843494679188 0.37935027570664831 0 -0.40740991316149239 0.36508462759230159 0 -0.44086939347217691 0.39609777718157441 0 -0.43165782154992588 0.38359235845378697 0 -0.41864738033196569 0.39377719259665772 0 -0.44086939347217691 0.39609777718157441 0 -0.41864738033196569 0.39377719259665772 0 -0.43393515761333351 0.41308950145724649 0 -0.41864738033196569 0.39377719259665772 0 -0.43393515761333351 0.41308950145724649 0 -0.41782373719906968 0.4237507644798425 0 -0.43484847050348691 0.43149969814329991 0 -0.41884947427126462 0.43483926998467481 0 -0.41782373719906968 0.4237507644798425 0 -0.43393515761333351 0.41308950145724649 0 -0.43484847050348691 0.43149969814329991 0 -0.41782373719906968 0.4237507644798425 0 -0.41884947427126462 0.43483926998467481 0 -0.41782373719906968 0.4237507644798425 0 -0.39867990954880339 0.43577155083277708 0 -0.41864738033196569 0.39377719259665772 0 -0.41782373719906968 0.4237507644798425 0 -0.39510769333033668 0.41235403604038823 0 -0.41864738033196569 0.39377719259665772 0 -0.41782373719906968 0.4237507644798425 0 -0.41782373719906968 0.4237507644798425 0 -0.39510769333033668 0.41235403604038823 0 -0.39867990954880339 0.43577155083277708 0 -0.39510769333033668 0.41235403604038823 0 -0.39867990954880339 0.43577155083277708 0 -0.3733140392639081 0.42320803518277439 0 -0.39867990954880339 0.43577155083277708 0 -0.3733140392639081 0.42320803518277439 0 -0.39510769333033668 0.41235403604038823 0 -0.37457348775900712 0.40543977999867609 0 -0.3733140392639081 0.42320803518277439 0 -0.39510769333033668 0.41235403604038823 0 -0.38876844009419831 0.39261117144716468 0 -0.37457348775900712 0.40543977999867609 0 -0.38876844009419831 0.39261117144716468 0 -0.36772909712757962 0.38838113779028188 0 -0.37457348775900712 0.40543977999867609 0 -0.38876844009419831 0.39261117144716468 0 -0.38040619740787462 0.37666572748219151 0 -0.39610843494679188 0.37935027570664831 0 -0.38876844009419831 0.39261117144716468 0 -0.38040619740787462 0.37666572748219151 0 -0.36772909712757962 0.38838113779028188 0 -0.41864738033196569 0.39377719259665772 0 -0.38876844009419831 0.39261117144716468 0 -0.39610843494679188 0.37935027570664831 0 -0.41864738033196569 0.39377719259665772 0 -0.39510769333033668 0.41235403604038823 0 -0.38876844009419831 0.39261117144716468 0 -0.39578947148259741 0.35144770819371851 0 -0.39759658696076677 0.36017898572247148 0 -0.39011768139548131 0.35776420869921749 0 -0.39578947148259741 0.35144770819371851 0 -0.39011768139548131 0.35776420869921749 0 -0.38619190920011759 0.34987898972013959 0 -0.39578947148259741 0.35144770819371851 0 -0.39215615636744178 0.34471991892465959 0 -0.38619190920011759 0.34987898972013959 0 -0.39578947148259741 0.35144770819371851 0 -0.39215615636744178 0.34471991892465959 0 -0.39881098654105862 0.3435555623812126 0 -0.40341120657529778 0.34831163882072402 0 -0.39881098654105862 0.3435555623812126 0 -0.40795032660649289 0.34094384569242908 0 -0.39578947148259741 0.35144770819371851 0 -0.40341120657529778 0.34831163882072402 0 -0.39881098654105862 0.3435555623812126 0 -0.39578947148259741 0.35144770819371851 0 -0.40341120657529778 0.34831163882072402 0 -0.4039431500977505 0.35654153281869339 0 -0.39578947148259741 0.35144770819371851 0 -0.4039431500977505 0.35654153281869339 0 -0.39759658696076677 0.36017898572247148 0 -0.40341120657529778 0.34831163882072402 0 -0.4039431500977505 0.35654153281869339 0 -0.4091692007192354 0.35143657248882931 0 -0.4039431500977505 0.35654153281869339 0 -0.40342309763087852 0.36550806606445491 0 -0.40740991316149239 0.36508462759230159 0 -0.4039431500977505 0.35654153281869339 0 -0.40342309763087852 0.36550806606445491 0 -0.39759658696076677 0.36017898572247148 0 -0.40342309763087852 0.36550806606445491 0 -0.40740991316149239 0.36508462759230159 0 -0.39610843494679188 0.37935027570664831 0 -0.40342309763087852 0.36550806606445491 0 -0.40740991316149239 0.36508462759230159 0 -0.39610843494679188 0.37935027570664831 0 -0.40740991316149239 0.36508462759230159 0 -0.39610843494679188 0.37935027570664831 0 -0.40342309763087852 0.36550806606445491 0 -0.39257771602912611 0.36863077710557568 0 -0.40342309763087852 0.36550806606445491 0 -0.39257771602912611 0.36863077710557568 0 -0.39759658696076677 0.36017898572247148 0 -0.39257771602912611 0.36863077710557568 0 -0.39759658696076677 0.36017898572247148 0 -0.39011768139548131 0.35776420869921749 0 -0.39257771602912611 0.36863077710557568 0 -0.37657495410110609 0.35981517003075558 0 -0.39011768139548131 0.35776420869921749 0 -0.38040619740787462 0.37666572748219151 0 -0.39610843494679188 0.37935027570664831 0 -0.39257771602912611 0.36863077710557568 0 -0.38040619740787462 0.37666572748219151 0 -0.39257771602912611 0.36863077710557568 0 -0.37657495410110609 0.35981517003075558 0 -0.37657495410110609 0.35981517003075558 0 -0.38619190920011759 0.34987898972013959 0 -0.37753211857243718 0.34592948831607878 0 -0.37657495410110609 0.35981517003075558 0 -0.39011768139548131 0.35776420869921749 0 -0.38619190920011759 0.34987898972013959 0 -0.38619190920011759 0.34987898972013959 0 -0.37753211857243718 0.34592948831607878 0 -0.38661717979287658 0.3415105800401842 0 -0.39215615636744178 0.34471991892465959 0 -0.38619190920011759 0.34987898972013959 0 -0.38661717979287658 0.3415105800401842 0 -0.37753211857243718 0.34592948831607878 0 -0.38078352242204722 0.3358568273385461 0 -0.36997981312873668 0.33633618023938833 0 -0.37753211857243718 0.34592948831607878 0 -0.38078352242204722 0.3358568273385461 0 -0.38661717979287658 0.3415105800401842 0 -0.37694366708074389 0.32840442101806289 0 -0.38078352242204722 0.3358568273385461 0 -0.36997981312873668 0.33633618023938833 0 -0.37694366708074389 0.32840442101806289 0 -0.38078352242204722 0.3358568273385461 0 -0.38466834596677141 0.32906539652816341 0 -0.38078352242204722 0.3358568273385461 0 -0.38466834596677141 0.32906539652816341 0 -0.38892904909667531 0.33432202784431109 0 -0.38466834596677141 0.32906539652816341 0 -0.38892904909667531 0.33432202784431109 0 -0.39082806911507267 0.32867397373438451 0 -0.38078352242204722 0.3358568273385461 0 -0.38892904909667531 0.33432202784431109 0 -0.38661717979287658 0.3415105800401842 0 -0.38892904909667531 0.33432202784431109 0 -0.38661717979287658 0.3415105800401842 0 -0.39370994718197899 0.33874052795458398 0 -0.38183084632037317 0.32341199012391231 0 -0.38436920231913918 0.31635206791452941 0 -0.37484462938147339 0.32008442571239648 0 -0.38436920231913918 0.31635206791452941 0 -0.37537164453412292 0.31136461011921451 0 -0.37484462938147339 0.32008442571239648 0 -0.37694366708074389 0.32840442101806289 0 -0.38183084632037317 0.32341199012391231 0 -0.37484462938147339 0.32008442571239648 0 -0.37694366708074389 0.32840442101806289 0 -0.38466834596677141 0.32906539652816341 0 -0.38183084632037317 0.32341199012391231 0 -0.38466834596677141 0.32906539652816341 0 -0.38183084632037317 0.32341199012391231 0 -0.38832838685373838 0.32315363944640929 0 -0.38466834596677141 0.32906539652816341 0 -0.38832838685373838 0.32315363944640929 0 -0.39082806911507267 0.32867397373438451 0 -0.38183084632037317 0.32341199012391231 0 -0.38832838685373838 0.32315363944640929 0 -0.38436920231913918 0.31635206791452941 0 -0.38832838685373838 0.32315363944640929 0 -0.38436920231913918 0.31635206791452941 0 -0.3930112016248804 0.31706606793726982 0 -0.38436920231913918 0.31635206791452941 0 -0.3930112016248804 0.31706606793726982 0 -0.39030910441633948 0.31068228488012578 0 -0.3930112016248804 0.31706606793726982 0 -0.40041231719361681 0.3171262012068688 0 -0.39663492459555949 0.31068477745172057 0 -0.3930112016248804 0.31706606793726982 0 -0.39663492459555949 0.31068477745172057 0 -0.39030910441633948 0.31068228488012578 0 -0.3930112016248804 0.31706606793726982 0 -0.39638554246458579 0.32336689769961841 0 -0.40041231719361681 0.3171262012068688 0 -0.38832838685373838 0.32315363944640929 0 -0.39638554246458579 0.32336689769961841 0 -0.39082806911507267 0.32867397373438451 0 -0.39638554246458579 0.32336689769961841 0 -0.39082806911507267 0.32867397373438451 0 -0.39615014521790942 0.33183516775890659 0 -0.38832838685373838 0.32315363944640929 0 -0.3930112016248804 0.31706606793726982 0 -0.39638554246458579 0.32336689769961841 0 -0.39638554246458579 0.32336689769961841 0 -0.4012729161625983 0.32716344044363938 0 -0.39615014521790942 0.33183516775890659 0 -0.4012729161625983 0.32716344044363938 0 -0.40385478692384269 0.32188102611882441 0 -0.40684076942921799 0.32675084783039432 0 -0.39638554246458579 0.32336689769961841 0 -0.4012729161625983 0.32716344044363938 0 -0.40385478692384269 0.32188102611882441 0 -0.39638554246458579 0.32336689769961841 0 -0.40385478692384269 0.32188102611882441 0 -0.40041231719361681 0.3171262012068688 0 -0.40385478692384269 0.32188102611882441 0 -0.40041231719361681 0.3171262012068688 0 -0.40801823548127242 0.31566272422673958 0 -0.40041231719361681 0.3171262012068688 0 -0.40801823548127242 0.31566272422673958 0 -0.40435763886683462 0.31021253591659659 0 -0.40041231719361681 0.3171262012068688 0 -0.40435763886683462 0.31021253591659659 0 -0.39663492459555949 0.31068477745172057 0 -0.39370994718197899 0.33874052795458398 0 -0.39984881103254261 0.33716973470116091 0 -0.39881098654105862 0.3435555623812126 0 -0.39215615636744178 0.34471991892465959 0 -0.39370994718197899 0.33874052795458398 0 -0.39881098654105862 0.3435555623812126 0 -0.39215615636744178 0.34471991892465959 0 -0.38661717979287658 0.3415105800401842 0 -0.39370994718197899 0.33874052795458398 0 -0.38892904909667531 0.33432202784431109 0 -0.39370994718197899 0.33874052795458398 0 -0.39615014521790942 0.33183516775890659 0 -0.38892904909667531 0.33432202784431109 0 -0.39082806911507267 0.32867397373438451 0 -0.39615014521790942 0.33183516775890659 0 -0.39370994718197899 0.33874052795458398 0 -0.39615014521790942 0.33183516775890659 0 -0.39984881103254261 0.33716973470116091 0 -0.39615014521790942 0.33183516775890659 0 -0.40349262346180209 0.33268604957627579 0 -0.39984881103254261 0.33716973470116091 0 -0.4012729161625983 0.32716344044363938 0 -0.39615014521790942 0.33183516775890659 0 -0.40349262346180209 0.33268604957627579 0 -0.4012729161625983 0.32716344044363938 0 -0.40349262346180209 0.33268604957627579 0 -0.40684076942921799 0.32675084783039432 0 -0.40349262346180209 0.33268604957627579 0 -0.39984881103254261 0.33716973470116091 0 -0.40795032660649289 0.34094384569242908 0 -0.39984881103254261 0.33716973470116091 0 -0.39881098654105862 0.3435555623812126 0 -0.40795032660649289 0.34094384569242908 0 -0.42069201717339361 0.31936988329746041 0 -0.41986794458668719 0.34935908362955742 0 -0.40795032660649289 0.34094384569242908 0 -0.41385810915099103 0.32923322458111182 0 -0.41986794458668719 0.34935908362955742 0 -0.41385810915099103 0.32923322458111182 0 -0.42069201717339361 0.31936988329746041 0 -0.41986794458668719 0.34935908362955742 0 -0.40349262346180209 0.33268604957627579 0 -0.40795032660649289 0.34094384569242908 0 -0.40866440385638902 0.33178794144727941 0 -0.40795032660649289 0.34094384569242908 0 -0.40866440385638902 0.33178794144727941 0 -0.41385810915099103 0.32923322458111182 0 -0.40866440385638902 0.33178794144727941 0 -0.41385810915099103 0.32923322458111182 0 -0.40684076942921799 0.32675084783039432 0 -0.40349262346180209 0.33268604957627579 0 -0.40866440385638902 0.33178794144727941 0 -0.40684076942921799 0.32675084783039432 0 -0.40801823548127242 0.31566272422673958 0 -0.41461021859645208 0.31617951202795103 0 -0.41275601650015281 0.30870013756953302 0 -0.40385478692384269 0.32188102611882441 0 -0.40801823548127242 0.31566272422673958 0 -0.41019894081176489 0.32121604530568643 0 -0.40801823548127242 0.31566272422673958 0 -0.41019894081176489 0.32121604530568643 0 -0.41461021859645208 0.31617951202795103 0 -0.41019894081176489 0.32121604530568643 0 -0.4148398214331504 0.32149966630305238 0 -0.41461021859645208 0.31617951202795103 0 -0.41385810915099103 0.32923322458111182 0 -0.41019894081176489 0.32121604530568643 0 -0.40684076942921799 0.32675084783039432 0 -0.41385810915099103 0.32923322458111182 0 -0.41019894081176489 0.32121604530568643 0 -0.4148398214331504 0.32149966630305238 0 -0.40385478692384269 0.32188102611882441 0 -0.41019894081176489 0.32121604530568643 0 -0.40684076942921799 0.32675084783039432 0 -0.41385810915099103 0.32923322458111182 0 -0.4148398214331504 0.32149966630305238 0 -0.42069201717339361 0.31936988329746041 0 -0.4148398214331504 0.32149966630305238 0 -0.42069201717339361 0.31936988329746041 0 -0.41461021859645208 0.31617951202795103 0 -0.42069201717339361 0.31936988329746041 0 -0.41461021859645208 0.31617951202795103 0 -0.41925311785082081 0.31191790276354081 0 -0.43505506937184601 0.31529600537732688 0 -0.43075034150786318 0.33562243412505099 0 -0.44469223395398688 0.31802383968403619 0 -0.42069201717339361 0.31936988329746041 0 -0.42631922616399032 0.31698747168260338 0 -0.43075034150786318 0.33562243412505099 0 -0.42631922616399032 0.31698747168260338 0 -0.43075034150786318 0.33562243412505099 0 -0.42631922616399032 0.31698747168260338 0 -0.43505506937184601 0.31529600537732688 0 -0.43075034150786318 0.33562243412505099 0 -0.42069201717339361 0.31936988329746041 0 -0.42631922616399032 0.31698747168260338 0 -0.41925311785082081 0.31191790276354081 0 -0.42631922616399032 0.31698747168260338 0 -0.43505506937184601 0.31529600537732688 0 -0.42963120830162999 0.30891314773161033 0 -0.43075034150786318 0.33562243412505099 0 -0.43451752690829948 0.35146525314530158 0 -0.42069201717339361 0.31936988329746041 0 -0.43075034150786318 0.33562243412505099 0 -0.41986794458668719 0.34935908362955742 0 -0.43075034150786318 0.33562243412505099 0 -0.41986794458668719 0.34935908362955742 0 -0.43075034150786318 0.33562243412505099 0 -0.43451752690829948 0.35146525314530158 0 -0.44409178000092348 0.34591624256049253 0 -0.43075034150786318 0.33562243412505099 0 -0.43451752690829948 0.35146525314530158 0 -0.41986794458668719 0.34935908362955742 0 -0.43451752690829948 0.35146525314530158 0 -0.42895161887653649 0.35651102374158938 0 -0.44194998054629692 0.36141613747802598 0 -0.42895161887653649 0.35651102374158938 0 -0.41986794458668719 0.34935908362955742 0 -0.41947102346486181 0.36380362071347289 0 -0.43451752690829948 0.35146525314530158 0 -0.42895161887653649 0.35651102374158938 0 -0.41986794458668719 0.34935908362955742 0 -0.41986794458668719 0.34935908362955742 0 -0.40740991316149239 0.36508462759230159 0 -0.41986794458668719 0.34935908362955742 0 -0.4091692007192354 0.35143657248882931 0 -0.40740991316149239 0.36508462759230159 0 -0.41986794458668719 0.34935908362955742 0 -0.41947102346486181 0.36380362071347289 0 -0.4039431500977505 0.35654153281869339 0 -0.4091692007192354 0.35143657248882931 0 -0.40740991316149239 0.36508462759230159 0 -0.40795032660649289 0.34094384569242908 0 -0.41986794458668719 0.34935908362955742 0 -0.4091692007192354 0.35143657248882931 0 -0.40341120657529778 0.34831163882072402 0 -0.40795032660649289 0.34094384569242908 0 -0.4091692007192354 0.35143657248882931 0 -0.41864738033196569 0.39377719259665772 0 -0.40740991316149239 0.36508462759230159 0 -0.41947102346486181 0.36380362071347289 0 -0.41986794458668719 0.34935908362955742 0 -0.40740991316149239 0.36508462759230159 0 -0.41947102346486181 0.36380362071347289 0 -0.40740991316149239 0.36508462759230159 0 -0.41947102346486181 0.36380362071347289 0 -0.41947102346486181 0.36380362071347289 0 -0.44194998054629692 0.36141613747802598 0 -0.43165782154992588 0.38359235845378697 0 -0.41947102346486181 0.36380362071347289 0 -0.43394796087437681 0.37123482543454889 0 -0.42895161887653649 0.35651102374158938 0 -0.41947102346486181 0.36380362071347289 0 -0.44194998054629692 0.36141613747802598 0 -0.41947102346486181 0.36380362071347289 0 -0.43394796087437681 0.37123482543454889 0 -0.44194998054629692 0.36141613747802598 0 -0.44319162583269878 0.37522763385266061 0 -0.44194998054629692 0.36141613747802598 0 -0.46442893762773158 0.35902865424257552 0 -0.44319162583269878 0.37522763385266061 0 -0.43394796087437681 0.37123482543454889 0 -0.44194998054629692 0.36141613747802598 0 -0.45576711821368743 0.37760907932929011 0 -0.44319162583269878 0.37522763385266061 0 -0.45803777571738519 0.36836057213999213 0 -0.43451752690829948 0.35146525314530158 0 -0.44194998054629692 0.36141613747802598 0 -0.44409178000092348 0.34591624256049253 0 -0.44194998054629692 0.36141613747802598 0 -0.44409178000092348 0.34591624256049253 0 -0.45317988066892301 0.35160161080322799 0 -0.44409178000092348 0.34591624256049253 0 -0.45317988066892301 0.35160161080322799 0 -0.45432879215094069 0.34100391104764971 0 -0.44194998054629692 0.36141613747802598 0 -0.45317988066892301 0.35160161080322799 0 -0.46442893762773158 0.35902865424257552 0 -0.45317988066892301 0.35160161080322799 0 -0.4628044981603564 0.34908068211242071 0 -0.45432879215094069 0.34100391104764971 0 -0.45317988066892301 0.35160161080322799 0 -0.46442893762773158 0.35902865424257552 0 -0.4628044981603564 0.34908068211242071 0 -0.46442893762773158 0.35902865424257552 0 -0.4628044981603564 0.34908068211242071 0 -0.47774155979275912 0.34887431375497302 0 -0.4628044981603564 0.34908068211242071 0 -0.46775249084469611 0.34177006756372669 0 -0.45432879215094069 0.34100391104764971 0 -0.44319162583269878 0.37522763385266061 0 -0.46442893762773158 0.35902865424257552 0 -0.44194998054629692 0.36141613747802598 0 -0.46442893762773158 0.35902865424257552 0 -0.44319162583269878 0.37522763385266061 0 -0.46442893762773158 0.35902865424257552 0 -0.45803777571738519 0.36836057213999213 0 -0.46442893762773158 0.35902865424257552 0 -0.45803777571738519 0.36836057213999213 0 -0.47303024600583338 0.3654339590728819 0 -0.46463622302169483 0.38215792929165099 0 -0.45803777571738519 0.36836057213999213 0 -0.46733549631702009 0.37239052987472571 0 -0.45803777571738519 0.36836057213999213 0 -0.46733549631702009 0.37239052987472571 0 -0.47303024600583338 0.3654339590728819 0 -0.47375966404687281 0.3789750518935831 0 -0.46733549631702009 0.37239052987472571 0 -0.47767384099609078 0.37103842010518368 0 -0.46733549631702009 0.37239052987472571 0 -0.47767384099609078 0.37103842010518368 0 -0.47303024600583338 0.3654339590728819 0 -0.46442893762773158 0.35902865424257552 0 -0.47303024600583338 0.3654339590728819 0 -0.48745323915693561 0.35658325013820902 0 -0.47767384099609078 0.37103842010518368 0 -0.48325218621983701 0.36520232793660568 0 -0.47303024600583338 0.3654339590728819 0 -0.48265697702378879 0.37682160223087918 0 -0.47767384099609078 0.37103842010518368 0 -0.48680067237600899 0.37095585458363151 0 -0.47767384099609078 0.37103842010518368 0 -0.48325218621983701 0.36520232793660568 0 -0.48680067237600899 0.37095585458363151 0 -0.48325218621983701 0.36520232793660568 0 -0.47303024600583338 0.3654339590728819 0 -0.48745323915693561 0.35658325013820902 0 -0.46442893762773158 0.35902865424257552 0 -0.48745323915693561 0.35658325013820902 0 -0.46442893762773158 0.35902865424257552 0 -0.47774155979275912 0.34887431375497302 0 -0.48745323915693561 0.35658325013820902 0 -0.46442893762773158 0.35902865424257552 0 -0.47774155979275912 0.34887431375497302 0 -0.4628044981603564 0.34908068211242071 0 -0.47774155979275912 0.34887431375497302 0 -0.46775249084469611 0.34177006756372669 0 -0.4933353487408163 0.36283730287477439 0 -0.49105418195778872 0.33871997326737341 0 -0.5 0.35868559774330289 0 -0.4933353487408163 0.36283730287477439 0 -0.49105418195778872 0.33871997326737341 0 -0.47774155979275912 0.34887431375497302 0 -0.48745323915693561 0.35658325013820902 0 -0.49105418195778872 0.33871997326737341 0 -0.48745323915693561 0.35658325013820902 0 -0.4933353487408163 0.36283730287477439 0 -0.49105418195778872 0.33871997326737341 0 -0.47774155979275912 0.34887431375497302 0 -0.49105418195778872 0.33871997326737341 0 -0.5 0.3854747376179799 0 -0.5 0.35868559774330289 0 -0.4933353487408163 0.36283730287477439 0 -0.49479672805323283 0.37828753949107607 0 -0.4933353487408163 0.36283730287477439 0 -0.49479672805323283 0.37828753949107607 0 -0.4933353487408163 0.36283730287477439 0 -0.48680067237600899 0.37095585458363151 0 -0.48325218621983701 0.36520232793660568 0 -0.4933353487408163 0.36283730287477439 0 -0.48680067237600899 0.37095585458363151 0 -0.48325218621983701 0.36520232793660568 0 -0.48745323915693561 0.35658325013820902 0 -0.4933353487408163 0.36283730287477439 0 -0.49114922423113599 0.31706229118293222 0 -0.50000000000000111 0.33189645786862582 0 -0.5 0.30316310255033979 0 -0.49050011166203772 0.32675370426230421 0 -0.49114922423113599 0.31706229118293222 0 -0.48283489359965021 0.32501064831684912 0 -0.49050011166203772 0.32675370426230421 0 -0.48659798251695802 0.32959487124280779 0 -0.48283489359965021 0.32501064831684912 0 -0.49114922423113599 0.31706229118293222 0 -0.48283489359965021 0.32501064831684912 0 -0.48337642849944412 0.31459052737724391 0 -0.49114922423113599 0.31706229118293222 0 -0.48337642849944412 0.31459052737724391 0 -0.48923330192872999 0.30802272629239752 0 -0.49050011166203772 0.32675370426230421 0 -0.49114922423113599 0.31706229118293222 0 -0.50000000000000111 0.33189645786862582 0 -0.5 0.35868559774330289 0 -0.50000000000000111 0.33189645786862582 0 -0.49105418195778872 0.33871997326737341 0 -0.50000000000000111 0.33189645786862582 0 -0.49105418195778872 0.33871997326737341 0 -0.49056326740626338 0.33352984506790478 0 -0.49050011166203772 0.32675370426230421 0 -0.50000000000000111 0.33189645786862582 0 -0.49056326740626338 0.33352984506790478 0 -0.50000000000000111 0.33189645786862582 0 -0.49105418195778872 0.33871997326737341 0 -0.49105418195778872 0.33871997326737341 0 -0.49056326740626338 0.33352984506790478 0 -0.49056326740626338 0.33352984506790478 0 -0.48659798251695802 0.32959487124280779 0 -0.48249365739988048 0.33308528732417331 0 -0.49105418195778872 0.33871997326737341 0 -0.49056326740626338 0.33352984506790478 0 -0.48249365739988048 0.33308528732417331 0 -0.49050011166203772 0.32675370426230421 0 -0.49056326740626338 0.33352984506790478 0 -0.48659798251695802 0.32959487124280779 0 -0.48659798251695802 0.32959487124280779 0 -0.48249365739988048 0.33308528732417331 0 -0.48283489359965021 0.32501064831684912 0 -0.48249365739988048 0.33308528732417331 0 -0.47441184214149518 0.33306294069180509 0 -0.47475307834126579 0.32498830168448017 0 -0.48249365739988048 0.33308528732417331 0 -0.47869074642732379 0.33910251652041012 0 -0.47441184214149518 0.33306294069180509 0 -0.47774155979275912 0.34887431375497302 0 -0.49105418195778872 0.33871997326737341 0 -0.47869074642732379 0.33910251652041012 0 -0.49105418195778872 0.33871997326737341 0 -0.48249365739988048 0.33308528732417331 0 -0.47869074642732379 0.33910251652041012 0 -0.47869074642732379 0.33910251652041012 0 -0.47441184214149518 0.33306294069180509 0 -0.46775249084469611 0.34177006756372669 0 -0.47774155979275912 0.34887431375497302 0 -0.47869074642732379 0.33910251652041012 0 -0.46775249084469611 0.34177006756372669 0 -0.47441184214149518 0.33306294069180509 0 -0.47475307834126579 0.32498830168448017 0 -0.46420987370697381 0.33078732517422671 0 -0.47441184214149518 0.33306294069180509 0 -0.46775249084469611 0.34177006756372669 0 -0.46420987370697381 0.33078732517422671 0 -0.47475307834126579 0.32498830168448017 0 -0.47450394657781619 0.31670873180267101 0 -0.46701487013764481 0.32181285142151961 0 -0.48249365739988048 0.33308528732417331 0 -0.47475307834126579 0.32498830168448017 0 -0.48283489359965021 0.32501064831684912 0 -0.47475307834126579 0.32498830168448017 0 -0.48283489359965021 0.32501064831684912 0 -0.47450394657781619 0.31670873180267101 0 -0.48283489359965021 0.32501064831684912 0 -0.48337642849944412 0.31459052737724391 0 -0.47450394657781619 0.31670873180267101 0 -0.48337642849944412 0.31459052737724391 0 -0.47450394657781619 0.31670873180267101 0 -0.47829028578430499 0.31061212875390132 0 -0.47450394657781619 0.31670873180267101 0 -0.46278391758065812 0.31307961696737913 0 -0.46701487013764481 0.32181285142151961 0 -0.46278391758065812 0.31307961696737913 0 -0.46701487013764481 0.32181285142151961 0 -0.4588235344815097 0.32350028147884091 0 -0.46278391758065812 0.31307961696737913 0 -0.4588235344815097 0.32350028147884091 0 -0.44469223395398688 0.31802383968403619 0 -0.46701487013764481 0.32181285142151961 0 -0.4588235344815097 0.32350028147884091 0 -0.46420987370697381 0.33078732517422671 0 -0.47475307834126579 0.32498830168448017 0 -0.46701487013764481 0.32181285142151961 0 -0.46420987370697381 0.33078732517422671 0 -0.4588235344815097 0.32350028147884091 0 -0.46420987370697381 0.33078732517422671 0 -0.45236040337518668 0.32990432989896828 0 -0.46775249084469611 0.34177006756372669 0 -0.46420987370697381 0.33078732517422671 0 -0.45432879215094069 0.34100391104764971 0 -0.46420987370697381 0.33078732517422671 0 -0.45432879215094069 0.34100391104764971 0 -0.45236040337518668 0.32990432989896828 0 -0.43075034150786318 0.33562243412505099 0 -0.44365643767006641 0.33392726239706821 0 -0.44469223395398688 0.31802383968403619 0 -0.44409178000092348 0.34591624256049253 0 -0.45432879215094069 0.34100391104764971 0 -0.44365643767006641 0.33392726239706821 0 -0.45432879215094069 0.34100391104764971 0 -0.45236040337518668 0.32990432989896828 0 -0.44365643767006641 0.33392726239706821 0 -0.43075034150786318 0.33562243412505099 0 -0.44409178000092348 0.34591624256049253 0 -0.44365643767006641 0.33392726239706821 0 -0.43075034150786318 0.33562243412505099 0 -0.44469223395398688 0.31802383968403619 0 -0.45236040337518668 0.32990432989896828 0 -0.44365643767006641 0.33392726239706821 0 -0.44469223395398688 0.31802383968403619 0 -0.4588235344815097 0.32350028147884091 0 -0.45236040337518668 0.32990432989896828 0 -0.44469223395398688 0.31802383968403619 0 -0.43505506937184601 0.31529600537732688 0 -0.44469223395398688 0.31802383968403619 0 -0.43526242685056848 0.3050166046263546 0 -0.44469223395398688 0.31802383968403619 0 -0.45863412640011142 0.30042524524302178 0 -0.44469223395398688 0.31802383968403619 0 -0.44730670349988411 0.2961725163978518 0 -0.43526242685056848 0.3050166046263546 0 -0.44469223395398688 0.31802383968403619 0 -0.44730670349988411 0.2961725163978518 0 -0.45863412640011142 0.30042524524302178 0 -0.44388905983095178 0.28372217209617168 0 -0.44730670349988411 0.2961725163978518 0 -0.4598526872944792 0.28154859924639242 0 -0.44388905983095178 0.28372217209617168 0 -0.44730670349988411 0.2961725163978518 0 -0.43392523019527179 0.28942496760161662 0 -0.44730670349988411 0.2961725163978518 0 -0.45863412640011142 0.30042524524302178 0 -0.47272529617965281 0.29399252355554722 0 -0.44730670349988411 0.2961725163978518 0 -0.4598526872944792 0.28154859924639242 0 -0.47272529617965281 0.29399252355554722 0 -0.44730670349988411 0.2961725163978518 0 -0.47272529617965281 0.29399252355554722 0 -0.4598526872944792 0.28154859924639242 0 -0.47272529617965281 0.29399252355554722 0 -0.47287776764170858 0.28142044915368802 0 -0.46278391758065812 0.31307961696737913 0 -0.44469223395398688 0.31802383968403619 0 -0.45863412640011142 0.30042524524302178 0 -0.45863412640011142 0.30042524524302178 0 -0.47201414063318908 0.3061200084720318 0 -0.47272529617965281 0.29399252355554722 0 -0.46278391758065812 0.31307961696737913 0 -0.45863412640011142 0.30042524524302178 0 -0.47201414063318908 0.3061200084720318 0 -0.47450394657781619 0.31670873180267101 0 -0.46278391758065812 0.31307961696737913 0 -0.47201414063318908 0.3061200084720318 0 -0.48262816272648351 0.30493211645745238 0 -0.47272529617965281 0.29399252355554722 0 -0.48901269418658683 0.30036559389401912 0 -0.47450394657781619 0.31670873180267101 0 -0.47201414063318908 0.3061200084720318 0 -0.47829028578430499 0.31061212875390132 0 -0.47201414063318908 0.3061200084720318 0 -0.47829028578430499 0.31061212875390132 0 -0.48262816272648351 0.30493211645745238 0 -0.48337642849944412 0.31459052737724391 0 -0.47829028578430499 0.31061212875390132 0 -0.48262816272648351 0.30493211645745238 0 -0.47201414063318908 0.3061200084720318 0 -0.48262816272648351 0.30493211645745238 0 -0.47272529617965281 0.29399252355554722 0 -0.47272529617965281 0.29399252355554722 0 -0.47287776764170858 0.28142044915368802 0 -0.48453072783931811 0.28003659837775291 0 -0.49814388885942151 0.29181253071324259 0 -0.5 0.30316310255033979 0 -0.5 0.27442974723205382 0 -0.49814388885942151 0.29181253071324259 0 -0.5 0.27442974723205382 0 -0.48453072783931811 0.28003659837775291 0 -0.47272529617965281 0.29399252355554722 0 -0.49814388885942151 0.29181253071324259 0 -0.48901269418658683 0.30036559389401912 0 -0.47272529617965281 0.29399252355554722 0 -0.49814388885942151 0.29181253071324259 0 -0.48453072783931811 0.28003659837775291 0 -0.47272529617965281 0.29399252355554722 0 -0.49814388885942151 0.29181253071324259 0 -0.49814388885942151 0.29181253071324259 0 -0.5 0.30316310255033979 0 -0.48901269418658683 0.30036559389401912 0 -0.5 0.30316310255033979 0 -0.48923330192872999 0.30802272629239752 0 -0.48901269418658683 0.30036559389401912 0 -0.49114922423113599 0.31706229118293222 0 -0.5 0.30316310255033979 0 -0.48923330192872999 0.30802272629239752 0 -0.48337642849944412 0.31459052737724391 0 -0.48262816272648351 0.30493211645745238 0 -0.48923330192872999 0.30802272629239752 0 -0.48262816272648351 0.30493211645745238 0 -0.48923330192872999 0.30802272629239752 0 -0.48901269418658683 0.30036559389401912 0 -0.5 0.24569639191376769 0 -0.48736816545933559 0.26434158349195369 0 -0.5 0.27442974723205382 0 -0.5 0.24569639191376769 0 -0.48736816545933559 0.26434158349195369 0 -0.47790774020397558 0.25144110450113488 0 -0.48736816545933559 0.26434158349195369 0 -0.5 0.27442974723205382 0 -0.48453072783931811 0.28003659837775291 0 -0.48736816545933559 0.26434158349195369 0 -0.48453072783931811 0.28003659837775291 0 -0.47440235925338442 0.27010407543505971 0 -0.47287776764170858 0.28142044915368802 0 -0.48453072783931811 0.28003659837775291 0 -0.47440235925338442 0.27010407543505971 0 -0.4598526872944792 0.28154859924639242 0 -0.47287776764170858 0.28142044915368802 0 -0.47440235925338442 0.27010407543505971 0 -0.48736816545933559 0.26434158349195369 0 -0.47440235925338442 0.27010407543505971 0 -0.47790774020397558 0.25144110450113488 0 -0.47440235925338442 0.27010407543505971 0 -0.47790774020397558 0.25144110450113488 0 -0.46274711247525863 0.26068785709014081 0 -0.46470531482263477 0.2425530545157277 0 -0.47790774020397558 0.25144110450113488 0 -0.46274711247525863 0.26068785709014081 0 -0.44907064711314898 0.24935538378234501 0 -0.46470531482263477 0.2425530545157277 0 -0.46274711247525863 0.26068785709014081 0 -0.44907064711314898 0.24935538378234501 0 -0.46274711247525863 0.26068785709014081 0 -0.45054392616392869 0.26912492506018543 0 -0.4598526872944792 0.28154859924639242 0 -0.47440235925338442 0.27010407543505971 0 -0.46274711247525863 0.26068785709014081 0 -0.4598526872944792 0.28154859924639242 0 -0.46274711247525863 0.26068785709014081 0 -0.45054392616392869 0.26912492506018543 0 -0.45054392616392869 0.26912492506018543 0 -0.42930263375032468 0.2578565038529651 0 -0.43713611735243452 0.27515439597541408 0 -0.44388905983095178 0.28372217209617168 0 -0.4598526872944792 0.28154859924639242 0 -0.45054392616392869 0.26912492506018543 0 -0.44388905983095178 0.28372217209617168 0 -0.45054392616392869 0.26912492506018543 0 -0.43713611735243452 0.27515439597541408 0 -0.44388905983095178 0.28372217209617168 0 -0.43713611735243452 0.27515439597541408 0 -0.43219557623846311 0.28186877581558162 0 -0.45054392616392869 0.26912492506018543 0 -0.42930263375032468 0.2578565038529651 0 -0.44907064711314898 0.24935538378234501 0 -0.45054392616392869 0.26912492506018543 0 -0.42930263375032468 0.2578565038529651 0 -0.40307080517333382 0.24394062304470629 0 -0.42930263375032468 0.2578565038529651 0 -0.4111880249248589 0.25335352290937652 0 -0.4111880249248589 0.25335352290937652 0 -0.42032819471677008 0.26625363055695672 0 -0.41653806787248771 0.27585301607476631 0 -0.40307080517333382 0.24394062304470629 0 -0.42930263375032468 0.2578565038529651 0 -0.4111880249248589 0.25335352290937652 0 -0.41653806787248771 0.27585301607476631 0 -0.42930263375032468 0.2578565038529651 0 -0.4111880249248589 0.25335352290937652 0 -0.42032819471677008 0.26625363055695672 0 -0.4111880249248589 0.25335352290937652 0 -0.41653806787248771 0.27585301607476631 0 -0.40608290601979452 0.26745589013986432 0 -0.40655733108942271 0.27778369802509201 0 -0.41653806787248771 0.27585301607476631 0 -0.40985511736462998 0.28830321730792641 0 -0.40655733108942271 0.27778369802509201 0 -0.41653806787248771 0.27585301607476631 0 -0.40608290601979452 0.26745589013986432 0 -0.42032819471677008 0.26625363055695672 0 -0.41653806787248771 0.27585301607476631 0 -0.42428405231940919 0.27795147939071913 0 -0.42930263375032468 0.2578565038529651 0 -0.42032819471677008 0.26625363055695672 0 -0.42428405231940919 0.27795147939071913 0 -0.42930263375032468 0.2578565038529651 0 -0.42428405231940919 0.27795147939071913 0 -0.43713611735243452 0.27515439597541408 0 -0.42930263375032468 0.2578565038529651 0 -0.42428405231940919 0.27795147939071913 0 -0.41653806787248771 0.27585301607476631 0 -0.42428405231940919 0.27795147939071913 0 -0.42541800314407918 0.28549799203395848 0 -0.42428405231940919 0.27795147939071913 0 -0.43713611735243452 0.27515439597541408 0 -0.43219557623846311 0.28186877581558162 0 -0.44388905983095178 0.28372217209617168 0 -0.43219557623846311 0.28186877581558162 0 -0.43392523019527179 0.28942496760161662 0 -0.44730670349988411 0.2961725163978518 0 -0.43392523019527179 0.28942496760161662 0 -0.4218881108201154 0.29835250924015622 0 -0.43219557623846311 0.28186877581558162 0 -0.43392523019527179 0.28942496760161662 0 -0.42541800314407918 0.28549799203395848 0 -0.43392523019527179 0.28942496760161662 0 -0.42541800314407918 0.28549799203395848 0 -0.4218881108201154 0.29835250924015622 0 -0.42428405231940919 0.27795147939071913 0 -0.43219557623846311 0.28186877581558162 0 -0.42541800314407918 0.28549799203395848 0 -0.44730670349988411 0.2961725163978518 0 -0.43526242685056848 0.3050166046263546 0 -0.4218881108201154 0.29835250924015622 0 -0.44730670349988411 0.2961725163978518 0 -0.4218881108201154 0.29835250924015622 0 -0.42631922616399032 0.31698747168260338 0 -0.4218881108201154 0.29835250924015622 0 -0.42963120830162999 0.30891314773161033 0 -0.42631922616399032 0.31698747168260338 0 -0.4218881108201154 0.29835250924015622 0 -0.41925311785082081 0.31191790276354081 0 -0.42631922616399032 0.31698747168260338 0 -0.4218881108201154 0.29835250924015622 0 -0.43505506937184601 0.31529600537732688 0 -0.43526242685056848 0.3050166046263546 0 -0.42963120830162999 0.30891314773161033 0 -0.43526242685056848 0.3050166046263546 0 -0.4218881108201154 0.29835250924015622 0 -0.42963120830162999 0.30891314773161033 0 -0.4218881108201154 0.29835250924015622 0 -0.40588563262862809 0.29972494115863718 0 -0.4218881108201154 0.29835250924015622 0 -0.41275601650015281 0.30870013756953302 0 -0.40588563262862809 0.29972494115863718 0 -0.4218881108201154 0.29835250924015622 0 -0.41925311785082081 0.31191790276354081 0 -0.41275601650015281 0.30870013756953302 0 -0.41461021859645208 0.31617951202795103 0 -0.41925311785082081 0.31191790276354081 0 -0.41275601650015281 0.30870013756953302 0 -0.41275601650015281 0.30870013756953302 0 -0.40435763886683462 0.31021253591659659 0 -0.40588563262862809 0.29972494115863718 0 -0.40801823548127242 0.31566272422673958 0 -0.41275601650015281 0.30870013756953302 0 -0.40435763886683462 0.31021253591659659 0 -0.41653806787248771 0.27585301607476631 0 -0.4218881108201154 0.29835250924015622 0 -0.40985511736462998 0.28830321730792641 0 -0.41653806787248771 0.27585301607476631 0 -0.42541800314407918 0.28549799203395848 0 -0.4218881108201154 0.29835250924015622 0 -0.41653806787248771 0.27585301607476631 0 -0.4218881108201154 0.29835250924015622 0 -0.4218881108201154 0.29835250924015622 0 -0.40985511736462998 0.28830321730792641 0 -0.40588563262862809 0.29972494115863718 0 -0.40985511736462998 0.28830321730792641 0 -0.40031911331437259 0.28249277767540448 0 -0.39911617826550028 0.29082077962762298 0 -0.40655733108942271 0.27778369802509201 0 -0.40985511736462998 0.28830321730792641 0 -0.40031911331437259 0.28249277767540448 0 -0.39911617826550028 0.29082077962762298 0 -0.39431523221681108 0.29985786931479952 0 -0.38338821116744709 0.27892061734314588 0 -0.40031911331437259 0.28249277767540448 0 -0.39911617826550028 0.29082077962762298 0 -0.38338821116744709 0.27892061734314588 0 -0.40985511736462998 0.28830321730792641 0 -0.39911617826550028 0.29082077962762298 0 -0.40588563262862809 0.29972494115863718 0 -0.39911617826550028 0.29082077962762298 0 -0.40588563262862809 0.29972494115863718 0 -0.39431523221681108 0.29985786931479952 0 -0.40588563262862809 0.29972494115863718 0 -0.39825388106679133 0.30471936076991618 0 -0.38988315443714072 0.30109737307711798 0 -0.40588563262862809 0.29972494115863718 0 -0.38988315443714072 0.30109737307711798 0 -0.40588563262862809 0.29972494115863718 0 -0.39431523221681108 0.29985786931479952 0 -0.38988315443714072 0.30109737307711798 0 -0.40435763886683462 0.31021253591659659 0 -0.40588563262862809 0.29972494115863718 0 -0.39825388106679133 0.30471936076991618 0 -0.40435763886683462 0.31021253591659659 0 -0.39825388106679133 0.30471936076991618 0 -0.39663492459555949 0.31068477745172057 0 -0.39825388106679133 0.30471936076991618 0 -0.39275795241490219 0.30656408718559047 0 -0.38988315443714072 0.30109737307711798 0 -0.39825388106679133 0.30471936076991618 0 -0.39275795241490219 0.30656408718559047 0 -0.39663492459555949 0.31068477745172057 0 -0.39275795241490219 0.30656408718559047 0 -0.39663492459555949 0.31068477745172057 0 -0.39030910441633948 0.31068228488012578 0 -0.38436920231913918 0.31635206791452941 0 -0.39030910441633948 0.31068228488012578 0 -0.383155694605536 0.30717472510955018 0 -0.39030910441633948 0.31068228488012578 0 -0.38870869755867998 0.3056366397490719 0 -0.383155694605536 0.30717472510955018 0 -0.39275795241490219 0.30656408718559047 0 -0.39030910441633948 0.31068228488012578 0 -0.38870869755867998 0.3056366397490719 0 -0.38870869755867998 0.3056366397490719 0 -0.383155694605536 0.30717472510955018 0 -0.38579760855491341 0.30294333066761098 0 -0.38579760855491341 0.30294333066761098 0 -0.38988315443714072 0.30109737307711798 0 -0.38142562547606002 0.29732108470863378 0 -0.383155694605536 0.30717472510955018 0 -0.38579760855491341 0.30294333066761098 0 -0.38142562547606002 0.29732108470863378 0 -0.39275795241490219 0.30656408718559047 0 -0.38870869755867998 0.3056366397490719 0 -0.38988315443714072 0.30109737307711798 0 -0.38870869755867998 0.3056366397490719 0 -0.38579760855491341 0.30294333066761098 0 -0.38988315443714072 0.30109737307711798 0 -0.383155694605536 0.30717472510955018 0 -0.38142562547606002 0.29732108470863378 0 -0.37330517518225431 0.30256514344350072 0 -0.38142562547606002 0.29732108470863378 0 -0.37301312007017029 0.29088563109458399 0 -0.37330517518225431 0.30256514344350072 0 -0.383155694605536 0.30717472510955018 0 -0.37537164453412292 0.31136461011921451 0 -0.37330517518225431 0.30256514344350072 0 -0.38436920231913918 0.31635206791452941 0 -0.383155694605536 0.30717472510955018 0 -0.37537164453412292 0.31136461011921451 0 -0.38142562547606002 0.29732108470863378 0 -0.38338821116744709 0.27892061734314588 0 -0.37301312007017029 0.29088563109458399 0 -0.38988315443714072 0.30109737307711798 0 -0.38142562547606002 0.29732108470863378 0 -0.38338821116744709 0.27892061734314588 0 -0.39431523221681108 0.29985786931479952 0 -0.38988315443714072 0.30109737307711798 0 -0.38338821116744709 0.27892061734314588 0 -0.39431523221681108 0.29985786931479952 0 -0.38338821116744709 0.27892061734314588 0 -0.38338821116744709 0.27892061734314588 0 -0.38741813229669081 0.26316619833916832 0 -0.37246119011808321 0.25798336537149219 0 -0.38338821116744709 0.27892061734314588 0 -0.37246119011808321 0.25798336537149219 0 -0.38338821116744709 0.27892061734314588 0 -0.38741813229669081 0.26316619833916832 0 -0.39752897171286111 0.27191705439585412 0 -0.38511015398572052 0.2486377952911166 0 -0.38741813229669081 0.26316619833916832 0 -0.37246119011808321 0.25798336537149219 0 -0.38511015398572052 0.2486377952911166 0 -0.37398612244221657 0.2434230040747235 0 -0.37246119011808321 0.25798336537149219 0 -0.38511015398572052 0.2486377952911166 0 -0.38741813229669081 0.26316619833916832 0 -0.39860213449934229 0.25837215929423307 0 -0.38511015398572052 0.2486377952911166 0 -0.40307080517333382 0.24394062304470629 0 -0.39860213449934229 0.25837215929423307 0 -0.38741813229669081 0.26316619833916832 0 -0.39860213449934229 0.25837215929423307 0 -0.39752897171286111 0.27191705439585412 0 -0.40307080517333382 0.24394062304470629 0 -0.4111880249248589 0.25335352290937652 0 -0.39860213449934229 0.25837215929423307 0 -0.4111880249248589 0.25335352290937652 0 -0.39860213449934229 0.25837215929423307 0 -0.40608290601979452 0.26745589013986432 0 -0.40655733108942271 0.27778369802509201 0 -0.40608290601979452 0.26745589013986432 0 -0.39752897171286111 0.27191705439585412 0 -0.40031911331437259 0.28249277767540448 0 -0.38338821116744709 0.27892061734314588 0 -0.39752897171286111 0.27191705439585412 0 -0.39860213449934229 0.25837215929423307 0 -0.40608290601979452 0.26745589013986432 0 -0.39752897171286111 0.27191705439585412 0 -0.40655733108942271 0.27778369802509201 0 -0.40031911331437259 0.28249277767540448 0 -0.39752897171286111 0.27191705439585412 0 -0.35357443647060788 0.26602946875642569 0 -0.36196666240696251 0.28235970841195968 0 -0.3395134967611898 0.28136313346970682 0 -0.35357443647060788 0.26602946875642569 0 -0.3395134967611898 0.28136313346970682 0 -0.33858125183573962 0.2577039696868697 0 -0.35357443647060788 0.26602946875642569 0 -0.35383122004284839 0.25096525929895958 0 -0.33858125183573962 0.2577039696868697 0 -0.35357443647060788 0.26602946875642569 0 -0.35383122004284839 0.25096525929895958 0 -0.37246119011808321 0.25798336537149219 0 -0.35357443647060788 0.26602946875642569 0 -0.37246119011808321 0.25798336537149219 0 -0.36196666240696251 0.28235970841195968 0 -0.38338821116744709 0.27892061734314588 0 -0.37246119011808321 0.25798336537149219 0 -0.36196666240696251 0.28235970841195968 0 -0.38338821116744709 0.27892061734314588 0 -0.36196666240696251 0.28235970841195968 0 -0.37301312007017029 0.29088563109458399 0 -0.36196666240696251 0.28235970841195968 0 -0.37301312007017029 0.29088563109458399 0 -0.35818268999663572 0.30205444736487569 0 -0.37537164453412292 0.31136461011921451 0 -0.37330517518225431 0.30256514344350072 0 -0.36558203810121809 0.30910265848154428 0 -0.37301312007017029 0.29088563109458399 0 -0.37330517518225431 0.30256514344350072 0 -0.35818268999663572 0.30205444736487569 0 -0.37330517518225431 0.30256514344350072 0 -0.36558203810121809 0.30910265848154428 0 -0.35818268999663572 0.30205444736487569 0 -0.36558203810121809 0.30910265848154428 0 -0.35818268999663572 0.30205444736487569 0 -0.35494291918659038 0.31623682922544272 0 -0.35818268999663572 0.30205444736487569 0 -0.34035098230407851 0.30502565106359258 0 -0.35494291918659038 0.31623682922544272 0 -0.35818268999663572 0.30205444736487569 0 -0.3494109850257654 0.29276090653026021 0 -0.34035098230407851 0.30502565106359258 0 -0.36196666240696251 0.28235970841195968 0 -0.35818268999663572 0.30205444736487569 0 -0.3494109850257654 0.29276090653026021 0 -0.36196666240696251 0.28235970841195968 0 -0.3494109850257654 0.29276090653026021 0 -0.3395134967611898 0.28136313346970682 0 -0.3395134967611898 0.28136313346970682 0 -0.32846683215857991 0.29308845697885483 0 -0.31788582653708342 0.27980728983353781 0 -0.3395134967611898 0.28136313346970682 0 -0.32846683215857991 0.29308845697885483 0 -0.34035098230407851 0.30502565106359258 0 -0.3395134967611898 0.28136313346970682 0 -0.34035098230407851 0.30502565106359258 0 -0.3494109850257654 0.29276090653026021 0 -0.3395134967611898 0.28136313346970682 0 -0.34035098230407851 0.30502565106359258 0 -0.32846683215857991 0.29308845697885483 0 -0.34035098230407851 0.30502565106359258 0 -0.32721551714290859 0.30478603697005191 0 -0.34035098230407851 0.30502565106359258 0 -0.32721551714290859 0.30478603697005191 0 -0.33336662506065251 0.31674192386731909 0 -0.32721551714290859 0.30478603697005191 0 -0.31742340827655002 0.31293862188026361 0 -0.33336662506065251 0.31674192386731909 0 -0.32846683215857991 0.29308845697885483 0 -0.32721551714290859 0.30478603697005191 0 -0.31557113778172502 0.29781088856307281 0 -0.32721551714290859 0.30478603697005191 0 -0.31557113778172502 0.29781088856307281 0 -0.31742340827655002 0.31293862188026361 0 -0.32846683215857991 0.29308845697885483 0 -0.31557113778172502 0.29781088856307281 0 -0.31788582653708342 0.27980728983353781 0 -0.3395134967611898 0.28136313346970682 0 -0.31788582653708342 0.27980728983353781 0 -0.32504970262798638 0.26536410841710689 0 -0.31788582653708342 0.27980728983353781 0 -0.32504970262798638 0.26536410841710689 0 -0.30941565744284261 0.26257127750514109 0 -0.3395134967611898 0.28136313346970682 0 -0.33858125183573962 0.2577039696868697 0 -0.3395134967611898 0.28136313346970682 0 -0.33858125183573962 0.2577039696868697 0 -0.32504970262798638 0.26536410841710689 0 -0.31985228056307641 0.2453748715902791 0 -0.33858125183573962 0.2577039696868697 0 -0.32504970262798638 0.26536410841710689 0 -0.31985228056307641 0.2453748715902791 0 -0.32504970262798638 0.26536410841710689 0 -0.30941565744284261 0.26257127750514109 0 -0.31985228056307641 0.2453748715902791 0 -0.29940859687451638 0.2465419436069875 0 -0.30941565744284261 0.26257127750514109 0 -0.29940859687451638 0.2465419436069875 0 -0.30941565744284261 0.26257127750514109 0 -0.29276429172905921 0.27108606346672082 0 -0.31788582653708342 0.27980728983353781 0 -0.29276429172905921 0.27108606346672082 0 -0.29417948398053018 0.29161253276938232 0 -0.31788582653708342 0.27980728983353781 0 -0.30941565744284261 0.26257127750514109 0 -0.29276429172905921 0.27108606346672082 0 -0.29276429172905921 0.27108606346672082 0 -0.27223556368155222 0.27543783989269771 0 -0.29417948398053018 0.29161253276938232 0 -0.29940859687451638 0.2465419436069875 0 -0.29276429172905921 0.27108606346672082 0 -0.27882243381333138 0.25002155311163943 0 -0.29276429172905921 0.27108606346672082 0 -0.27882243381333138 0.25002155311163943 0 -0.27223556368155222 0.27543783989269771 0 -0.27882243381333138 0.25002155311163943 0 -0.27223556368155222 0.27543783989269771 0 -0.25994981113117638 0.2595370196005905 0 -0.27223556368155222 0.27543783989269771 0 -0.25302752541997647 0.27495473976011231 0 -0.25994981113117638 0.2595370196005905 0 -0.25302752541997647 0.27495473976011231 0 -0.25994981113117638 0.2595370196005905 0 -0.24073283793148881 0.2599430092145163 0 -0.25312730452603122 0.23956148187864251 0 -0.25994981113117638 0.2595370196005905 0 -0.24073283793148881 0.2599430092145163 0 -0.2544908832576937 0.31672420584868222 0 -0.24949777065810261 0.2920740977041657 0 -0.26888580620373792 0.29479200491066387 0 -0.2544908832576937 0.31672420584868222 0 -0.24949777065810261 0.2920740977041657 0 -0.25302752541997647 0.27495473976011231 0 -0.26888580620373792 0.29479200491066387 0 -0.24949777065810261 0.2920740977041657 0 -0.27223556368155222 0.27543783989269771 0 -0.25302752541997647 0.27495473976011231 0 -0.26888580620373792 0.29479200491066387 0 -0.27223556368155222 0.27543783989269771 0 -0.26888580620373792 0.29479200491066387 0 -0.29417948398053018 0.29161253276938232 0 -0.26888580620373792 0.29479200491066387 0 -0.28345935436648789 0.3104603338504337 0 -0.2544908832576937 0.31672420584868222 0 -0.26888580620373792 0.29479200491066387 0 -0.28345935436648789 0.3104603338504337 0 -0.29417948398053018 0.29161253276938232 0 -0.28345935436648789 0.3104603338504337 0 -0.29417948398053018 0.29161253276938232 0 -0.30259248593301918 0.30622259924901291 0 -0.31557113778172502 0.29781088856307281 0 -0.31788582653708342 0.27980728983353781 0 -0.29417948398053018 0.29161253276938232 0 -0.31557113778172502 0.29781088856307281 0 -0.29417948398053018 0.29161253276938232 0 -0.30259248593301918 0.30622259924901291 0 -0.31557113778172502 0.29781088856307281 0 -0.30259248593301918 0.30622259924901291 0 -0.31742340827655002 0.31293862188026361 0 -0.30259248593301918 0.30622259924901291 0 -0.30094689370593253 0.3214507429375732 0 -0.31742340827655002 0.31293862188026361 0 -0.30191281621361837 0.33675139603613319 0 -0.31264227723866361 0.35120432941429203 0 -0.31986653409973992 0.32874683653337639 0 -0.30094689370593253 0.3214507429375732 0 -0.30191281621361837 0.33675139603613319 0 -0.31986653409973992 0.32874683653337639 0 -0.30094689370593253 0.3214507429375732 0 -0.30191281621361837 0.33675139603613319 0 -0.28189619491915668 0.33242846113465069 0 -0.30191281621361837 0.33675139603613319 0 -0.28189619491915668 0.33242846113465069 0 -0.29421218110459968 0.34992661016077348 0 -0.28345935436648789 0.3104603338504337 0 -0.30094689370593253 0.3214507429375732 0 -0.28189619491915668 0.33242846113465069 0 -0.28345935436648789 0.3104603338504337 0 -0.30259248593301918 0.30622259924901291 0 -0.30094689370593253 0.3214507429375732 0 -0.28345935436648789 0.3104603338504337 0 -0.28189619491915668 0.33242846113465069 0 -0.2544908832576937 0.31672420584868222 0 -0.28189619491915668 0.33242846113465069 0 -0.25948399585728482 0.34137431399319879 0 -0.27592348790963372 0.35107648294115429 0 -0.25948399585728482 0.34137431399319879 0 -0.2544908832576937 0.31672420584868222 0 -0.25948399585728482 0.34137431399319879 0 -0.2544908832576937 0.31672420584868222 0 -0.2403082550886354 0.33525587944787089 0 -0.28189619491915668 0.33242846113465069 0 -0.25948399585728482 0.34137431399319879 0 -0.2544908832576937 0.31672420584868222 0 -0.26447710845687589 0.36602442213771541 0 -0.25344913916697809 0.39067791135487839 0 -0.24753088660224451 0.36542177786824348 0 -0.25948399585728482 0.34137431399319879 0 -0.26447710845687589 0.36602442213771541 0 -0.25948399585728482 0.34137431399319879 0 -0.26447710845687589 0.36602442213771541 0 -0.24753088660224451 0.36542177786824348 0 -0.25948399585728482 0.34137431399319879 0 -0.26447710845687589 0.36602442213771541 0 -0.27592348790963372 0.35107648294115429 0 -0.26447710845687589 0.36602442213771541 0 -0.28831094848046968 0.36416185716644578 0 -0.27639928179885731 0.37677566139561042 0 -0.26447710845687589 0.36602442213771541 0 -0.27592348790963372 0.35107648294115429 0 -0.28831094848046968 0.36416185716644578 0 -0.28831094848046968 0.36416185716644578 0 -0.28736245902946189 0.37521017521614503 0 -0.27639928179885731 0.37677566139561042 0 -0.28831094848046968 0.36416185716644578 0 -0.29410102025694229 0.37277749705182062 0 -0.30424876641348958 0.36704329830700011 0 -0.28831094848046968 0.36416185716644578 0 -0.29421218110459968 0.34992661016077348 0 -0.30424876641348958 0.36704329830700011 0 -0.28831094848046968 0.36416185716644578 0 -0.29410102025694229 0.37277749705182062 0 -0.28736245902946189 0.37521017521614503 0 -0.27592348790963372 0.35107648294115429 0 -0.28831094848046968 0.36416185716644578 0 -0.29421218110459968 0.34992661016077348 0 -0.28189619491915668 0.33242846113465069 0 -0.27592348790963372 0.35107648294115429 0 -0.29421218110459968 0.34992661016077348 0 -0.29421218110459968 0.34992661016077348 0 -0.30424876641348958 0.36704329830700011 0 -0.31264227723866361 0.35120432941429203 0 -0.30191281621361837 0.33675139603613319 0 -0.29421218110459968 0.34992661016077348 0 -0.31264227723866361 0.35120432941429203 0 -0.29410102025694229 0.37277749705182062 0 -0.30424876641348958 0.36704329830700011 0 -0.30159956019265621 0.37827634731242932 0 -0.30424876641348958 0.36704329830700011 0 -0.32617707414963137 0.37096797721095198 0 -0.31264227723866361 0.35120432941429203 0 -0.30424876641348958 0.36704329830700011 0 -0.32617707414963137 0.37096797721095198 0 -0.31303879990029138 0.38022391550816309 0 -0.32617707414963137 0.37096797721095198 0 -0.34808949292805857 0.35978272084784541 0 -0.34573397631723518 0.38319939157350857 0 -0.32617707414963137 0.37096797721095198 0 -0.32977184960514189 0.34385495053913551 0 -0.34808949292805857 0.35978272084784541 0 -0.32617707414963137 0.37096797721095198 0 -0.32977184960514189 0.34385495053913551 0 -0.32617707414963137 0.37096797721095198 0 -0.32977184960514189 0.34385495053913551 0 -0.31264227723866361 0.35120432941429203 0 -0.32977184960514189 0.34385495053913551 0 -0.31264227723866361 0.35120432941429203 0 -0.31986653409973992 0.32874683653337639 0 -0.32977184960514189 0.34385495053913551 0 -0.31986653409973992 0.32874683653337639 0 -0.33336662506065251 0.31674192386731909 0 -0.30094689370593253 0.3214507429375732 0 -0.31986653409973992 0.32874683653337639 0 -0.31742340827655002 0.31293862188026361 0 -0.31986653409973992 0.32874683653337639 0 -0.31742340827655002 0.31293862188026361 0 -0.33336662506065251 0.31674192386731909 0 -0.32977184960514189 0.34385495053913551 0 -0.33336662506065251 0.31674192386731909 0 -0.34302828198251722 0.32143933785332512 0 -0.34035098230407851 0.30502565106359258 0 -0.33336662506065251 0.31674192386731909 0 -0.34302828198251722 0.32143933785332512 0 -0.32977184960514189 0.34385495053913551 0 -0.34302828198251722 0.32143933785332512 0 -0.34946597784746741 0.33003988345125962 0 -0.32977184960514189 0.34385495053913551 0 -0.33336662506065251 0.31674192386731909 0 -0.32977184960514189 0.34385495053913551 0 -0.34946597784746741 0.33003988345125962 0 -0.35375878840376501 0.34180735323869788 0 -0.34946597784746741 0.33003988345125962 0 -0.35375878840376501 0.34180735323869788 0 -0.36140421983251592 0.32844954207446558 0 -0.34035098230407851 0.30502565106359258 0 -0.34302828198251722 0.32143933785332512 0 -0.35494291918659038 0.31623682922544272 0 -0.34302828198251722 0.32143933785332512 0 -0.34946597784746741 0.33003988345125962 0 -0.35494291918659038 0.31623682922544272 0 -0.34946597784746741 0.33003988345125962 0 -0.35494291918659038 0.31623682922544272 0 -0.36140421983251592 0.32844954207446558 0 -0.36558203810121809 0.30910265848154428 0 -0.35494291918659038 0.31623682922544272 0 -0.36641851258305219 0.31802776515259967 0 -0.35494291918659038 0.31623682922544272 0 -0.36641851258305219 0.31802776515259967 0 -0.36140421983251592 0.32844954207446558 0 -0.36641851258305219 0.31802776515259967 0 -0.3693419495085738 0.32577319349094402 0 -0.36140421983251592 0.32844954207446558 0 -0.37694366708074389 0.32840442101806289 0 -0.3693419495085738 0.32577319349094402 0 -0.37484462938147339 0.32008442571239648 0 -0.36641851258305219 0.31802776515259967 0 -0.3693419495085738 0.32577319349094402 0 -0.37484462938147339 0.32008442571239648 0 -0.37537164453412292 0.31136461011921451 0 -0.36558203810121809 0.30910265848154428 0 -0.36641851258305219 0.31802776515259967 0 -0.37537164453412292 0.31136461011921451 0 -0.36641851258305219 0.31802776515259967 0 -0.37484462938147339 0.32008442571239648 0 -0.35375878840376501 0.34180735323869788 0 -0.36140421983251592 0.32844954207446558 0 -0.36997981312873668 0.33633618023938833 0 -0.35375878840376501 0.34180735323869788 0 -0.36997981312873668 0.33633618023938833 0 -0.3649440582713096 0.35228473516781322 0 -0.3693419495085738 0.32577319349094402 0 -0.36140421983251592 0.32844954207446558 0 -0.36997981312873668 0.33633618023938833 0 -0.37694366708074389 0.32840442101806289 0 -0.3693419495085738 0.32577319349094402 0 -0.36997981312873668 0.33633618023938833 0 -0.37753211857243718 0.34592948831607878 0 -0.36997981312873668 0.33633618023938833 0 -0.3649440582713096 0.35228473516781322 0 -0.37657495410110609 0.35981517003075558 0 -0.37753211857243718 0.34592948831607878 0 -0.3649440582713096 0.35228473516781322 0 -0.37657495410110609 0.35981517003075558 0 -0.3649440582713096 0.35228473516781322 0 -0.36372918249375391 0.3700374983341127 0 -0.38040619740787462 0.37666572748219151 0 -0.37657495410110609 0.35981517003075558 0 -0.36372918249375391 0.3700374983341127 0 -0.3649440582713096 0.35228473516781322 0 -0.36372918249375391 0.3700374983341127 0 -0.34808949292805857 0.35978272084784541 0 -0.36372918249375391 0.3700374983341127 0 -0.34808949292805857 0.35978272084784541 0 -0.34573397631723518 0.38319939157350857 0 -0.32977184960514189 0.34385495053913551 0 -0.35375878840376501 0.34180735323869788 0 -0.34808949292805857 0.35978272084784541 0 -0.35375878840376501 0.34180735323869788 0 -0.3649440582713096 0.35228473516781322 0 -0.34808949292805857 0.35978272084784541 0 -0.34573397631723518 0.38319939157350857 0 -0.36772909712757962 0.38838113779028188 0 -0.34794816897901282 0.41064451953277159 0 -0.36372918249375391 0.3700374983341127 0 -0.34573397631723518 0.38319939157350857 0 -0.36772909712757962 0.38838113779028188 0 -0.38040619740787462 0.37666572748219151 0 -0.36372918249375391 0.3700374983341127 0 -0.36772909712757962 0.38838113779028188 0 -0.36772909712757962 0.38838113779028188 0 -0.37457348775900712 0.40543977999867609 0 -0.34794816897901282 0.41064451953277159 0 -0.37457348775900712 0.40543977999867609 0 -0.3733140392639081 0.42320803518277439 0 -0.34794816897901282 0.41064451953277159 0 -0.3733140392639081 0.42320803518277439 0 -0.34794816897901282 0.41064451953277159 0 -0.3733140392639081 0.42320803518277439 0 -0.35539728850092472 0.42668019029415499 0 -0.35999640081872158 0.44439738032818737 0 -0.35539728850092472 0.42668019029415499 0 -0.34794816897901282 0.41064451953277159 0 -0.34033054494205639 0.42847082613288662 0 -0.35539728850092472 0.42668019029415499 0 -0.34033054494205639 0.42847082613288662 0 -0.35999640081872158 0.44439738032818737 0 -0.34033054494205639 0.42847082613288662 0 -0.35999640081872158 0.44439738032818737 0 -0.3733140392639081 0.42320803518277439 0 -0.35539728850092472 0.42668019029415499 0 -0.34794816897901282 0.41064451953277159 0 -0.34794816897901282 0.41064451953277159 0 -0.32066468906539031 0.41254427193758741 0 -0.32258229869411797 0.39808100388276813 0 -0.34033054494205639 0.42847082613288662 0 -0.32066468906539031 0.41254427193758741 0 -0.34794816897901282 0.41064451953277159 0 -0.34033054494205639 0.42847082613288662 0 -0.32066468906539031 0.41254427193758741 0 -0.31753753955107039 0.43613030373229372 0 -0.32066468906539031 0.41254427193758741 0 -0.31088910120798668 0.42140057264364078 0 -0.34033054494205639 0.42847082613288662 0 -0.31753753955107039 0.43613030373229372 0 -0.32066468906539031 0.41254427193758741 0 -0.31753753955107039 0.43613030373229372 0 -0.32066468906539031 0.41254427193758741 0 -0.32066468906539031 0.41254427193758741 0 -0.31088910120798668 0.42140057264364078 0 -0.30672304957533048 0.41318377605354117 0 -0.32258229869411797 0.39808100388276813 0 -0.30625364069935029 0.3899935482600474 0 -0.32066468906539031 0.41254427193758741 0 -0.32258229869411797 0.39808100388276813 0 -0.30420328723498302 0.39921287105542502 0 -0.32066468906539031 0.41254427193758741 0 -0.32258229869411797 0.39808100388276813 0 -0.34794816897901282 0.41064451953277159 0 -0.32258229869411797 0.39808100388276813 0 -0.34573397631723518 0.38319939157350857 0 -0.34794816897901282 0.41064451953277159 0 -0.32258229869411797 0.39808100388276813 0 -0.32617707414963137 0.37096797721095198 0 -0.34573397631723518 0.38319939157350857 0 -0.32258229869411797 0.39808100388276813 0 -0.32617707414963137 0.37096797721095198 0 -0.32258229869411797 0.39808100388276813 0 -0.31303879990029138 0.38022391550816309 0 -0.32258229869411797 0.39808100388276813 0 -0.31303879990029138 0.38022391550816309 0 -0.30625364069935029 0.3899935482600474 0 -0.32617707414963137 0.37096797721095198 0 -0.32258229869411797 0.39808100388276813 0 -0.30625364069935029 0.3899935482600474 0 -0.28992498270458289 0.38190609263732578 0 -0.30625364069935029 0.3899935482600474 0 -0.30159956019265621 0.37827634731242932 0 -0.28992498270458289 0.38190609263732578 0 -0.30424876641348958 0.36704329830700011 0 -0.31303879990029138 0.38022391550816309 0 -0.30159956019265621 0.37827634731242932 0 -0.31303879990029138 0.38022391550816309 0 -0.30625364069935029 0.3899935482600474 0 -0.30159956019265621 0.37827634731242932 0 -0.30625364069935029 0.3899935482600474 0 -0.30420328723498302 0.39921287105542502 0 -0.28774188540457468 0.38588147017326407 0 -0.32258229869411797 0.39808100388276813 0 -0.30625364069935029 0.3899935482600474 0 -0.30420328723498302 0.39921287105542502 0 -0.32066468906539031 0.41254427193758741 0 -0.30420328723498302 0.39921287105542502 0 -0.30420328723498302 0.39921287105542502 0 -0.29595011805800497 0.40051391297854688 0 -0.29778998248516803 0.40700465330370422 0 -0.30420328723498302 0.39921287105542502 0 -0.29595011805800497 0.40051391297854688 0 -0.2926927793693862 0.39571646929406518 0 -0.30420328723498302 0.39921287105542502 0 -0.2926927793693862 0.39571646929406518 0 -0.28774188540457468 0.38588147017326407 0 -0.30420328723498302 0.39921287105542502 0 -0.28774188540457468 0.38588147017326407 0 -0.29595011805800497 0.40051391297854688 0 -0.28905208189591569 0.40014831429476999 0 -0.29778998248516803 0.40700465330370422 0 -0.28905208189591569 0.40014831429476999 0 -0.28898627566041329 0.40911771793725088 0 -0.29778998248516803 0.40700465330370422 0 -0.29595011805800497 0.40051391297854688 0 -0.2926927793693862 0.39571646929406518 0 -0.28905208189591569 0.40014831429476999 0 -0.2926927793693862 0.39571646929406518 0 -0.28651652425345242 0.39282577796832002 0 -0.28905208189591569 0.40014831429476999 0 -0.2926927793693862 0.39571646929406518 0 -0.28651652425345242 0.39282577796832002 0 -0.28774188540457468 0.38588147017326407 0 -0.28651652425345242 0.39282577796832002 0 -0.28905208189591569 0.40014831429476999 0 -0.28016788447111268 0.39423187010371552 0 -0.28651652425345242 0.39282577796832002 0 -0.28079089076777719 0.38696441393421438 0 -0.28016788447111268 0.39423187010371552 0 -0.28905208189591569 0.40014831429476999 0 -0.28002949085223422 0.40333972386714861 0 -0.28898627566041329 0.40911771793725088 0 -0.28905208189591569 0.40014831429476999 0 -0.28016788447111268 0.39423187010371552 0 -0.28002949085223422 0.40333972386714861 0 -0.30625364069935029 0.3899935482600474 0 -0.28992498270458289 0.38190609263732578 0 -0.28774188540457468 0.38588147017326407 0 -0.29410102025694229 0.37277749705182062 0 -0.30159956019265621 0.37827634731242932 0 -0.28992498270458289 0.38190609263732578 0 -0.29410102025694229 0.37277749705182062 0 -0.28992498270458289 0.38190609263732578 0 -0.28736245902946189 0.37521017521614503 0 -0.28992498270458289 0.38190609263732578 0 -0.28774188540457468 0.38588147017326407 0 -0.28444954762219921 0.38139717368214437 0 -0.28651652425345242 0.39282577796832002 0 -0.28774188540457468 0.38588147017326407 0 -0.28079089076777719 0.38696441393421438 0 -0.28774188540457468 0.38588147017326407 0 -0.28444954762219921 0.38139717368214437 0 -0.28079089076777719 0.38696441393421438 0 -0.28444954762219921 0.38139717368214437 0 -0.28736245902946189 0.37521017521614503 0 -0.27639928179885731 0.37677566139561042 0 -0.28992498270458289 0.38190609263732578 0 -0.28444954762219921 0.38139717368214437 0 -0.28736245902946189 0.37521017521614503 0 -0.28444954762219921 0.38139717368214437 0 -0.27639928179885731 0.37677566139561042 0 -0.28079089076777719 0.38696441393421438 0 -0.26447710845687589 0.36602442213771541 0 -0.26947022105646712 0.39067453028223198 0 -0.26447710845687589 0.36602442213771541 0 -0.27639928179885731 0.37677566139561042 0 -0.26947022105646712 0.39067453028223198 0 -0.27639928179885731 0.37677566139561042 0 -0.28079089076777719 0.38696441393421438 0 -0.26947022105646712 0.39067453028223198 0 -0.28079089076777719 0.38696441393421438 0 -0.28016788447111268 0.39423187010371552 0 -0.26947022105646712 0.39067453028223198 0 -0.26947022105646712 0.39067453028223198 0 -0.27446333365605818 0.41532463842674849 0 -0.28016788447111268 0.39423187010371552 0 -0.28002949085223422 0.40333972386714861 0 -0.26947022105646712 0.39067453028223198 0 -0.26947022105646712 0.39067453028223198 0 -0.26299115892849517 0.40563985108914408 0 -0.27446333365605818 0.41532463842674849 0 -0.28002949085223422 0.40333972386714861 0 -0.26947022105646712 0.39067453028223198 0 -0.27446333365605818 0.41532463842674849 0 -0.26947022105646712 0.39067453028223198 0 -0.25344913916697809 0.39067791135487839 0 -0.26299115892849517 0.40563985108914408 0 -0.25344913916697809 0.39067791135487839 0 -0.26299115892849517 0.40563985108914408 0 -0.25289798687035481 0.40694416098510572 0 -0.26447710845687589 0.36602442213771541 0 -0.26947022105646712 0.39067453028223198 0 -0.25344913916697809 0.39067791135487839 0 -0.25144483648059929 0.42999402445366458 0 -0.26035186593413212 0.41895376924341399 0 -0.24444952882583909 0.41755344263353689 0 -0.25144483648059929 0.42999402445366458 0 -0.26035186593413212 0.41895376924341399 0 -0.26760363313802898 0.43232386456739808 0 -0.25144483648059929 0.42999402445366458 0 -0.26760363313802898 0.43232386456739808 0 -0.24674851909745901 0.44550839537788872 0 -0.25289798687035481 0.40694416098510572 0 -0.26035186593413212 0.41895376924341399 0 -0.24444952882583909 0.41755344263353689 0 -0.26299115892849517 0.40563985108914408 0 -0.25289798687035481 0.40694416098510572 0 -0.26035186593413212 0.41895376924341399 0 -0.26299115892849517 0.40563985108914408 0 -0.26035186593413212 0.41895376924341399 0 -0.27446333365605818 0.41532463842674849 0 -0.28002949085223422 0.40333972386714861 0 -0.27972471372924379 0.41135757396999051 0 -0.27446333365605818 0.41532463842674849 0 -0.27972471372924379 0.41135757396999051 0 -0.27446333365605818 0.41532463842674849 0 -0.28228533488800861 0.42444238862959238 0 -0.27446333365605818 0.41532463842674849 0 -0.26760363313802898 0.43232386456739808 0 -0.28228533488800861 0.42444238862959238 0 -0.26035186593413212 0.41895376924341399 0 -0.27446333365605818 0.41532463842674849 0 -0.26760363313802898 0.43232386456739808 0 -0.26760363313802898 0.43232386456739808 0 -0.28228533488800861 0.42444238862959238 0 -0.28517303083194367 0.43936651290961859 0 -0.29863112664015762 0.42374393885114148 0 -0.30122217575125698 0.44246112759638268 0 -0.28517303083194367 0.43936651290961859 0 -0.28228533488800861 0.42444238862959238 0 -0.29863112664015762 0.42374393885114148 0 -0.28517303083194367 0.43936651290961859 0 -0.28898627566041329 0.40911771793725088 0 -0.29778998248516803 0.40700465330370422 0 -0.29863112664015762 0.42374393885114148 0 -0.27972471372924379 0.41135757396999051 0 -0.29863112664015762 0.42374393885114148 0 -0.27972471372924379 0.41135757396999051 0 -0.28228533488800861 0.42444238862959238 0 -0.29863112664015762 0.42374393885114148 0 -0.27972471372924379 0.41135757396999051 0 -0.28898627566041329 0.40911771793725088 0 -0.29863112664015762 0.42374393885114148 0 -0.28002949085223422 0.40333972386714861 0 -0.27972471372924379 0.41135757396999051 0 -0.28898627566041329 0.40911771793725088 0 -0.29778998248516803 0.40700465330370422 0 -0.30672304957533048 0.41318377605354117 0 -0.29863112664015762 0.42374393885114148 0 -0.32066468906539031 0.41254427193758741 0 -0.30420328723498302 0.39921287105542502 0 -0.30672304957533048 0.41318377605354117 0 -0.30420328723498302 0.39921287105542502 0 -0.29778998248516803 0.40700465330370422 0 -0.30672304957533048 0.41318377605354117 0 -0.31088910120798668 0.42140057264364078 0 -0.30672304957533048 0.41318377605354117 0 -0.29863112664015762 0.42374393885114148 0 -0.31753753955107039 0.43613030373229372 0 -0.29863112664015762 0.42374393885114148 0 -0.30122217575125698 0.44246112759638268 0 -0.31753753955107039 0.43613030373229372 0 -0.29863112664015762 0.42374393885114148 0 -0.31753753955107039 0.43613030373229372 0 -0.31088910120798668 0.42140057264364078 0 -0.29863112664015762 0.42374393885114148 0 -0.31753753955107039 0.43613030373229372 0 -0.30122217575125698 0.44246112759638268 0 -0.31532997064479001 0.45278054388681699 0 -0.30122217575125698 0.44246112759638268 0 -0.29541425600095611 0.46001494978389679 0 -0.31532997064479001 0.45278054388681699 0 -0.29541425600095611 0.46001494978389679 0 -0.32175034680071318 0.46920062093150389 0 -0.31532997064479001 0.45278054388681699 0 -0.29541425600095611 0.46001494978389679 0 -0.32175034680071318 0.46920062093150389 0 -0.29541425600095611 0.46001494978389679 0 -0.26907816520119893 0.45082927863628958 0 -0.30122217575125698 0.44246112759638268 0 -0.29541425600095611 0.46001494978389679 0 -0.28517303083194367 0.43936651290961859 0 -0.29541425600095611 0.46001494978389679 0 -0.28517303083194367 0.43936651290961859 0 -0.26907816520119893 0.45082927863628958 0 -0.26760363313802898 0.43232386456739808 0 -0.28517303083194367 0.43936651290961859 0 -0.26907816520119893 0.45082927863628958 0 -0.29541425600095611 0.46001494978389679 0 -0.26907816520119893 0.45082927863628958 0 -0.27483631231336969 0.47632362397853822 0 -0.26907816520119893 0.45082927863628958 0 -0.27483631231336969 0.47632362397853822 0 -0.24676985362994619 0.46127623686603408 0 -0.26760363313802898 0.43232386456739808 0 -0.26907816520119893 0.45082927863628958 0 -0.24674851909745901 0.44550839537788872 0 -0.26907816520119893 0.45082927863628958 0 -0.24674851909745901 0.44550839537788872 0 -0.24676985362994619 0.46127623686603408 0 -0.26617160546804203 0.5 0 -0.24863239635691059 0.48197838601783383 0 -0.2377109284600753 0.49999999999999978 0 -0.27483631231336969 0.47632362397853822 0 -0.26617160546804203 0.5 0 -0.24863239635691059 0.48197838601783383 0 -0.27483631231336969 0.47632362397853822 0 -0.24863239635691059 0.48197838601783383 0 -0.24676985362994619 0.46127623686603408 0 -0.27483631231336969 0.47632362397853822 0 -0.26617160546804203 0.5 0 -0.29463228247600859 0.5 0 -0.27483631231336969 0.47632362397853822 0 -0.29463228247600859 0.5 0 -0.30683500156254029 0.48162553040069023 0 -0.29541425600095611 0.46001494978389679 0 -0.27483631231336969 0.47632362397853822 0 -0.30683500156254029 0.48162553040069023 0 -0.29541425600095611 0.46001494978389679 0 -0.30683500156254029 0.48162553040069023 0 -0.32175034680071318 0.46920062093150389 0 -0.29463228247600859 0.5 0 -0.30683500156254029 0.48162553040069023 0 -0.32309295948397521 0.5 0 -0.30683500156254029 0.48162553040069023 0 -0.32309295948397521 0.5 0 -0.33128385230021951 0.4842139877102023 0 -0.33128385230021951 0.4842139877102023 0 -0.35155363649194182 0.49999999999999928 0 -0.34808643760047009 0.47838629207911099 0 -0.32309295948397521 0.5 0 -0.33128385230021951 0.4842139877102023 0 -0.35155363649194182 0.49999999999999928 0 -0.33128385230021951 0.4842139877102023 0 -0.32175034680071318 0.46920062093150389 0 -0.34808643760047009 0.47838629207911099 0 -0.32175034680071318 0.46920062093150389 0 -0.34808643760047009 0.47838629207911099 0 -0.30683500156254029 0.48162553040069023 0 -0.33128385230021951 0.4842139877102023 0 -0.32175034680071318 0.46920062093150389 0 -0.32175034680071318 0.46920062093150389 0 -0.31532997064479001 0.45278054388681699 0 -0.34079162623078241 0.45136500763673049 0 -0.31753753955107039 0.43613030373229372 0 -0.31532997064479001 0.45278054388681699 0 -0.34079162623078241 0.45136500763673049 0 -0.31753753955107039 0.43613030373229372 0 -0.31532997064479001 0.45278054388681699 0 -0.34033054494205639 0.42847082613288662 0 -0.31753753955107039 0.43613030373229372 0 -0.34079162623078241 0.45136500763673049 0 -0.31753753955107039 0.43613030373229372 0 -0.34079162623078241 0.45136500763673049 0 -0.32175034680071318 0.46920062093150389 0 -0.34079162623078241 0.45136500763673049 0 -0.34808643760047009 0.47838629207911099 0 -0.34079162623078241 0.45136500763673049 0 -0.35999640081872158 0.44439738032818737 0 -0.36404571291049348 0.46659971154116853 0 -0.34079162623078241 0.45136500763673049 0 -0.36404571291049348 0.46659971154116853 0 -0.34079162623078241 0.45136500763673049 0 -0.36404571291049348 0.46659971154116853 0 -0.34808643760047009 0.47838629207911099 0 -0.34033054494205639 0.42847082613288662 0 -0.34079162623078241 0.45136500763673049 0 -0.35999640081872158 0.44439738032818737 0 -0.382210906452504 0.45369090763042769 0 -0.3733140392639081 0.42320803518277439 0 -0.35999640081872158 0.44439738032818737 0 -0.382210906452504 0.45369090763042769 0 -0.35999640081872158 0.44439738032818737 0 -0.36404571291049348 0.46659971154116853 0 -0.39274778736466898 0.49999999999999972 0 -0.36942671804107302 0.49091720772280167 0 -0.35155363649194182 0.49999999999999928 0 -0.38729979959020522 0.48183441544560601 0 -0.36404571291049348 0.46659971154116853 0 -0.36942671804107302 0.49091720772280167 0 -0.36404571291049348 0.46659971154116853 0 -0.36942671804107302 0.49091720772280167 0 -0.34808643760047009 0.47838629207911099 0 -0.36942671804107302 0.49091720772280167 0 -0.35155363649194182 0.49999999999999928 0 -0.36942671804107302 0.49091720772280167 0 -0.35155363649194182 0.49999999999999928 0 -0.34808643760047009 0.47838629207911099 0 -0.1416802278881501 0.47288298442244397 0 -0.15600584741978249 0.49024855110513987 0 -0.14012038068410079 0.4873319372023856 0 -0.1416802278881501 0.47288298442244397 0 -0.15600584741978249 0.49024855110513987 0 -0.16909389065348349 0.48049710221027508 0 -0.1416802278881501 0.47288298442244397 0 -0.16909389065348349 0.48049710221027508 0 -0.15600584741978249 0.49024855110513987 0 -0.1429178041860793 0.50000000000000155 0 -0.1666160852545783 0.5 0 -0.15600584741978249 0.49024855110513987 0 -0.1429178041860793 0.50000000000000155 0 -0.14012038068410079 0.4873319372023856 0 -0.15600584741978249 0.49024855110513987 0 -0.1429178041860793 0.50000000000000155 0 -0.1429178041860793 0.50000000000000155 0 -0.12984968911680589 0.49288156918778281 0 -0.12511456243329849 0.50000000000000067 0 -0.14012038068410079 0.4873319372023856 0 -0.12984968911680589 0.49288156918778281 0 -0.1301483348096856 0.48064658129655841 0 -0.1429178041860793 0.50000000000000155 0 -0.14012038068410079 0.4873319372023856 0 -0.12984968911680589 0.49288156918778281 0 -0.12984968911680589 0.49288156918778281 0 -0.12511456243329849 0.50000000000000067 0 -0.1219165248727736 0.48976110835547237 0 -0.12984968911680589 0.49288156918778281 0 -0.1301483348096856 0.48064658129655841 0 -0.1219165248727736 0.48976110835547237 0 -0.12984968911680589 0.49288156918778281 0 -0.1219165248727736 0.48976110835547237 0 -0.1416802278881501 0.47288298442244397 0 -0.11426656512281699 0.46526886663461281 0 -0.1416802278881501 0.47288298442244397 0 -0.1301483348096856 0.48064658129655841 0 -0.11426656512281699 0.46526886663461281 0 -0.1416802278881501 0.47288298442244397 0 -0.14012038068410079 0.4873319372023856 0 -0.1301483348096856 0.48064658129655841 0 -0.1416802278881501 0.47288298442244397 0 -0.13223053434710891 0.45763418418521312 0 -0.11426656512281699 0.46526886663461281 0 -0.13223053434710891 0.45763418418521312 0 -0.13439483606552141 0.44420909927252639 0 -0.15222560227745391 0.45172461512120449 0 -0.13439483606552141 0.44420909927252639 0 -0.12264901134588251 0.43451991405170193 0 -0.12158038773696279 0.44854983512302959 0 -0.13223053434710891 0.45763418418521312 0 -0.13439483606552141 0.44420909927252639 0 -0.12158038773696279 0.44854983512302959 0 -0.13439483606552141 0.44420909927252639 0 -0.15222560227745391 0.45172461512120449 0 -0.16025659309878121 0.43079900547565642 0 -0.1416802278881501 0.47288298442244397 0 -0.13223053434710891 0.45763418418521312 0 -0.15222560227745391 0.45172461512120449 0 -0.1416802278881501 0.47288298442244397 0 -0.15222560227745391 0.45172461512120449 0 -0.1641127910676724 0.46475771585162229 0 -0.15222560227745391 0.45172461512120449 0 -0.1641127910676724 0.46475771585162229 0 -0.17442277034652959 0.44982529125803461 0 -0.15222560227745391 0.45172461512120449 0 -0.17442277034652959 0.44982529125803461 0 -0.16025659309878121 0.43079900547565642 0 -0.17442277034652959 0.44982529125803461 0 -0.16025659309878121 0.43079900547565642 0 -0.17442277034652959 0.44982529125803461 0 -0.19206508896154451 0.44902774383434041 0 -0.1825055412867374 0.4284154316887252 0 -0.17442277034652959 0.44982529125803461 0 -0.18858894759427811 0.4688515770404128 0 -0.19206508896154451 0.44902774383434041 0 -0.17442277034652959 0.44982529125803461 0 -0.18179539915040999 0.47103364699517769 0 -0.18858894759427811 0.4688515770404128 0 -0.17442277034652959 0.44982529125803461 0 -0.18858894759427811 0.4688515770404128 0 -0.1641127910676724 0.46475771585162229 0 -0.17442277034652959 0.44982529125803461 0 -0.18179539915040999 0.47103364699517769 0 -0.18691056743852469 0.47738607076205652 0 -0.16909389065348349 0.48049710221027508 0 -0.1924797418796993 0.48699249931679339 0 -0.18179539915040999 0.47103364699517769 0 -0.18691056743852469 0.47738607076205652 0 -0.18858894759427811 0.4688515770404128 0 -0.16909389065348349 0.48049710221027508 0 -0.1924797418796993 0.48699249931679339 0 -0.18179539915040999 0.47103364699517769 0 -0.18691056743852469 0.47738607076205652 0 -0.16909389065348349 0.48049710221027508 0 -0.18179539915040999 0.47103364699517769 0 -0.16909389065348349 0.48049710221027508 0 -0.1416802278881501 0.47288298442244397 0 -0.1641127910676724 0.46475771585162229 0 -0.16909389065348349 0.48049710221027508 0 -0.1641127910676724 0.46475771585162229 0 -0.18179539915040999 0.47103364699517769 0 -0.16909389065348349 0.48049710221027508 0 -0.15600584741978249 0.49024855110513987 0 -0.16909389065348349 0.48049710221027508 0 -0.1666160852545783 0.5 0 -0.16909389065348349 0.48049710221027508 0 -0.1666160852545783 0.5 0 -0.17866696512928881 0.49137705519013081 0 -0.15600584741978249 0.49024855110513987 0 -0.16909389065348349 0.48049710221027508 0 -0.16909389065348349 0.48049710221027508 0 -0.17866696512928881 0.49137705519013081 0 -0.1924797418796993 0.48699249931679339 0 -0.1666160852545783 0.5 0 -0.17866696512928881 0.49137705519013081 0 -0.1903143663230773 0.5 0 -0.17866696512928881 0.49137705519013081 0 -0.1903143663230773 0.5 0 -0.1924797418796993 0.48699249931679339 0 -0.1903143663230773 0.5 0 -0.1924797418796993 0.48699249931679339 0 -0.2140126473915763 0.5 0 -0.18691056743852469 0.47738607076205652 0 -0.18858894759427811 0.4688515770404128 0 -0.1960777830547554 0.47477240152049233 0 -0.18691056743852469 0.47738607076205652 0 -0.1924797418796993 0.48699249931679339 0 -0.1960777830547554 0.47477240152049233 0 -0.1924797418796993 0.48699249931679339 0 -0.1960777830547554 0.47477240152049233 0 -0.20686394618428131 0.47752763605854198 0 -0.1924797418796993 0.48699249931679339 0 -0.20686394618428131 0.47752763605854198 0 -0.20790108162467971 0.48499202157522298 0 -0.1960777830547554 0.47477240152049233 0 -0.20686394618428131 0.47752763605854198 0 -0.20233902720819749 0.46403675266470662 0 -0.18858894759427811 0.4688515770404128 0 -0.1960777830547554 0.47477240152049233 0 -0.20233902720819749 0.46403675266470662 0 -0.20686394618428131 0.47752763605854198 0 -0.2181202426960184 0.46481792031135949 0 -0.20233902720819749 0.46403675266470662 0 -0.20686394618428131 0.47752763605854198 0 -0.21639504532882381 0.48196005450224372 0 -0.2181202426960184 0.46481792031135949 0 -0.20686394618428131 0.47752763605854198 0 -0.21639504532882381 0.48196005450224372 0 -0.20790108162467971 0.48499202157522298 0 -0.1924797418796993 0.48699249931679339 0 -0.2158655931059146 0.49348789642331331 0 -0.1924797418796993 0.48699249931679339 0 -0.2140126473915763 0.5 0 -0.2158655931059146 0.49348789642331331 0 -0.1924797418796993 0.48699249931679339 0 -0.20790108162467971 0.48499202157522298 0 -0.2158655931059146 0.49348789642331331 0 -0.21639504532882381 0.48196005450224372 0 -0.20790108162467971 0.48499202157522298 0 -0.2158655931059146 0.49348789642331331 0 -0.22791558557804689 0.48240896015567969 0 -0.2377109284600753 0.49999999999999978 0 -0.2140126473915763 0.5 0 -0.2158655931059146 0.49348789642331331 0 -0.2377109284600753 0.49999999999999978 0 -0.2158655931059146 0.49348789642331331 0 -0.22791558557804689 0.48240896015567969 0 -0.2377109284600753 0.49999999999999978 0 -0.21639504532882381 0.48196005450224372 0 -0.2158655931059146 0.49348789642331331 0 -0.22791558557804689 0.48240896015567969 0 -0.22791558557804689 0.48240896015567969 0 -0.2181202426960184 0.46481792031135949 0 -0.21639504532882381 0.48196005450224372 0 -0.22791558557804689 0.48240896015567969 0 -0.2181202426960184 0.46481792031135949 0 -0.22791558557804689 0.48240896015567969 0 -0.23327691833849479 0.46780985372464468 0 -0.2181202426960184 0.46481792031135949 0 -0.24863239635691059 0.48197838601783383 0 -0.24676985362994619 0.46127623686603408 0 -0.23327691833849479 0.46780985372464468 0 -0.22791558557804689 0.48240896015567969 0 -0.24863239635691059 0.48197838601783383 0 -0.23327691833849479 0.46780985372464468 0 -0.22791558557804689 0.48240896015567969 0 -0.24863239635691059 0.48197838601783383 0 -0.2377109284600753 0.49999999999999978 0 -0.25144483648059929 0.42999402445366458 0 -0.24674851909745901 0.44550839537788872 0 -0.2309113136582566 0.44480957808374511 0 -0.24674851909745901 0.44550839537788872 0 -0.24676985362994619 0.46127623686603408 0 -0.2309113136582566 0.44480957808374511 0 -0.24676985362994619 0.46127623686603408 0 -0.23327691833849479 0.46780985372464468 0 -0.2309113136582566 0.44480957808374511 0 -0.23327691833849479 0.46780985372464468 0 -0.2309113136582566 0.44480957808374511 0 -0.2181202426960184 0.46481792031135949 0 -0.2309113136582566 0.44480957808374511 0 -0.20832489981398999 0.4472268804670394 0 -0.2181202426960184 0.46481792031135949 0 -0.2309113136582566 0.44480957808374511 0 -0.20832489981398999 0.4472268804670394 0 -0.21407582638264239 0.4253498858171269 0 -0.20832489981398999 0.4472268804670394 0 -0.2181202426960184 0.46481792031135949 0 -0.20832489981398999 0.4472268804670394 0 -0.2181202426960184 0.46481792031135949 0 -0.20233902720819749 0.46403675266470662 0 -0.18858894759427811 0.4688515770404128 0 -0.20233902720819749 0.46403675266470662 0 -0.19206508896154451 0.44902774383434041 0 -0.20832489981398999 0.4472268804670394 0 -0.20233902720819749 0.46403675266470662 0 -0.19206508896154451 0.44902774383434041 0 -0.20832489981398999 0.4472268804670394 0 -0.19206508896154451 0.44902774383434041 0 -0.19880852709001029 0.4329298666123596 0 -0.19880852709001029 0.4329298666123596 0 -0.19707127900513721 0.41462939125456633 0 -0.1825055412867374 0.4284154316887252 0 -0.19206508896154451 0.44902774383434041 0 -0.19880852709001029 0.4329298666123596 0 -0.1825055412867374 0.4284154316887252 0 -0.19707127900513721 0.41462939125456633 0 -0.19748399826759239 0.39882673691255921 0 -0.18411375286537041 0.40838349915507061 0 -0.19707127900513721 0.41462939125456633 0 -0.21307915542951289 0.40608581442150482 0 -0.19748399826759239 0.39882673691255921 0 -0.19707127900513721 0.41462939125456633 0 -0.18411375286537041 0.40838349915507061 0 -0.1825055412867374 0.4284154316887252 0 -0.19707127900513721 0.41462939125456633 0 -0.21407582638264239 0.4253498858171269 0 -0.21307915542951289 0.40608581442150482 0 -0.21407582638264239 0.4253498858171269 0 -0.2279831321425636 0.41146096299013979 0 -0.21307915542951289 0.40608581442150482 0 -0.20832489981398999 0.4472268804670394 0 -0.19880852709001029 0.4329298666123596 0 -0.21407582638264239 0.4253498858171269 0 -0.19880852709001029 0.4329298666123596 0 -0.19707127900513721 0.41462939125456633 0 -0.21407582638264239 0.4253498858171269 0 -0.2309113136582566 0.44480957808374511 0 -0.21407582638264239 0.4253498858171269 0 -0.23251097874359469 0.42596343105564621 0 -0.21407582638264239 0.4253498858171269 0 -0.23251097874359469 0.42596343105564621 0 -0.2279831321425636 0.41146096299013979 0 -0.23251097874359469 0.42596343105564621 0 -0.2279831321425636 0.41146096299013979 0 -0.24444952882583909 0.41755344263353689 0 -0.25289798687035481 0.40694416098510572 0 -0.24444952882583909 0.41755344263353689 0 -0.2401866487892261 0.39977265867623979 0 -0.2279831321425636 0.41146096299013979 0 -0.24444952882583909 0.41755344263353689 0 -0.2401866487892261 0.39977265867623979 0 -0.25144483648059929 0.42999402445366458 0 -0.2309113136582566 0.44480957808374511 0 -0.23251097874359469 0.42596343105564621 0 -0.25144483648059929 0.42999402445366458 0 -0.23251097874359469 0.42596343105564621 0 -0.24444952882583909 0.41755344263353689 0 -0.25344913916697809 0.39067791135487839 0 -0.2348294400394107 0.3795051470796395 0 -0.2401866487892261 0.39977265867623979 0 -0.25344913916697809 0.39067791135487839 0 -0.2348294400394107 0.3795051470796395 0 -0.24753088660224451 0.36542177786824348 0 -0.25344913916697809 0.39067791135487839 0 -0.25289798687035481 0.40694416098510572 0 -0.2401866487892261 0.39977265867623979 0 -0.2279831321425636 0.41146096299013979 0 -0.2401866487892261 0.39977265867623979 0 -0.2262092843421874 0.39458847731008762 0 -0.2279831321425636 0.41146096299013979 0 -0.2262092843421874 0.39458847731008762 0 -0.21307915542951289 0.40608581442150482 0 -0.2348294400394107 0.3795051470796395 0 -0.2401866487892261 0.39977265867623979 0 -0.2262092843421874 0.39458847731008762 0 -0.2348294400394107 0.3795051470796395 0 -0.2262092843421874 0.39458847731008762 0 -0.21196275358762251 0.38450753452797443 0 -0.2348294400394107 0.3795051470796395 0 -0.21196275358762251 0.38450753452797443 0 -0.21439109484789509 0.36439151158372901 0 -0.21196275358762251 0.38450753452797443 0 -0.19352085597546881 0.38313946929153181 0 -0.21439109484789509 0.36439151158372901 0 -0.2262092843421874 0.39458847731008762 0 -0.21196275358762251 0.38450753452797443 0 -0.21307915542951289 0.40608581442150482 0 -0.21196275358762251 0.38450753452797443 0 -0.21307915542951289 0.40608581442150482 0 -0.19748399826759239 0.39882673691255921 0 -0.19748399826759239 0.39882673691255921 0 -0.19352085597546881 0.38313946929153181 0 -0.18515619274244249 0.39621471282470772 0 -0.19748399826759239 0.39882673691255921 0 -0.18515619274244249 0.39621471282470772 0 -0.18411375286537041 0.40838349915507061 0 -0.21196275358762251 0.38450753452797443 0 -0.19748399826759239 0.39882673691255921 0 -0.19352085597546881 0.38313946929153181 0 -0.17951864621933111 0.3891865346353886 0 -0.1647640375288959 0.39247551545703968 0 -0.1809036308170747 0.3728993685036302 0 -0.1647640375288959 0.39247551545703968 0 -0.1809036308170747 0.3728993685036302 0 -0.19352085597546881 0.38313946929153181 0 -0.17951864621933111 0.3891865346353886 0 -0.1809036308170747 0.3728993685036302 0 -0.19352085597546881 0.38313946929153181 0 -0.17951864621933111 0.3891865346353886 0 -0.18515619274244249 0.39621471282470772 0 -0.1637266763804498 0.38151897906596788 0 -0.1647640375288959 0.39247551545703968 0 -0.1809036308170747 0.3728993685036302 0 -0.1637266763804498 0.38151897906596788 0 -0.16222475505686551 0.37083692788022798 0 -0.1809036308170747 0.3728993685036302 0 -0.1572168104387871 0.39041868371341643 0 -0.1637266763804498 0.38151897906596788 0 -0.1647640375288959 0.39247551545703968 0 -0.1572168104387871 0.39041868371341643 0 -0.1637266763804498 0.38151897906596788 0 -0.15546574401426569 0.37876462043108272 0 -0.1637266763804498 0.38151897906596788 0 -0.15546574401426569 0.37876462043108272 0 -0.16222475505686551 0.37083692788022798 0 -0.1572168104387871 0.39041868371341643 0 -0.1583451685416378 0.40467353784452442 0 -0.1647640375288959 0.39247551545703968 0 -0.1583451685416378 0.40467353784452442 0 -0.1647640375288959 0.39247551545703968 0 -0.1732485140327735 0.40120360710003372 0 -0.17951864621933111 0.3891865346353886 0 -0.1732485140327735 0.40120360710003372 0 -0.18515619274244249 0.39621471282470772 0 -0.17951864621933111 0.3891865346353886 0 -0.1647640375288959 0.39247551545703968 0 -0.1732485140327735 0.40120360710003372 0 -0.1732485140327735 0.40120360710003372 0 -0.18515619274244249 0.39621471282470772 0 -0.18411375286537041 0.40838349915507061 0 -0.18411375286537041 0.40838349915507061 0 -0.1825055412867374 0.4284154316887252 0 -0.1717983842424253 0.41505324579144598 0 -0.1732485140327735 0.40120360710003372 0 -0.18411375286537041 0.40838349915507061 0 -0.1717983842424253 0.41505324579144598 0 -0.17442277034652959 0.44982529125803461 0 -0.1825055412867374 0.4284154316887252 0 -0.16025659309878121 0.43079900547565642 0 -0.1825055412867374 0.4284154316887252 0 -0.16025659309878121 0.43079900547565642 0 -0.1717983842424253 0.41505324579144598 0 -0.1583451685416378 0.40467353784452442 0 -0.16025659309878121 0.43079900547565642 0 -0.1717983842424253 0.41505324579144598 0 -0.1583451685416378 0.40467353784452442 0 -0.1732485140327735 0.40120360710003372 0 -0.1717983842424253 0.41505324579144598 0 -0.1583451685416378 0.40467353784452442 0 -0.16025659309878121 0.43079900547565642 0 -0.14609041585103269 0.41177271969327828 0 -0.16025659309878121 0.43079900547565642 0 -0.14609041585103269 0.41177271969327828 0 -0.13439483606552141 0.44420909927252639 0 -0.16025659309878121 0.43079900547565642 0 -0.1352310074728906 0.42507762937121429 0 -0.16025659309878121 0.43079900547565642 0 -0.14609041585103269 0.41177271969327828 0 -0.1352310074728906 0.42507762937121429 0 -0.13439483606552141 0.44420909927252639 0 -0.1352310074728906 0.42507762937121429 0 -0.12264901134588251 0.43451991405170193 0 -0.1352310074728906 0.42507762937121429 0 -0.13093521127896679 0.40930291151521853 0 -0.1165588384469705 0.41702645062733829 0 -0.14609041585103269 0.41177271969327828 0 -0.1352310074728906 0.42507762937121429 0 -0.13093521127896679 0.40930291151521853 0 -0.13093521127896679 0.40930291151521853 0 -0.1319242386032832 0.39274643391090103 0 -0.1216479551311388 0.40302083046318071 0 -0.14609041585103269 0.41177271969327828 0 -0.1319242386032832 0.39274643391090103 0 -0.14609041585103269 0.41177271969327828 0 -0.13093521127896679 0.40930291151521853 0 -0.1319242386032832 0.39274643391090103 0 -0.127557833849961 0.38688201027526709 0 -0.13066659541470541 0.37944427975067158 0 -0.13759217654331929 0.38429682884961702 0 -0.1319242386032832 0.39274643391090103 0 -0.127557833849961 0.38688201027526709 0 -0.13759217654331929 0.38429682884961702 0 -0.1319242386032832 0.39274643391090103 0 -0.127557833849961 0.38688201027526709 0 -0.1175755153982089 0.38671844594605509 0 -0.127557833849961 0.38688201027526709 0 -0.13066659541470541 0.37944427975067158 0 -0.12299925517477479 0.38264199997416498 0 -0.1319242386032832 0.39274643391090103 0 -0.127557833849961 0.38688201027526709 0 -0.13066659541470541 0.37944427975067158 0 -0.1294927114376877 0.36792654221528148 0 -0.12299925517477479 0.38264199997416498 0 -0.13066659541470541 0.37944427975067158 0 -0.13569100006778409 0.37547401743902759 0 -0.13759217654331929 0.38429682884961702 0 -0.13569100006778409 0.37547401743902759 0 -0.13759217654331929 0.38429682884961702 0 -0.1445291000558882 0.3791054684442739 0 -0.1572168104387871 0.39041868371341643 0 -0.13759217654331929 0.38429682884961702 0 -0.1445291000558882 0.3791054684442739 0 -0.1572168104387871 0.39041868371341643 0 -0.1319242386032832 0.39274643391090103 0 -0.13759217654331929 0.38429682884961702 0 -0.1445291000558882 0.3791054684442739 0 -0.15546574401426569 0.37876462043108272 0 -0.15144323567191709 0.37104637349917191 0 -0.1572168104387871 0.39041868371341643 0 -0.1445291000558882 0.3791054684442739 0 -0.15546574401426569 0.37876462043108272 0 -0.1572168104387871 0.39041868371341643 0 -0.1583451685416378 0.40467353784452442 0 -0.14839415835868519 0.39990284379052998 0 -0.14609041585103269 0.41177271969327828 0 -0.1319242386032832 0.39274643391090103 0 -0.14839415835868519 0.39990284379052998 0 -0.1572168104387871 0.39041868371341643 0 -0.1319242386032832 0.39274643391090103 0 -0.14839415835868519 0.39990284379052998 0 -0.1572168104387871 0.39041868371341643 0 -0.1319242386032832 0.39274643391090103 0 -0.1583451685416378 0.40467353784452442 0 -0.14609041585103269 0.41177271969327828 0 -0.14839415835868519 0.39990284379052998 0 -0.15390795032598739 0.35845516846076492 0 -0.14006450581507829 0.35655869908846383 0 -0.1424327352758242 0.34150385198559458 0 -0.15390795032598739 0.35845516846076492 0 -0.1424327352758242 0.34150385198559458 0 -0.16258689032034729 0.34405312833023832 0 -0.15390795032598739 0.35845516846076492 0 -0.15144323567191709 0.37104637349917191 0 -0.14052231220317701 0.36826018375848413 0 -0.15390795032598739 0.35845516846076492 0 -0.15144323567191709 0.37104637349917191 0 -0.16222475505686551 0.37083692788022798 0 -0.1445291000558882 0.3791054684442739 0 -0.15144323567191709 0.37104637349917191 0 -0.14052231220317701 0.36826018375848413 0 -0.15390795032598739 0.35845516846076492 0 -0.14052231220317701 0.36826018375848413 0 -0.14006450581507829 0.35655869908846383 0 -0.14052231220317701 0.36826018375848413 0 -0.1294927114376877 0.36792654221528148 0 -0.14006450581507829 0.35655869908846383 0 -0.13569100006778409 0.37547401743902759 0 -0.14052231220317701 0.36826018375848413 0 -0.1294927114376877 0.36792654221528148 0 -0.13569100006778409 0.37547401743902759 0 -0.1445291000558882 0.3791054684442739 0 -0.14052231220317701 0.36826018375848413 0 -0.13066659541470541 0.37944427975067158 0 -0.13569100006778409 0.37547401743902759 0 -0.1294927114376877 0.36792654221528148 0 -0.14006450581507829 0.35655869908846383 0 -0.1424327352758242 0.34150385198559458 0 -0.12353522793947 0.34917744274458162 0 -0.14006450581507829 0.35655869908846383 0 -0.12353522793947 0.34917744274458162 0 -0.1294927114376877 0.36792654221528148 0 -0.14006450581507829 0.35655869908846383 0 -0.12353522793947 0.34917744274458162 0 -0.13643809785080599 0.32078882377821399 0 -0.1424327352758242 0.34150385198559458 0 -0.1241086637900518 0.33146449503669712 0 -0.1424327352758242 0.34150385198559458 0 -0.1241086637900518 0.33146449503669712 0 -0.12353522793947 0.34917744274458162 0 -0.13643809785080599 0.32078882377821399 0 -0.12671107379015031 0.31163608923085712 0 -0.1210323474749385 0.31940787830236839 0 -0.13643809785080599 0.32078882377821399 0 -0.1210323474749385 0.31940787830236839 0 -0.1241086637900518 0.33146449503669712 0 -0.13643809785080599 0.32078882377821399 0 -0.15507793533903391 0.32972906739011709 0 -0.1545099066061906 0.31221243948807148 0 -0.13643809785080599 0.32078882377821399 0 -0.15507793533903391 0.32972906739011709 0 -0.1424327352758242 0.34150385198559458 0 -0.15507793533903391 0.32972906739011709 0 -0.1424327352758242 0.34150385198559458 0 -0.16258689032034729 0.34405312833023832 0 -0.15507793533903391 0.32972906739011709 0 -0.1729382134997082 0.32580870778066301 0 -0.16258689032034729 0.34405312833023832 0 -0.1729382134997082 0.32580870778066301 0 -0.1726078703228143 0.30120428301840591 0 -0.1545099066061906 0.31221243948807148 0 -0.15507793533903391 0.32972906739011709 0 -0.1729382134997082 0.32580870778066301 0 -0.1545099066061906 0.31221243948807148 0 -0.1729382134997082 0.32580870778066301 0 -0.1916695871185348 0.31314201236146799 0 -0.1726078703228143 0.30120428301840591 0 -0.1729382134997082 0.32580870778066301 0 -0.1913763477241652 0.33428273913866152 0 -0.1916695871185348 0.31314201236146799 0 -0.1729382134997082 0.32580870778066301 0 -0.18046952317169021 0.34690693111961401 0 -0.1913763477241652 0.33428273913866152 0 -0.1729382134997082 0.32580870778066301 0 -0.18046952317169021 0.34690693111961401 0 -0.16258689032034729 0.34405312833023832 0 -0.18046952317169021 0.34690693111961401 0 -0.1809036308170747 0.3728993685036302 0 -0.1970432241052533 0.35332322155022078 0 -0.18046952317169021 0.34690693111961401 0 -0.16801854993839299 0.35863030485889508 0 -0.16258689032034729 0.34405312833023832 0 -0.15390795032598739 0.35845516846076492 0 -0.16801854993839299 0.35863030485889508 0 -0.16258689032034729 0.34405312833023832 0 -0.16801854993839299 0.35863030485889508 0 -0.16222475505686551 0.37083692788022798 0 -0.1809036308170747 0.3728993685036302 0 -0.15546574401426569 0.37876462043108272 0 -0.15144323567191709 0.37104637349917191 0 -0.16222475505686551 0.37083692788022798 0 -0.15390795032598739 0.35845516846076492 0 -0.16801854993839299 0.35863030485889508 0 -0.16222475505686551 0.37083692788022798 0 -0.18046952317169021 0.34690693111961401 0 -0.16801854993839299 0.35863030485889508 0 -0.1809036308170747 0.3728993685036302 0 -0.19352085597546881 0.38313946929153181 0 -0.1809036308170747 0.3728993685036302 0 -0.1970432241052533 0.35332322155022078 0 -0.19352085597546881 0.38313946929153181 0 -0.1970432241052533 0.35332322155022078 0 -0.21439109484789509 0.36439151158372901 0 -0.1809036308170747 0.3728993685036302 0 -0.1970432241052533 0.35332322155022078 0 -0.18046952317169021 0.34690693111961401 0 -0.1970432241052533 0.35332322155022078 0 -0.1913763477241652 0.33428273913866152 0 -0.1970432241052533 0.35332322155022078 0 -0.21439109484789509 0.36439151158372901 0 -0.21318281739343201 0.3337470745968113 0 -0.2348294400394107 0.3795051470796395 0 -0.21439109484789509 0.36439151158372901 0 -0.23368485675694969 0.35363872380928718 0 -0.21439109484789509 0.36439151158372901 0 -0.23368485675694969 0.35363872380928718 0 -0.21318281739343201 0.3337470745968113 0 -0.25948399585728482 0.34137431399319879 0 -0.23368485675694969 0.35363872380928718 0 -0.24753088660224451 0.36542177786824348 0 -0.2348294400394107 0.3795051470796395 0 -0.23368485675694969 0.35363872380928718 0 -0.24753088660224451 0.36542177786824348 0 -0.2544908832576937 0.31672420584868222 0 -0.23149774927212 0.31973959041506889 0 -0.23254947142574389 0.30115394148774488 0 -0.2544908832576937 0.31672420584868222 0 -0.2403082550886354 0.33525587944787089 0 -0.23149774927212 0.31973959041506889 0 -0.25948399585728482 0.34137431399319879 0 -0.23368485675694969 0.35363872380928718 0 -0.2403082550886354 0.33525587944787089 0 -0.23368485675694969 0.35363872380928718 0 -0.2403082550886354 0.33525587944787089 0 -0.21318281739343201 0.3337470745968113 0 -0.2403082550886354 0.33525587944787089 0 -0.23149774927212 0.31973959041506889 0 -0.21318281739343201 0.3337470745968113 0 -0.23149774927212 0.31973959041506889 0 -0.21318281739343201 0.3337470745968113 0 -0.21299768926910839 0.30507112103817058 0 -0.21318281739343201 0.3337470745968113 0 -0.1916695871185348 0.31314201236146799 0 -0.21299768926910839 0.30507112103817058 0 -0.1970432241052533 0.35332322155022078 0 -0.21318281739343201 0.3337470745968113 0 -0.1970432241052533 0.35332322155022078 0 -0.21318281739343201 0.3337470745968113 0 -0.1913763477241652 0.33428273913866152 0 -0.21318281739343201 0.3337470745968113 0 -0.1913763477241652 0.33428273913866152 0 -0.1916695871185348 0.31314201236146799 0 -0.1916695871185348 0.31314201236146799 0 -0.19322481323979879 0.29249112131027782 0 -0.21299768926910839 0.30507112103817058 0 -0.19322481323979879 0.29249112131027782 0 -0.20780271286941029 0.28977420494356487 0 -0.20369795723435161 0.2759665762211338 0 -0.19322481323979879 0.29249112131027782 0 -0.20369795723435161 0.2759665762211338 0 -0.18744631447598251 0.27617759775544543 0 -0.20780271286941029 0.28977420494356487 0 -0.22129039173438239 0.2855680012046774 0 -0.20369795723435161 0.2759665762211338 0 -0.19322481323979879 0.29249112131027782 0 -0.20780271286941029 0.28977420494356487 0 -0.21299768926910839 0.30507112103817058 0 -0.20780271286941029 0.28977420494356487 0 -0.21299768926910839 0.30507112103817058 0 -0.22129039173438239 0.2855680012046774 0 -0.23149774927212 0.31973959041506889 0 -0.21299768926910839 0.30507112103817058 0 -0.23254947142574389 0.30115394148774488 0 -0.21299768926910839 0.30507112103817058 0 -0.23254947142574389 0.30115394148774488 0 -0.22129039173438239 0.2855680012046774 0 -0.23254947142574389 0.30115394148774488 0 -0.22129039173438239 0.2855680012046774 0 -0.2365855050507209 0.28031954728252317 0 -0.25302752541997647 0.27495473976011231 0 -0.24949777065810261 0.2920740977041657 0 -0.2365855050507209 0.28031954728252317 0 -0.23254947142574389 0.30115394148774488 0 -0.24949777065810261 0.2920740977041657 0 -0.2365855050507209 0.28031954728252317 0 -0.2544908832576937 0.31672420584868222 0 -0.23254947142574389 0.30115394148774488 0 -0.24949777065810261 0.2920740977041657 0 -0.25302752541997647 0.27495473976011231 0 -0.24073283793148881 0.2599430092145163 0 -0.2365855050507209 0.28031954728252317 0 -0.22129039173438239 0.2855680012046774 0 -0.2365855050507209 0.28031954728252317 0 -0.22241503313463121 0.26822349432392278 0 -0.24073283793148881 0.2599430092145163 0 -0.2365855050507209 0.28031954728252317 0 -0.22241503313463121 0.26822349432392278 0 -0.24073283793148881 0.2599430092145163 0 -0.22480727068720499 0.2507498063256724 0 -0.23738482535905969 0.245080794879867 0 -0.24073283793148881 0.2599430092145163 0 -0.22241503313463121 0.26822349432392278 0 -0.22480727068720499 0.2507498063256724 0 -0.22241503313463121 0.26822349432392278 0 -0.22480727068720499 0.2507498063256724 0 -0.20824365681318621 0.25972678944317079 0 -0.22129039173438239 0.2855680012046774 0 -0.22241503313463121 0.26822349432392278 0 -0.20369795723435161 0.2759665762211338 0 -0.22241503313463121 0.26822349432392278 0 -0.20824365681318621 0.25972678944317079 0 -0.20369795723435161 0.2759665762211338 0 -0.20824365681318621 0.25972678944317079 0 -0.20369795723435161 0.2759665762211338 0 -0.1938927658205962 0.26135809408211902 0 -0.20369795723435161 0.2759665762211338 0 -0.1938927658205962 0.26135809408211902 0 -0.18744631447598251 0.27617759775544543 0 -0.20824365681318621 0.25972678944317079 0 -0.1938927658205962 0.26135809408211902 0 -0.1996891956023244 0.2484379794903481 0 -0.1938927658205962 0.26135809408211902 0 -0.18558547935525149 0.2507341425259047 0 -0.1996891956023244 0.2484379794903481 0 -0.1938927658205962 0.26135809408211902 0 -0.18558547935525149 0.2507341425259047 0 -0.17930628033644999 0.26336939574738372 0 -0.17930628033644999 0.26336939574738372 0 -0.1727604863792532 0.25381268665708989 0 -0.16794445408702241 0.26640085630944521 0 -0.18558547935525149 0.2507341425259047 0 -0.17930628033644999 0.26336939574738372 0 -0.1727604863792532 0.25381268665708989 0 -0.1727604863792532 0.25381268665708989 0 -0.16420559833547191 0.26029670196638188 0 -0.16090034084645971 0.25013721452634491 0 -0.16090034084645971 0.25013721452634491 0 -0.1552171120291525 0.27083605037264769 0 -0.1727604863792532 0.25381268665708989 0 -0.16090034084645971 0.25013721452634491 0 -0.16420559833547191 0.26029670196638188 0 -0.16090034084645971 0.25013721452634491 0 -0.1552171120291525 0.27083605037264769 0 -0.1727604863792532 0.25381268665708989 0 -0.16420559833547191 0.26029670196638188 0 -0.16794445408702241 0.26640085630944521 0 -0.1652208014631564 0.27409915634324838 0 -0.1637753678355906 0.28400331694283032 0 -0.1552171120291525 0.27083605037264769 0 -0.16420559833547191 0.26029670196638188 0 -0.16794445408702241 0.26640085630944521 0 -0.1552171120291525 0.27083605037264769 0 -0.16794445408702241 0.26640085630944521 0 -0.1652208014631564 0.27409915634324838 0 -0.1552171120291525 0.27083605037264769 0 -0.16794445408702241 0.26640085630944521 0 -0.1652208014631564 0.27409915634324838 0 -0.17394627190086029 0.27515640174807038 0 -0.1652208014631564 0.27409915634324838 0 -0.17394627190086029 0.27515640174807038 0 -0.1637753678355906 0.28400331694283032 0 -0.17930628033644999 0.26336939574738372 0 -0.16794445408702241 0.26640085630944521 0 -0.17394627190086029 0.27515640174807038 0 -0.17930628033644999 0.26336939574738372 0 -0.17394627190086029 0.27515640174807038 0 -0.18744631447598251 0.27617759775544543 0 -0.1938927658205962 0.26135809408211902 0 -0.17930628033644999 0.26336939574738372 0 -0.18744631447598251 0.27617759775544543 0 -0.17394627190086029 0.27515640174807038 0 -0.18744631447598251 0.27617759775544543 0 -0.17820012755500941 0.28580654415500589 0 -0.19322481323979879 0.29249112131027782 0 -0.18744631447598251 0.27617759775544543 0 -0.17820012755500941 0.28580654415500589 0 -0.19322481323979879 0.29249112131027782 0 -0.17820012755500941 0.28580654415500589 0 -0.1726078703228143 0.30120428301840591 0 -0.17394627190086029 0.27515640174807038 0 -0.17820012755500941 0.28580654415500589 0 -0.1637753678355906 0.28400331694283032 0 -0.1916695871185348 0.31314201236146799 0 -0.19322481323979879 0.29249112131027782 0 -0.1726078703228143 0.30120428301840591 0 -0.1726078703228143 0.30120428301840591 0 -0.1495338832118453 0.29153488621895052 0 -0.1545099066061906 0.31221243948807148 0 -0.1726078703228143 0.30120428301840591 0 -0.1637753678355906 0.28400331694283032 0 -0.1495338832118453 0.29153488621895052 0 -0.17820012755500941 0.28580654415500589 0 -0.1726078703228143 0.30120428301840591 0 -0.1637753678355906 0.28400331694283032 0 -0.1637753678355906 0.28400331694283032 0 -0.1495338832118453 0.29153488621895052 0 -0.1552171120291525 0.27083605037264769 0 -0.13643809785080599 0.32078882377821399 0 -0.1545099066061906 0.31221243948807148 0 -0.13367856478925719 0.30232684436661272 0 -0.1495338832118453 0.29153488621895052 0 -0.1545099066061906 0.31221243948807148 0 -0.13367856478925719 0.30232684436661272 0 -0.13367856478925719 0.30232684436661272 0 -0.12671107379015031 0.31163608923085712 0 -0.11603871717274281 0.30680482060292991 0 -0.13643809785080599 0.32078882377821399 0 -0.13367856478925719 0.30232684436661272 0 -0.12671107379015031 0.31163608923085712 0 -0.13367856478925719 0.30232684436661272 0 -0.12890627908413901 0.2821999001088461 0 -0.11660964464089379 0.29230084899784398 0 -0.1495338832118453 0.29153488621895052 0 -0.12890627908413901 0.2821999001088461 0 -0.1428889004808778 0.27599093007353231 0 -0.1495338832118453 0.29153488621895052 0 -0.13367856478925719 0.30232684436661272 0 -0.12890627908413901 0.2821999001088461 0 -0.12890627908413901 0.2821999001088461 0 -0.13426702448132699 0.26830389744575228 0 -0.1186734279432355 0.26119571506609252 0 -0.12890627908413901 0.2821999001088461 0 -0.13426702448132699 0.26830389744575228 0 -0.1428889004808778 0.27599093007353231 0 -0.1186734279432355 0.26119571506609252 0 -0.1325121594120921 0.24133968591119689 0 -0.1346016357313822 0.25638005015610033 0 -0.1186734279432355 0.26119571506609252 0 -0.1325121594120921 0.24133968591119689 0 -0.13426702448132699 0.26830389744575228 0 -0.1346016357313822 0.25638005015610033 0 -0.1186734279432355 0.26119571506609252 0 -0.13426702448132699 0.26830389744575228 0 -0.1346016357313822 0.25638005015610033 0 -0.14626487916700029 0.26575289182419048 0 -0.14626487916700029 0.26575289182419048 0 -0.14103536322233101 0.2439810361359955 0 -0.16090034084645971 0.25013721452634491 0 -0.14894211464656959 0.25359584751982611 0 -0.1552171120291525 0.27083605037264769 0 -0.14894211464656959 0.25359584751982611 0 -0.1552171120291525 0.27083605037264769 0 -0.14626487916700029 0.26575289182419048 0 -0.1346016357313822 0.25638005015610033 0 -0.14626487916700029 0.26575289182419048 0 -0.14103536322233101 0.2439810361359955 0 -0.14894211464656959 0.25359584751982611 0 -0.14626487916700029 0.26575289182419048 0 -0.14103536322233101 0.2439810361359955 0 -0.1495338832118453 0.29153488621895052 0 -0.1552171120291525 0.27083605037264769 0 -0.1428889004808778 0.27599093007353231 0 -0.1495338832118453 0.29153488621895052 0 -0.1552171120291525 0.27083605037264769 0 -0.13426702448132699 0.26830389744575228 0 -0.1428889004808778 0.27599093007353231 0 -0.14626487916700029 0.26575289182419048 0 -0.1552171120291525 0.27083605037264769 0 -0.1428889004808778 0.27599093007353231 0 -0.14626487916700029 0.26575289182419048 0 -0.1048346964743781 0.28105174422098739 0 -0.097264489031920476 0.26129629357132 0 -0.1186734279432355 0.26119571506609252 0 -0.1048346964743781 0.28105174422098739 0 -0.08529589490910966 0.28635018200255402 0 -0.092466218146827206 0.27506809710660951 0 -0.1048346964743781 0.28105174422098739 0 -0.097264489031920476 0.26129629357132 0 -0.092466218146827206 0.27506809710660951 0 -0.097264489031920476 0.26129629357132 0 -0.1186734279432355 0.26119571506609252 0 -0.1043815395599072 0.2474654427881548 0 -0.097264489031920476 0.26129629357132 0 -0.1043815395599072 0.2474654427881548 0 -0.090497332216694357 0.24133107060736531 0 -0.12890627908413901 0.2821999001088461 0 -0.1048346964743781 0.28105174422098739 0 -0.1186734279432355 0.26119571506609252 0 -0.1048346964743781 0.28105174422098739 0 -0.1186734279432355 0.26119571506609252 0 -0.12890627908413901 0.2821999001088461 0 -0.1048346964743781 0.28105174422098739 0 -0.11660964464089379 0.29230084899784398 0 -0.13367856478925719 0.30232684436661272 0 -0.11660964464089379 0.29230084899784398 0 -0.11603871717274281 0.30680482060292991 0 -0.11660964464089379 0.29230084899784398 0 -0.11603871717274281 0.30680482060292991 0 -0.10628371291807261 0.29804505516329272 0 -0.11603871717274281 0.30680482060292991 0 -0.1043340719706035 0.31101928017578873 0 -0.10628371291807261 0.29804505516329272 0 -0.1043340719706035 0.31101928017578873 0 -0.10628371291807261 0.29804505516329272 0 -0.090995965005519985 0.30090777337588198 0 -0.1048346964743781 0.28105174422098739 0 -0.090995965005519985 0.30090777337588198 0 -0.1048346964743781 0.28105174422098739 0 -0.11660964464089379 0.29230084899784398 0 -0.10628371291807261 0.29804505516329272 0 -0.1048346964743781 0.28105174422098739 0 -0.10628371291807261 0.29804505516329272 0 -0.090995965005519985 0.30090777337588198 0 -0.1048346964743781 0.28105174422098739 0 -0.08529589490910966 0.28635018200255402 0 -0.090995965005519985 0.30090777337588198 0 -0.08529589490910966 0.28635018200255402 0 -0.090995965005519985 0.30090777337588198 0 -0.08529589490910966 0.28635018200255402 0 -0.078890903571770019 0.29869060804916481 0 -0.07113634712417817 0.28687304518428641 0 -0.08529589490910966 0.28635018200255402 0 -0.090995965005519985 0.30090777337588198 0 -0.078890903571770019 0.29869060804916481 0 -0.08529589490910966 0.28635018200255402 0 -0.07113634712417817 0.28687304518428641 0 -0.079595824812699709 0.27179259062922578 0 -0.090995965005519985 0.30090777337588198 0 -0.085234860432229567 0.30917389665669709 0 -0.088216605733160536 0.31921900245810331 0 -0.090995965005519985 0.30090777337588198 0 -0.085234860432229567 0.30917389665669709 0 -0.090995965005519985 0.30090777337588198 0 -0.078890903571770019 0.29869060804916481 0 -0.085234860432229567 0.30917389665669709 0 -0.085234860432229567 0.30917389665669709 0 -0.07636830531370109 0.3068481387271223 0 -0.074439498801533638 0.31580263089350319 0 -0.078890903571770019 0.29869060804916481 0 -0.085234860432229567 0.30917389665669709 0 -0.07636830531370109 0.3068481387271223 0 -0.07636830531370109 0.3068481387271223 0 -0.066907958449271138 0.30372541930912428 0 -0.074439498801533638 0.31580263089350319 0 -0.078890903571770019 0.29869060804916481 0 -0.07636830531370109 0.3068481387271223 0 -0.066907958449271138 0.30372541930912428 0 -0.078890903571770019 0.29869060804916481 0 -0.066907958449271138 0.30372541930912428 0 -0.07113634712417817 0.28687304518428641 0 -0.066907958449271138 0.30372541930912428 0 -0.07113634712417817 0.28687304518428641 0 -0.05580063731157775 0.28974634239585828 0 -0.07113634712417817 0.28687304518428641 0 -0.079595824812699709 0.27179259062922578 0 -0.060326863690640851 0.27093312871979158 0 -0.079595824812699709 0.27179259062922578 0 -0.07114272556186009 0.26285795189773359 0 -0.060326863690640851 0.27093312871979158 0 -0.097264489031920476 0.26129629357132 0 -0.079595824812699709 0.27179259062922578 0 -0.092466218146827206 0.27506809710660951 0 -0.08529589490910966 0.28635018200255402 0 -0.079595824812699709 0.27179259062922578 0 -0.092466218146827206 0.27506809710660951 0 -0.08529589490910966 0.28635018200255402 0 -0.079595824812699709 0.27179259062922578 0 -0.097264489031920476 0.26129629357132 0 -0.080021156004827343 0.25548485022154299 0 -0.090497332216694357 0.24133107060736531 0 -0.097264489031920476 0.26129629357132 0 -0.079595824812699709 0.27179259062922578 0 -0.080021156004827343 0.25548485022154299 0 -0.080021156004827343 0.25548485022154299 0 -0.07114272556186009 0.26285795189773359 0 -0.064627057739272464 0.25322123802037422 0 -0.07114272556186009 0.26285795189773359 0 -0.064627057739272464 0.25322123802037422 0 -0.060326863690640851 0.27093312871979158 0 -0.079595824812699709 0.27179259062922578 0 -0.080021156004827343 0.25548485022154299 0 -0.07114272556186009 0.26285795189773359 0 -0.064627057739272464 0.25322123802037422 0 -0.060326863690640851 0.27093312871979158 0 -0.043187104470462999 0.26208664968169287 0 -0.064627057739272464 0.25322123802037422 0 -0.043187104470462999 0.26208664968169287 0 -0.051281228244768932 0.24392012724752221 0 -0.060326863690640851 0.27093312871979158 0 -0.043130397461556183 0.27848313425767229 0 -0.05580063731157775 0.28974634239585828 0 -0.060326863690640851 0.27093312871979158 0 -0.043130397461556183 0.27848313425767229 0 -0.043187104470462999 0.26208664968169287 0 -0.043130397461556183 0.27848313425767229 0 -0.043187104470462999 0.26208664968169287 0 -0.02991021430266437 0.27332695899709669 0 -0.043130397461556183 0.27848313425767229 0 -0.02991021430266437 0.27332695899709669 0 -0.02826522259664585 0.28607673136884432 0 -0.043187104470462999 0.26208664968169287 0 -0.034066851528046782 0.25263223628814813 0 -0.051281228244768932 0.24392012724752221 0 -0.043187104470462999 0.26208664968169287 0 -0.034066851528046782 0.25263223628814813 0 -0.016995495808833489 0.26267841769448091 0 -0.034066851528046782 0.25263223628814813 0 -0.020959431072985289 0.25350428867414271 0 -0.016995495808833489 0.26267841769448091 0 -0.043187104470462999 0.26208664968169287 0 -0.016995495808833489 0.26267841769448091 0 -0.020959431072985289 0.25350428867414271 0 -0.016995495808833489 0.26267841769448091 0 -0.010697346538625301 0.25429425469017047 0 -0.043187104470462999 0.26208664968169287 0 -0.016995495808833489 0.26267841769448091 0 -0.02991021430266437 0.27332695899709669 0 -0.02991021430266437 0.27332695899709669 0 -0.01797285117582333 0.277309861982793 0 -0.02826522259664585 0.28607673136884432 0 -0.016995495808833489 0.26267841769448091 0 -0.02991021430266437 0.27332695899709669 0 -0.01797285117582333 0.277309861982793 0 -0.016995495808833489 0.26267841769448091 0 -0.010542722391178301 0.27306160523153822 0 -0.0028270096312297622 0.27028594766949049 0 -0.016995495808833489 0.26267841769448091 0 -0.01797285117582333 0.277309861982793 0 -0.010542722391178301 0.27306160523153822 0 -0.01797285117582333 0.277309861982793 0 -0.010542722391178301 0.27306160523153822 0 -0.0043755329488266211 0.28197219357938841 0 -0.010542722391178301 0.27306160523153822 0 -0.0028270096312297622 0.27028594766949049 0 -0.0043755329488266211 0.28197219357938841 0 -0.016995495808833489 0.26267841769448091 0 0.0091961128527961265 0.2632701857072689 0 -0.016995495808833489 0.26267841769448091 0 -0.010697346538625301 0.25429425469017047 0 0.0013968678610932379 0.25402272509214019 0 -0.016995495808833489 0.26267841769448091 0 -0.0028270096312297622 0.27028594766949049 0 0.0091961128527961265 0.2632701857072689 0 -0.016995495808833489 0.26267841769448091 0 0.0091961128527961265 0.2632701857072689 0 0.0013968678610932379 0.25402272509214019 0 -0.010697346538625301 0.25429425469017047 0 0.00069615477047229072 0.24213838121001291 0 0.0013968678610932379 0.25402272509214019 0 -0.020959431072985289 0.25350428867414271 0 -0.010697346538625301 0.25429425469017047 0 -0.014936262559913991 0.2423100706723525 0 -0.0070426362117476243 0.30627825765644129 0 -0.014229451190720841 0.29198270109564411 0 -0.025503647346116869 0.30185726052965611 0 -0.0070426362117476243 0.30627825765644129 0 -0.00053078136912822172 0.29323698237685231 0 -0.014229451190720841 0.29198270109564411 0 -0.00053078136912822172 0.29323698237685231 0 -0.0043755329488266211 0.28197219357938841 0 -0.014229451190720841 0.29198270109564411 0 -0.01797285117582333 0.277309861982793 0 -0.0043755329488266211 0.28197219357938841 0 -0.014229451190720841 0.29198270109564411 0 -0.014229451190720841 0.29198270109564411 0 -0.02826522259664585 0.28607673136884432 0 -0.025503647346116869 0.30185726052965611 0 -0.01797285117582333 0.277309861982793 0 -0.014229451190720841 0.29198270109564411 0 -0.02826522259664585 0.28607673136884432 0 -0.0070426362117476243 0.30627825765644129 0 -0.025503647346116869 0.30185726052965611 0 -0.030409587835816949 0.31691218143212968 0 -0.025503647346116869 0.30185726052965611 0 -0.038776380958057133 0.3074625499261433 0 -0.030409587835816949 0.31691218143212968 0 -0.025503647346116869 0.30185726052965611 0 -0.038776380958057133 0.3074625499261433 0 -0.040622962435323789 0.29356720238157902 0 -0.038776380958057133 0.3074625499261433 0 -0.040622962435323789 0.29356720238157902 0 -0.052946587685670968 0.30587501555022728 0 -0.038776380958057133 0.3074625499261433 0 -0.052946587685670968 0.30587501555022728 0 -0.04567638616245652 0.316738714736507 0 -0.02826522259664585 0.28607673136884432 0 -0.025503647346116869 0.30185726052965611 0 -0.040622962435323789 0.29356720238157902 0 -0.043130397461556183 0.27848313425767229 0 -0.02826522259664585 0.28607673136884432 0 -0.040622962435323789 0.29356720238157902 0 -0.043130397461556183 0.27848313425767229 0 -0.040622962435323789 0.29356720238157902 0 -0.05580063731157775 0.28974634239585828 0 -0.07113634712417817 0.28687304518428641 0 -0.060326863690640851 0.27093312871979158 0 -0.05580063731157775 0.28974634239585828 0 -0.040622962435323789 0.29356720238157902 0 -0.05580063731157775 0.28974634239585828 0 -0.052946587685670968 0.30587501555022728 0 -0.066907958449271138 0.30372541930912428 0 -0.05580063731157775 0.28974634239585828 0 -0.052946587685670968 0.30587501555022728 0 -0.066907958449271138 0.30372541930912428 0 -0.052946587685670968 0.30587501555022728 0 -0.057126177016331922 0.31952204992545852 0 -0.057126177016331922 0.31952204992545852 0 -0.050274765714128908 0.33109045428724471 0 -0.079646101482562501 0.3295784683958275 0 -0.057126177016331922 0.31952204992545852 0 -0.050274765714128908 0.33109045428724471 0 -0.04567638616245652 0.316738714736507 0 -0.052946587685670968 0.30587501555022728 0 -0.057126177016331922 0.31952204992545852 0 -0.04567638616245652 0.316738714736507 0 -0.061534067771663752 0.34047960837696539 0 -0.050274765714128908 0.33109045428724471 0 -0.045694576038307767 0.3448370463215108 0 -0.050274765714128908 0.33109045428724471 0 -0.0209034299456952 0.33260244017866059 0 -0.050274765714128908 0.33109045428724471 0 -0.0209034299456952 0.33260244017866059 0 -0.045694576038307767 0.3448370463215108 0 -0.0209034299456952 0.33260244017866059 0 -0.045694576038307767 0.3448370463215108 0 -0.034094658828757722 0.35323831954182688 0 -0.050274765714128908 0.33109045428724471 0 -0.04567638616245652 0.316738714736507 0 -0.030409587835816949 0.31691218143212968 0 -0.050274765714128908 0.33109045428724471 0 -0.030409587835816949 0.31691218143212968 0 -0.0209034299456952 0.33260244017866059 0 -0.038776380958057133 0.3074625499261433 0 -0.04567638616245652 0.316738714736507 0 -0.030409587835816949 0.31691218143212968 0 -0.0070426362117476243 0.30627825765644129 0 -0.030409587835816949 0.31691218143212968 0 -0.0209034299456952 0.33260244017866059 0 -0.0209034299456952 0.33260244017866059 0 -0.003353034474883573 0.35101667105113399 0 0.0050556740678513118 0.32913959941934551 0 -0.0070426362117476243 0.30627825765644129 0 -0.0209034299456952 0.33260244017866059 0 0.0027817502058227121 0.31571106157761608 0 -0.0209034299456952 0.33260244017866059 0 0.0027817502058227121 0.31571106157761608 0 0.0050556740678513118 0.32913959941934551 0 -0.011761743017618429 0.37289374268292241 0 -0.003353034474883573 0.35101667105113399 0 0.004340173904461269 0.37532524476536749 0 -0.011761743017618429 0.37289374268292241 0 -0.003353034474883573 0.35101667105113399 0 -0.019530836541290199 0.35735307206330819 0 -0.011761743017618429 0.37289374268292241 0 -0.003353034474883573 0.35101667105113399 0 -0.0209034299456952 0.33260244017866059 0 -0.003353034474883573 0.35101667105113399 0 -0.019530836541290199 0.35735307206330819 0 -0.0209034299456952 0.33260244017866059 0 -0.019530836541290199 0.35735307206330819 0 -0.034094658828757722 0.35323831954182688 0 -0.019530836541290199 0.35735307206330819 0 -0.034261610142284959 0.36714968538934789 0 -0.034094658828757722 0.35323831954182688 0 -0.019530836541290199 0.35735307206330819 0 -0.034261610142284959 0.36714968538934789 0 -0.02448849062284254 0.38055659687025611 0 -0.011761743017618429 0.37289374268292241 0 -0.019530836541290199 0.35735307206330819 0 -0.02448849062284254 0.38055659687025611 0 -0.034261610142284959 0.36714968538934789 0 -0.047821179013566098 0.36174073230743442 0 -0.043750531558205782 0.38294060206445629 0 -0.034261610142284959 0.36714968538934789 0 -0.034094658828757722 0.35323831954182688 0 -0.047821179013566098 0.36174073230743442 0 -0.045694576038307767 0.3448370463215108 0 -0.034094658828757722 0.35323831954182688 0 -0.047821179013566098 0.36174073230743442 0 -0.045694576038307767 0.3448370463215108 0 -0.059615197975618567 0.35200038794928051 0 -0.047821179013566098 0.36174073230743442 0 -0.061534067771663752 0.34047960837696539 0 -0.045694576038307767 0.3448370463215108 0 -0.059615197975618567 0.35200038794928051 0 -0.059615197975618567 0.35200038794928051 0 -0.060165739652869997 0.37074431296530841 0 -0.047821179013566098 0.36174073230743442 0 -0.060165739652869997 0.37074431296530841 0 -0.047821179013566098 0.36174073230743442 0 -0.043750531558205782 0.38294060206445629 0 -0.059615197975618567 0.35200038794928051 0 -0.060165739652869997 0.37074431296530841 0 -0.076580947747534212 0.35854802386616053 0 -0.060165739652869997 0.37074431296530841 0 -0.076580947747534212 0.35854802386616053 0 -0.075519101409240855 0.37722763717800478 0 -0.060165739652869997 0.37074431296530841 0 -0.076580947747534212 0.35854802386616053 0 -0.076580947747534212 0.35854802386616053 0 -0.094472075561999005 0.374195622247601 0 -0.098209659074501215 0.35701741190600822 0 -0.076580947747534212 0.35854802386616053 0 -0.094472075561999005 0.374195622247601 0 -0.075519101409240855 0.37722763717800478 0 -0.086520370427471738 0.34590070487838082 0 -0.076580947747534212 0.35854802386616053 0 -0.098209659074501215 0.35701741190600822 0 -0.086520370427471738 0.34590070487838082 0 -0.072439697647700946 0.34489168493096217 0 -0.076580947747534212 0.35854802386616053 0 -0.059615197975618567 0.35200038794928051 0 -0.072439697647700946 0.34489168493096217 0 -0.076580947747534212 0.35854802386616053 0 -0.061534067771663752 0.34047960837696539 0 -0.059615197975618567 0.35200038794928051 0 -0.072439697647700946 0.34489168493096217 0 -0.061534067771663752 0.34047960837696539 0 -0.072439697647700946 0.34489168493096217 0 -0.079646101482562501 0.3295784683958275 0 -0.061534067771663752 0.34047960837696539 0 -0.050274765714128908 0.33109045428724471 0 -0.079646101482562501 0.3295784683958275 0 -0.050274765714128908 0.33109045428724471 0 -0.079646101482562501 0.3295784683958275 0 -0.057126177016331922 0.31952204992545852 0 -0.074439498801533638 0.31580263089350319 0 -0.079646101482562501 0.3295784683958275 0 -0.066907958449271138 0.30372541930912428 0 -0.057126177016331922 0.31952204992545852 0 -0.074439498801533638 0.31580263089350319 0 -0.057126177016331922 0.31952204992545852 0 -0.079646101482562501 0.3295784683958275 0 -0.090995965005519985 0.30090777337588198 0 -0.088216605733160536 0.31921900245810331 0 -0.10177600369672481 0.32843925905955412 0 -0.088216605733160536 0.31921900245810331 0 -0.079646101482562501 0.3295784683958275 0 -0.10177600369672481 0.32843925905955412 0 -0.085234860432229567 0.30917389665669709 0 -0.074439498801533638 0.31580263089350319 0 -0.088216605733160536 0.31921900245810331 0 -0.074439498801533638 0.31580263089350319 0 -0.088216605733160536 0.31921900245810331 0 -0.079646101482562501 0.3295784683958275 0 -0.079646101482562501 0.3295784683958275 0 -0.10177600369672481 0.32843925905955412 0 -0.086520370427471738 0.34590070487838082 0 -0.072439697647700946 0.34489168493096217 0 -0.079646101482562501 0.3295784683958275 0 -0.086520370427471738 0.34590070487838082 0 -0.079646101482562501 0.3295784683958275 0 -0.1070059500638615 0.34179618640070009 0 -0.079646101482562501 0.3295784683958275 0 -0.1070059500638615 0.34179618640070009 0 -0.079646101482562501 0.3295784683958275 0 -0.10177600369672481 0.32843925905955412 0 -0.1070059500638615 0.34179618640070009 0 -0.10177600369672481 0.32843925905955412 0 -0.1070059500638615 0.34179618640070009 0 -0.10177600369672481 0.32843925905955412 0 -0.10639374969076899 0.32820154543126839 0 -0.1070059500638615 0.34179618640070009 0 -0.10177600369672481 0.32843925905955412 0 -0.10639374969076899 0.32820154543126839 0 -0.1043340719706035 0.31101928017578873 0 -0.10177600369672481 0.32843925905955412 0 -0.1085200618378659 0.3196911370206893 0 -0.1043340719706035 0.31101928017578873 0 -0.090995965005519985 0.30090777337588198 0 -0.10177600369672481 0.32843925905955412 0 -0.090995965005519985 0.30090777337588198 0 -0.10177600369672481 0.32843925905955412 0 -0.10177600369672481 0.32843925905955412 0 -0.10639374969076899 0.32820154543126839 0 -0.1085200618378659 0.3196911370206893 0 -0.11603871717274281 0.30680482060292991 0 -0.1085200618378659 0.3196911370206893 0 -0.1210323474749385 0.31940787830236839 0 -0.11603871717274281 0.30680482060292991 0 -0.1043340719706035 0.31101928017578873 0 -0.1085200618378659 0.3196911370206893 0 -0.10639374969076899 0.32820154543126839 0 -0.1085200618378659 0.3196911370206893 0 -0.1149677676227268 0.32679415686284058 0 -0.1085200618378659 0.3196911370206893 0 -0.1149677676227268 0.32679415686284058 0 -0.1210323474749385 0.31940787830236839 0 -0.1149677676227268 0.32679415686284058 0 -0.1210323474749385 0.31940787830236839 0 -0.1241086637900518 0.33146449503669712 0 -0.12671107379015031 0.31163608923085712 0 -0.11603871717274281 0.30680482060292991 0 -0.1210323474749385 0.31940787830236839 0 -0.1147840153200085 0.33520572852317998 0 -0.1241086637900518 0.33146449503669712 0 -0.12353522793947 0.34917744274458162 0 -0.1070059500638615 0.34179618640070009 0 -0.1147840153200085 0.33520572852317998 0 -0.12353522793947 0.34917744274458162 0 -0.10639374969076899 0.32820154543126839 0 -0.1149677676227268 0.32679415686284058 0 -0.1147840153200085 0.33520572852317998 0 -0.10639374969076899 0.32820154543126839 0 -0.1070059500638615 0.34179618640070009 0 -0.1147840153200085 0.33520572852317998 0 -0.1149677676227268 0.32679415686284058 0 -0.1147840153200085 0.33520572852317998 0 -0.1241086637900518 0.33146449503669712 0 -0.1070059500638615 0.34179618640070009 0 -0.12353522793947 0.34917744274458162 0 -0.1070059500638615 0.34179618640070009 0 -0.1150026026193179 0.36221909318743262 0 -0.1070059500638615 0.34179618640070009 0 -0.12353522793947 0.34917744274458162 0 -0.1150026026193179 0.36221909318743262 0 -0.1294927114376877 0.36792654221528148 0 -0.12353522793947 0.34917744274458162 0 -0.1150026026193179 0.36221909318743262 0 -0.1150026026193179 0.36221909318743262 0 -0.12299925517477479 0.38264199997416498 0 -0.1294927114376877 0.36792654221528148 0 -0.1150026026193179 0.36221909318743262 0 -0.12299925517477479 0.38264199997416498 0 -0.1150026026193179 0.36221909318743262 0 -0.1093950557719677 0.37619175602444949 0 -0.12299925517477479 0.38264199997416498 0 -0.1150026026193179 0.36221909318743262 0 -0.1042698482569465 0.36740597084137278 0 -0.1093950557719677 0.37619175602444949 0 -0.1042698482569465 0.36740597084137278 0 -0.094472075561999005 0.374195622247601 0 -0.098209659074501215 0.35701741190600822 0 -0.1150026026193179 0.36221909318743262 0 -0.1042698482569465 0.36740597084137278 0 -0.098209659074501215 0.35701741190600822 0 -0.1042698482569465 0.36740597084137278 0 -0.094472075561999005 0.374195622247601 0 -0.1093950557719677 0.37619175602444949 0 -0.1070059500638615 0.34179618640070009 0 -0.1150026026193179 0.36221909318743262 0 -0.098209659074501215 0.35701741190600822 0 -0.086520370427471738 0.34590070487838082 0 -0.1070059500638615 0.34179618640070009 0 -0.098209659074501215 0.35701741190600822 0 -0.094472075561999005 0.374195622247601 0 -0.10566613565686481 0.39516304479241798 0 -0.1093950557719677 0.37619175602444949 0 -0.10566613565686481 0.39516304479241798 0 -0.1093950557719677 0.37619175602444949 0 -0.1175755153982089 0.38671844594605509 0 -0.1093950557719677 0.37619175602444949 0 -0.12299925517477479 0.38264199997416498 0 -0.1175755153982089 0.38671844594605509 0 -0.127557833849961 0.38688201027526709 0 -0.12299925517477479 0.38264199997416498 0 -0.1175755153982089 0.38671844594605509 0 -0.1319242386032832 0.39274643391090103 0 -0.10566613565686481 0.39516304479241798 0 -0.10566613565686481 0.39516304479241798 0 -0.1216479551311388 0.40302083046318071 0 -0.1165588384469705 0.41702645062733829 0 -0.1319242386032832 0.39274643391090103 0 -0.10566613565686481 0.39516304479241798 0 -0.1216479551311388 0.40302083046318071 0 -0.1319242386032832 0.39274643391090103 0 -0.10566613565686481 0.39516304479241798 0 -0.1175755153982089 0.38671844594605509 0 -0.13093521127896679 0.40930291151521853 0 -0.1216479551311388 0.40302083046318071 0 -0.1165588384469705 0.41702645062733829 0 -0.1165588384469705 0.41702645062733829 0 -0.12264901134588251 0.43451991405170193 0 -0.1058584654811647 0.43834935129496932 0 -0.1352310074728906 0.42507762937121429 0 -0.1165588384469705 0.41702645062733829 0 -0.12264901134588251 0.43451991405170193 0 -0.1165588384469705 0.41702645062733829 0 -0.091131101253643904 0.4175315466667337 0 -0.1058584654811647 0.43834935129496932 0 -0.091131101253643904 0.4175315466667337 0 -0.086768300881779337 0.43579822490980907 0 -0.1058584654811647 0.43834935129496932 0 -0.10566613565686481 0.39516304479241798 0 -0.1165588384469705 0.41702645062733829 0 -0.091131101253643904 0.4175315466667337 0 -0.091131101253643904 0.4175315466667337 0 -0.086768300881779337 0.43579822490980907 0 -0.070897394216519652 0.42966475972502483 0 -0.086768300881779337 0.43579822490980907 0 -0.070897394216519652 0.42966475972502483 0 -0.074978646937666524 0.44678216154403422 0 -0.091131101253643904 0.4175315466667337 0 -0.063392682017539267 0.41339734666433331 0 -0.079408032710446164 0.39757965567393239 0 -0.091131101253643904 0.4175315466667337 0 -0.070897394216519652 0.42966475972502483 0 -0.063392682017539267 0.41339734666433331 0 -0.063392682017539267 0.41339734666433331 0 -0.079408032710446164 0.39757965567393239 0 -0.053149929764027527 0.39999626655544701 0 -0.079408032710446164 0.39757965567393239 0 -0.053149929764027527 0.39999626655544701 0 -0.079408032710446164 0.39757965567393239 0 -0.060865483965597447 0.38700250527721181 0 -0.053149929764027527 0.39999626655544701 0 -0.10566613565686481 0.39516304479241798 0 -0.079408032710446164 0.39757965567393239 0 -0.10566613565686481 0.39516304479241798 0 -0.091131101253643904 0.4175315466667337 0 -0.079408032710446164 0.39757965567393239 0 -0.094472075561999005 0.374195622247601 0 -0.079408032710446164 0.39757965567393239 0 -0.075519101409240855 0.37722763717800478 0 -0.094472075561999005 0.374195622247601 0 -0.10566613565686481 0.39516304479241798 0 -0.079408032710446164 0.39757965567393239 0 -0.079408032710446164 0.39757965567393239 0 -0.075519101409240855 0.37722763717800478 0 -0.060865483965597447 0.38700250527721181 0 -0.060165739652869997 0.37074431296530841 0 -0.075519101409240855 0.37722763717800478 0 -0.060865483965597447 0.38700250527721181 0 -0.060865483965597447 0.38700250527721181 0 -0.045964330915219821 0.39346379458125308 0 -0.043750531558205782 0.38294060206445629 0 -0.060165739652869997 0.37074431296530841 0 -0.043750531558205782 0.38294060206445629 0 -0.060165739652869997 0.37074431296530841 0 -0.060865483965597447 0.38700250527721181 0 -0.043750531558205782 0.38294060206445629 0 -0.060865483965597447 0.38700250527721181 0 -0.053149929764027527 0.39999626655544701 0 -0.045964330915219821 0.39346379458125308 0 -0.053149929764027527 0.39999626655544701 0 -0.045964330915219821 0.39346379458125308 0 -0.044769324684581023 0.40628267501045218 0 -0.035336774473748188 0.39554571158801882 0 -0.043750531558205782 0.38294060206445629 0 -0.027335323463540281 0.39513689116360251 0 -0.045964330915219821 0.39346379458125308 0 -0.035336774473748188 0.39554571158801882 0 -0.044769324684581023 0.40628267501045218 0 -0.045964330915219821 0.39346379458125308 0 -0.035336774473748188 0.39554571158801882 0 -0.043750531558205782 0.38294060206445629 0 -0.035336774473748188 0.39554571158801882 0 -0.027335323463540281 0.39513689116360251 0 -0.035336774473748188 0.39554571158801882 0 -0.03081558955659253 0.40552775547543768 0 -0.02842210914936007 0.39943718558587388 0 -0.035336774473748188 0.39554571158801882 0 -0.03081558955659253 0.40552775547543768 0 -0.044769324684581023 0.40628267501045218 0 -0.043750531558205782 0.38294060206445629 0 -0.02448849062284254 0.38055659687025611 0 -0.027335323463540281 0.39513689116360251 0 -0.034261610142284959 0.36714968538934789 0 -0.043750531558205782 0.38294060206445629 0 -0.02448849062284254 0.38055659687025611 0 -0.043750531558205782 0.38294060206445629 0 -0.027335323463540281 0.39513689116360251 0 -0.011761743017618429 0.37289374268292241 0 -0.02448849062284254 0.38055659687025611 0 -0.02017045156035276 0.39477081431471089 0 -0.011761743017618429 0.37289374268292241 0 -0.02017045156035276 0.39477081431471089 0 -0.02448849062284254 0.38055659687025611 0 -0.027335323463540281 0.39513689116360251 0 -0.02017045156035276 0.39477081431471089 0 -0.035336774473748188 0.39554571158801882 0 -0.027335323463540281 0.39513689116360251 0 -0.02842210914936007 0.39943718558587388 0 -0.027335323463540281 0.39513689116360251 0 -0.02842210914936007 0.39943718558587388 0 -0.021871494813981509 0.39919644577991009 0 -0.027335323463540281 0.39513689116360251 0 -0.021871494813981509 0.39919644577991009 0 -0.027335323463540281 0.39513689116360251 0 -0.02017045156035276 0.39477081431471089 0 -0.03081558955659253 0.40552775547543768 0 -0.02842210914936007 0.39943718558587388 0 -0.021871494813981509 0.39919644577991009 0 -0.021871494813981509 0.39919644577991009 0 -0.02017045156035276 0.39477081431471089 0 -0.01416230796762463 0.40492427274105619 0 -0.021871494813981509 0.39919644577991009 0 -0.01416230796762463 0.40492427274105619 0 -0.027335323463540281 0.39513689116360251 0 -0.021871494813981509 0.39919644577991009 0 -0.02017045156035276 0.39477081431471089 0 -0.021871494813981509 0.39919644577991009 0 -0.02017045156035276 0.39477081431471089 0 -0.01416230796762463 0.40492427274105619 0 0.0016941141115774749 0.40820952139338279 0 0.0089550659885869084 0.39328269591836518 0 -0.02017045156035276 0.39477081431471089 0 -0.0046592386712307511 0.38406812442034161 0 0.0089550659885869084 0.39328269591836518 0 -0.02017045156035276 0.39477081431471089 0 0.0089550659885869084 0.39328269591836518 0 -0.02017045156035276 0.39477081431471089 0 -0.01416230796762463 0.40492427274105619 0 0.0089550659885869084 0.39328269591836518 0 -0.011761743017618429 0.37289374268292241 0 -0.02017045156035276 0.39477081431471089 0 -0.0046592386712307511 0.38406812442034161 0 -0.011761743017618429 0.37289374268292241 0 -0.0046592386712307511 0.38406812442034161 0 0.004340173904461269 0.37532524476536749 0 -0.01349265811170708 0.4285927806055147 0 -0.0065096785154871162 0.4334514320172197 0 -0.0045322490052715951 0.42213904960798337 0 -0.01349265811170708 0.4285927806055147 0 -0.0045322490052715951 0.42213904960798337 0 -0.016444367349349849 0.4169633557289858 0 -0.01349265811170708 0.4285927806055147 0 -0.0065096785154871162 0.4334514320172197 0 -0.01671607269932324 0.43887614868803138 0 -0.0065096785154871162 0.4334514320172197 0 -0.01671607269932324 0.43887614868803138 0 -0.0079464809977098927 0.43982666850718333 0 -0.0065096785154871162 0.4334514320172197 0 -0.0045322490052715951 0.42213904960798337 0 0.0046778973195330479 0.43049481374472531 0 -0.0045322490052715951 0.42213904960798337 0 -0.0077666442758373829 0.41289778957757772 0 0.0016941141115774749 0.40820952139338279 0 -0.01416230796762463 0.40492427274105619 0 -0.0077666442758373829 0.41289778957757772 0 0.0016941141115774749 0.40820952139338279 0 -0.01416230796762463 0.40492427274105619 0 -0.0077666442758373829 0.41289778957757772 0 -0.016444367349349849 0.4169633557289858 0 -0.0045322490052715951 0.42213904960798337 0 -0.0077666442758373829 0.41289778957757772 0 -0.016444367349349849 0.4169633557289858 0 -0.021871494813981509 0.39919644577991009 0 -0.029601558221614959 0.41930787549918053 0 -0.021871494813981509 0.39919644577991009 0 -0.016444367349349849 0.4169633557289858 0 -0.029601558221614959 0.41930787549918053 0 -0.021871494813981509 0.39919644577991009 0 -0.01416230796762463 0.40492427274105619 0 -0.016444367349349849 0.4169633557289858 0 -0.03081558955659253 0.40552775547543768 0 -0.021871494813981509 0.39919644577991009 0 -0.029601558221614959 0.41930787549918053 0 -0.029601558221614959 0.41930787549918053 0 -0.023260922989103591 0.43153391698535298 0 -0.037331621629247518 0.43941930521845129 0 -0.016444367349349849 0.4169633557289858 0 -0.029601558221614959 0.41930787549918053 0 -0.023260922989103591 0.43153391698535298 0 -0.01349265811170708 0.4285927806055147 0 -0.016444367349349849 0.4169633557289858 0 -0.023260922989103591 0.43153391698535298 0 -0.01349265811170708 0.4285927806055147 0 -0.023260922989103591 0.43153391698535298 0 -0.01671607269932324 0.43887614868803138 0 -0.029601558221614959 0.41930787549918053 0 -0.037331621629247518 0.43941930521845129 0 -0.029601558221614959 0.41930787549918053 0 -0.048150264625901697 0.42333228958095942 0 -0.037331621629247518 0.43941930521845129 0 -0.029601558221614959 0.41930787549918053 0 -0.038334184272172563 0.41361264889150751 0 -0.048150264625901697 0.42333228958095942 0 -0.038334184272172563 0.41361264889150751 0 -0.044769324684581023 0.40628267501045218 0 -0.048150264625901697 0.42333228958095942 0 -0.03081558955659253 0.40552775547543768 0 -0.038334184272172563 0.41361264889150751 0 -0.044769324684581023 0.40628267501045218 0 -0.03081558955659253 0.40552775547543768 0 -0.029601558221614959 0.41930787549918053 0 -0.038334184272172563 0.41361264889150751 0 -0.063392682017539267 0.41339734666433331 0 -0.053149929764027527 0.39999626655544701 0 -0.044769324684581023 0.40628267501045218 0 -0.063392682017539267 0.41339734666433331 0 -0.044769324684581023 0.40628267501045218 0 -0.048150264625901697 0.42333228958095942 0 -0.070897394216519652 0.42966475972502483 0 -0.063392682017539267 0.41339734666433331 0 -0.048150264625901697 0.42333228958095942 0 -0.070897394216519652 0.42966475972502483 0 -0.048150264625901697 0.42333228958095942 0 -0.056198943829740028 0.44370871413078289 0 -0.048150264625901697 0.42333228958095942 0 -0.056198943829740028 0.44370871413078289 0 -0.037331621629247518 0.43941930521845129 0 -0.056198943829740028 0.44370871413078289 0 -0.045061685036879608 0.45953073493772217 0 -0.070679964982177587 0.46960752607697231 0 -0.045061685036879608 0.45953073493772217 0 -0.070679964982177587 0.46960752607697231 0 -0.062775298818416522 0.47657999478732183 0 -0.046604247442270791 0.46354404424291829 0 -0.045061685036879608 0.45953073493772217 0 -0.062775298818416522 0.47657999478732183 0 -0.045061685036879608 0.45953073493772217 0 -0.070679964982177587 0.46960752607697231 0 -0.034967685073054783 0.45883671547966731 0 -0.02167372294868674 0.46069017591748379 0 -0.040518229083293028 0.47178183075224012 0 -0.046604247442270791 0.46354404424291829 0 -0.034967685073054783 0.45883671547966731 0 -0.046604247442270791 0.46354404424291829 0 -0.034967685073054783 0.45883671547966731 0 -0.040518229083293028 0.47178183075224012 0 -0.046604247442270791 0.46354404424291829 0 -0.045061685036879608 0.45953073493772217 0 -0.046604247442270791 0.46354404424291829 0 -0.045061685036879608 0.45953073493772217 0 -0.034967685073054783 0.45883671547966731 0 -0.045061685036879608 0.45953073493772217 0 -0.033277848006110652 0.45489563590564291 0 -0.045061685036879608 0.45953073493772217 0 -0.033277848006110652 0.45489563590564291 0 -0.034967685073054783 0.45883671547966731 0 -0.033277848006110652 0.45489563590564291 0 -0.034967685073054783 0.45883671547966731 0 -0.034967685073054783 0.45883671547966731 0 -0.040518229083293028 0.47178183075224012 0 -0.045061685036879608 0.45953073493772217 0 -0.037331621629247518 0.43941930521845129 0 -0.023260922989103591 0.43153391698535298 0 -0.033277848006110652 0.45489563590564291 0 -0.037331621629247518 0.43941930521845129 0 -0.056198943829740028 0.44370871413078289 0 -0.045061685036879608 0.45953073493772217 0 -0.037331621629247518 0.43941930521845129 0 -0.045061685036879608 0.45953073493772217 0 -0.033277848006110652 0.45489563590564291 0 -0.037331621629247518 0.43941930521845129 0 -0.033277848006110652 0.45489563590564291 0 -0.013946006927380039 0.44729157640970818 0 -0.033277848006110652 0.45489563590564291 0 -0.01671607269932324 0.43887614868803138 0 -0.013946006927380039 0.44729157640970818 0 -0.023260922989103591 0.43153391698535298 0 -0.033277848006110652 0.45489563590564291 0 -0.01671607269932324 0.43887614868803138 0 -0.034967685073054783 0.45883671547966731 0 -0.0082520182386178285 0.44752539581358081 0 -0.013946006927380039 0.44729157640970818 0 -0.023260922989103591 0.43153391698535298 0 -0.033277848006110652 0.45489563590564291 0 -0.034967685073054783 0.45883671547966731 0 -0.02167372294868674 0.46069017591748379 0 -0.0082520182386178285 0.44752539581358081 0 -0.033277848006110652 0.45489563590564291 0 -0.034967685073054783 0.45883671547966731 0 -0.013946006927380039 0.44729157640970818 0 -0.02167372294868674 0.46069017591748379 0 -0.040518229083293028 0.47178183075224012 0 -0.034967685073054783 0.45883671547966731 0 -0.0082520182386178285 0.44752539581358081 0 -0.02167372294868674 0.46069017591748379 0 -0.012172756790017621 0.46731455950033618 0 -0.022151344270642949 0.47434409168583758 0 -0.02167372294868674 0.46069017591748379 0 -0.0052704842108084043 0.45796804236960659 0 -0.0028292168140803208 0.44959852108272791 0 -0.02167372294868674 0.46069017591748379 0 -0.012172756790017621 0.46731455950033618 0 -0.0052704842108084043 0.45796804236960659 0 -0.02167372294868674 0.46069017591748379 0 -0.0028292168140803208 0.44959852108272791 0 -0.002540330405828736 0.46770344598872898 0 -0.0052704842108084043 0.45796804236960659 0 0.0073115781214012554 0.46392644178254189 0 -0.012172756790017621 0.46731455950033618 0 -0.002540330405828736 0.46770344598872898 0 -0.0052704842108084043 0.45796804236960659 0 -0.0052704842108084043 0.45796804236960659 0 -0.0028292168140803208 0.44959852108272791 0 0.003686567682114407 0.45348632369656539 0 -0.02167372294868674 0.46069017591748379 0 -0.0028292168140803208 0.44959852108272791 0 -0.0082520182386178285 0.44752539581358081 0 -0.0082520182386178285 0.44752539581358081 0 -0.013946006927380039 0.44729157640970818 0 0.0053858341513508129 0.43968751691377422 0 -0.0079464809977098927 0.43982666850718333 0 -0.013946006927380039 0.44729157640970818 0 0.0053858341513508129 0.43968751691377422 0 -0.013946006927380039 0.44729157640970818 0 0.0053858341513508129 0.43968751691377422 0 -0.0065096785154871162 0.4334514320172197 0 -0.0079464809977098927 0.43982666850718333 0 0.0053858341513508129 0.43968751691377422 0 -0.01671607269932324 0.43887614868803138 0 -0.0079464809977098927 0.43982666850718333 0 -0.013946006927380039 0.44729157640970818 0 -0.014895700762663489 0.48606956374216259 0 0.00079915787713980067 0.48380178818253211 0 0.0018240551682290329 0.5 0 -0.014895700762663489 0.48606956374216259 0 -0.025396712125021152 0.5 0 0.0018240551682290329 0.5 0 -0.014895700762663489 0.48606956374216259 0 -0.0092279021141212624 0.47586704154002413 0 0.00079915787713980067 0.48380178818253211 0 -0.00012984661960833009 0.47462569808089689 0 -0.0092279021141212624 0.47586704154002413 0 0.00079915787713980067 0.48380178818253211 0 -0.002540330405828736 0.46770344598872898 0 -0.00012984661960833009 0.47462569808089689 0 -0.0092279021141212624 0.47586704154002413 0 -0.012172756790017621 0.46731455950033618 0 -0.0092279021141212624 0.47586704154002413 0 -0.022151344270642949 0.47434409168583758 0 -0.012172756790017621 0.46731455950033618 0 -0.002540330405828736 0.46770344598872898 0 -0.0092279021141212624 0.47586704154002413 0 -0.014895700762663489 0.48606956374216259 0 -0.0092279021141212624 0.47586704154002413 0 -0.022151344270642949 0.47434409168583758 0 -0.022151344270642949 0.47434409168583758 0 -0.029905968098480552 0.48361728031127188 0 -0.040518229083293028 0.47178183075224012 0 -0.014895700762663489 0.48606956374216259 0 -0.022151344270642949 0.47434409168583758 0 -0.029905968098480552 0.48361728031127188 0 -0.02167372294868674 0.46069017591748379 0 -0.022151344270642949 0.47434409168583758 0 -0.040518229083293028 0.47178183075224012 0 -0.014895700762663489 0.48606956374216259 0 -0.029905968098480552 0.48361728031127188 0 -0.025396712125021152 0.5 0 -0.029905968098480552 0.48361728031127188 0 -0.025396712125021152 0.5 0 -0.04656785425078229 0.4858909153761195 0 -0.025396712125021152 0.5 0 -0.04656785425078229 0.4858909153761195 0 -0.052617479418271322 0.49999999999999889 0 -0.029905968098480552 0.48361728031127188 0 -0.04656785425078229 0.4858909153761195 0 -0.040518229083293028 0.47178183075224012 0 -0.04656785425078229 0.4858909153761195 0 -0.040518229083293028 0.47178183075224012 0 -0.052475680746667107 0.47881984626753521 0 -0.04656785425078229 0.4858909153761195 0 -0.040518229083293028 0.47178183075224012 0 -0.040518229083293028 0.47178183075224012 0 -0.052475680746667107 0.47881984626753521 0 -0.046604247442270791 0.46354404424291829 0 -0.040518229083293028 0.47178183075224012 0 -0.052475680746667107 0.47881984626753521 0 -0.046604247442270791 0.46354404424291829 0 -0.052475680746667107 0.47881984626753521 0 -0.062775298818416522 0.47657999478732183 0 -0.04656785425078229 0.4858909153761195 0 -0.052475680746667107 0.47881984626753521 0 -0.065816481175558564 0.48667208460796457 0 -0.046604247442270791 0.46354404424291829 0 -0.052475680746667107 0.47881984626753521 0 -0.052475680746667107 0.47881984626753521 0 -0.065816481175558564 0.48667208460796457 0 -0.052475680746667107 0.47881984626753521 0 -0.065816481175558564 0.48667208460796457 0 -0.062775298818416522 0.47657999478732183 0 -0.04656785425078229 0.4858909153761195 0 -0.052617479418271322 0.49999999999999889 0 -0.065816481175558564 0.48667208460796457 0 -0.04656785425078229 0.4858909153761195 0 -0.052617479418271322 0.49999999999999889 0 -0.052617479418271322 0.49999999999999889 0 -0.065816481175558564 0.48667208460796457 0 -0.076783173756613698 0.5 0 -0.065816481175558564 0.48667208460796457 0 -0.079157281604449653 0.4945243229483946 0 -0.065816481175558564 0.48667208460796457 0 -0.079157281604449653 0.4945243229483946 0 -0.077071915001247299 0.48235756171887451 0 -0.065816481175558564 0.48667208460796457 0 -0.076783173756613698 0.5 0 -0.079157281604449653 0.4945243229483946 0 -0.076783173756613698 0.5 0 -0.079157281604449653 0.4945243229483946 0 -0.1009488680949561 0.5 0 -0.079157281604449653 0.4945243229483946 0 -0.087704218499405892 0.48707712467637099 0 -0.1009488680949561 0.5 0 -0.079157281604449653 0.4945243229483946 0 -0.087704218499405892 0.48707712467637099 0 -0.077071915001247299 0.48235756171887451 0 -0.087704218499405892 0.48707712467637099 0 -0.077071915001247299 0.48235756171887451 0 -0.096298244927475754 0.47968431721622218 0 -0.070679964982177587 0.46960752607697231 0 -0.077071915001247299 0.48235756171887451 0 -0.096298244927475754 0.47968431721622218 0 -0.070679964982177587 0.46960752607697231 0 -0.090183560846067157 0.4573600769721341 0 -0.096298244927475754 0.47968431721622218 0 -0.070679964982177587 0.46960752607697231 0 -0.096298244927475754 0.47968431721622218 0 -0.065816481175558564 0.48667208460796457 0 -0.077071915001247299 0.48235756171887451 0 -0.062775298818416522 0.47657999478732183 0 -0.070679964982177587 0.46960752607697231 0 -0.077071915001247299 0.48235756171887451 0 -0.062775298818416522 0.47657999478732183 0 -0.056198943829740028 0.44370871413078289 0 -0.070679964982177587 0.46960752607697231 0 -0.074978646937666524 0.44678216154403422 0 -0.070897394216519652 0.42966475972502483 0 -0.056198943829740028 0.44370871413078289 0 -0.074978646937666524 0.44678216154403422 0 -0.086768300881779337 0.43579822490980907 0 -0.074978646937666524 0.44678216154403422 0 -0.090183560846067157 0.4573600769721341 0 -0.070679964982177587 0.46960752607697231 0 -0.074978646937666524 0.44678216154403422 0 -0.090183560846067157 0.4573600769721341 0 -0.090183560846067157 0.4573600769721341 0 -0.1058584654811647 0.43834935129496932 0 -0.1104008496022905 0.46419516796255139 0 -0.090183560846067157 0.4573600769721341 0 -0.1104008496022905 0.46419516796255139 0 -0.096298244927475754 0.47968431721622218 0 -0.086768300881779337 0.43579822490980907 0 -0.090183560846067157 0.4573600769721341 0 -0.1058584654811647 0.43834935129496932 0 -0.1058584654811647 0.43834935129496932 0 -0.12158038773696279 0.44854983512302959 0 -0.11426656512281699 0.46526886663461281 0 -0.12264901134588251 0.43451991405170193 0 -0.1058584654811647 0.43834935129496932 0 -0.12158038773696279 0.44854983512302959 0 -0.1058584654811647 0.43834935129496932 0 -0.11426656512281699 0.46526886663461281 0 -0.1058584654811647 0.43834935129496932 0 -0.11426656512281699 0.46526886663461281 0 -0.1104008496022905 0.46419516796255139 0 -0.13223053434710891 0.45763418418521312 0 -0.12158038773696279 0.44854983512302959 0 -0.11426656512281699 0.46526886663461281 0 -0.11426656512281699 0.46526886663461281 0 -0.1104008496022905 0.46419516796255139 0 -0.11426656512281699 0.46526886663461281 0 -0.1219165248727736 0.48976110835547237 0 -0.11426656512281699 0.46526886663461281 0 -0.1219165248727736 0.48976110835547237 0 -0.096298244927475754 0.47968431721622218 0 -0.1301483348096856 0.48064658129655841 0 -0.11426656512281699 0.46526886663461281 0 -0.1219165248727736 0.48976110835547237 0 -0.12511456243329849 0.50000000000000067 0 -0.1219165248727736 0.48976110835547237 0 -0.1009488680949561 0.5 0 -0.12511456243329849 0.50000000000000067 0 -0.1219165248727736 0.48976110835547237 0 -0.1219165248727736 0.48976110835547237 0 -0.1009488680949561 0.5 0 -0.096298244927475754 0.47968431721622218 0 -0.087704218499405892 0.48707712467637099 0 -0.1009488680949561 0.5 0 -0.096298244927475754 0.47968431721622218 0 -0.1219165248727736 0.48976110835547237 0 -0.096298244927475754 0.47968431721622218 0 -0.11426656512281699 0.46526886663461281 0 -0.1104008496022905 0.46419516796255139 0 -0.096298244927475754 0.47968431721622218 0 -0.1770702696508146 0.088677410764117462 0 -0.15543419256272969 0.10446646052590899 0 -0.15401077940574531 0.077709950420596308 0 -0.1770702696508146 0.088677410764117462 0 -0.15401077940574531 0.077709950420596308 0 -0.17590720216990241 0.062306541858710929 0 -0.15401077940574531 0.077709950420596308 0 -0.1525873662487584 0.050953440315283788 0 -0.17590720216990241 0.062306541858710929 0 -0.1770702696508146 0.088677410764117462 0 -0.17590720216990241 0.062306541858710929 0 -0.1987183493818945 0.072904808484157618 0 -0.1770702696508146 0.088677410764117462 0 -0.18734753996278461 0.102177812519857 0 -0.17180206851676219 0.1089769370617566 0 -0.17180206851676219 0.1089769370617566 0 -0.1887542232679254 0.1178756706855139 0 -0.17364348522165729 0.1258547611616187 0 -0.18734753996278461 0.102177812519857 0 -0.17180206851676219 0.1089769370617566 0 -0.1887542232679254 0.1178756706855139 0 -0.1560051259911866 0.1151985420532872 0 -0.1569454019514277 0.13287331420812989 0 -0.17364348522165729 0.1258547611616187 0 -0.17180206851676219 0.1089769370617566 0 -0.1560051259911866 0.1151985420532872 0 -0.17364348522165729 0.1258547611616187 0 -0.1560051259911866 0.1151985420532872 0 -0.1569454019514277 0.13287331420812989 0 -0.17180206851676219 0.1089769370617566 0 -0.15543419256272969 0.10446646052590899 0 -0.1560051259911866 0.1151985420532872 0 -0.1560051259911866 0.1151985420532872 0 -0.17364348522165729 0.1258547611616187 0 -0.1770702696508146 0.088677410764117462 0 -0.15543419256272969 0.10446646052590899 0 -0.1770702696508146 0.088677410764117462 0 -0.17180206851676219 0.1089769370617566 0 -0.15543419256272969 0.10446646052590899 0 -0.15543419256272969 0.10446646052590899 0 -0.1429417351227355 0.095524447412523736 0 -0.14764717259857771 0.1101490824360378 0 -0.15543419256272969 0.10446646052590899 0 -0.14764717259857771 0.1101490824360378 0 -0.1560051259911866 0.1151985420532872 0 -0.14611929128669859 0.12328695656161121 0 -0.1569454019514277 0.13287331420812989 0 -0.1560051259911866 0.1151985420532872 0 -0.14764717259857771 0.1101490824360378 0 -0.1560051259911866 0.1151985420532872 0 -0.14764717259857771 0.1101490824360378 0 -0.14611929128669859 0.12328695656161121 0 -0.15543419256272969 0.10446646052590899 0 -0.1560051259911866 0.1151985420532872 0 -0.14764717259857771 0.1101490824360378 0 -0.15543419256272969 0.10446646052590899 0 -0.1560051259911866 0.1151985420532872 0 -0.14764717259857771 0.1101490824360378 0 -0.13396385679810219 0.1201345596184516 0 -0.14764717259857771 0.1101490824360378 0 -0.14611929128669859 0.12328695656161121 0 -0.13396385679810219 0.1201345596184516 0 -0.14764717259857771 0.1101490824360378 0 -0.13396385679810219 0.1201345596184516 0 -0.12780696903317659 0.098162618526083323 0 -0.13396385679810219 0.1201345596184516 0 -0.12780696903317659 0.098162618526083323 0 -0.12184853691571421 0.11835011368002001 0 -0.14611929128669859 0.12328695656161121 0 -0.13396385679810219 0.1201345596184516 0 -0.13829875673924441 0.1297618807717682 0 -0.13396385679810219 0.1201345596184516 0 -0.12028054099762631 0.13012003680086459 0 -0.12184853691571421 0.11835011368002001 0 -0.1429417351227355 0.095524447412523736 0 -0.14764717259857771 0.1101490824360378 0 -0.12780696903317659 0.098162618526083323 0 -0.14764717259857771 0.1101490824360378 0 -0.12780696903317659 0.098162618526083323 0 -0.1429417351227355 0.095524447412523736 0 -0.12780696903317659 0.098162618526083323 0 -0.13305303690383161 0.08352651876960146 0 -0.15543419256272969 0.10446646052590899 0 -0.15401077940574531 0.077709950420596308 0 -0.1429417351227355 0.095524447412523736 0 -0.13305303690383161 0.08352651876960146 0 -0.15401077940574531 0.077709950420596308 0 -0.15543419256272969 0.10446646052590899 0 -0.1429417351227355 0.095524447412523736 0 -0.15401077940574531 0.077709950420596308 0 -0.15401077940574531 0.077709950420596308 0 -0.1525873662487584 0.050953440315283788 0 -0.15401077940574531 0.077709950420596308 0 -0.1277319973666067 0.066678414431113137 0 -0.1525873662487584 0.050953440315283788 0 -0.13305303690383161 0.08352651876960146 0 -0.15401077940574531 0.077709950420596308 0 -0.1277319973666067 0.066678414431113137 0 -0.1277319973666067 0.066678414431113137 0 -0.1525873662487584 0.050953440315283788 0 -0.1224948028051992 0.047496469063538549 0 -0.13553305014057851 0.0307580020127095 0 -0.1176673902139687 0.02572409622204553 0 -0.1224948028051992 0.047496469063538549 0 -0.1525873662487584 0.050953440315283788 0 -0.13553305014057851 0.0307580020127095 0 -0.1224948028051992 0.047496469063538549 0 -0.1525873662487584 0.050953440315283788 0 -0.13553305014057851 0.0307580020127095 0 -0.1511639530917715 0.02419693020997124 0 -0.1525873662487584 0.050953440315283788 0 -0.1511639530917715 0.02419693020997124 0 -0.1289042152683513 0.0036931705937147661 0 -0.13553305014057851 0.0307580020127095 0 -0.1480717631732047 0.0053903871034023214 0 -0.1289042152683513 0.0036931705937147661 0 -0.13553305014057851 0.0307580020127095 0 -0.1176673902139687 0.02572409622204553 0 -0.13553305014057851 0.0307580020127095 0 -0.1511639530917715 0.02419693020997124 0 -0.1480717631732047 0.0053903871034023214 0 -0.1511639530917715 0.02419693020997124 0 -0.1480717631732047 0.0053903871034023214 0 -0.17339482477880311 0.0046843474987315293 0 -0.1511639530917715 0.02419693020997124 0 -0.17339482477880311 0.0046843474987315293 0 -0.1748275829039542 0.035756092474644723 0 -0.17339482477880311 0.0046843474987315293 0 -0.1748275829039542 0.035756092474644723 0 -0.19773938147460041 0.022770288902773751 0 -0.1525873662487584 0.050953440315283788 0 -0.1748275829039542 0.035756092474644723 0 -0.17590720216990241 0.062306541858710929 0 -0.1525873662487584 0.050953440315283788 0 -0.1511639530917715 0.02419693020997124 0 -0.1748275829039542 0.035756092474644723 0 -0.1748275829039542 0.035756092474644723 0 -0.17590720216990241 0.062306541858710929 0 -0.19822886542824741 0.047837548693465688 0 -0.19822886542824741 0.047837548693465688 0 -0.1987183493818945 0.072904808484157618 0 -0.17590720216990241 0.062306541858710929 0 -0.19822886542824741 0.047837548693465688 0 -0.1987183493818945 0.072904808484157618 0 -0.19822886542824741 0.047837548693465688 0 -0.19773938147460041 0.022770288902773751 0 -0.1748275829039542 0.035756092474644723 0 -0.19822886542824741 0.047837548693465688 0 -0.19773938147460041 0.022770288902773751 0 -0.19822886542824741 0.047837548693465688 0 -0.21461107166077789 0.035361578774645283 0 -0.21352716769829791 0.046633998098229788 0 -0.19822886542824741 0.047837548693465688 0 -0.21461107166077789 0.035361578774645283 0 -0.19773938147460041 0.022770288902773751 0 -0.21461107166077789 0.035361578774645283 0 -0.21352716769829791 0.046633998098229788 0 -0.226232688598729 0.046352039701885298 0 -0.19822886542824741 0.047837548693465688 0 -0.21890334646785359 0.05814948609163835 0 -0.1987183493818945 0.072904808484157618 0 -0.19822886542824741 0.047837548693465688 0 -0.21352716769829791 0.046633998098229788 0 -0.21890334646785359 0.05814948609163835 0 -0.19724989752095329 -0.0022969708879181862 0 -0.19773938147460041 0.022770288902773751 0 -0.19724989752095329 -0.0022969708879181862 0 -0.17339482477880311 0.0046843474987315293 0 -0.19773938147460041 0.022770288902773751 0 -0.21461107166077789 0.035361578774645283 0 -0.19773938147460041 0.022770288902773751 0 -0.2148301569220778 0.022565888676319229 0 -0.19773938147460041 0.022770288902773751 0 -0.2148301569220778 0.022565888676319229 0 -0.21498890758927561 0.01013199725759904 0 -0.21461107166077789 0.035361578774645283 0 -0.2148301569220778 0.022565888676319229 0 -0.22278179651010691 0.027577556745733981 0 -0.19724989752095329 -0.0022969708879181862 0 -0.19773938147460041 0.022770288902773751 0 -0.21498890758927561 0.01013199725759904 0 -0.19724989752095329 -0.0022969708879181862 0 -0.21392853364036579 -0.0033176694410896532 0 -0.21498890758927561 0.01013199725759904 0 -0.21392853364036579 -0.0033176694410896532 0 -0.21498890758927561 0.01013199725759904 0 -0.22558511437967621 0.0017107284761218491 0 -0.22558511437967621 0.0017107284761218491 0 -0.22880996486729269 0.010553900169298349 0 -0.2376792400997387 0.0056738125745543124 0 -0.23309364173555941 -0.0042944221710940287 0 -0.22558511437967621 0.0017107284761218491 0 -0.2376792400997387 0.0056738125745543124 0 -0.21498890758927561 0.01013199725759904 0 -0.22558511437967621 0.0017107284761218491 0 -0.22880996486729269 0.010553900169298349 0 -0.21498890758927561 0.01013199725759904 0 -0.22880996486729269 0.010553900169298349 0 -0.22677930431996349 0.018937814907687919 0 -0.22880996486729269 0.010553900169298349 0 -0.2353348783768931 0.013409601280728069 0 -0.2376792400997387 0.0056738125745543124 0 -0.22880996486729269 0.010553900169298349 0 -0.22677930431996349 0.018937814907687919 0 -0.2353348783768931 0.013409601280728069 0 -0.22677930431996349 0.018937814907687919 0 -0.23779877707816091 0.02109943946045412 0 -0.2353348783768931 0.013409601280728069 0 -0.22677930431996349 0.018937814907687919 0 -0.2310560416342764 0.02854155355478805 0 -0.23779877707816091 0.02109943946045412 0 -0.2148301569220778 0.022565888676319229 0 -0.21498890758927561 0.01013199725759904 0 -0.22677930431996349 0.018937814907687919 0 -0.2148301569220778 0.022565888676319229 0 -0.22677930431996349 0.018937814907687919 0 -0.22278179651010691 0.027577556745733981 0 -0.22278179651010691 0.027577556745733981 0 -0.2310560416342764 0.02854155355478805 0 -0.22695284841228219 0.035431621820207253 0 -0.22677930431996349 0.018937814907687919 0 -0.22278179651010691 0.027577556745733981 0 -0.2310560416342764 0.02854155355478805 0 -0.2310560416342764 0.02854155355478805 0 -0.23935973817954151 0.029285820876063282 0 -0.23518623740517811 0.035190806562931873 0 -0.23935973817954151 0.029285820876063282 0 -0.2478918613503 0.024578192860588641 0 -0.23779877707816091 0.02109943946045412 0 -0.2310560416342764 0.02854155355478805 0 -0.23935973817954151 0.029285820876063282 0 -0.23779877707816091 0.02109943946045412 0 -0.25441423010715641 0.032627046912229347 0 -0.2455801322317081 0.030687492735043401 0 -0.2478918613503 0.024578192860588641 0 -0.23935973817954151 0.029285820876063282 0 -0.2455801322317081 0.030687492735043401 0 -0.2478918613503 0.024578192860588641 0 -0.2478918613503 0.024578192860588641 0 -0.23779877707816091 0.02109943946045412 0 -0.2447355238744853 0.01451694924518121 0 -0.23779877707816091 0.02109943946045412 0 -0.2353348783768931 0.013409601280728069 0 -0.2447355238744853 0.01451694924518121 0 -0.2353348783768931 0.013409601280728069 0 -0.2447355238744853 0.01451694924518121 0 -0.2376792400997387 0.0056738125745543124 0 -0.2511806455824796 0.0060036871011076654 0 -0.2447355238744853 0.01451694924518121 0 -0.2376792400997387 0.0056738125745543124 0 -0.24435266819055859 -0.0031670696005617009 0 -0.2511806455824796 0.0060036871011076654 0 -0.2376792400997387 0.0056738125745543124 0 -0.21890334646785359 0.05814948609163835 0 -0.23569737268285379 0.053713724790858203 0 -0.23768477329462501 0.060271636488988978 0 -0.21890334646785359 0.05814948609163835 0 -0.2391003461968062 0.043410611180948799 0 -0.23569737268285379 0.053713724790858203 0 -0.21890334646785359 0.05814948609163835 0 -0.226232688598729 0.046352039701885298 0 -0.2391003461968062 0.043410611180948799 0 -0.21890334646785359 0.05814948609163835 0 -0.2391003461968062 0.043410611180948799 0 -0.21352716769829791 0.046633998098229788 0 -0.21890334646785359 0.05814948609163835 0 -0.226232688598729 0.046352039701885298 0 -0.21461107166077789 0.035361578774645283 0 -0.22278179651010691 0.027577556745733981 0 -0.22695284841228219 0.035431621820207253 0 -0.21461107166077789 0.035361578774645283 0 -0.226232688598729 0.046352039701885298 0 -0.22695284841228219 0.035431621820207253 0 -0.2310560416342764 0.02854155355478805 0 -0.22695284841228219 0.035431621820207253 0 -0.23518623740517811 0.035190806562931873 0 -0.22695284841228219 0.035431621820207253 0 -0.23200947486404649 0.041041532583747958 0 -0.23518623740517811 0.035190806562931873 0 -0.226232688598729 0.046352039701885298 0 -0.2391003461968062 0.043410611180948799 0 -0.226232688598729 0.046352039701885298 0 -0.22695284841228219 0.035431621820207253 0 -0.23200947486404649 0.041041532583747958 0 -0.226232688598729 0.046352039701885298 0 -0.23200947486404649 0.041041532583747958 0 -0.2391003461968062 0.043410611180948799 0 -0.26335106303830452 0.037867119708076123 0 -0.2420305313811334 0.041272291951533147 0 -0.2391003461968062 0.043410611180948799 0 -0.26335106303830452 0.037867119708076123 0 -0.2391003461968062 0.043410611180948799 0 -0.24710102477213031 0.053023165401856677 0 -0.23200947486404649 0.041041532583747958 0 -0.23825145472294429 0.039170549049084173 0 -0.2391003461968062 0.043410611180948799 0 -0.23825145472294429 0.039170549049084173 0 -0.2420305313811334 0.041272291951533147 0 -0.2391003461968062 0.043410611180948799 0 -0.2420305313811334 0.041272291951533147 0 -0.2391003461968062 0.043410611180948799 0 -0.23200947486404649 0.041041532583747958 0 -0.23825145472294429 0.039170549049084173 0 -0.23518623740517811 0.035190806562931873 0 -0.23825145472294429 0.039170549049084173 0 -0.23518623740517811 0.035190806562931873 0 -0.24236168461240401 0.03528036380963491 0 -0.23825145472294429 0.039170549049084173 0 -0.2420305313811334 0.041272291951533147 0 -0.24236168461240401 0.03528036380963491 0 -0.23935973817954151 0.029285820876063282 0 -0.23518623740517811 0.035190806562931873 0 -0.24236168461240401 0.03528036380963491 0 -0.25441423010715641 0.032627046912229347 0 -0.2420305313811334 0.041272291951533147 0 -0.24236168461240401 0.03528036380963491 0 -0.25441423010715641 0.032627046912229347 0 -0.2455801322317081 0.030687492735043401 0 -0.24236168461240401 0.03528036380963491 0 -0.23935973817954151 0.029285820876063282 0 -0.2455801322317081 0.030687492735043401 0 -0.24236168461240401 0.03528036380963491 0 -0.25540908252446171 0.064273543041139872 0 -0.24710102477213031 0.053023165401856677 0 -0.23768477329462501 0.060271636488988978 0 -0.2391003461968062 0.043410611180948799 0 -0.24710102477213031 0.053023165401856677 0 -0.23569737268285379 0.053713724790858203 0 -0.24710102477213031 0.053023165401856677 0 -0.23569737268285379 0.053713724790858203 0 -0.23768477329462501 0.060271636488988978 0 -0.25540908252446171 0.064273543041139872 0 -0.2458374903262652 0.088891741327123644 0 -0.22776942259976221 0.073306608392864486 0 -0.25540908252446171 0.064273543041139872 0 -0.23768477329462501 0.060271636488988978 0 -0.22776942259976221 0.073306608392864486 0 -0.25540908252446171 0.064273543041139872 0 -0.22776942259976221 0.073306608392864486 0 -0.2458374903262652 0.088891741327123644 0 -0.22776942259976221 0.073306608392864486 0 -0.23284560271843929 0.094885040822305991 0 -0.22776942259976221 0.073306608392864486 0 -0.21865321200467769 0.093072631298696085 0 -0.2131684791212918 0.07855780148424811 0 -0.22776942259976221 0.073306608392864486 0 -0.21865321200467769 0.093072631298696085 0 -0.23284560271843929 0.094885040822305991 0 -0.21890334646785359 0.05814948609163835 0 -0.22776942259976221 0.073306608392864486 0 -0.2131684791212918 0.07855780148424811 0 -0.21890334646785359 0.05814948609163835 0 -0.23768477329462501 0.060271636488988978 0 -0.22776942259976221 0.073306608392864486 0 -0.21890334646785359 0.05814948609163835 0 -0.1987183493818945 0.072904808484157618 0 -0.21890334646785359 0.05814948609163835 0 -0.2131684791212918 0.07855780148424811 0 -0.1987183493818945 0.072904808484157618 0 -0.2131684791212918 0.07855780148424811 0 -0.19943115294232011 0.090362675469188705 0 -0.1987183493818945 0.072904808484157618 0 -0.21865321200467769 0.093072631298696085 0 -0.2131684791212918 0.07855780148424811 0 -0.19943115294232011 0.090362675469188705 0 -0.1770702696508146 0.088677410764117462 0 -0.18734753996278461 0.102177812519857 0 -0.19943115294232011 0.090362675469188705 0 -0.1770702696508146 0.088677410764117462 0 -0.19943115294232011 0.090362675469188705 0 -0.1987183493818945 0.072904808484157618 0 -0.1770702696508146 0.088677410764117462 0 -0.1987183493818945 0.072904808484157618 0 -0.1887542232679254 0.1178756706855139 0 -0.20214198387360441 0.1072564355391474 0 -0.2044033480343023 0.1247389922702256 0 -0.18734753996278461 0.102177812519857 0 -0.19943115294232011 0.090362675469188705 0 -0.20214198387360441 0.1072564355391474 0 -0.18734753996278461 0.102177812519857 0 -0.1887542232679254 0.1178756706855139 0 -0.20214198387360441 0.1072564355391474 0 -0.21865321200467769 0.093072631298696085 0 -0.19943115294232011 0.090362675469188705 0 -0.20214198387360441 0.1072564355391474 0 -0.21865321200467769 0.093072631298696085 0 -0.20214198387360441 0.1072564355391474 0 -0.21665054697359129 0.11290035743059949 0 -0.21665054697359129 0.11290035743059949 0 -0.2044033480343023 0.1247389922702256 0 -0.2216235065364339 0.12850989387118561 0 -0.20214198387360441 0.1072564355391474 0 -0.21665054697359129 0.11290035743059949 0 -0.2044033480343023 0.1247389922702256 0 -0.21665054697359129 0.11290035743059949 0 -0.2326830523554432 0.11141899621406701 0 -0.2216235065364339 0.12850989387118561 0 -0.2326830523554432 0.11141899621406701 0 -0.23709742796101221 0.13054138298008 0 -0.2216235065364339 0.12850989387118561 0 -0.21865321200467769 0.093072631298696085 0 -0.21665054697359129 0.11290035743059949 0 -0.2326830523554432 0.11141899621406701 0 -0.21865321200467769 0.093072631298696085 0 -0.2326830523554432 0.11141899621406701 0 -0.23284560271843929 0.094885040822305991 0 -0.25254032146875027 0.1054194192194756 0 -0.2326830523554432 0.11141899621406701 0 -0.23284560271843929 0.094885040822305991 0 -0.25254032146875027 0.1054194192194756 0 -0.2458374903262652 0.088891741327123644 0 -0.23284560271843929 0.094885040822305991 0 -0.25028749714294168 0.1243589268005264 0 -0.25254032146875027 0.1054194192194756 0 -0.2326830523554432 0.11141899621406701 0 -0.25028749714294168 0.1243589268005264 0 -0.2326830523554432 0.11141899621406701 0 -0.23709742796101221 0.13054138298008 0 -0.25028749714294168 0.1243589268005264 0 -0.24934602627276969 0.13996994926851331 0 -0.23709742796101221 0.13054138298008 0 -0.24934602627276969 0.13996994926851331 0 -0.23709742796101221 0.13054138298008 0 -0.2366769770624822 0.14532839491326999 0 -0.2216235065364339 0.12850989387118561 0 -0.2366769770624822 0.14532839491326999 0 -0.2089202036826002 0.14716719937827941 0 -0.23709742796101221 0.13054138298008 0 -0.2216235065364339 0.12850989387118561 0 -0.2366769770624822 0.14532839491326999 0 -0.2366769770624822 0.14532839491326999 0 -0.2290239214413485 0.15931286545356901 0 -0.2089202036826002 0.14716719937827941 0 -0.2290239214413485 0.15931286545356901 0 -0.2089202036826002 0.14716719937827941 0 -0.2366769770624822 0.14532839491326999 0 -0.2089202036826002 0.14716719937827941 0 -0.2366769770624822 0.14532839491326999 0 -0.24900748786687429 0.1546158918902473 0 -0.2290239214413485 0.15931286545356901 0 -0.24934602627276969 0.13996994926851331 0 -0.2366769770624822 0.14532839491326999 0 -0.24900748786687429 0.1546158918902473 0 -0.24900748786687429 0.1546158918902473 0 -0.2491276392000977 0.17145853152885709 0 -0.2290239214413485 0.15931286545356901 0 -0.2491276392000977 0.17145853152885709 0 -0.2290239214413485 0.15931286545356901 0 -0.2491276392000977 0.17145853152885709 0 -0.22928061515361681 0.1820701899660048 0 -0.2290239214413485 0.15931286545356901 0 -0.2491276392000977 0.17145853152885709 0 -0.22928061515361681 0.1820701899660048 0 -0.24660498877890061 0.1877491309101994 0 -0.22928061515361681 0.1820701899660048 0 -0.21982509058244629 0.16949961341658201 0 -0.21346724826313371 0.18418450789604859 0 -0.2290239214413485 0.15931286545356901 0 -0.21982509058244629 0.16949961341658201 0 -0.2089202036826002 0.14716719937827941 0 -0.22928061515361681 0.1820701899660048 0 -0.2290239214413485 0.15931286545356901 0 -0.21982509058244629 0.16949961341658201 0 -0.20610828243127499 0.1700517072647838 0 -0.19623832511918751 0.1590654939978047 0 -0.2089202036826002 0.14716719937827941 0 -0.21982509058244629 0.16949961341658201 0 -0.20610828243127499 0.1700517072647838 0 -0.2089202036826002 0.14716719937827941 0 -0.20610828243127499 0.1700517072647838 0 -0.21346724826313371 0.18418450789604859 0 -0.19753060531956229 0.1845306981703331 0 -0.21982509058244629 0.16949961341658201 0 -0.20610828243127499 0.1700517072647838 0 -0.21346724826313371 0.18418450789604859 0 -0.19753060531956229 0.1845306981703331 0 -0.18114739602644769 0.1915827121944417 0 -0.18652187356574351 0.1701854264775314 0 -0.20610828243127499 0.1700517072647838 0 -0.19753060531956229 0.1845306981703331 0 -0.18652187356574351 0.1701854264775314 0 -0.20610828243127499 0.1700517072647838 0 -0.19623832511918751 0.1590654939978047 0 -0.18652187356574351 0.1701854264775314 0 -0.19623832511918751 0.1590654939978047 0 -0.1834029407971314 0.1488576428706255 0 -0.18652187356574351 0.1701854264775314 0 -0.2089202036826002 0.14716719937827941 0 -0.1834029407971314 0.1488576428706255 0 -0.1912818444521284 0.13651098026994971 0 -0.2089202036826002 0.14716719937827941 0 -0.1834029407971314 0.1488576428706255 0 -0.19623832511918751 0.1590654939978047 0 -0.2089202036826002 0.14716719937827941 0 -0.1834029407971314 0.1488576428706255 0 -0.1912818444521284 0.13651098026994971 0 -0.2089202036826002 0.14716719937827941 0 -0.2044033480343023 0.1247389922702256 0 -0.1912818444521284 0.13651098026994971 0 -0.2089202036826002 0.14716719937827941 0 -0.1887542232679254 0.1178756706855139 0 -0.2044033480343023 0.1247389922702256 0 -0.1912818444521284 0.13651098026994971 0 -0.2044033480343023 0.1247389922702256 0 -0.2216235065364339 0.12850989387118561 0 -0.2089202036826002 0.14716719937827941 0 -0.22480727068720499 0.2507498063256724 0 -0.2299974450098021 0.23107710017950439 0 -0.21108186579293781 0.23952170856393851 0 -0.22480727068720499 0.2507498063256724 0 -0.23738482535905969 0.245080794879867 0 -0.2299974450098021 0.23107710017950439 0 -0.25312730452603122 0.23956148187864251 0 -0.24073283793148881 0.2599430092145163 0 -0.23738482535905969 0.245080794879867 0 -0.25312730452603122 0.23956148187864251 0 -0.23738482535905969 0.245080794879867 0 -0.2299974450098021 0.23107710017950439 0 -0.25312730452603122 0.23956148187864251 0 -0.2299974450098021 0.23107710017950439 0 -0.24404014068406429 0.21872308601562079 0 -0.2299974450098021 0.23107710017950439 0 -0.22883960315600499 0.213832613637195 0 -0.21190881978979539 0.21796204349126841 0 -0.2299974450098021 0.23107710017950439 0 -0.22883960315600499 0.213832613637195 0 -0.24404014068406429 0.21872308601562079 0 -0.22883960315600499 0.213832613637195 0 -0.23699629141132711 0.20138807715915369 0 -0.22125531888503641 0.2000127613404277 0 -0.22883960315600499 0.213832613637195 0 -0.22125531888503641 0.2000127613404277 0 -0.21190881978979539 0.21796204349126841 0 -0.25488177729238148 0.20209275599548221 0 -0.24404014068406429 0.21872308601562079 0 -0.23699629141132711 0.20138807715915369 0 -0.22883960315600499 0.213832613637195 0 -0.24404014068406429 0.21872308601562079 0 -0.23699629141132711 0.20138807715915369 0 -0.25488177729238148 0.20209275599548221 0 -0.23699629141132711 0.20138807715915369 0 -0.24660498877890061 0.1877491309101994 0 -0.22928061515361681 0.1820701899660048 0 -0.23699629141132711 0.20138807715915369 0 -0.24660498877890061 0.1877491309101994 0 -0.22928061515361681 0.1820701899660048 0 -0.23699629141132711 0.20138807715915369 0 -0.22125531888503641 0.2000127613404277 0 -0.22928061515361681 0.1820701899660048 0 -0.21346724826313371 0.18418450789604859 0 -0.22125531888503641 0.2000127613404277 0 -0.21346724826313371 0.18418450789604859 0 -0.19753060531956229 0.1845306981703331 0 -0.20539013891096469 0.19840175644703359 0 -0.21346724826313371 0.18418450789604859 0 -0.22125531888503641 0.2000127613404277 0 -0.20539013891096469 0.19840175644703359 0 -0.19391002381787559 0.19636920560900581 0 -0.19153217964365071 0.2098806060861963 0 -0.18114739602644769 0.1915827121944417 0 -0.19753060531956229 0.1845306981703331 0 -0.19391002381787559 0.19636920560900581 0 -0.18114739602644769 0.1915827121944417 0 -0.19753060531956229 0.1845306981703331 0 -0.20539013891096469 0.19840175644703359 0 -0.19391002381787559 0.19636920560900581 0 -0.20539013891096469 0.19840175644703359 0 -0.19391002381787559 0.19636920560900581 0 -0.19153217964365071 0.2098806060861963 0 -0.20539013891096469 0.19840175644703359 0 -0.19153217964365071 0.2098806060861963 0 -0.21190881978979539 0.21796204349126841 0 -0.19153217964365071 0.2098806060861963 0 -0.21190881978979539 0.21796204349126841 0 -0.19762899666187031 0.22341395709378051 0 -0.22125531888503641 0.2000127613404277 0 -0.20539013891096469 0.19840175644703359 0 -0.21190881978979539 0.21796204349126841 0 -0.21190881978979539 0.21796204349126841 0 -0.19762899666187031 0.22341395709378051 0 -0.21108186579293781 0.23952170856393851 0 -0.2299974450098021 0.23107710017950439 0 -0.21190881978979539 0.21796204349126841 0 -0.21108186579293781 0.23952170856393851 0 -0.19153217964365071 0.2098806060861963 0 -0.19762899666187031 0.22341395709378051 0 -0.18215575533378961 0.226333071150469 0 -0.19762899666187031 0.22341395709378051 0 -0.1926815934582656 0.23693023595674911 0 -0.21108186579293781 0.23952170856393851 0 -0.19762899666187031 0.22341395709378051 0 -0.1926815934582656 0.23693023595674911 0 -0.18215575533378961 0.226333071150469 0 -0.1926815934582656 0.23693023595674911 0 -0.1996891956023244 0.2484379794903481 0 -0.21108186579293781 0.23952170856393851 0 -0.18558547935525149 0.2507341425259047 0 -0.1926815934582656 0.23693023595674911 0 -0.1996891956023244 0.2484379794903481 0 -0.22480727068720499 0.2507498063256724 0 -0.20824365681318621 0.25972678944317079 0 -0.21108186579293781 0.23952170856393851 0 -0.20824365681318621 0.25972678944317079 0 -0.1996891956023244 0.2484379794903481 0 -0.21108186579293781 0.23952170856393851 0 -0.16090034084645971 0.25013721452634491 0 -0.1656819509599389 0.2327221559387824 0 -0.15035549185723129 0.23543949892274449 0 -0.16090034084645971 0.25013721452634491 0 -0.17618703261833621 0.2416413728622408 0 -0.1656819509599389 0.2327221559387824 0 -0.16090034084645971 0.25013721452634491 0 -0.1656819509599389 0.2327221559387824 0 -0.1727604863792532 0.25381268665708989 0 -0.16090034084645971 0.25013721452634491 0 -0.17618703261833621 0.2416413728622408 0 -0.1926815934582656 0.23693023595674911 0 -0.17618703261833621 0.2416413728622408 0 -0.18215575533378961 0.226333071150469 0 -0.18558547935525149 0.2507341425259047 0 -0.1926815934582656 0.23693023595674911 0 -0.17618703261833621 0.2416413728622408 0 -0.18558547935525149 0.2507341425259047 0 -0.1727604863792532 0.25381268665708989 0 -0.17618703261833621 0.2416413728622408 0 -0.17618703261833621 0.2416413728622408 0 -0.18215575533378961 0.226333071150469 0 -0.1656819509599389 0.2327221559387824 0 -0.18215575533378961 0.226333071150469 0 -0.1656819509599389 0.2327221559387824 0 -0.17046356107341809 0.21530709735122 0 -0.1656819509599389 0.2327221559387824 0 -0.17046356107341809 0.21530709735122 0 -0.15552622803385299 0.224522252553816 0 -0.1656819509599389 0.2327221559387824 0 -0.17046356107341809 0.21530709735122 0 -0.1656819509599389 0.2327221559387824 0 -0.15552622803385299 0.224522252553816 0 -0.15035549185723129 0.23543949892274449 0 -0.17046356107341809 0.21530709735122 0 -0.1622310328745129 0.1971558593782767 0 -0.15242772664447751 0.21095652426763559 0 -0.17046356107341809 0.21530709735122 0 -0.15242772664447751 0.21095652426763559 0 -0.15552622803385299 0.224522252553816 0 -0.19153217964365071 0.2098806060861963 0 -0.18215575533378961 0.226333071150469 0 -0.17046356107341809 0.21530709735122 0 -0.19153217964365071 0.2098806060861963 0 -0.17046356107341809 0.21530709735122 0 -0.18114739602644769 0.1915827121944417 0 -0.17046356107341809 0.21530709735122 0 -0.18114739602644769 0.1915827121944417 0 -0.1622310328745129 0.1971558593782767 0 -0.18114739602644769 0.1915827121944417 0 -0.1622310328745129 0.1971558593782767 0 -0.1592643061846688 0.17646275571737291 0 -0.1622310328745129 0.1971558593782767 0 -0.1459367326995796 0.1920069211128059 0 -0.15242772664447751 0.21095652426763559 0 -0.1622310328745129 0.1971558593782767 0 -0.1459367326995796 0.1920069211128059 0 -0.1592643061846688 0.17646275571737291 0 -0.1326877441061424 0.20922769363534721 0 -0.12699649602101279 0.18553352512985269 0 -0.1459367326995796 0.1920069211128059 0 -0.1326877441061424 0.20922769363534721 0 -0.12699649602101279 0.18553352512985269 0 -0.1326877441061424 0.20922769363534721 0 -0.12699649602101279 0.18553352512985269 0 -0.1188292223037329 0.20002586504003769 0 -0.1459367326995796 0.1920069211128059 0 -0.1326877441061424 0.20922769363534721 0 -0.15242772664447751 0.21095652426763559 0 -0.1326877441061424 0.20922769363534721 0 -0.15242772664447751 0.21095652426763559 0 -0.1426679986179315 0.22676792839011559 0 -0.15242772664447751 0.21095652426763559 0 -0.15552622803385299 0.224522252553816 0 -0.1426679986179315 0.22676792839011559 0 -0.15552622803385299 0.224522252553816 0 -0.1426679986179315 0.22676792839011559 0 -0.15035549185723129 0.23543949892274449 0 -0.1426679986179315 0.22676792839011559 0 -0.13837899219126909 0.23292186214084229 0 -0.15035549185723129 0.23543949892274449 0 -0.1326877441061424 0.20922769363534721 0 -0.13837899219126909 0.23292186214084229 0 -0.1326877441061424 0.20922769363534721 0 -0.1426679986179315 0.22676792839011559 0 -0.13837899219126909 0.23292186214084229 0 -0.1326877441061424 0.20922769363534721 0 -0.125652781857677 0.2303056508020368 0 -0.13837899219126909 0.23292186214084229 0 -0.1426679986179315 0.22676792839011559 0 -0.13837899219126909 0.23292186214084229 0 -0.13837899219126909 0.23292186214084229 0 -0.1325121594120921 0.24133968591119689 0 -0.14103536322233101 0.2439810361359955 0 -0.13837899219126909 0.23292186214084229 0 -0.14103536322233101 0.2439810361359955 0 -0.13837899219126909 0.23292186214084229 0 -0.1325121594120921 0.24133968591119689 0 -0.125652781857677 0.2303056508020368 0 -0.13837899219126909 0.23292186214084229 0 -0.1325121594120921 0.24133968591119689 0 -0.1346016357313822 0.25638005015610033 0 -0.1325121594120921 0.24133968591119689 0 -0.14103536322233101 0.2439810361359955 0 -0.1325121594120921 0.24133968591119689 0 -0.14103536322233101 0.2439810361359955 0 -0.16090034084645971 0.25013721452634491 0 -0.14894211464656959 0.25359584751982611 0 -0.14103536322233101 0.2439810361359955 0 -0.16090034084645971 0.25013721452634491 0 -0.14103536322233101 0.2439810361359955 0 -0.15035549185723129 0.23543949892274449 0 -0.16090034084645971 0.25013721452634491 0 -0.14103536322233101 0.2439810361359955 0 -0.13837899219126909 0.23292186214084229 0 -0.14103536322233101 0.2439810361359955 0 -0.15035549185723129 0.23543949892274449 0 -0.15788567791166261 0.15054808636297301 0 -0.1569454019514277 0.13287331420812989 0 -0.15788567791166261 0.15054808636297301 0 -0.17049371548195491 0.13930196514645529 0 -0.1834029407971314 0.1488576428706255 0 -0.15788567791166261 0.15054808636297301 0 -0.1834029407971314 0.1488576428706255 0 -0.15788567791166261 0.15054808636297301 0 -0.1834029407971314 0.1488576428706255 0 -0.1704859548700402 0.16287177258877519 0 -0.15788567791166261 0.15054808636297301 0 -0.1569454019514277 0.13287331420812989 0 -0.17049371548195491 0.13930196514645529 0 -0.1569454019514277 0.13287331420812989 0 -0.17049371548195491 0.13930196514645529 0 -0.17364348522165729 0.1258547611616187 0 -0.1887542232679254 0.1178756706855139 0 -0.1912818444521284 0.13651098026994971 0 -0.17364348522165729 0.1258547611616187 0 -0.1912818444521284 0.13651098026994971 0 -0.17364348522165729 0.1258547611616187 0 -0.17970549648821799 0.13763133736216229 0 -0.1912818444521284 0.13651098026994971 0 -0.17364348522165729 0.1258547611616187 0 -0.17049371548195491 0.13930196514645529 0 -0.17364348522165729 0.1258547611616187 0 -0.17970549648821799 0.13763133736216229 0 -0.1912818444521284 0.13651098026994971 0 -0.17970549648821799 0.13763133736216229 0 -0.1834029407971314 0.1488576428706255 0 -0.17049371548195491 0.13930196514645529 0 -0.17970549648821799 0.13763133736216229 0 -0.1834029407971314 0.1488576428706255 0 -0.1834029407971314 0.1488576428706255 0 -0.18652187356574351 0.1701854264775314 0 -0.1704859548700402 0.16287177258877519 0 -0.18652187356574351 0.1701854264775314 0 -0.1592643061846688 0.17646275571737291 0 -0.1704859548700402 0.16287177258877519 0 -0.18114739602644769 0.1915827121944417 0 -0.18652187356574351 0.1701854264775314 0 -0.1592643061846688 0.17646275571737291 0 -0.15788567791166261 0.15054808636297301 0 -0.1592643061846688 0.17646275571737291 0 -0.15788567791166261 0.15054808636297301 0 -0.1592643061846688 0.17646275571737291 0 -0.1704859548700402 0.16287177258877519 0 -0.15788567791166261 0.15054808636297301 0 -0.1592643061846688 0.17646275571737291 0 -0.14897534923465949 0.16026339818721841 0 -0.14897534923465949 0.16026339818721841 0 -0.14201309036666321 0.1727051685483503 0 -0.1384626766764141 0.15679728190452411 0 -0.1592643061846688 0.17646275571737291 0 -0.14897534923465949 0.16026339818721841 0 -0.14201309036666321 0.1727051685483503 0 -0.1459367326995796 0.1920069211128059 0 -0.1592643061846688 0.17646275571737291 0 -0.14201309036666321 0.1727051685483503 0 -0.14201309036666321 0.1727051685483503 0 -0.12699649602101279 0.18553352512985269 0 -0.1305275396396717 0.1657038429904206 0 -0.1459367326995796 0.1920069211128059 0 -0.14201309036666321 0.1727051685483503 0 -0.12699649602101279 0.18553352512985269 0 -0.1384626766764141 0.15679728190452411 0 -0.1305275396396717 0.1657038429904206 0 -0.120838034266774 0.1598942227559422 0 -0.14201309036666321 0.1727051685483503 0 -0.1384626766764141 0.15679728190452411 0 -0.1305275396396717 0.1657038429904206 0 -0.1384626766764141 0.15679728190452411 0 -0.12483267878580651 0.1527377501809789 0 -0.120838034266774 0.1598942227559422 0 -0.12699649602101279 0.18553352512985269 0 -0.1305275396396717 0.1657038429904206 0 -0.1213052479358832 0.16183935662435819 0 -0.1384626766764141 0.15679728190452411 0 -0.120838034266774 0.1598942227559422 0 -0.1384626766764141 0.15679728190452411 0 -0.14135917834873449 0.1516429182719761 0 -0.12483267878580651 0.1527377501809789 0 -0.137161871862614 0.1436639405874611 0 -0.14135917834873449 0.1516429182719761 0 -0.12483267878580651 0.1527377501809789 0 -0.14135917834873449 0.1516429182719761 0 -0.12483267878580651 0.1527377501809789 0 -0.13084075459940639 0.13723549262755691 0 -0.1228086101006902 0.1440162745452219 0 -0.12483267878580651 0.1527377501809789 0 -0.13084075459940639 0.13723549262755691 0 -0.12483267878580651 0.1527377501809789 0 -0.137161871862614 0.1436639405874611 0 -0.13084075459940639 0.13723549262755691 0 -0.12483267878580651 0.1527377501809789 0 -0.15788567791166261 0.15054808636297301 0 -0.14897534923465949 0.16026339818721841 0 -0.14135917834873449 0.1516429182719761 0 -0.15788567791166261 0.15054808636297301 0 -0.14135917834873449 0.1516429182719761 0 -0.14520999138159971 0.1458062859550267 0 -0.15788567791166261 0.15054808636297301 0 -0.14135917834873449 0.1516429182719761 0 -0.14897534923465949 0.16026339818721841 0 -0.1384626766764141 0.15679728190452411 0 -0.14135917834873449 0.1516429182719761 0 -0.137161871862614 0.1436639405874611 0 -0.14520999138159971 0.1458062859550267 0 -0.1444332374033826 0.137370198597697 0 -0.137161871862614 0.1436639405874611 0 -0.14135917834873449 0.1516429182719761 0 -0.14520999138159971 0.1458062859550267 0 -0.15788567791166261 0.15054808636297301 0 -0.14520999138159971 0.1458062859550267 0 -0.1444332374033826 0.137370198597697 0 -0.15788567791166261 0.15054808636297301 0 -0.1569454019514277 0.13287331420812989 0 -0.1444332374033826 0.137370198597697 0 -0.14611929128669859 0.12328695656161121 0 -0.1569454019514277 0.13287331420812989 0 -0.1444332374033826 0.137370198597697 0 -0.14611929128669859 0.12328695656161121 0 -0.1444332374033826 0.137370198597697 0 -0.13829875673924441 0.1297618807717682 0 -0.13396385679810219 0.1201345596184516 0 -0.13829875673924441 0.1297618807717682 0 -0.12028054099762631 0.13012003680086459 0 -0.13829875673924441 0.1297618807717682 0 -0.13084075459940639 0.13723549262755691 0 -0.12028054099762631 0.13012003680086459 0 -0.1444332374033826 0.137370198597697 0 -0.13829875673924441 0.1297618807717682 0 -0.13084075459940639 0.13723549262755691 0 -0.137161871862614 0.1436639405874611 0 -0.1444332374033826 0.137370198597697 0 -0.13084075459940639 0.13723549262755691 0 -0.13084075459940639 0.13723549262755691 0 -0.1226915452379604 0.13769127365001779 0 -0.1228086101006902 0.1440162745452219 0 -0.13396385679810219 0.1201345596184516 0 -0.12028054099762631 0.13012003680086459 0 -0.12028054099762631 0.13012003680086459 0 -0.1120101002970207 0.1272544604226285 0 -0.12184853691571421 0.11835011368002001 0 -0.12028054099762631 0.13012003680086459 0 -0.1226915452379604 0.13769127365001779 0 -0.1158582141516606 0.1391619167363107 0 -0.13084075459940639 0.13723549262755691 0 -0.12028054099762631 0.13012003680086459 0 -0.1226915452379604 0.13769127365001779 0 -0.1226915452379604 0.13769127365001779 0 -0.1158582141516606 0.1391619167363107 0 -0.1228086101006902 0.1440162745452219 0 -0.1158582141516606 0.1391619167363107 0 -0.1120101002970207 0.1272544604226285 0 -0.10249463005629809 0.13748812855405659 0 -0.12028054099762631 0.13012003680086459 0 -0.1158582141516606 0.1391619167363107 0 -0.1120101002970207 0.1272544604226285 0 -0.1120101002970207 0.1272544604226285 0 -0.10249463005629809 0.13748812855405659 0 -0.099610711202155922 0.12502302909978619 0 -0.10249463005629809 0.13748812855405659 0 -0.095883197833888975 0.14463578927359849 0 -0.086809431206253534 0.13897544147227181 0 -0.10249463005629809 0.13748812855405659 0 -0.099610711202155922 0.12502302909978619 0 -0.086809431206253534 0.13897544147227181 0 -0.11920856953958089 0.1531103308499222 0 -0.092755608463831699 0.15486276159081319 0 -0.10563789475948659 0.14586687654113659 0 -0.11920856953958089 0.1531103308499222 0 -0.092755608463831699 0.15486276159081319 0 -0.095883197833888975 0.14463578927359849 0 -0.10563789475948659 0.14586687654113659 0 -0.092755608463831699 0.15486276159081319 0 -0.10249463005629809 0.13748812855405659 0 -0.095883197833888975 0.14463578927359849 0 -0.10563789475948659 0.14586687654113659 0 -0.1158582141516606 0.1391619167363107 0 -0.10249463005629809 0.13748812855405659 0 -0.10563789475948659 0.14586687654113659 0 -0.1158582141516606 0.1391619167363107 0 -0.10563789475948659 0.14586687654113659 0 -0.11920856953958089 0.1531103308499222 0 -0.1158582141516606 0.1391619167363107 0 -0.11920856953958089 0.1531103308499222 0 -0.1158582141516606 0.1391619167363107 0 -0.1228086101006902 0.1440162745452219 0 -0.11920856953958089 0.1531103308499222 0 -0.1228086101006902 0.1440162745452219 0 -0.11920856953958089 0.1531103308499222 0 -0.12483267878580651 0.1527377501809789 0 -0.11920856953958089 0.1531103308499222 0 -0.12483267878580651 0.1527377501809789 0 -0.120838034266774 0.1598942227559422 0 -0.11920856953958089 0.1531103308499222 0 -0.12483267878580651 0.1527377501809789 0 -0.1305275396396717 0.1657038429904206 0 -0.120838034266774 0.1598942227559422 0 -0.1213052479358832 0.16183935662435819 0 -0.120838034266774 0.1598942227559422 0 -0.1001114130622842 0.16353623252999441 0 -0.11920856953958089 0.1531103308499222 0 -0.120838034266774 0.1598942227559422 0 -0.1001114130622842 0.16353623252999441 0 -0.120838034266774 0.1598942227559422 0 -0.1213052479358832 0.16183935662435819 0 -0.1001114130622842 0.16353623252999441 0 -0.1213052479358832 0.16183935662435819 0 -0.1125366584437381 0.18446439280977781 0 -0.1001114130622842 0.16353623252999441 0 -0.12483267878580651 0.1527377501809789 0 -0.120838034266774 0.1598942227559422 0 -0.11920856953958089 0.1531103308499222 0 -0.120838034266774 0.1598942227559422 0 -0.120838034266774 0.1598942227559422 0 -0.1213052479358832 0.16183935662435819 0 -0.12699649602101279 0.18553352512985269 0 -0.1213052479358832 0.16183935662435819 0 -0.12699649602101279 0.18553352512985269 0 -0.1213052479358832 0.16183935662435819 0 -0.1125366584437381 0.18446439280977781 0 -0.1213052479358832 0.16183935662435819 0 -0.1125366584437381 0.18446439280977781 0 -0.1125366584437381 0.18446439280977781 0 -0.1001114130622842 0.16353623252999441 0 -0.087567384407559914 0.18075230502761791 0 -0.1125366584437381 0.18446439280977781 0 -0.087567384407559914 0.18075230502761791 0 -0.092526217151207735 0.19537742340558301 0 -0.11920856953958089 0.1531103308499222 0 -0.1001114130622842 0.16353623252999441 0 -0.092755608463831699 0.15486276159081319 0 -0.1001114130622842 0.16353623252999441 0 -0.079384791857794318 0.16717824230404579 0 -0.087567384407559914 0.18075230502761791 0 -0.1001114130622842 0.16353623252999441 0 -0.079384791857794318 0.16717824230404579 0 -0.092755608463831699 0.15486276159081319 0 -0.1001114130622842 0.16353623252999441 0 -0.079384791857794318 0.16717824230404579 0 -0.079384791857794318 0.16717824230404579 0 -0.066302647388082309 0.1566151923317014 0 -0.092755608463831699 0.15486276159081319 0 -0.079384791857794318 0.16717824230404579 0 -0.087567384407559914 0.18075230502761791 0 -0.071849357860749793 0.1800547315795466 0 -0.079384791857794318 0.16717824230404579 0 -0.071849357860749793 0.1800547315795466 0 -0.058658170653304448 0.1708202520780972 0 -0.071849357860749793 0.1800547315795466 0 -0.059485354210998737 0.18834683858585069 0 -0.058658170653304448 0.1708202520780972 0 -0.087567384407559914 0.18075230502761791 0 -0.071849357860749793 0.1800547315795466 0 -0.074151088174091537 0.19317601990212169 0 -0.071849357860749793 0.1800547315795466 0 -0.074151088174091537 0.19317601990212169 0 -0.059485354210998737 0.18834683858585069 0 -0.079384791857794318 0.16717824230404579 0 -0.066302647388082309 0.1566151923317014 0 -0.058658170653304448 0.1708202520780972 0 -0.079384791857794318 0.16717824230404579 0 -0.058658170653304448 0.1708202520780972 0 -0.066856036483140729 0.14089718844364729 0 -0.086809431206253534 0.13897544147227181 0 -0.078180930885327071 0.14783764595960849 0 -0.066302647388082309 0.1566151923317014 0 -0.066856036483140729 0.14089718844364729 0 -0.078180930885327071 0.14783764595960849 0 -0.066856036483140729 0.14089718844364729 0 -0.067427294661326811 0.12758761643112149 0 -0.086809431206253534 0.13897544147227181 0 -0.067427294661326811 0.12758761643112149 0 -0.086809431206253534 0.13897544147227181 0 -0.075216095275555353 0.1133412842635465 0 -0.099610711202155922 0.12502302909978619 0 -0.086809431206253534 0.13897544147227181 0 -0.075216095275555353 0.1133412842635465 0 -0.086809431206253534 0.13897544147227181 0 -0.075216095275555353 0.1133412842635465 0 -0.066302647388082309 0.1566151923317014 0 -0.092755608463831699 0.15486276159081319 0 -0.095883197833888975 0.14463578927359849 0 -0.086809431206253534 0.13897544147227181 0 -0.092755608463831699 0.15486276159081319 0 -0.086809431206253534 0.13897544147227181 0 -0.078180930885327071 0.14783764595960849 0 -0.092755608463831699 0.15486276159081319 0 -0.066302647388082309 0.1566151923317014 0 -0.078180930885327071 0.14783764595960849 0 -0.092755608463831699 0.15486276159081319 0 -0.1043815395599072 0.2474654427881548 0 -0.1137558194357688 0.23552707554590641 0 -0.094999479459445341 0.22971446518061631 0 -0.1043815395599072 0.2474654427881548 0 -0.094999479459445341 0.22971446518061631 0 -0.090497332216694357 0.24133107060736531 0 -0.125652781857677 0.2303056508020368 0 -0.1325121594120921 0.24133968591119689 0 -0.1137558194357688 0.23552707554590641 0 -0.1186734279432355 0.26119571506609252 0 -0.1325121594120921 0.24133968591119689 0 -0.1137558194357688 0.23552707554590641 0 -0.1186734279432355 0.26119571506609252 0 -0.1043815395599072 0.2474654427881548 0 -0.1137558194357688 0.23552707554590641 0 -0.1325121594120921 0.24133968591119689 0 -0.1137558194357688 0.23552707554590641 0 -0.1326877441061424 0.20922769363534721 0 -0.125652781857677 0.2303056508020368 0 -0.1149488526857269 0.21864836319985709 0 -0.125652781857677 0.2303056508020368 0 -0.1137558194357688 0.23552707554590641 0 -0.1149488526857269 0.21864836319985709 0 -0.1137558194357688 0.23552707554590641 0 -0.094999479459445341 0.22971446518061631 0 -0.1149488526857269 0.21864836319985709 0 -0.1137558194357688 0.23552707554590641 0 -0.094999479459445341 0.22971446518061631 0 -0.094999479459445341 0.22971446518061631 0 -0.10376806895159291 0.20708942899519739 0 -0.094999479459445341 0.22971446518061631 0 -0.10376806895159291 0.20708942899519739 0 -0.084607885779056188 0.2114049702931998 0 -0.094999479459445341 0.22971446518061631 0 -0.10376806895159291 0.20708942899519739 0 -0.1149488526857269 0.21864836319985709 0 -0.1326877441061424 0.20922769363534721 0 -0.1149488526857269 0.21864836319985709 0 -0.1188292223037329 0.20002586504003769 0 -0.10376806895159291 0.20708942899519739 0 -0.1149488526857269 0.21864836319985709 0 -0.1188292223037329 0.20002586504003769 0 -0.1125366584437381 0.18446439280977781 0 -0.10376806895159291 0.20708942899519739 0 -0.1188292223037329 0.20002586504003769 0 -0.12699649602101279 0.18553352512985269 0 -0.1125366584437381 0.18446439280977781 0 -0.1188292223037329 0.20002586504003769 0 -0.1125366584437381 0.18446439280977781 0 -0.10376806895159291 0.20708942899519739 0 -0.1125366584437381 0.18446439280977781 0 -0.10376806895159291 0.20708942899519739 0 -0.092526217151207735 0.19537742340558301 0 -0.092526217151207735 0.19537742340558301 0 -0.074151088174091537 0.19317601990212169 0 -0.084607885779056188 0.2114049702931998 0 -0.087567384407559914 0.18075230502761791 0 -0.092526217151207735 0.19537742340558301 0 -0.074151088174091537 0.19317601990212169 0 -0.074151088174091537 0.19317601990212169 0 -0.064270822511232867 0.20702049760821431 0 -0.059485354210998737 0.18834683858585069 0 -0.064270822511232867 0.20702049760821431 0 -0.084607885779056188 0.2114049702931998 0 -0.070644078034315105 0.2221666995209394 0 -0.074151088174091537 0.19317601990212169 0 -0.064270822511232867 0.20702049760821431 0 -0.084607885779056188 0.2114049702931998 0 -0.10376806895159291 0.20708942899519739 0 -0.092526217151207735 0.19537742340558301 0 -0.084607885779056188 0.2114049702931998 0 -0.094999479459445341 0.22971446518061631 0 -0.084607885779056188 0.2114049702931998 0 -0.070644078034315105 0.2221666995209394 0 -0.094999479459445341 0.22971446518061631 0 -0.070644078034315105 0.2221666995209394 0 -0.094999479459445341 0.22971446518061631 0 -0.070644078034315105 0.2221666995209394 0 -0.077717967360420623 0.23958543391181311 0 -0.070644078034315105 0.2221666995209394 0 -0.063688190377190784 0.23640165623770509 0 -0.077717967360420623 0.23958543391181311 0 -0.064627057739272464 0.25322123802037422 0 -0.063688190377190784 0.23640165623770509 0 -0.077717967360420623 0.23958543391181311 0 -0.080021156004827343 0.25548485022154299 0 -0.064627057739272464 0.25322123802037422 0 -0.077717967360420623 0.23958543391181311 0 -0.094999479459445341 0.22971446518061631 0 -0.077717967360420623 0.23958543391181311 0 -0.090497332216694357 0.24133107060736531 0 -0.080021156004827343 0.25548485022154299 0 -0.077717967360420623 0.23958543391181311 0 -0.090497332216694357 0.24133107060736531 0 -0.094999479459445341 0.22971446518061631 0 -0.090497332216694357 0.24133107060736531 0 -0.034066851528046782 0.25263223628814813 0 -0.039592435519351418 0.23977256581689349 0 -0.051281228244768932 0.24392012724752221 0 -0.034066851528046782 0.25263223628814813 0 -0.039592435519351418 0.23977256581689349 0 -0.028901770711319941 0.2415755063033006 0 -0.039592435519351418 0.23977256581689349 0 -0.034226392379724628 0.23043796246133949 0 -0.028901770711319941 0.2415755063033006 0 -0.064627057739272464 0.25322123802037422 0 -0.063688190377190784 0.23640165623770509 0 -0.051281228244768932 0.24392012724752221 0 -0.039592435519351418 0.23977256581689349 0 -0.051281228244768932 0.24392012724752221 0 -0.050509599845624753 0.22472953512320851 0 -0.063688190377190784 0.23640165623770509 0 -0.051281228244768932 0.24392012724752221 0 -0.050509599845624753 0.22472953512320851 0 -0.070644078034315105 0.2221666995209394 0 -0.063688190377190784 0.23640165623770509 0 -0.050509599845624753 0.22472953512320851 0 -0.050509599845624753 0.22472953512320851 0 -0.034226392379724628 0.23043796246133949 0 -0.033048525951108132 0.2158196875084481 0 -0.039592435519351418 0.23977256581689349 0 -0.050509599845624753 0.22472953512320851 0 -0.034226392379724628 0.23043796246133949 0 -0.050509599845624753 0.22472953512320851 0 -0.033048525951108132 0.2158196875084481 0 -0.047795905814942891 0.20290159793781701 0 -0.033048525951108132 0.2158196875084481 0 -0.047795905814942891 0.20290159793781701 0 -0.030199820587405869 0.19434594113191911 0 -0.064270822511232867 0.20702049760821431 0 -0.050509599845624753 0.22472953512320851 0 -0.047795905814942891 0.20290159793781701 0 -0.064270822511232867 0.20702049760821431 0 -0.070644078034315105 0.2221666995209394 0 -0.050509599845624753 0.22472953512320851 0 -0.064270822511232867 0.20702049760821431 0 -0.047795905814942891 0.20290159793781701 0 -0.059485354210998737 0.18834683858585069 0 -0.047795905814942891 0.20290159793781701 0 -0.059485354210998737 0.18834683858585069 0 -0.043680857753481822 0.18212151096462151 0 -0.047795905814942891 0.20290159793781701 0 -0.030199820587405869 0.19434594113191911 0 -0.043680857753481822 0.18212151096462151 0 -0.017199828669452469 0.2070807464355508 0 -0.01532002746768606 0.1838689753162549 0 -0.030199820587405869 0.19434594113191911 0 -0.017199828669452469 0.2070807464355508 0 -0.01532002746768606 0.1838689753162549 0 -0.017199828669452469 0.2070807464355508 0 -0.01532002746768606 0.1838689753162549 0 0.0011284886159709589 0.19553043523140759 0 -0.017199828669452469 0.2070807464355508 0 -0.0047844289613271406 0.22491234496078891 0 0.0011284886159709589 0.19553043523140759 0 -0.0047844289613271406 0.22491234496078891 0 0.0011284886159709589 0.19553043523140759 0 -0.017199828669452469 0.2070807464355508 0 -0.019079629871218879 0.2302925175548467 0 -0.033048525951108132 0.2158196875084481 0 -0.017199828669452469 0.2070807464355508 0 -0.019079629871218879 0.2302925175548467 0 -0.033048525951108132 0.2158196875084481 0 -0.030199820587405869 0.19434594113191911 0 -0.017199828669452469 0.2070807464355508 0 -0.034226392379724628 0.23043796246133949 0 -0.033048525951108132 0.2158196875084481 0 -0.019079629871218879 0.2302925175548467 0 -0.034226392379724628 0.23043796246133949 0 -0.019079629871218879 0.2302925175548467 0 -0.028901770711319941 0.2415755063033006 0 -0.017199828669452469 0.2070807464355508 0 -0.019079629871218879 0.2302925175548467 0 -0.0047844289613271406 0.22491234496078891 0 -0.019079629871218879 0.2302925175548467 0 -0.0047844289613271406 0.22491234496078891 0 -0.014936262559913991 0.2423100706723525 0 -0.010697346538625301 0.25429425469017047 0 -0.0047844289613271406 0.22491234496078891 0 -0.010697346538625301 0.25429425469017047 0 -0.0047844289613271406 0.22491234496078891 0 0.00069615477047229072 0.24213838121001291 0 -0.010697346538625301 0.25429425469017047 0 -0.0047844289613271406 0.22491234496078891 0 -0.014936262559913991 0.2423100706723525 0 -0.020959431072985289 0.25350428867414271 0 -0.019079629871218879 0.2302925175548467 0 -0.014936262559913991 0.2423100706723525 0 -0.020959431072985289 0.25350428867414271 0 -0.019079629871218879 0.2302925175548467 0 -0.020959431072985289 0.25350428867414271 0 -0.019079629871218879 0.2302925175548467 0 -0.028901770711319941 0.2415755063033006 0 -0.034066851528046782 0.25263223628814813 0 -0.020959431072985289 0.25350428867414271 0 -0.028901770711319941 0.2415755063033006 0 -0.043056176957467399 0.14254294988343569 0 -0.053428514792835502 0.1465362108708412 0 -0.039849686312333037 0.15836762307258959 0 -0.031843403282642922 0.14348423854983219 0 -0.039849686312333037 0.15836762307258959 0 -0.023342201681704689 0.1487761977135314 0 -0.043056176957467399 0.14254294988343569 0 -0.031843403282642922 0.14348423854983219 0 -0.039849686312333037 0.15836762307258959 0 -0.031843403282642922 0.14348423854983219 0 -0.038507717227529742 0.13332447697157751 0 -0.0239880922815109 0.13465244999791251 0 -0.043056176957467399 0.14254294988343569 0 -0.031843403282642922 0.14348423854983219 0 -0.038507717227529742 0.13332447697157751 0 -0.038507717227529742 0.13332447697157751 0 -0.051651563171995783 0.13100219995233819 0 -0.043073717614611859 0.1170289896980536 0 -0.043056176957467399 0.14254294988343569 0 -0.038507717227529742 0.13332447697157751 0 -0.051651563171995783 0.13100219995233819 0 -0.043056176957467399 0.14254294988343569 0 -0.051651563171995783 0.13100219995233819 0 -0.053428514792835502 0.1465362108708412 0 -0.066856036483140729 0.14089718844364729 0 -0.067427294661326811 0.12758761643112149 0 -0.051651563171995783 0.13100219995233819 0 -0.066856036483140729 0.14089718844364729 0 -0.051651563171995783 0.13100219995233819 0 -0.053428514792835502 0.1465362108708412 0 -0.066302647388082309 0.1566151923317014 0 -0.053428514792835502 0.1465362108708412 0 -0.039849686312333037 0.15836762307258959 0 -0.066302647388082309 0.1566151923317014 0 -0.066856036483140729 0.14089718844364729 0 -0.053428514792835502 0.1465362108708412 0 -0.066302647388082309 0.1566151923317014 0 -0.058658170653304448 0.1708202520780972 0 -0.039849686312333037 0.15836762307258959 0 -0.058658170653304448 0.1708202520780972 0 -0.043680857753481822 0.18212151096462151 0 -0.039849686312333037 0.15836762307258959 0 -0.066302647388082309 0.1566151923317014 0 -0.039849686312333037 0.15836762307258959 0 -0.059485354210998737 0.18834683858585069 0 -0.058658170653304448 0.1708202520780972 0 -0.043680857753481822 0.18212151096462151 0 -0.030199820587405869 0.19434594113191911 0 -0.043680857753481822 0.18212151096462151 0 -0.028296031183493109 0.1732059709821209 0 -0.043680857753481822 0.18212151096462151 0 -0.039849686312333037 0.15836762307258959 0 -0.028296031183493109 0.1732059709821209 0 -0.039849686312333037 0.15836762307258959 0 -0.028296031183493109 0.1732059709821209 0 -0.013396725236583969 0.1601200538134796 0 -0.039849686312333037 0.15836762307258959 0 -0.013396725236583969 0.1601200538134796 0 -0.028296031183493109 0.1732059709821209 0 -0.01532002746768606 0.1838689753162549 0 -0.013396725236583969 0.1601200538134796 0 -0.030199820587405869 0.19434594113191911 0 -0.028296031183493109 0.1732059709821209 0 -0.01532002746768606 0.1838689753162549 0 -0.01532002746768606 0.1838689753162549 0 -0.013396725236583969 0.1601200538134796 0 -0.01532002746768606 0.1838689753162549 0 -0.0052875140954570981 0.17119111425245789 0 0.0011284886159709589 0.19553043523140759 0 -0.0052875140954570981 0.17119111425245789 0 -0.013396725236583969 0.1601200538134796 0 0.0070414061932690848 0.16614852550202611 0 -0.01532002746768606 0.1838689753162549 0 -0.0052875140954570981 0.17119111425245789 0 -0.013396725236583969 0.1601200538134796 0 -0.013396725236583969 0.1601200538134796 0 0.0039669069538619244 0.14804542191679551 0 -0.013396725236583969 0.1601200538134796 0 -0.01209060626173232 0.14399210652291669 0 -0.013396725236583969 0.1601200538134796 0 -0.01209060626173232 0.14399210652291669 0 0.0039669069538619244 0.14804542191679551 0 -0.01209060626173232 0.14399210652291669 0 0.002700318406108963 0.1356911531519954 0 0.0039669069538619244 0.14804542191679551 0 -0.013396725236583969 0.1601200538134796 0 -0.01209060626173232 0.14399210652291669 0 -0.023342201681704689 0.1487761977135314 0 -0.039849686312333037 0.15836762307258959 0 -0.013396725236583969 0.1601200538134796 0 -0.023342201681704689 0.1487761977135314 0 -0.01209060626173232 0.14399210652291669 0 -0.023342201681704689 0.1487761977135314 0 -0.0239880922815109 0.13465244999791251 0 -0.031843403282642922 0.14348423854983219 0 -0.023342201681704689 0.1487761977135314 0 -0.0239880922815109 0.13465244999791251 0 -0.0239880922815109 0.13465244999791251 0 -0.030344618332758731 0.1233905191437923 0 -0.02000916156340625 0.12185491834744749 0 -0.038507717227529742 0.13332447697157751 0 -0.0239880922815109 0.13465244999791251 0 -0.030344618332758731 0.1233905191437923 0 -0.0239880922815109 0.13465244999791251 0 -0.01072468440122405 0.12786900235853099 0 -0.02000916156340625 0.12185491834744749 0 -0.01209060626173232 0.14399210652291669 0 -0.01072468440122405 0.12786900235853099 0 0.002700318406108963 0.1356911531519954 0 -0.01209060626173232 0.14399210652291669 0 -0.0239880922815109 0.13465244999791251 0 -0.01072468440122405 0.12786900235853099 0 -0.01209060626173232 0.14399210652291669 0 -0.01072468440122405 0.12786900235853099 0 -0.01072468440122405 0.12786900235853099 0 -0.009622303651300089 0.1135135244299402 0 0.013345320839888781 0.12584022037569101 0 -0.01072468440122405 0.12786900235853099 0 -0.009622303651300089 0.1135135244299402 0 -0.02000916156340625 0.12185491834744749 0 -0.01072468440122405 0.12786900235853099 0 -0.009622303651300089 0.1135135244299402 0 -0.009622303651300089 0.1135135244299402 0 -0.0038174434113906479 0.097245822122756814 0 -0.01476561952533993 0.10410262698127309 0 -0.0038174434113906479 0.097245822122756814 0 -0.01476561952533993 0.10410262698127309 0 -0.018891383453940268 0.094662830613782833 0 -0.01476561952533993 0.10410262698127309 0 -0.018891383453940268 0.094662830613782833 0 -0.025306306264580851 0.109853938933239 0 -0.009622303651300089 0.1135135244299402 0 -0.01476561952533993 0.10410262698127309 0 -0.025306306264580851 0.109853938933239 0 -0.018891383453940268 0.094662830613782833 0 -0.025306306264580851 0.109853938933239 0 -0.031519142313472047 0.094387974071056729 0 -0.009622303651300089 0.1135135244299402 0 -0.025306306264580851 0.109853938933239 0 -0.02000916156340625 0.12185491834744749 0 -0.025306306264580851 0.109853938933239 0 -0.030344618332758731 0.1233905191437923 0 -0.02000916156340625 0.12185491834744749 0 -0.0061948394653856256 0.07539956384625307 0 -0.006745958462948288 0.059681008307345101 0 0.01068835749376784 0.065234271108784964 0 -0.0061948394653856256 0.07539956384625307 0 -0.021364090609689551 0.064610713303805578 0 -0.006745958462948288 0.059681008307345101 0 -0.0038174434113906479 0.097245822122756814 0 -0.018891383453940268 0.094662830613782833 0 -0.0061948394653856256 0.07539956384625307 0 -0.018891383453940268 0.094662830613782833 0 -0.0061948394653856256 0.07539956384625307 0 -0.02289956576876882 0.080400212837743318 0 -0.018891383453940268 0.094662830613782833 0 -0.02289956576876882 0.080400212837743318 0 -0.031519142313472047 0.094387974071056729 0 -0.02289956576876882 0.080400212837743318 0 -0.037418530720973779 0.083914269627642521 0 -0.031519142313472047 0.094387974071056729 0 -0.02289956576876882 0.080400212837743318 0 -0.033141286277072489 0.07342986524704298 0 -0.037418530720973779 0.083914269627642521 0 -0.0061948394653856256 0.07539956384625307 0 -0.02289956576876882 0.080400212837743318 0 -0.021364090609689551 0.064610713303805578 0 -0.02289956576876882 0.080400212837743318 0 -0.021364090609689551 0.064610713303805578 0 -0.033141286277072489 0.07342986524704298 0 -0.021364090609689551 0.064610713303805578 0 -0.041009753604965199 0.063859420137649697 0 -0.033141286277072489 0.07342986524704298 0 -0.041009753604965199 0.063859420137649697 0 -0.033141286277072489 0.07342986524704298 0 -0.043373810602110881 0.077227148238409205 0 -0.043373810602110881 0.077227148238409205 0 -0.037418530720973779 0.083914269627642521 0 -0.047721798929020343 0.083967904681973293 0 -0.033141286277072489 0.07342986524704298 0 -0.043373810602110881 0.077227148238409205 0 -0.037418530720973779 0.083914269627642521 0 -0.037418530720973779 0.083914269627642521 0 -0.031519142313472047 0.094387974071056729 0 -0.046988318785557127 0.094236937320182373 0 -0.037418530720973779 0.083914269627642521 0 -0.047721798929020343 0.083967904681973293 0 -0.046988318785557127 0.094236937320182373 0 -0.054747518669279287 0.0894501040153311 0 -0.047721798929020343 0.083967904681973293 0 -0.046988318785557127 0.094236937320182373 0 -0.054747518669279287 0.0894501040153311 0 -0.057577683478522608 0.080964281497737545 0 -0.063622759344857158 0.08770712705482113 0 -0.054747518669279287 0.0894501040153311 0 -0.057827032808439212 0.1003742695219412 0 -0.063622759344857158 0.08770712705482113 0 -0.054747518669279287 0.0894501040153311 0 -0.057577683478522608 0.080964281497737545 0 -0.047721798929020343 0.083967904681973293 0 -0.043373810602110881 0.077227148238409205 0 -0.057577683478522608 0.080964281497737545 0 -0.047721798929020343 0.083967904681973293 0 -0.041009753604965199 0.063859420137649697 0 -0.043373810602110881 0.077227148238409205 0 -0.057577683478522608 0.080964281497737545 0 -0.057577683478522608 0.080964281497737545 0 -0.063622759344857158 0.08770712705482113 0 -0.052029423414158969 0.062072969846095769 0 -0.063622759344857158 0.08770712705482113 0 -0.052029423414158969 0.062072969846095769 0 -0.063622759344857158 0.08770712705482113 0 -0.0672391860442874 0.070040289371530978 0 -0.052029423414158969 0.062072969846095769 0 -0.041009753604965199 0.063859420137649697 0 -0.057577683478522608 0.080964281497737545 0 -0.041009753604965199 0.063859420137649697 0 -0.057577683478522608 0.080964281497737545 0 -0.052029423414158969 0.062072969846095769 0 -0.025306306264580851 0.109853938933239 0 -0.043073717614611859 0.1170289896980536 0 -0.038967712804493973 0.1041883169232511 0 -0.025306306264580851 0.109853938933239 0 -0.030344618332758731 0.1233905191437923 0 -0.043073717614611859 0.1170289896980536 0 -0.038507717227529742 0.13332447697157751 0 -0.030344618332758731 0.1233905191437923 0 -0.043073717614611859 0.1170289896980536 0 -0.025306306264580851 0.109853938933239 0 -0.038967712804493973 0.1041883169232511 0 -0.031519142313472047 0.094387974071056729 0 -0.038967712804493973 0.1041883169232511 0 -0.04869202583655817 0.1059100962974464 0 -0.046988318785557127 0.094236937320182373 0 -0.038967712804493973 0.1041883169232511 0 -0.031519142313472047 0.094387974071056729 0 -0.046988318785557127 0.094236937320182373 0 -0.043073717614611859 0.1170289896980536 0 -0.038967712804493973 0.1041883169232511 0 -0.04869202583655817 0.1059100962974464 0 -0.04869202583655817 0.1059100962974464 0 -0.057827032808439212 0.1003742695219412 0 -0.056603347169688692 0.11372196802380349 0 -0.04869202583655817 0.1059100962974464 0 -0.046988318785557127 0.094236937320182373 0 -0.057827032808439212 0.1003742695219412 0 -0.054747518669279287 0.0894501040153311 0 -0.046988318785557127 0.094236937320182373 0 -0.057827032808439212 0.1003742695219412 0 -0.067427294661326811 0.12758761643112149 0 -0.051651563171995783 0.13100219995233819 0 -0.056603347169688692 0.11372196802380349 0 -0.051651563171995783 0.13100219995233819 0 -0.043073717614611859 0.1170289896980536 0 -0.056603347169688692 0.11372196802380349 0 -0.043073717614611859 0.1170289896980536 0 -0.04869202583655817 0.1059100962974464 0 -0.056603347169688692 0.11372196802380349 0 -0.067427294661326811 0.12758761643112149 0 -0.056603347169688692 0.11372196802380349 0 -0.075216095275555353 0.1133412842635465 0 -0.099610711202155922 0.12502302909978619 0 -0.075216095275555353 0.1133412842635465 0 -0.094767367066251954 0.1048663962654886 0 -0.080625403856066757 0.095693514198095603 0 -0.092149140216964881 0.088662888749703989 0 -0.094767367066251954 0.1048663962654886 0 -0.075216095275555353 0.1133412842635465 0 -0.080625403856066757 0.095693514198095603 0 -0.094767367066251954 0.1048663962654886 0 -0.075216095275555353 0.1133412842635465 0 -0.080625403856066757 0.095693514198095603 0 -0.063622759344857158 0.08770712705482113 0 -0.057827032808439212 0.1003742695219412 0 -0.056603347169688692 0.11372196802380349 0 -0.075216095275555353 0.1133412842635465 0 -0.057827032808439212 0.1003742695219412 0 -0.075216095275555353 0.1133412842635465 0 -0.063622759344857158 0.08770712705482113 0 -0.075216095275555353 0.1133412842635465 0 -0.063622759344857158 0.08770712705482113 0 -0.080625403856066757 0.095693514198095603 0 -0.063622759344857158 0.08770712705482113 0 -0.076565380138590364 0.080025080410492444 0 -0.063622759344857158 0.08770712705482113 0 -0.076565380138590364 0.080025080410492444 0 -0.0672391860442874 0.070040289371530978 0 -0.076565380138590364 0.080025080410492444 0 -0.0672391860442874 0.070040289371530978 0 -0.077802714138863804 0.065855396110446593 0 -0.0672391860442874 0.070040289371530978 0 -0.077802714138863804 0.065855396110446593 0 -0.067614982877472224 0.054920818963323723 0 -0.077802714138863804 0.065855396110446593 0 -0.090886460151237983 0.073775655440155727 0 -0.1008491813089282 0.058268448739811213 0 -0.076565380138590364 0.080025080410492444 0 -0.077802714138863804 0.065855396110446593 0 -0.090886460151237983 0.073775655440155727 0 -0.080625403856066757 0.095693514198095603 0 -0.076565380138590364 0.080025080410492444 0 -0.092149140216964881 0.088662888749703989 0 -0.076565380138590364 0.080025080410492444 0 -0.090886460151237983 0.073775655440155727 0 -0.092149140216964881 0.088662888749703989 0 -0.092149140216964881 0.088662888749703989 0 -0.10706588495284269 0.076066463190324382 0 -0.1109941291318695 0.093993186520316366 0 -0.090886460151237983 0.073775655440155727 0 -0.092149140216964881 0.088662888749703989 0 -0.10706588495284269 0.076066463190324382 0 -0.090886460151237983 0.073775655440155727 0 -0.10706588495284269 0.076066463190324382 0 -0.1008491813089282 0.058268448739811213 0 -0.1277319973666067 0.066678414431113137 0 -0.10706588495284269 0.076066463190324382 0 -0.1008491813089282 0.058268448739811213 0 -0.13305303690383161 0.08352651876960146 0 -0.1277319973666067 0.066678414431113137 0 -0.10706588495284269 0.076066463190324382 0 -0.13305303690383161 0.08352651876960146 0 -0.10706588495284269 0.076066463190324382 0 -0.1109941291318695 0.093993186520316366 0 -0.12780696903317659 0.098162618526083323 0 -0.13305303690383161 0.08352651876960146 0 -0.1109941291318695 0.093993186520316366 0 -0.12780696903317659 0.098162618526083323 0 -0.1109941291318695 0.093993186520316366 0 -0.11112237661814919 0.11267423362069651 0 -0.12780696903317659 0.098162618526083323 0 -0.12184853691571421 0.11835011368002001 0 -0.11112237661814919 0.11267423362069651 0 -0.1120101002970207 0.1272544604226285 0 -0.12184853691571421 0.11835011368002001 0 -0.11112237661814919 0.11267423362069651 0 -0.099610711202155922 0.12502302909978619 0 -0.11112237661814919 0.11267423362069651 0 -0.094767367066251954 0.1048663962654886 0 -0.1120101002970207 0.1272544604226285 0 -0.099610711202155922 0.12502302909978619 0 -0.11112237661814919 0.11267423362069651 0 -0.092149140216964881 0.088662888749703989 0 -0.1109941291318695 0.093993186520316366 0 -0.094767367066251954 0.1048663962654886 0 -0.1109941291318695 0.093993186520316366 0 -0.11112237661814919 0.11267423362069651 0 -0.094767367066251954 0.1048663962654886 0 -0.10949852996144149 0.008215710650763694 0 -0.096307297759936336 0.03233389273378956 0 -0.0902517972109418 0.0064176925966310744 0 -0.10949852996144149 0.008215710650763694 0 -0.1176673902139687 0.02572409622204553 0 -0.096307297759936336 0.03233389273378956 0 -0.1051458819538037 -0.013913872234538089 0 -0.10949852996144149 0.008215710650763694 0 -0.0902517972109418 0.0064176925966310744 0 -0.1289042152683513 0.0036931705937147661 0 -0.10949852996144149 0.008215710650763694 0 -0.1176673902139687 0.02572409622204553 0 -0.1176673902139687 0.02572409622204553 0 -0.1224948028051992 0.047496469063538549 0 -0.096307297759936336 0.03233389273378956 0 -0.1277319973666067 0.066678414431113137 0 -0.1224948028051992 0.047496469063538549 0 -0.1008491813089282 0.058268448739811213 0 -0.1224948028051992 0.047496469063538549 0 -0.1008491813089282 0.058268448739811213 0 -0.096307297759936336 0.03233389273378956 0 -0.096307297759936336 0.03233389273378956 0 -0.084067249676499187 0.049831241493484148 0 -0.070074541322771758 0.035879481879750492 0 -0.1008491813089282 0.058268448739811213 0 -0.096307297759936336 0.03233389273378956 0 -0.084067249676499187 0.049831241493484148 0 -0.077802714138863804 0.065855396110446593 0 -0.1008491813089282 0.058268448739811213 0 -0.084067249676499187 0.049831241493484148 0 -0.084067249676499187 0.049831241493484148 0 -0.067614982877472224 0.054920818963323723 0 -0.070074541322771758 0.035879481879750492 0 -0.077802714138863804 0.065855396110446593 0 -0.084067249676499187 0.049831241493484148 0 -0.067614982877472224 0.054920818963323723 0 -0.067614982877472224 0.054920818963323723 0 -0.070074541322771758 0.035879481879750492 0 -0.056991674583212693 0.044390049046855222 0 -0.070074541322771758 0.035879481879750492 0 -0.075920854929958273 0.0183215692756536 0 -0.058152145818299722 0.01746606351507423 0 -0.096307297759936336 0.03233389273378956 0 -0.070074541322771758 0.035879481879750492 0 -0.075920854929958273 0.0183215692756536 0 -0.096307297759936336 0.03233389273378956 0 -0.075920854929958273 0.0183215692756536 0 -0.0902517972109418 0.0064176925966310744 0 -0.066411623782526366 -0.0027931021134092919 0 -0.075920854929958273 0.0183215692756536 0 -0.0902517972109418 0.0064176925966310744 0 -0.066411623782526366 -0.0027931021134092919 0 -0.075920854929958273 0.0183215692756536 0 -0.058152145818299722 0.01746606351507423 0 -0.066411623782526366 -0.0027931021134092919 0 -0.053637110729056837 0.002990323415030006 0 -0.058152145818299722 0.01746606351507423 0 -0.043869853131501289 -0.0033856076487974169 0 -0.053637110729056837 0.002990323415030006 0 -0.045153440614922928 0.01088833923094846 0 -0.053637110729056837 0.002990323415030006 0 -0.058152145818299722 0.01746606351507423 0 -0.045153440614922928 0.01088833923094846 0 -0.070074541322771758 0.035879481879750492 0 -0.058152145818299722 0.01746606351507423 0 -0.053680708069243008 0.031650652400634853 0 -0.058152145818299722 0.01746606351507423 0 -0.045253026707737731 0.02144970464253463 0 -0.053680708069243008 0.031650652400634853 0 -0.058152145818299722 0.01746606351507423 0 -0.045253026707737731 0.02144970464253463 0 -0.045153440614922928 0.01088833923094846 0 -0.040436087483460781 0.036438812637370407 0 -0.028842751552762211 0.01080465542864523 0 -0.045253026707737731 0.02144970464253463 0 -0.040436087483460781 0.036438812637370407 0 -0.028842751552762211 0.01080465542864523 0 -0.045253026707737731 0.02144970464253463 0 -0.053680708069243008 0.031650652400634853 0 -0.040436087483460781 0.036438812637370407 0 -0.032603002991312642 -0.0064236466643313554 0 -0.043869853131501289 -0.0033856076487974169 0 -0.028842751552762211 0.01080465542864523 0 -0.043869853131501289 -0.0033856076487974169 0 -0.045153440614922928 0.01088833923094846 0 -0.028842751552762211 0.01080465542864523 0 -0.045253026707737731 0.02144970464253463 0 -0.045153440614922928 0.01088833923094846 0 -0.028842751552762211 0.01080465542864523 0 -0.067614982877472224 0.054920818963323723 0 -0.052029423414158969 0.062072969846095769 0 -0.056991674583212693 0.044390049046855222 0 -0.052029423414158969 0.062072969846095769 0 -0.056991674583212693 0.044390049046855222 0 -0.040436087483460781 0.036438812637370407 0 -0.0672391860442874 0.070040289371530978 0 -0.067614982877472224 0.054920818963323723 0 -0.052029423414158969 0.062072969846095769 0 -0.056991674583212693 0.044390049046855222 0 -0.053680708069243008 0.031650652400634853 0 -0.040436087483460781 0.036438812637370407 0 -0.070074541322771758 0.035879481879750492 0 -0.056991674583212693 0.044390049046855222 0 -0.053680708069243008 0.031650652400634853 0 -0.040436087483460781 0.036438812637370407 0 -0.039054288225920088 0.051688529827051528 0 -0.02444182373140778 0.046754558777561843 0 -0.052029423414158969 0.062072969846095769 0 -0.040436087483460781 0.036438812637370407 0 -0.039054288225920088 0.051688529827051528 0 -0.041009753604965199 0.063859420137649697 0 -0.02444182373140778 0.046754558777561843 0 -0.052029423414158969 0.062072969846095769 0 -0.040436087483460781 0.036438812637370407 0 -0.041009753604965199 0.063859420137649697 0 -0.039054288225920088 0.051688529827051528 0 -0.02444182373140778 0.046754558777561843 0 -0.041009753604965199 0.063859420137649697 0 -0.052029423414158969 0.062072969846095769 0 -0.039054288225920088 0.051688529827051528 0 -0.021364090609689551 0.064610713303805578 0 -0.041009753604965199 0.063859420137649697 0 -0.02444182373140778 0.046754558777561843 0 -0.021364090609689551 0.064610713303805578 0 -0.02444182373140778 0.046754558777561843 0 -0.015363089657278801 0.054154763072261462 0 -0.02444182373140778 0.046754558777561843 0 -0.0089004858250695991 0.04557277190033332 0 -0.015363089657278801 0.054154763072261462 0 -0.02444182373140778 0.046754558777561843 0 -0.017098613914306081 0.031297665678018061 0 -0.0078738938578503774 0.029649697417473999 0 -0.040436087483460781 0.036438812637370407 0 -0.02444182373140778 0.046754558777561843 0 -0.02332567446965245 0.036082185990452639 0 -0.02444182373140778 0.046754558777561843 0 -0.0078738938578503774 0.029649697417473999 0 -0.02444182373140778 0.046754558777561843 0 -0.02332567446965245 0.036082185990452639 0 -0.017098613914306081 0.031297665678018061 0 -0.00020915340281049059 0.038034206290205333 0 -0.0089004858250695991 0.04557277190033332 0 -0.0078738938578503774 0.029649697417473999 0 -0.02444182373140778 0.046754558777561843 0 -0.0089004858250695991 0.04557277190033332 0 -0.0078738938578503774 0.029649697417473999 0 -0.00020915340281049059 0.038034206290205333 0 -0.0078738938578503774 0.029649697417473999 0 0.00027439030587288887 0.02643035013913219 0 -0.00020915340281049059 0.038034206290205333 0 -0.0089004858250695991 0.04557277190033332 0 0.0037714176971371722 0.049134561560809822 0 -0.0089004858250695991 0.04557277190033332 0 -0.015363089657278801 0.054154763072261462 0 -0.006745958462948288 0.059681008307345101 0 -0.0089004858250695991 0.04557277190033332 0 -0.006745958462948288 0.059681008307345101 0 0.0037714176971371722 0.049134561560809822 0 -0.021364090609689551 0.064610713303805578 0 -0.015363089657278801 0.054154763072261462 0 -0.006745958462948288 0.059681008307345101 0 -0.032603002991312642 -0.0064236466643313554 0 -0.028842751552762211 0.01080465542864523 0 -0.021405201553429981 -0.0056405961426311546 0 -0.028842751552762211 0.01080465542864523 0 -0.021405201553429981 -0.0056405961426311546 0 -0.028842751552762211 0.01080465542864523 0 -0.01357803753568306 0.0023392803976896841 0 -0.028842751552762211 0.01080465542864523 0 -0.01481259633523708 0.013176088854304531 0 -0.01357803753568306 0.0023392803976896841 0 -0.028842751552762211 0.01080465542864523 0 -0.018852229520619261 0.022549192192599831 0 -0.01481259633523708 0.013176088854304531 0 -0.02332567446965245 0.036082185990452639 0 -0.028842751552762211 0.01080465542864523 0 -0.02332567446965245 0.036082185990452639 0 -0.028842751552762211 0.01080465542864523 0 -0.018852229520619261 0.022549192192599831 0 -0.040436087483460781 0.036438812637370407 0 -0.02332567446965245 0.036082185990452639 0 -0.028842751552762211 0.01080465542864523 0 -0.02332567446965245 0.036082185990452639 0 -0.017098613914306081 0.031297665678018061 0 -0.018852229520619261 0.022549192192599831 0 -0.018852229520619261 0.022549192192599831 0 -0.0090938050029655895 0.019575257675343391 0 -0.01481259633523708 0.013176088854304531 0 -0.0090938050029655895 0.019575257675343391 0 -0.0078738938578503774 0.029649697417473999 0 0.0086940360157070143 0.01254483605738616 0 -0.017098613914306081 0.031297665678018061 0 -0.018852229520619261 0.022549192192599831 0 -0.0090938050029655895 0.019575257675343391 0 -0.017098613914306081 0.031297665678018061 0 -0.0090938050029655895 0.019575257675343391 0 -0.0078738938578503774 0.029649697417473999 0 -0.0090938050029655895 0.019575257675343391 0 -0.0046195324054877571 0.008234065852277813 0 0.0086940360157070143 0.01254483605738616 0 -0.0090938050029655895 0.019575257675343391 0 -0.0046195324054877571 0.008234065852277813 0 -0.01481259633523708 0.013176088854304531 0 -0.0046195324054877571 0.008234065852277813 0 -0.01481259633523708 0.013176088854304531 0 -0.01357803753568306 0.0023392803976896841 0 -0.0040144348922586757 -0.0020453828929084031 0 -0.0046195324054877571 0.008234065852277813 0 -0.01357803753568306 0.0023392803976896841 0 -0.0040144348922586757 -0.0020453828929084031 0 -0.0046195324054877571 0.008234065852277813 0 0.0044529143093724691 0.001599530544337085 0 0.0086940360157070143 0.01254483605738616 0 0.017252722858604411 0.01928522833497473 0 0.018624474460967239 0.00024362624283911019 0 -0.0046195324054877571 0.008234065852277813 0 0.0044529143093724691 0.001599530544337085 0 0.0086940360157070143 0.01254483605738616 0 0.0044529143093724691 0.001599530544337085 0 0.0086940360157070143 0.01254483605738616 0 0.018624474460967239 0.00024362624283911019 0 0.00027439030587288887 0.02643035013913219 0 0.017252722858604411 0.01928522833497473 0 0.022929310778796581 0.036107298613747667 0 -0.0078738938578503774 0.029649697417473999 0 0.0086940360157070143 0.01254483605738616 0 0.0086940360157070143 0.01254483605738616 0 0.00027439030587288887 0.02643035013913219 0 0.017252722858604411 0.01928522833497473 0 -0.0078738938578503774 0.029649697417473999 0 0.0086940360157070143 0.01254483605738616 0 0.00027439030587288887 0.02643035013913219 0 0.017252722858604411 0.01928522833497473 0 0.022929310778796581 0.036107298613747667 0 0.035741402731678341 0.021100030621768521 0 0.018624474460967239 0.00024362624283911019 0 0.035741402731678341 0.021100030621768521 0 0.017252722858604411 0.01928522833497473 0 0.018624474460967239 0.00024362624283911019 0 0.035741402731678341 0.021100030621768521 0 0.018624474460967239 0.00024362624283911019 0 0.035741402731678341 0.021100030621768521 0 0.033112655901409799 -0.00063324611952645087 0 -0.006745958462948288 0.059681008307345101 0 0.0037714176971371722 0.049134561560809822 0 0.01068835749376784 0.065234271108784964 0 0.0037714176971371722 0.049134561560809822 0 0.017869154308202208 0.049814258280458851 0 0.01068835749376784 0.065234271108784964 0 0.00027439030587288887 0.02643035013913219 0 0.0089270239374396737 0.039904134976870773 0 0.022929310778796581 0.036107298613747667 0 0.00027439030587288887 0.02643035013913219 0 0.022929310778796581 0.036107298613747667 0 0.0037714176971371722 0.049134561560809822 0 0.0089270239374396737 0.039904134976870773 0 0.017869154308202208 0.049814258280458851 0 -0.00020915340281049059 0.038034206290205333 0 0.0037714176971371722 0.049134561560809822 0 0.0089270239374396737 0.039904134976870773 0 -0.00020915340281049059 0.038034206290205333 0 0.00027439030587288887 0.02643035013913219 0 0.0089270239374396737 0.039904134976870773 0 0.022929310778796581 0.036107298613747667 0 0.017869154308202208 0.049814258280458851 0 0.030996983847855462 0.050603275794973507 0 0.0089270239374396737 0.039904134976870773 0 0.022929310778796581 0.036107298613747667 0 0.017869154308202208 0.049814258280458851 0 0.017869154308202208 0.049814258280458851 0 0.026423784558326641 0.059907710384717337 0 0.01068835749376784 0.065234271108784964 0 0.017869154308202208 0.049814258280458851 0 0.030996983847855462 0.050603275794973507 0 0.026423784558326641 0.059907710384717337 0 0.030996983847855462 0.050603275794973507 0 0.041877493839118193 0.06202170552989613 0 0.045584231251720293 0.04578424708836315 0 0.030996983847855462 0.050603275794973507 0 0.026423784558326641 0.059907710384717337 0 0.041877493839118193 0.06202170552989613 0 0.045584231251720293 0.04578424708836315 0 0.036804801298174518 0.034980522175856503 0 0.052858331002389451 0.041956435000697942 0 0.052858331002389451 0.041956435000697942 0 0.035741402731678341 0.021100030621768521 0 0.022929310778796581 0.036107298613747667 0 0.045584231251720293 0.04578424708836315 0 0.036804801298174518 0.034980522175856503 0 0.036804801298174518 0.034980522175856503 0 0.052858331002389451 0.041956435000697942 0 0.035741402731678341 0.021100030621768521 0 0.022929310778796581 0.036107298613747667 0 0.030996983847855462 0.050603275794973507 0 0.045584231251720293 0.04578424708836315 0 0.022929310778796581 0.036107298613747667 0 0.045584231251720293 0.04578424708836315 0 0.062263485375540432 0.041106930452127183 0 0.052858331002389451 0.041956435000697942 0 0.05871003120718548 0.028207231095760059 0 0.062263485375540432 0.041106930452127183 0 0.052858331002389451 0.041956435000697942 0 0.068239151724643982 0.055461195562978641 0 0.041877493839118193 0.06202170552989613 0 0.045584231251720293 0.04578424708836315 0 0.053178911431128989 0.057842218993673089 0 0.045584231251720293 0.04578424708836315 0 0.068239151724643982 0.055461195562978641 0 0.045584231251720293 0.04578424708836315 0 0.052858331002389451 0.041956435000697942 0 0.068239151724643982 0.055461195562978641 0 0.045584231251720293 0.04578424708836315 0 0.053178911431128989 0.057842218993673089 0 0.068239151724643982 0.055461195562978641 0 0.053178911431128989 0.057842218993673089 0 0.068239151724643982 0.055461195562978641 0 0.056198514105751621 0.06825303501255113 0 0.035741402731678341 0.021100030621768521 0 0.049613624012298019 0.014599701492966169 0 0.033112655901409799 -0.00063324611952645087 0 0.049613624012298019 0.014599701492966169 0 0.047625854666841223 -0.00042499582266109989 0 0.033112655901409799 -0.00063324611952645087 0 0.022929310778796581 0.036107298613747667 0 0.036804801298174518 0.034980522175856503 0 0.035741402731678341 0.021100030621768521 0 0.05871003120718548 0.028207231095760059 0 0.049613624012298019 0.014599701492966169 0 0.065632266374308967 0.01496466096766909 0 0.035741402731678341 0.021100030621768521 0 0.05871003120718548 0.028207231095760059 0 0.049613624012298019 0.014599701492966169 0 0.052858331002389451 0.041956435000697942 0 0.035741402731678341 0.021100030621768521 0 0.05871003120718548 0.028207231095760059 0 0.065632266374308967 0.01496466096766909 0 0.047625854666841223 -0.00042499582266109989 0 0.067246202506794167 -0.00580706716318748 0 0.065632266374308967 0.01496466096766909 0 0.047625854666841223 -0.00042499582266109989 0 0.049613624012298019 0.014599701492966169 0 0.065632266374308967 0.01496466096766909 0 0.047625854666841223 -0.00042499582266109989 0 0.065632266374308967 0.01496466096766909 0 0.079410187260494813 0.010994656865862529 0 0.067246202506794167 -0.00580706716318748 0 0.079410187260494813 0.010994656865862529 0 0.086474162963314449 -0.0049404096715552834 0 0.067246202506794167 -0.00580706716318748 0 0.094059626376279667 0.020401782438387039 0 0.086474162963314449 -0.0049404096715552834 0 0.079410187260494813 0.010994656865862529 0 0.094059626376279667 0.020401782438387039 0 0.086474162963314449 -0.0049404096715552834 0 0.079410187260494813 0.010994656865862529 0 0.083638678081776732 0.030354317757999301 0 0.094059626376279667 0.020401782438387039 0 0.065632266374308967 0.01496466096766909 0 0.079410187260494813 0.010994656865862529 0 0.083638678081776732 0.030354317757999301 0 0.065632266374308967 0.01496466096766909 0 0.083638678081776732 0.030354317757999301 0 0.069246427567942762 0.038802860149072062 0 0.065632266374308967 0.01496466096766909 0 0.083638678081776732 0.030354317757999301 0 0.05871003120718548 0.028207231095760059 0 0.065632266374308967 0.01496466096766909 0 0.069246427567942762 0.038802860149072062 0 0.062263485375540432 0.041106930452127183 0 0.069246427567942762 0.038802860149072062 0 0.068239151724643982 0.055461195562978641 0 0.062263485375540432 0.041106930452127183 0 0.05871003120718548 0.028207231095760059 0 0.069246427567942762 0.038802860149072062 0 0.069246427567942762 0.038802860149072062 0 0.068239151724643982 0.055461195562978641 0 0.079088757286104164 0.041631379701085991 0 0.083638678081776732 0.030354317757999301 0 0.069246427567942762 0.038802860149072062 0 0.079088757286104164 0.041631379701085991 0 0.068239151724643982 0.055461195562978641 0 0.084773638182033095 0.050705543204256423 0 0.079088757286104164 0.041631379701085991 0 0.068239151724643982 0.055461195562978641 0 0.084773638182033095 0.050705543204256423 0 0.090894072197567677 0.065138144037594117 0 0.068239151724643982 0.055461195562978641 0 0.090894072197567677 0.065138144037594117 0 0.084773638182033095 0.050705543204256423 0 0.08900681997519784 0.044130337018207393 0 0.095775630099554171 0.054570085543341577 0 0.084773638182033095 0.050705543204256423 0 0.095775630099554171 0.054570085543341577 0 0.090894072197567677 0.065138144037594117 0 0.083638678081776732 0.030354317757999301 0 0.10164508978924471 0.045743974548329493 0 0.083638678081776732 0.030354317757999301 0 0.08900681997519784 0.044130337018207393 0 0.10164508978924471 0.045743974548329493 0 0.083638678081776732 0.030354317757999301 0 0.10164508978924471 0.045743974548329493 0 0.094059626376279667 0.020401782438387039 0 0.083638678081776732 0.030354317757999301 0 0.079088757286104164 0.041631379701085991 0 0.08900681997519784 0.044130337018207393 0 0.084773638182033095 0.050705543204256423 0 0.079088757286104164 0.041631379701085991 0 0.08900681997519784 0.044130337018207393 0 0.10164508978924471 0.045743974548329493 0 0.1131172876239257 0.036192844188860637 0 0.10561486686582081 0.027602173335020311 0 0.10164508978924471 0.045743974548329493 0 0.094059626376279667 0.020401782438387039 0 0.10164508978924471 0.045743974548329493 0 0.11022541268879441 0.053077374823716307 0 0.1131172876239257 0.036192844188860637 0 0.095775630099554171 0.054570085543341577 0 0.10077190274373091 0.063801515760893657 0 0.090894072197567677 0.065138144037594117 0 0.095775630099554171 0.054570085543341577 0 0.10493982769155159 0.056751328526129997 0 0.10077190274373091 0.063801515760893657 0 0.08900681997519784 0.044130337018207393 0 0.10164508978924471 0.045743974548329493 0 0.095775630099554171 0.054570085543341577 0 0.10164508978924471 0.045743974548329493 0 0.095775630099554171 0.054570085543341577 0 0.10493982769155159 0.056751328526129997 0 0.10164508978924471 0.045743974548329493 0 0.10493982769155159 0.056751328526129997 0 0.11022541268879441 0.053077374823716307 0 0.10164508978924471 0.045743974548329493 0 0.11022541268879441 0.053077374823716307 0 0.10164508978924471 0.045743974548329493 0 0.10493982769155159 0.056751328526129997 0 0.10493982769155159 0.056751328526129997 0 0.11022541268879441 0.053077374823716307 0 0.1077870968721064 0.067313750541153405 0 0.11022541268879441 0.053077374823716307 0 0.1077870968721064 0.067313750541153405 0 0.11963300847789519 0.061117825790215491 0 0.1180504621153383 0.042859463544297011 0 0.11963300847789519 0.061117825790215491 0 0.1180504621153383 0.042859463544297011 0 0.13045527104952351 0.056402318551776007 0 0.11282835839811491 0.055302051331237147 0 0.11963300847789519 0.061117825790215491 0 0.1180504621153383 0.042859463544297011 0 0.11282835839811491 0.055302051331237147 0 0.11022541268879441 0.053077374823716307 0 0.1077870968721064 0.067313750541153405 0 0.11282835839811491 0.055302051331237147 0 0.11963300847789519 0.061117825790215491 0 0.1077870968721064 0.067313750541153405 0 0.11282835839811491 0.055302051331237147 0 0.1077870968721064 0.067313750541153405 0 0.11282835839811491 0.055302051331237147 0 0.11963300847789519 0.061117825790215491 0 0.11282835839811491 0.055302051331237147 0 0.1180504621153383 0.042859463544297011 0 0.11282835839811491 0.055302051331237147 0 0.11022541268879441 0.053077374823716307 0 0.1180504621153383 0.042859463544297011 0 0.11282835839811491 0.055302051331237147 0 0.11022541268879441 0.053077374823716307 0 0.11963300847789519 0.061117825790215491 0 0.12161212966019599 0.062809334139398737 0 0.13045527104952351 0.056402318551776007 0 0.11963300847789519 0.061117825790215491 0 0.12161212966019599 0.062809334139398737 0 0.11022541268879441 0.053077374823716307 0 0.1131172876239257 0.036192844188860637 0 0.1180504621153383 0.042859463544297011 0 0.11022541268879441 0.053077374823716307 0 0.1131172876239257 0.036192844188860637 0 0.1131172876239257 0.036192844188860637 0 0.1180504621153383 0.042859463544297011 0 0.1160091625590562 0.019308313554004749 0 0.1180504621153383 0.042859463544297011 0 0.1232204744159258 0.030540992791317771 0 0.13013107959748271 0.045453772318554062 0 0.1180504621153383 0.042859463544297011 0 0.1232204744159258 0.030540992791317771 0 0.1180504621153383 0.042859463544297011 0 0.1232204744159258 0.030540992791317771 0 0.1160091625590562 0.019308313554004749 0 0.1131172876239257 0.036192844188860637 0 0.1160091625590562 0.019308313554004749 0 0.1180504621153383 0.042859463544297011 0 0.1160091625590562 0.019308313554004749 0 0.1131172876239257 0.036192844188860637 0 0.1160091625590562 0.019308313554004749 0 0.10561486686582081 0.027602173335020311 0 0.1232204744159258 0.030540992791317771 0 0.1160091625590562 0.019308313554004749 0 0.1272059714669049 0.01179698337579236 0 0.1160091625590562 0.019308313554004749 0 0.1136136107063144 -0.0083299626704685381 0 0.1160091625590562 0.019308313554004749 0 0.1272059714669049 0.01179698337579236 0 0.1195207288501979 -0.001194353383229735 0 0.1160091625590562 0.019308313554004749 0 0.10805409048844559 0.002891447746746191 0 0.1136136107063144 -0.0083299626704685381 0 0.1160091625590562 0.019308313554004749 0 0.1195207288501979 -0.001194353383229735 0 0.1136136107063144 -0.0083299626704685381 0 0.1160091625590562 0.019308313554004749 0 0.1195207288501979 -0.001194353383229735 0 0.1160091625590562 0.019308313554004749 0 0.10220168048510241 0.0069554238602353618 0 0.1044713340715647 0.018566923296911859 0 0.1160091625590562 0.019308313554004749 0 0.10805409048844559 0.002891447746746191 0 0.10220168048510241 0.0069554238602353618 0 0.10220168048510241 0.0069554238602353618 0 0.094059626376279667 0.020401782438387039 0 0.086474162963314449 -0.0049404096715552834 0 0.10805409048844559 0.002891447746746191 0 0.10220168048510241 0.0069554238602353618 0 0.10039190820330959 -0.0063679837567867754 0 0.10220168048510241 0.0069554238602353618 0 0.094059626376279667 0.020401782438387039 0 0.1044713340715647 0.018566923296911859 0 0.094059626376279667 0.020401782438387039 0 0.10561486686582081 0.027602173335020311 0 0.1044713340715647 0.018566923296911859 0 0.10164508978924471 0.045743974548329493 0 0.094059626376279667 0.020401782438387039 0 0.10561486686582081 0.027602173335020311 0 0.1160091625590562 0.019308313554004749 0 0.10561486686582081 0.027602173335020311 0 0.1044713340715647 0.018566923296911859 0 0.095781493117820471 0.095919229623321653 0 0.1006815892557022 0.1068076285191812 0 0.087100099377767221 0.1166041890903944 0 0.095781493117820471 0.095919229623321653 0 0.1006815892557022 0.1068076285191812 0 0.1104322434403307 0.099916118115240551 0 0.095781493117820471 0.095919229623321653 0 0.1104322434403307 0.099916118115240551 0 0.1046050569028235 0.085892441718287332 0 0.1006815892557022 0.1068076285191812 0 0.098964282691917371 0.1186236782331008 0 0.1244312862506923 0.11647714783315261 0 0.1006815892557022 0.1068076285191812 0 0.098964282691917371 0.1186236782331008 0 0.087100099377767221 0.1166041890903944 0 0.098964282691917371 0.1186236782331008 0 0.1244312862506923 0.11647714783315261 0 0.1114604271728054 0.12976334417550031 0 0.098964282691917371 0.1186236782331008 0 0.1244312862506923 0.11647714783315261 0 0.1244312862506923 0.11647714783315261 0 0.1104322434403307 0.099916118115240551 0 0.122159592140168 0.090267859458788985 0 0.1006815892557022 0.1068076285191812 0 0.1244312862506923 0.11647714783315261 0 0.1104322434403307 0.099916118115240551 0 0.1244312862506923 0.11647714783315261 0 0.122159592140168 0.090267859458788985 0 0.1104322434403307 0.099916118115240551 0 0.122159592140168 0.090267859458788985 0 0.1046050569028235 0.085892441718287332 0 0.122159592140168 0.090267859458788985 0 0.1067092771466928 0.073606719836438822 0 0.1046050569028235 0.085892441718287332 0 0.122159592140168 0.090267859458788985 0 0.1198878980296393 0.0640585710844256 0 0.122159592140168 0.090267859458788985 0 0.1198878980296393 0.0640585710844256 0 0.12862567505231701 0.06880364651110718 0 0.122159592140168 0.090267859458788985 0 0.1198878980296393 0.0640585710844256 0 0.1067092771466928 0.073606719836438822 0 0.1198878980296393 0.0640585710844256 0 0.12161212966019599 0.062809334139398737 0 0.12862567505231701 0.06880364651110718 0 0.11963300847789519 0.061117825790215491 0 0.1198878980296393 0.0640585710844256 0 0.12161212966019599 0.062809334139398737 0 0.11963300847789519 0.061117825790215491 0 0.1198878980296393 0.0640585710844256 0 0.1198878980296393 0.0640585710844256 0 0.12161212966019599 0.062809334139398737 0 0.11963300847789519 0.061117825790215491 0 0.1198878980296393 0.0640585710844256 0 0.1077870968721064 0.067313750541153405 0 0.1198878980296393 0.0640585710844256 0 0.1067092771466928 0.073606719836438822 0 0.1198878980296393 0.0640585710844256 0 0.1077870968721064 0.067313750541153405 0 0.1067092771466928 0.073606719836438822 0 0.1077870968721064 0.067313750541153405 0 0.1044628868578744 0.075234270156249144 0 0.10077190274373091 0.063801515760893657 0 0.10493982769155159 0.056751328526129997 0 0.1077870968721064 0.067313750541153405 0 0.10077190274373091 0.063801515760893657 0 0.1077870968721064 0.067313750541153405 0 0.1044628868578744 0.075234270156249144 0 0.1077870968721064 0.067313750541153405 0 0.1067092771466928 0.073606719836438822 0 0.1044628868578744 0.075234270156249144 0 0.1077870968721064 0.067313750541153405 0 0.1067092771466928 0.073606719836438822 0 0.1067092771466928 0.073606719836438822 0 0.1044628868578744 0.075234270156249144 0 0.1044628868578744 0.075234270156249144 0 0.10077190274373091 0.063801515760893657 0 0.090894072197567677 0.065138144037594117 0 0.095781493117820471 0.095919229623321653 0 0.1044628868578744 0.075234270156249144 0 0.1044628868578744 0.075234270156249144 0 0.086334961385394857 0.08836827943643491 0 0.095781493117820471 0.095919229623321653 0 0.1044628868578744 0.075234270156249144 0 0.1046050569028235 0.085892441718287332 0 0.095781493117820471 0.095919229623321653 0 0.1044628868578744 0.075234270156249144 0 0.086334961385394857 0.08836827943643491 0 0.1067092771466928 0.073606719836438822 0 0.1044628868578744 0.075234270156249144 0 0.1046050569028235 0.085892441718287332 0 0.1067092771466928 0.073606719836438822 0 0.1046050569028235 0.085892441718287332 0 0.086334961385394857 0.08836827943643491 0 0.080796714132482975 0.075218901754824263 0 0.069133953938819132 0.084717410066501547 0 0.1044628868578744 0.075234270156249144 0 0.086334961385394857 0.08836827943643491 0 0.080796714132482975 0.075218901754824263 0 0.1044628868578744 0.075234270156249144 0 0.090894072197567677 0.065138144037594117 0 0.080796714132482975 0.075218901754824263 0 0.068239151724643982 0.055461195562978641 0 0.090894072197567677 0.065138144037594117 0 0.080796714132482975 0.075218901754824263 0 0.068239151724643982 0.055461195562978641 0 0.080796714132482975 0.075218901754824263 0 0.066213950380320283 0.0745653801446855 0 0.068239151724643982 0.055461195562978641 0 0.066213950380320283 0.0745653801446855 0 0.056198514105751621 0.06825303501255113 0 0.086334961385394857 0.08836827943643491 0 0.069133953938819132 0.084717410066501547 0 0.066349986165636574 0.094738613716843112 0 0.080796714132482975 0.075218901754824263 0 0.066213950380320283 0.0745653801446855 0 0.069133953938819132 0.084717410066501547 0 0.066213950380320283 0.0745653801446855 0 0.069133953938819132 0.084717410066501547 0 0.056935141893923243 0.082467569827800291 0 0.069133953938819132 0.084717410066501547 0 0.066349986165636574 0.094738613716843112 0 0.058555221068033819 0.092046972997176957 0 0.086334961385394857 0.08836827943643491 0 0.068207035912914243 0.1015022887166192 0 0.066349986165636574 0.094738613716843112 0 0.068207035912914243 0.1015022887166192 0 0.058745685161963802 0.09990694600154687 0 0.086334961385394857 0.08836827943643491 0 0.066349986165636574 0.094738613716843112 0 0.068207035912914243 0.1015022887166192 0 0.066349986165636574 0.094738613716843112 0 0.068207035912914243 0.1015022887166192 0 0.068207035912914243 0.1015022887166192 0 0.082787819814826955 0.10263009018170011 0 0.077898058559662656 0.1103766941554407 0 0.095781493117820471 0.095919229623321653 0 0.087100099377767221 0.1166041890903944 0 0.086334961385394857 0.08836827943643491 0 0.068207035912914243 0.1015022887166192 0 0.082787819814826955 0.10263009018170011 0 0.095781493117820471 0.095919229623321653 0 0.082787819814826955 0.10263009018170011 0 0.087100099377767221 0.1166041890903944 0 0.095781493117820471 0.095919229623321653 0 0.086334961385394857 0.08836827943643491 0 0.082787819814826955 0.10263009018170011 0 0.098964282691917371 0.1186236782331008 0 0.073497279133142621 0.12077020863304989 0 0.075933100234520268 0.1296418623469133 0 0.098964282691917371 0.1186236782331008 0 0.087100099377767221 0.1166041890903944 0 0.073497279133142621 0.12077020863304989 0 0.098964282691917371 0.1186236782331008 0 0.073497279133142621 0.12077020863304989 0 0.082787819814826955 0.10263009018170011 0 0.087100099377767221 0.1166041890903944 0 0.077898058559662656 0.1103766941554407 0 0.087100099377767221 0.1166041890903944 0 0.073497279133142621 0.12077020863304989 0 0.077898058559662656 0.1103766941554407 0 0.068207035912914243 0.1015022887166192 0 0.073497279133142621 0.12077020863304989 0 0.068207035912914243 0.1015022887166192 0 0.073497279133142621 0.12077020863304989 0 0.063745132199279353 0.121592185188319 0 0.073497279133142621 0.12077020863304989 0 0.063745132199279353 0.121592185188319 0 0.075933100234520268 0.1296418623469133 0 0.068207035912914243 0.1015022887166192 0 0.073497279133142621 0.12077020863304989 0 0.077898058559662656 0.1103766941554407 0 0.073497279133142621 0.12077020863304989 0 0.063745132199279353 0.121592185188319 0 0.063745132199279353 0.121592185188319 0 0.051573708356894662 0.1135534348233567 0 0.037415326081001649 0.123811438392851 0 0.063745132199279353 0.121592185188319 0 0.037415326081001649 0.123811438392851 0 0.063745132199279353 0.121592185188319 0 0.051573708356894662 0.1135534348233567 0 0.068207035912914243 0.1015022887166192 0 0.063745132199279353 0.121592185188319 0 0.051573708356894662 0.1135534348233567 0 0.068207035912914243 0.1015022887166192 0 0.051573708356894662 0.1135534348233567 0 0.058745685161963802 0.09990694600154687 0 0.051573708356894662 0.1135534348233567 0 0.058745685161963802 0.09990694600154687 0 0.04904247430633283 0.09769341975372893 0 0.068207035912914243 0.1015022887166192 0 0.051573708356894662 0.1135534348233567 0 0.058745685161963802 0.09990694600154687 0 0.04904247430633283 0.09769341975372893 0 0.058555221068033819 0.092046972997176957 0 0.066349986165636574 0.094738613716843112 0 0.058745685161963802 0.09990694600154687 0 0.058555221068033819 0.092046972997176957 0 0.051573708356894662 0.1135534348233567 0 0.04904247430633283 0.09769341975372893 0 0.032317525749469257 0.1008354778309867 0 0.051573708356894662 0.1135534348233567 0 0.032317525749469257 0.1008354778309867 0 0.04904247430633283 0.09769341975372893 0 0.032317525749469257 0.1008354778309867 0 0.041632373557582952 0.088665689128461789 0 0.051573708356894662 0.1135534348233567 0 0.032317525749469257 0.1008354778309867 0 0.037415326081001649 0.123811438392851 0 0.051573708356894662 0.1135534348233567 0 0.037415326081001649 0.123811438392851 0 0.041877493839118193 0.06202170552989613 0 0.056198514105751621 0.06825303501255113 0 0.046044807698471482 0.078031669598269987 0 0.041877493839118193 0.06202170552989613 0 0.053178911431128989 0.057842218993673089 0 0.056198514105751621 0.06825303501255113 0 0.066213950380320283 0.0745653801446855 0 0.056198514105751621 0.06825303501255113 0 0.056935141893923243 0.082467569827800291 0 0.056198514105751621 0.06825303501255113 0 0.056935141893923243 0.082467569827800291 0 0.046044807698471482 0.078031669598269987 0 0.056935141893923243 0.082467569827800291 0 0.050271494311695489 0.08860007781132323 0 0.046044807698471482 0.078031669598269987 0 0.069133953938819132 0.084717410066501547 0 0.056935141893923243 0.082467569827800291 0 0.058555221068033819 0.092046972997176957 0 0.056935141893923243 0.082467569827800291 0 0.058555221068033819 0.092046972997176957 0 0.050271494311695489 0.08860007781132323 0 0.04904247430633283 0.09769341975372893 0 0.050271494311695489 0.08860007781132323 0 0.041632373557582952 0.088665689128461789 0 0.04904247430633283 0.09769341975372893 0 0.058555221068033819 0.092046972997176957 0 0.050271494311695489 0.08860007781132323 0 0.032317525749469257 0.1008354778309867 0 0.041632373557582952 0.088665689128461789 0 0.030100028013809049 0.077431234943731511 0 0.041632373557582952 0.088665689128461789 0 0.046044807698471482 0.078031669598269987 0 0.030100028013809049 0.077431234943731511 0 0.050271494311695489 0.08860007781132323 0 0.041632373557582952 0.088665689128461789 0 0.046044807698471482 0.078031669598269987 0 0.026423784558326641 0.059907710384717337 0 0.041877493839118193 0.06202170552989613 0 0.030100028013809049 0.077431234943731511 0 0.041877493839118193 0.06202170552989613 0 0.046044807698471482 0.078031669598269987 0 0.030100028013809049 0.077431234943731511 0 0.030100028013809049 0.077431234943731511 0 0.013061343142041781 0.088117520838619859 0 0.01068835749376784 0.065234271108784964 0 0.026423784558326641 0.059907710384717337 0 0.030100028013809049 0.077431234943731511 0 0.01068835749376784 0.065234271108784964 0 0.032317525749469257 0.1008354778309867 0 0.030100028013809049 0.077431234943731511 0 0.013061343142041781 0.088117520838619859 0 -0.0038174434113906479 0.097245822122756814 0 -0.0061948394653856256 0.07539956384625307 0 0.013061343142041781 0.088117520838619859 0 -0.0061948394653856256 0.07539956384625307 0 0.013061343142041781 0.088117520838619859 0 -0.0061948394653856256 0.07539956384625307 0 0.013061343142041781 0.088117520838619859 0 0.01068835749376784 0.065234271108784964 0 0.037415326081001649 0.123811438392851 0 0.013345320839888781 0.12584022037569101 0 0.037415326081001649 0.123811438392851 0 0.014398793310672659 0.1069698711358132 0 0.013345320839888781 0.12584022037569101 0 0.032317525749469257 0.1008354778309867 0 0.037415326081001649 0.123811438392851 0 0.014398793310672659 0.1069698711358132 0 0.032317525749469257 0.1008354778309867 0 0.013061343142041781 0.088117520838619859 0 0.032317525749469257 0.1008354778309867 0 0.013061343142041781 0.088117520838619859 0 0.014398793310672659 0.1069698711358132 0 -0.009622303651300089 0.1135135244299402 0 -0.0038174434113906479 0.097245822122756814 0 0.014398793310672659 0.1069698711358132 0 -0.0038174434113906479 0.097245822122756814 0 0.013061343142041781 0.088117520838619859 0 0.014398793310672659 0.1069698711358132 0 -0.009622303651300089 0.1135135244299402 0 0.014398793310672659 0.1069698711358132 0 0.013345320839888781 0.12584022037569101 0 0.013345320839888781 0.12584022037569101 0 0.002700318406108963 0.1356911531519954 0 0.020691116517431791 0.1359284301548232 0 -0.01072468440122405 0.12786900235853099 0 0.013345320839888781 0.12584022037569101 0 -0.01072468440122405 0.12786900235853099 0 0.013345320839888781 0.12584022037569101 0 0.002700318406108963 0.1356911531519954 0 0.002700318406108963 0.1356911531519954 0 0.020691116517431791 0.1359284301548232 0 0.0039669069538619244 0.14804542191679551 0 0.037415326081001649 0.123811438392851 0 0.020691116517431791 0.1359284301548232 0 0.037415326081001649 0.123811438392851 0 0.013345320839888781 0.12584022037569101 0 0.020691116517431791 0.1359284301548232 0 0.01891193672277261 0.14963330781687439 0 0.025819540964521961 0.16006392166911909 0 0.03236824497299725 0.15117702219083121 0 0.020691116517431791 0.1359284301548232 0 0.01891193672277261 0.14963330781687439 0 0.03236824497299725 0.15117702219083121 0 0.020691116517431791 0.1359284301548232 0 0.0039669069538619244 0.14804542191679551 0 0.01891193672277261 0.14963330781687439 0 0.0039669069538619244 0.14804542191679551 0 0.016814373287157371 0.16212145008882861 0 0.020691116517431791 0.1359284301548232 0 0.01891193672277261 0.14963330781687439 0 0.0039669069538619244 0.14804542191679551 0 -0.013396725236583969 0.1601200538134796 0 0.0070414061932690848 0.16614852550202611 0 0.016814373287157371 0.16212145008882861 0 -0.013396725236583969 0.1601200538134796 0 0.016814373287157371 0.16212145008882861 0 -0.013396725236583969 0.1601200538134796 0 0.0039669069538619244 0.14804542191679551 0 0.016814373287157371 0.16212145008882861 0 0.0070414061932690848 0.16614852550202611 0 0.017433599045734629 0.1774963258262571 0 0.016814373287157371 0.16212145008882861 0 -0.0052875140954570981 0.17119111425245789 0 0.0070414061932690848 0.16614852550202611 0 0.0011284886159709589 0.19553043523140759 0 0.0070414061932690848 0.16614852550202611 0 0.0011284886159709589 0.19553043523140759 0 0.0070414061932690848 0.16614852550202611 0 0.017433599045734629 0.1774963258262571 0 0.0011284886159709589 0.19553043523140759 0 0.028236819731680528 0.18390293469652369 0 0.0246461100186415 0.1695059331286366 0 0.036357039821041083 0.16788189512042459 0 0.017433599045734629 0.1774963258262571 0 0.028236819731680528 0.18390293469652369 0 0.018347233016829709 0.19878397343506679 0 0.017433599045734629 0.1774963258262571 0 0.028236819731680528 0.18390293469652369 0 0.0246461100186415 0.1695059331286366 0 0.01891193672277261 0.14963330781687439 0 0.016814373287157371 0.16212145008882861 0 0.025819540964521961 0.16006392166911909 0 0.016814373287157371 0.16212145008882861 0 0.0246461100186415 0.1695059331286366 0 0.025819540964521961 0.16006392166911909 0 0.017433599045734629 0.1774963258262571 0 0.016814373287157371 0.16212145008882861 0 0.0246461100186415 0.1695059331286366 0 0.0246461100186415 0.1695059331286366 0 0.025819540964521961 0.16006392166911909 0 0.036357039821041083 0.16788189512042459 0 0.036357039821041083 0.16788189512042459 0 0.048569977576966711 0.15520933359898409 0 0.03236824497299725 0.15117702219083121 0 0.025819540964521961 0.16006392166911909 0 0.036357039821041083 0.16788189512042459 0 0.03236824497299725 0.15117702219083121 0 0.036357039821041083 0.16788189512042459 0 0.042879779816506133 0.1841462994984939 0 0.056945358822985202 0.17216918742313581 0 0.028236819731680528 0.18390293469652369 0 0.036357039821041083 0.16788189512042459 0 0.042879779816506133 0.1841462994984939 0 0.056945358822985202 0.17216918742313581 0 0.057080976306810652 0.1896175174079468 0 0.07246408417576139 0.18132621282729591 0 0.042879779816506133 0.1841462994984939 0 0.056945358822985202 0.17216918742313581 0 0.057080976306810652 0.1896175174079468 0 0.036357039821041083 0.16788189512042459 0 0.056945358822985202 0.17216918742313581 0 0.048569977576966711 0.15520933359898409 0 0.056945358822985202 0.17216918742313581 0 0.048569977576966711 0.15520933359898409 0 0.064682328474581774 0.1574882940390997 0 0.048569977576966711 0.15520933359898409 0 0.060377427996140161 0.1399429093059022 0 0.064682328474581774 0.1574882940390997 0 0.048569977576966711 0.15520933359898409 0 0.060377427996140161 0.1399429093059022 0 0.04254720820641001 0.13914361199478681 0 0.063745132199279353 0.121592185188319 0 0.037415326081001649 0.123811438392851 0 0.051021273620707852 0.13112253622046471 0 0.060377427996140161 0.1399429093059022 0 0.051021273620707852 0.13112253622046471 0 0.04254720820641001 0.13914361199478681 0 0.063745132199279353 0.121592185188319 0 0.060377427996140161 0.1399429093059022 0 0.051021273620707852 0.13112253622046471 0 0.037415326081001649 0.123811438392851 0 0.020691116517431791 0.1359284301548232 0 0.04254720820641001 0.13914361199478681 0 0.037415326081001649 0.123811438392851 0 0.051021273620707852 0.13112253622046471 0 0.04254720820641001 0.13914361199478681 0 0.020691116517431791 0.1359284301548232 0 0.04254720820641001 0.13914361199478681 0 0.03236824497299725 0.15117702219083121 0 0.048569977576966711 0.15520933359898409 0 0.04254720820641001 0.13914361199478681 0 0.03236824497299725 0.15117702219083121 0 0.029648692022305429 0.24198572259538451 0 0.02276421990113224 0.24638130569216371 0 0.030532060240475941 0.25156469816248078 0 0.029648692022305429 0.24198572259538451 0 0.017486665963911539 0.23953998466507201 0 0.027967497283968919 0.23007333523936499 0 0.017486665963911539 0.23953998466507201 0 0.02276421990113224 0.24638130569216371 0 0.013389461377836059 0.25243481734571738 0 0.029648692022305429 0.24198572259538451 0 0.017486665963911539 0.23953998466507201 0 0.02276421990113224 0.24638130569216371 0 0.017486665963911539 0.23953998466507201 0 0.009312599233707905 0.24404109572130439 0 0.013389461377836059 0.25243481734571738 0 0.009312599233707905 0.24404109572130439 0 0.00069615477047229072 0.24213838121001291 0 0.0013968678610932379 0.25402272509214019 0 0.009312599233707905 0.24404109572130439 0 0.00069615477047229072 0.24213838121001291 0 0.0082530822575127474 0.23342148558566081 0 0.017486665963911539 0.23953998466507201 0 0.009312599233707905 0.24404109572130439 0 0.0082530822575127474 0.23342148558566081 0 0.017486665963911539 0.23953998466507201 0 0.0082530822575127474 0.23342148558566081 0 0.01651616648826203 0.2260447289783592 0 -0.0047844289613271406 0.22491234496078891 0 0.00069615477047229072 0.24213838121001291 0 0.0082530822575127474 0.23342148558566081 0 0.0082530822575127474 0.23342148558566081 0 0.0086592035719671202 0.22232765370738641 0 0.01651616648826203 0.2260447289783592 0 -0.0047844289613271406 0.22491234496078891 0 0.0082530822575127474 0.23342148558566081 0 0.0086592035719671202 0.22232765370738641 0 -0.0047844289613271406 0.22491234496078891 0 0.0086592035719671202 0.22232765370738641 0 0.0065869433289504299 0.21191483651988399 0 0.0086592035719671202 0.22232765370738641 0 0.01651616648826203 0.2260447289783592 0 0.017052535855677769 0.2143568071483121 0 0.01651616648826203 0.2260447289783592 0 0.026646971182136589 0.21897782932179979 0 0.017052535855677769 0.2143568071483121 0 0.017486665963911539 0.23953998466507201 0 0.01651616648826203 0.2260447289783592 0 0.027967497283968919 0.23007333523936499 0 0.01651616648826203 0.2260447289783592 0 0.027967497283968919 0.23007333523936499 0 0.026646971182136589 0.21897782932179979 0 0.027967497283968919 0.23007333523936499 0 0.026646971182136589 0.21897782932179979 0 0.037575619840745603 0.22265399387150231 0 0.026646971182136589 0.21897782932179979 0 0.025558697545920762 0.2080918209273763 0 0.036699535620720238 0.21115419488208551 0 0.025558697545920762 0.2080918209273763 0 0.017052535855677769 0.2143568071483121 0 0.018347233016829709 0.19878397343506679 0 0.026646971182136589 0.21897782932179979 0 0.025558697545920762 0.2080918209273763 0 0.017052535855677769 0.2143568071483121 0 -0.0047844289613271406 0.22491234496078891 0 0.0065869433289504299 0.21191483651988399 0 0.0011284886159709589 0.19553043523140759 0 0.0086592035719671202 0.22232765370738641 0 0.017052535855677769 0.2143568071483121 0 0.0065869433289504299 0.21191483651988399 0 0.017052535855677769 0.2143568071483121 0 0.0065869433289504299 0.21191483651988399 0 0.018347233016829709 0.19878397343506679 0 0.017433599045734629 0.1774963258262571 0 0.0011284886159709589 0.19553043523140759 0 0.018347233016829709 0.19878397343506679 0 0.0065869433289504299 0.21191483651988399 0 0.0011284886159709589 0.19553043523140759 0 0.018347233016829709 0.19878397343506679 0 0.025558697545920762 0.2080918209273763 0 0.018347233016829709 0.19878397343506679 0 0.033254561436169672 0.19836154288680791 0 0.028236819731680528 0.18390293469652369 0 0.018347233016829709 0.19878397343506679 0 0.033254561436169672 0.19836154288680791 0 0.042879779816506133 0.1841462994984939 0 0.033254561436169672 0.19836154288680791 0 0.048987862884696268 0.20206192476536769 0 0.028236819731680528 0.18390293469652369 0 0.042879779816506133 0.1841462994984939 0 0.033254561436169672 0.19836154288680791 0 0.057080976306810652 0.1896175174079468 0 0.048987862884696268 0.20206192476536769 0 0.067236255700123856 0.2001892824615619 0 0.042879779816506133 0.1841462994984939 0 0.057080976306810652 0.1896175174079468 0 0.048987862884696268 0.20206192476536769 0 0.048987862884696268 0.20206192476536769 0 0.06155913992065333 0.21453791206647629 0 0.048666234167709092 0.2159330120546871 0 0.048987862884696268 0.20206192476536769 0 0.06155913992065333 0.21453791206647629 0 0.067236255700123856 0.2001892824615619 0 0.048666234167709092 0.2159330120546871 0 0.036699535620720238 0.21115419488208551 0 0.037575619840745603 0.22265399387150231 0 0.033254561436169672 0.19836154288680791 0 0.048987862884696268 0.20206192476536769 0 0.036699535620720238 0.21115419488208551 0 0.048987862884696268 0.20206192476536769 0 0.048666234167709092 0.2159330120546871 0 0.036699535620720238 0.21115419488208551 0 0.025558697545920762 0.2080918209273763 0 0.033254561436169672 0.19836154288680791 0 0.036699535620720238 0.21115419488208551 0 0.026646971182136589 0.21897782932179979 0 0.036699535620720238 0.21115419488208551 0 0.037575619840745603 0.22265399387150231 0 0.027967497283968919 0.23007333523936499 0 0.037575619840745603 0.22265399387150231 0 0.041929859767213563 0.23624624544822029 0 0.037575619840745603 0.22265399387150231 0 0.046289963738743542 0.22603996225911571 0 0.041929859767213563 0.23624624544822029 0 0.048666234167709092 0.2159330120546871 0 0.037575619840745603 0.22265399387150231 0 0.046289963738743542 0.22603996225911571 0 0.048666234167709092 0.2159330120546871 0 0.046289963738743542 0.22603996225911571 0 0.056988141179305958 0.22932659766205329 0 0.06155913992065333 0.21453791206647629 0 0.048666234167709092 0.2159330120546871 0 0.056988141179305958 0.22932659766205329 0 0.046289963738743542 0.22603996225911571 0 0.056988141179305958 0.22932659766205329 0 0.041929859767213563 0.23624624544822029 0 0.056988141179305958 0.22932659766205329 0 0.05606680537807171 0.24357561070627001 0 0.041929859767213563 0.23624624544822029 0 0.05606680537807171 0.24357561070627001 0 0.044745023269543688 0.24943963109906189 0 0.041929859767213563 0.23624624544822029 0 0.044745023269543688 0.24943963109906189 0 0.041929859767213563 0.23624624544822029 0 0.03655137256399639 0.24660990211337741 0 0.044745023269543688 0.24943963109906189 0 0.03655137256399639 0.24660990211337741 0 0.038568233832345943 0.25334849326819803 0 0.029648692022305429 0.24198572259538451 0 0.027967497283968919 0.23007333523936499 0 0.041929859767213563 0.23624624544822029 0 0.029648692022305429 0.24198572259538451 0 0.041929859767213563 0.23624624544822029 0 0.03655137256399639 0.24660990211337741 0 0.029648692022305429 0.24198572259538451 0 0.03655137256399639 0.24660990211337741 0 0.030532060240475941 0.25156469816248078 0 0.074896778274164119 0.23605970154691161 0 0.1029152892405529 0.23835334100434241 0 0.085415694092067757 0.25758338042960732 0 0.074896778274164119 0.23605970154691161 0 0.068291763036194997 0.25330529894196557 0 0.085415694092067757 0.25758338042960732 0 0.056988141179305958 0.22932659766205329 0 0.05606680537807171 0.24357561070627001 0 0.074896778274164119 0.23605970154691161 0 0.05606680537807171 0.24357561070627001 0 0.074896778274164119 0.23605970154691161 0 0.068291763036194997 0.25330529894196557 0 0.06155913992065333 0.21453791206647629 0 0.056988141179305958 0.22932659766205329 0 0.076805662551178155 0.21715062689764711 0 0.056988141179305958 0.22932659766205329 0 0.074896778274164119 0.23605970154691161 0 0.076805662551178155 0.21715062689764711 0 0.074896778274164119 0.23605970154691161 0 0.091903776332751583 0.2205165875852951 0 0.076805662551178155 0.21715062689764711 0 0.074896778274164119 0.23605970154691161 0 0.091903776332751583 0.2205165875852951 0 0.074896778274164119 0.23605970154691161 0 0.091903776332751583 0.2205165875852951 0 0.1029152892405529 0.23835334100434241 0 0.091903776332751583 0.2205165875852951 0 0.07958882220803061 0.20280616570097831 0 0.094303610056845191 0.1993247035650155 0 0.091903776332751583 0.2205165875852951 0 0.076805662551178155 0.21715062689764711 0 0.07958882220803061 0.20280616570097831 0 0.076805662551178155 0.21715062689764711 0 0.067236255700123856 0.2001892824615619 0 0.07958882220803061 0.20280616570097831 0 0.06155913992065333 0.21453791206647629 0 0.076805662551178155 0.21715062689764711 0 0.067236255700123856 0.2001892824615619 0 0.067236255700123856 0.2001892824615619 0 0.080529113922146275 0.1913768729071228 0 0.07958882220803061 0.20280616570097831 0 0.057080976306810652 0.1896175174079468 0 0.067236255700123856 0.2001892824615619 0 0.07246408417576139 0.18132621282729591 0 0.067236255700123856 0.2001892824615619 0 0.080529113922146275 0.1913768729071228 0 0.07246408417576139 0.18132621282729591 0 0.080529113922146275 0.1913768729071228 0 0.07958882220803061 0.20280616570097831 0 0.094303610056845191 0.1993247035650155 0 0.080529113922146275 0.1913768729071228 0 0.094303610056845191 0.1993247035650155 0 0.090869979531989289 0.18404438830356451 0 0.094303610056845191 0.1993247035650155 0 0.090869979531989289 0.18404438830356451 0 0.10777154910842709 0.18710385138913491 0 0.094303610056845191 0.1993247035650155 0 0.1089107743913391 0.20497347362367849 0 0.10777154910842709 0.18710385138913491 0 0.1089107743913391 0.20497347362367849 0 0.13097690673322321 0.21014263605424299 0 0.12591777244992669 0.18943035966206179 0 0.1089107743913391 0.20497347362367849 0 0.12591777244992669 0.18943035966206179 0 0.1089107743913391 0.20497347362367849 0 0.10777154910842709 0.18710385138913491 0 0.12591777244992669 0.18943035966206179 0 0.1089107743913391 0.20497347362367849 0 0.11687544672478151 0.2188968222251223 0 0.13097690673322321 0.21014263605424299 0 0.091903776332751583 0.2205165875852951 0 0.1089107743913391 0.20497347362367849 0 0.091903776332751583 0.2205165875852951 0 0.1089107743913391 0.20497347362367849 0 0.11687544672478151 0.2188968222251223 0 0.091903776332751583 0.2205165875852951 0 0.094303610056845191 0.1993247035650155 0 0.1089107743913391 0.20497347362367849 0 0.091903776332751583 0.2205165875852951 0 0.11687544672478151 0.2188968222251223 0 0.1029152892405529 0.23835334100434241 0 0.1185584195863664 0.23342623733259349 0 0.11687544672478151 0.2188968222251223 0 0.13611094249440051 0.22254578296835781 0 0.1185584195863664 0.23342623733259349 0 0.11687544672478151 0.2188968222251223 0 0.1029152892405529 0.23835334100434241 0 0.1205808241545786 0.24661975241566669 0 0.1029152892405529 0.23835334100434241 0 0.1075912849283055 0.25701440988803942 0 0.1185584195863664 0.23342623733259349 0 0.1205808241545786 0.24661975241566669 0 0.1029152892405529 0.23835334100434241 0 0.1185584195863664 0.23342623733259349 0 0.1205808241545786 0.24661975241566669 0 0.13543311666859539 0.23696320948452271 0 0.081890146139608752 0.15133838529678079 0 0.075933100234520268 0.1296418623469133 0 0.096698723138760337 0.14335674573785931 0 0.081890146139608752 0.15133838529678079 0 0.096698723138760337 0.14335674573785931 0 0.093852490918247267 0.155804265030833 0 0.081890146139608752 0.15133838529678079 0 0.075933100234520268 0.1296418623469133 0 0.098964282691917371 0.1186236782331008 0 0.075933100234520268 0.1296418623469133 0 0.096698723138760337 0.14335674573785931 0 0.075933100234520268 0.1296418623469133 0 0.096698723138760337 0.14335674573785931 0 0.060377427996140161 0.1399429093059022 0 0.081890146139608752 0.15133838529678079 0 0.075933100234520268 0.1296418623469133 0 0.063745132199279353 0.121592185188319 0 0.060377427996140161 0.1399429093059022 0 0.075933100234520268 0.1296418623469133 0 0.073497279133142621 0.12077020863304989 0 0.075933100234520268 0.1296418623469133 0 0.063745132199279353 0.121592185188319 0 0.075933100234520268 0.1296418623469133 0 0.060377427996140161 0.1399429093059022 0 0.081890146139608752 0.15133838529678079 0 0.064682328474581774 0.1574882940390997 0 0.056945358822985202 0.17216918742313581 0 0.064682328474581774 0.1574882940390997 0 0.07358379619029505 0.16756004242490691 0 0.081890146139608752 0.15133838529678079 0 0.064682328474581774 0.1574882940390997 0 0.07358379619029505 0.16756004242490691 0 0.056945358822985202 0.17216918742313581 0 0.07358379619029505 0.16756004242490691 0 0.07246408417576139 0.18132621282729591 0 0.057080976306810652 0.1896175174079468 0 0.07246408417576139 0.18132621282729591 0 0.07358379619029505 0.16756004242490691 0 0.07246408417576139 0.18132621282729591 0 0.087847192044711753 0.17303490824664419 0 0.080529113922146275 0.1913768729071228 0 0.07246408417576139 0.18132621282729591 0 0.090869979531989289 0.18404438830356451 0 0.07246408417576139 0.18132621282729591 0 0.087847192044711753 0.17303490824664419 0 0.090869979531989289 0.18404438830356451 0 0.07246408417576139 0.18132621282729591 0 0.087847192044711753 0.17303490824664419 0 0.087847192044711753 0.17303490824664419 0 0.090869979531989289 0.18404438830356451 0 0.087847192044711753 0.17303490824664419 0 0.090869979531989289 0.18404438830356451 0 0.1003476728433059 0.17681184001939829 0 0.081890146139608752 0.15133838529678079 0 0.087847192044711753 0.17303490824664419 0 0.081890146139608752 0.15133838529678079 0 0.07358379619029505 0.16756004242490691 0 0.087847192044711753 0.17303490824664419 0 0.081890146139608752 0.15133838529678079 0 0.087847192044711753 0.17303490824664419 0 0.093852490918247267 0.155804265030833 0 0.1026557690438543 0.16505326868772749 0 0.1174643460429968 0.15707162912881101 0 0.093852490918247267 0.155804265030833 0 0.087847192044711753 0.17303490824664419 0 0.1026557690438543 0.16505326868772749 0 0.093852490918247267 0.155804265030833 0 0.087847192044711753 0.17303490824664419 0 0.1026557690438543 0.16505326868772749 0 0.087847192044711753 0.17303490824664419 0 0.1026557690438543 0.16505326868772749 0 0.1003476728433059 0.17681184001939829 0 0.090869979531989289 0.18404438830356451 0 0.1003476728433059 0.17681184001939829 0 0.10777154910842709 0.18710385138913491 0 0.1003476728433059 0.17681184001939829 0 0.10777154910842709 0.18710385138913491 0 0.11259387448754669 0.17482278346991939 0 0.1026557690438543 0.16505326868772749 0 0.1003476728433059 0.17681184001939829 0 0.11259387448754669 0.17482278346991939 0 0.10777154910842709 0.18710385138913491 0 0.12027365834531149 0.18049564038328961 0 0.12591777244992669 0.18943035966206179 0 0.10777154910842709 0.18710385138913491 0 0.11259387448754669 0.17482278346991939 0 0.12027365834531149 0.18049564038328961 0 0.11259387448754669 0.17482278346991939 0 0.12415141828989799 0.17327846795842361 0 0.12027365834531149 0.18049564038328961 0 0.1026557690438543 0.16505326868772749 0 0.1200822401273369 0.16659612616011801 0 0.1174643460429968 0.15707162912881101 0 0.1026557690438543 0.16505326868772749 0 0.11259387448754669 0.17482278346991939 0 0.1200822401273369 0.16659612616011801 0 0.1026557690438543 0.16505326868772749 0 0.1174643460429968 0.15707162912881101 0 0.1200822401273369 0.16659612616011801 0 0.1285865138577931 0.16441738684280291 0 0.1260147818577991 0.1693347209837564 0 0.11259387448754669 0.17482278346991939 0 0.12415141828989799 0.17327846795842361 0 0.1200822401273369 0.16659612616011801 0 0.12415141828989799 0.17327846795842361 0 0.1200822401273369 0.16659612616011801 0 0.1260147818577991 0.1693347209837564 0 0.1174643460429968 0.15707162912881101 0 0.1285865138577931 0.16441738684280291 0 0.1174643460429968 0.15707162912881101 0 0.1274818338562097 0.15167232729072441 0 0.1285865138577931 0.16441738684280291 0 0.1200822401273369 0.16659612616011801 0 0.1174643460429968 0.15707162912881101 0 0.1285865138577931 0.16441738684280291 0 0.1174643460429968 0.15707162912881101 0 0.1157101113639744 0.14303297325278899 0 0.096698723138760337 0.14335674573785931 0 0.1174643460429968 0.15707162912881101 0 0.1157101113639744 0.14303297325278899 0 0.1274818338562097 0.15167232729072441 0 0.1157101113639744 0.14303297325278899 0 0.12595656005345329 0.1340747375619383 0 0.1274818338562097 0.15167232729072441 0 0.1174643460429968 0.15707162912881101 0 0.1274818338562097 0.15167232729072441 0 0.1174643460429968 0.15707162912881101 0 0.096698723138760337 0.14335674573785931 0 0.093852490918247267 0.155804265030833 0 0.1174643460429968 0.15707162912881101 0 0.096698723138760337 0.14335674573785931 0 0.1157101113639744 0.14303297325278899 0 0.096698723138760337 0.14335674573785931 0 0.1114604271728054 0.12976334417550031 0 0.098964282691917371 0.1186236782331008 0 0.096698723138760337 0.14335674573785931 0 0.1114604271728054 0.12976334417550031 0 0.1244312862506923 0.11647714783315261 0 0.1114604271728054 0.12976334417550031 0 0.12595656005345329 0.1340747375619383 0 0.1157101113639744 0.14303297325278899 0 0.1114604271728054 0.12976334417550031 0 0.12595656005345329 0.1340747375619383 0 0.1244312862506923 0.11647714783315261 0 0.12595656005345329 0.1340747375619383 0 0.12595656005345329 0.1340747375619383 0 0.13477173722499289 0.13193047070550931 0 0.13565164914228919 0.12425239835068461 0 0.12595656005345329 0.1340747375619383 0 0.13391086251168069 0.1404010122489884 0 0.13477173722499289 0.13193047070550931 0 0.13391086251168069 0.1404010122489884 0 0.1417602372465126 0.1338573070831193 0 0.14376289471858611 0.1428970371701527 0 0.13391086251168069 0.1404010122489884 0 0.13477173722499289 0.13193047070550931 0 0.1417602372465126 0.1338573070831193 0 0.13477173722499289 0.13193047070550931 0 0.14063123489802909 0.12798468734324089 0 0.1417602372465126 0.1338573070831193 0 0.13477173722499289 0.13193047070550931 0 0.14063123489802909 0.12798468734324089 0 0.13565164914228919 0.12425239835068461 0 0.15006022659696999 0.13223231544558711 0 0.14376289471858611 0.1428970371701527 0 0.16004395558096279 0.13412174704958171 0 0.14376289471858611 0.1428970371701527 0 0.16004395558096279 0.13412174704958171 0 0.14376289471858611 0.1428970371701527 0 0.16004395558096279 0.13412174704958171 0 0.15874184105003911 0.14220940359041351 0 0.1466322538121323 0.12773822672939611 0 0.1417602372465126 0.1338573070831193 0 0.15006022659696999 0.13223231544558711 0 0.1466322538121323 0.12773822672939611 0 0.15151178436659599 0.12607672355801411 0 0.14670638086083351 0.1221253018907065 0 0.14063123489802909 0.12798468734324089 0 0.1466322538121323 0.12773822672939611 0 0.14670638086083351 0.1221253018907065 0 0.14063123489802909 0.12798468734324089 0 0.1466322538121323 0.12773822672939611 0 0.1417602372465126 0.1338573070831193 0 0.1417602372465126 0.1338573070831193 0 0.15006022659696999 0.13223231544558711 0 0.14376289471858611 0.1428970371701527 0 0.15495790408666441 0.1293347068488451 0 0.15006022659696999 0.13223231544558711 0 0.16004395558096279 0.13412174704958171 0 0.15495790408666441 0.1293347068488451 0 0.15151178436659599 0.12607672355801411 0 0.1573146585629808 0.1235612420306245 0 0.1466322538121323 0.12773822672939611 0 0.15151178436659599 0.12607672355801411 0 0.15006022659696999 0.13223231544558711 0 0.15495790408666441 0.1293347068488451 0 0.15151178436659599 0.12607672355801411 0 0.15006022659696999 0.13223231544558711 0 0.14937604888294981 0.16799126366842981 0 0.15874184105003911 0.14220940359041351 0 0.14824211527584991 0.1506681919922141 0 0.14937604888294981 0.16799126366842981 0 0.15874184105003911 0.14220940359041351 0 0.14937604888294981 0.16799126366842981 0 0.15636108765903159 0.15682059307031981 0 0.15874184105003911 0.14220940359041351 0 0.14376289471858611 0.1428970371701527 0 0.14824211527584991 0.1506681919922141 0 0.15874184105003911 0.14220940359041351 0 0.14376289471858611 0.1428970371701527 0 0.14170162512866899 0.15093921576581459 0 0.14824211527584991 0.1506681919922141 0 0.13391086251168069 0.1404010122489884 0 0.14376289471858611 0.1428970371701527 0 0.1274818338562097 0.15167232729072441 0 0.14376289471858611 0.1428970371701527 0 0.14170162512866899 0.15093921576581459 0 0.1274818338562097 0.15167232729072441 0 0.12595656005345329 0.1340747375619383 0 0.13391086251168069 0.1404010122489884 0 0.1274818338562097 0.15167232729072441 0 0.14376289471858611 0.1428970371701527 0 0.1274818338562097 0.15167232729072441 0 0.12595656005345329 0.1340747375619383 0 0.1274818338562097 0.15167232729072441 0 0.14170162512866899 0.15093921576581459 0 0.1274818338562097 0.15167232729072441 0 0.1355661518392085 0.15776046496953969 0 0.1274818338562097 0.15167232729072441 0 0.1285865138577931 0.16441738684280291 0 0.1274818338562097 0.15167232729072441 0 0.1285865138577931 0.16441738684280291 0 0.1355661518392085 0.15776046496953969 0 0.1285865138577931 0.16441738684280291 0 0.1294589728643156 0.17206336951644111 0 0.1339879055420749 0.17291748586318689 0 0.1285865138577931 0.16441738684280291 0 0.1260147818577991 0.1693347209837564 0 0.1294589728643156 0.17206336951644111 0 0.12415141828989799 0.17327846795842361 0 0.1260147818577991 0.1693347209837564 0 0.1294589728643156 0.17206336951644111 0 0.1285865138577931 0.16441738684280291 0 0.1339879055420749 0.17291748586318689 0 0.14292477050851449 0.17388724570044539 0 0.1285865138577931 0.16441738684280291 0 0.1383375666977735 0.16381085605466711 0 0.14292477050851449 0.17388724570044539 0 0.1285865138577931 0.16441738684280291 0 0.14292477050851449 0.17388724570044539 0 0.1383375666977735 0.16381085605466711 0 0.1355661518392085 0.15776046496953969 0 0.14159247088930549 0.16108922938678169 0 0.14170162512866899 0.15093921576581459 0 0.1355661518392085 0.15776046496953969 0 0.14159247088930549 0.16108922938678169 0 0.1285865138577931 0.16441738684280291 0 0.1383375666977735 0.16381085605466711 0 0.1355661518392085 0.15776046496953969 0 0.14292477050851449 0.17388724570044539 0 0.12591777244992669 0.18943035966206179 0 0.13808083466814311 0.19276125915982989 0 0.13093367739075901 0.1778427394369082 0 0.14292477050851449 0.17388724570044539 0 0.12591777244992669 0.18943035966206179 0 0.14292477050851449 0.17388724570044539 0 0.12591777244992669 0.18943035966206179 0 0.12027365834531149 0.18049564038328961 0 0.13093367739075901 0.1778427394369082 0 0.12591777244992669 0.18943035966206179 0 0.12415141828989799 0.17327846795842361 0 0.12027365834531149 0.18049564038328961 0 0.13093367739075901 0.1778427394369082 0 0.12415141828989799 0.17327846795842361 0 0.13093367739075901 0.1778427394369082 0 0.1294589728643156 0.17206336951644111 0 0.13093367739075901 0.1778427394369082 0 0.1294589728643156 0.17206336951644111 0 0.1339879055420749 0.17291748586318689 0 0.13093367739075901 0.1778427394369082 0 0.1339879055420749 0.17291748586318689 0 0.14292477050851449 0.17388724570044539 0 0.14292477050851449 0.17388724570044539 0 0.1451847626030657 0.1753798822654179 0 0.13808083466814311 0.19276125915982989 0 0.1451847626030657 0.1753798822654179 0 0.13808083466814311 0.19276125915982989 0 0.14683999364047229 0.1867333094990801 0 0.1451847626030657 0.1753798822654179 0 0.13808083466814311 0.19276125915982989 0 0.14292477050851449 0.17388724570044539 0 0.1451847626030657 0.1753798822654179 0 0.14292477050851449 0.17388724570044539 0 0.1451847626030657 0.1753798822654179 0 0.1475060647140056 0.1697002882090432 0 0.1451847626030657 0.1753798822654179 0 0.1475060647140056 0.1697002882090432 0 0.15588068407739331 0.1824441209090496 0 0.14937604888294981 0.16799126366842981 0 0.15588068407739331 0.1824441209090496 0 0.1475060647140056 0.1697002882090432 0 0.14937604888294981 0.16799126366842981 0 0.1451847626030657 0.1753798822654179 0 0.15588068407739331 0.1824441209090496 0 0.1451847626030657 0.1753798822654179 0 0.15588068407739331 0.1824441209090496 0 0.1475060647140056 0.1697002882090432 0 0.14683999364047229 0.1867333094990801 0 0.1451847626030657 0.1753798822654179 0 0.15588068407739331 0.1824441209090496 0 0.14170162512866899 0.15093921576581459 0 0.14159247088930549 0.16108922938678169 0 0.14937604888294981 0.16799126366842981 0 0.14170162512866899 0.15093921576581459 0 0.14824211527584991 0.1506681919922141 0 0.14937604888294981 0.16799126366842981 0 0.14170162512866899 0.15093921576581459 0 0.14937604888294981 0.16799126366842981 0 0.1383375666977735 0.16381085605466711 0 0.14159247088930549 0.16108922938678169 0 0.14359491057477081 0.16630849870141159 0 0.1383375666977735 0.16381085605466711 0 0.14292477050851449 0.17388724570044539 0 0.14359491057477081 0.16630849870141159 0 0.14359491057477081 0.16630849870141159 0 0.1475060647140056 0.1697002882090432 0 0.14937604888294981 0.16799126366842981 0 0.14292477050851449 0.17388724570044539 0 0.1475060647140056 0.1697002882090432 0 0.14292477050851449 0.17388724570044539 0 0.14359491057477081 0.16630849870141159 0 0.1475060647140056 0.1697002882090432 0 0.14159247088930549 0.16108922938678169 0 0.14359491057477081 0.16630849870141159 0 0.14937604888294981 0.16799126366842981 0 0.1475060647140056 0.1697002882090432 0 0.14937604888294981 0.16799126366842981 0 0.16355503131383339 0.17030005092194081 0 0.17773542717776991 0.17260014102871979 0 0.16856436049703061 0.15045459357996099 0 0.14937604888294981 0.16799126366842981 0 0.16856436049703061 0.15045459357996099 0 0.14937604888294981 0.16799126366842981 0 0.16355503131383339 0.17030005092194081 0 0.16856436049703061 0.15045459357996099 0 0.14937604888294981 0.16799126366842981 0 0.15636108765903159 0.15682059307031981 0 0.16856436049703061 0.15045459357996099 0 0.15588068407739331 0.1824441209090496 0 0.16355503131383339 0.17030005092194081 0 0.17773542717776991 0.17260014102871979 0 0.15588068407739331 0.1824441209090496 0 0.17773542717776991 0.17260014102871979 0 0.17726083410633331 0.19656487547924811 0 0.15588068407739331 0.1824441209090496 0 0.14937604888294981 0.16799126366842981 0 0.16355503131383339 0.17030005092194081 0 0.17773542717776991 0.17260014102871979 0 0.17726083410633331 0.19656487547924811 0 0.20175647890764661 0.1766611855385242 0 0.17773542717776991 0.17260014102871979 0 0.16856436049703061 0.15045459357996099 0 0.19328286706318201 0.15816101519244849 0 0.16856436049703061 0.15045459357996099 0 0.1877526721111118 0.1329179234914924 0 0.16856436049703061 0.15045459357996099 0 0.1877526721111118 0.1329179234914924 0 0.19328286706318201 0.15816101519244849 0 0.17201617943782321 0.13571247915432591 0 0.1877526721111118 0.1329179234914924 0 0.1687215818939726 0.1177916957383512 0 0.17201617943782321 0.13571247915432591 0 0.16856436049703061 0.15045459357996099 0 0.1877526721111118 0.1329179234914924 0 0.17201617943782321 0.13571247915432591 0 0.15874184105003911 0.14220940359041351 0 0.1687215818939726 0.1177916957383512 0 0.15874184105003911 0.14220940359041351 0 0.1687215818939726 0.1177916957383512 0 0.16004395558096279 0.13412174704958171 0 0.15874184105003911 0.14220940359041351 0 0.1687215818939726 0.1177916957383512 0 0.16004395558096279 0.13412174704958171 0 0.1573146585629808 0.1235612420306245 0 0.1687215818939726 0.1177916957383512 0 0.15495790408666441 0.1293347068488451 0 0.16004395558096279 0.13412174704958171 0 0.1573146585629808 0.1235612420306245 0 0.15636108765903159 0.15682059307031981 0 0.15874184105003911 0.14220940359041351 0 0.16856436049703061 0.15045459357996099 0 0.17201617943782321 0.13571247915432591 0 0.15874184105003911 0.14220940359041351 0 0.16856436049703061 0.15045459357996099 0 0.14941813094186671 0.24467380843777731 0 0.13543311666859539 0.23696320948452271 0 0.1532932452322591 0.2251635210564506 0 0.14941813094186671 0.24467380843777731 0 0.1532932452322591 0.2251635210564506 0 0.16453123836753941 0.2374922093660238 0 0.14941813094186671 0.24467380843777731 0 0.13543311666859539 0.23696320948452271 0 0.13554901525109189 0.2541709038296896 0 0.1205808241545786 0.24661975241566669 0 0.13543311666859539 0.23696320948452271 0 0.13554901525109189 0.2541709038296896 0 0.1185584195863664 0.23342623733259349 0 0.13543311666859539 0.23696320948452271 0 0.13611094249440051 0.22254578296835781 0 0.13611094249440051 0.22254578296835781 0 0.1532932452322591 0.2251635210564506 0 0.14556143608842231 0.20857867304448649 0 0.13543311666859539 0.23696320948452271 0 0.13611094249440051 0.22254578296835781 0 0.1532932452322591 0.2251635210564506 0 0.1532932452322591 0.2251635210564506 0 0.14556143608842231 0.20857867304448649 0 0.1657564863572038 0.20438748225368741 0 0.14556143608842231 0.20857867304448649 0 0.13097690673322321 0.21014263605424299 0 0.13808083466814311 0.19276125915982989 0 0.11687544672478151 0.2188968222251223 0 0.13611094249440051 0.22254578296835781 0 0.13097690673322321 0.21014263605424299 0 0.13611094249440051 0.22254578296835781 0 0.14556143608842231 0.20857867304448649 0 0.13097690673322321 0.21014263605424299 0 0.13097690673322321 0.21014263605424299 0 0.13808083466814311 0.19276125915982989 0 0.13097690673322321 0.21014263605424299 0 0.12591777244992669 0.18943035966206179 0 0.13808083466814311 0.19276125915982989 0 0.14683999364047229 0.1867333094990801 0 0.13808083466814311 0.19276125915982989 0 0.149341343087287 0.19565052326978019 0 0.14556143608842231 0.20857867304448649 0 0.13808083466814311 0.19276125915982989 0 0.149341343087287 0.19565052326978019 0 0.14556143608842231 0.20857867304448649 0 0.149341343087287 0.19565052326978019 0 0.1657564863572038 0.20438748225368741 0 0.14683999364047229 0.1867333094990801 0 0.15588068407739331 0.1824441209090496 0 0.149341343087287 0.19565052326978019 0 0.15588068407739331 0.1824441209090496 0 0.17726083410633331 0.19656487547924811 0 0.15588068407739331 0.1824441209090496 0 0.149341343087287 0.19565052326978019 0 0.1657564863572038 0.20438748225368741 0 0.15588068407739331 0.1824441209090496 0 0.1657564863572038 0.20438748225368741 0 0.15588068407739331 0.1824441209090496 0 0.17726083410633331 0.19656487547924811 0 0.1657564863572038 0.20438748225368741 0 0.17915987308887549 0.2108262629737421 0 0.17563228863701441 0.22633084359832509 0 0.19864098413527331 0.21068563004944671 0 0.17915987308887549 0.2108262629737421 0 0.1657564863572038 0.20438748225368741 0 0.17563228863701441 0.22633084359832509 0 0.17726083410633331 0.19656487547924811 0 0.17915987308887549 0.2108262629737421 0 0.1657564863572038 0.20438748225368741 0 0.17726083410633331 0.19656487547924811 0 0.17915987308887549 0.2108262629737421 0 0.19864098413527331 0.21068563004944671 0 0.1657564863572038 0.20438748225368741 0 0.17563228863701441 0.22633084359832509 0 0.1532932452322591 0.2251635210564506 0 0.1657564863572038 0.20438748225368741 0 0.17563228863701441 0.22633084359832509 0 0.1532932452322591 0.2251635210564506 0 0.17563228863701441 0.22633084359832509 0 0.16453123836753941 0.2374922093660238 0 0.17563228863701441 0.22633084359832509 0 0.18550809091682491 0.24827420494296279 0 0.19979884459851699 0.23217867636792569 0 0.17563228863701441 0.22633084359832509 0 0.18550809091682491 0.24827420494296279 0 0.17563228863701441 0.22633084359832509 0 0.18550809091682491 0.24827420494296279 0 0.16453123836753941 0.2374922093660238 0 0.18550809091682491 0.24827420494296279 0 0.16453123836753941 0.2374922093660238 0 0.1645791295241763 0.25255829741004221 0 0.14941813094186671 0.24467380843777731 0 0.16453123836753941 0.2374922093660238 0 0.1645791295241763 0.25255829741004221 0 0.18550809091682491 0.24827420494296279 0 0.19979884459851699 0.23217867636792569 0 0.21839258869488601 0.25457235273870971 0 0.19979884459851699 0.23217867636792569 0 0.22002113416421329 0.22480638461964519 0 0.21839258869488601 0.25457235273870971 0 0.17563228863701441 0.22633084359832509 0 0.19979884459851699 0.23217867636792569 0 0.19864098413527331 0.21068563004944671 0 0.19979884459851699 0.23217867636792569 0 0.19864098413527331 0.21068563004944671 0 0.22002113416421329 0.22480638461964519 0 0.19864098413527331 0.21068563004944671 0 0.22138046343611831 0.20514619924233471 0 0.22002113416421329 0.22480638461964519 0 0.19864098413527331 0.21068563004944671 0 0.22002113416421329 0.22480638461964519 0 0.19864098413527331 0.21068563004944671 0 0.20440171639186311 0.19478362629555659 0 0.22138046343611831 0.20514619924233471 0 0.17726083410633331 0.19656487547924811 0 0.19864098413527331 0.21068563004944671 0 0.17726083410633331 0.19656487547924811 0 0.19864098413527331 0.21068563004944671 0 0.20440171639186311 0.19478362629555659 0 0.17726083410633331 0.19656487547924811 0 0.20440171639186311 0.19478362629555659 0 0.20175647890764661 0.1766611855385242 0 0.20440171639186311 0.19478362629555659 0 0.22138046343611831 0.20514619924233471 0 0.222969821373944 0.18486024116822919 0 0.240700984391507 0.19891521551657099 0 0.22138046343611831 0.20514619924233471 0 0.222969821373944 0.18486024116822919 0 0.240700984391507 0.19891521551657099 0 0.24009935978751701 0.18268750516746349 0 0.25716385179167578 0.19213686191455909 0 0.240700984391507 0.19891521551657099 0 0.222969821373944 0.18486024116822919 0 0.24009935978751701 0.18268750516746349 0 0.240700984391507 0.19891521551657099 0 0.24055090568073731 0.21746015111279141 0 0.25803884317546311 0.20845380393523991 0 0.240700984391507 0.19891521551657099 0 0.24055090568073731 0.21746015111279141 0 0.22138046343611831 0.20514619924233471 0 0.24055090568073731 0.21746015111279141 0 0.22138046343611831 0.20514619924233471 0 0.22002113416421329 0.22480638461964519 0 0.24055090568073731 0.21746015111279141 0 0.22002113416421329 0.22480638461964519 0 0.24140128419315809 0.23892713918983621 0 0.22002113416421329 0.22480638461964519 0 0.24140128419315809 0.23892713918983621 0 0.24140128419315809 0.23892713918983621 0 0.25843244608827559 0.22734646679336329 0 0.24055090568073731 0.21746015111279141 0 0.24140128419315809 0.23892713918983621 0 0.25843244608827559 0.22734646679336329 0 0.24140128419315809 0.23892713918983621 0 0.24142358919607121 0.25808606837721387 0 0.26232043110115549 0.25274341919283649 0 0.22002113416421329 0.22480638461964519 0 0.24140128419315809 0.23892713918983621 0 0.21839258869488601 0.25457235273870971 0 0.24140128419315809 0.23892713918983621 0 0.21839258869488601 0.25457235273870971 0 0.20825100505065611 0.1479524506617145 0 0.21407297417592491 0.16463727265408601 0 0.22463003846732529 0.1524323418207105 0 0.20825100505065611 0.1479524506617145 0 0.2195549761252652 0.14107485639752901 0 0.22463003846732529 0.1524323418207105 0 0.20825100505065611 0.1479524506617145 0 0.21127903739442819 0.1341255823162455 0 0.2195549761252652 0.14107485639752901 0 0.21127903739442819 0.1341255823162455 0 0.1877526721111118 0.1329179234914924 0 0.21103310177239529 0.1220663832417814 0 0.21127903739442819 0.1341255823162455 0 0.2195549761252652 0.14107485639752901 0 0.2226371772083772 0.13123241011700679 0 0.21127903739442819 0.1341255823162455 0 0.21788586408594371 0.1239663949870692 0 0.21103310177239529 0.1220663832417814 0 0.21127903739442819 0.1341255823162455 0 0.2226371772083772 0.13123241011700679 0 0.21788586408594371 0.1239663949870692 0 0.20825100505065611 0.1479524506617145 0 0.21127903739442819 0.1341255823162455 0 0.1877526721111118 0.1329179234914924 0 0.20825100505065611 0.1479524506617145 0 0.1877526721111118 0.1329179234914924 0 0.19328286706318201 0.15816101519244849 0 0.19328286706318201 0.15816101519244849 0 0.20175647890764661 0.1766611855385242 0 0.21407297417592491 0.16463727265408601 0 0.17773542717776991 0.17260014102871979 0 0.19328286706318201 0.15816101519244849 0 0.20175647890764661 0.1766611855385242 0 0.20175647890764661 0.1766611855385242 0 0.21407297417592491 0.16463727265408601 0 0.222969821373944 0.18486024116822919 0 0.20440171639186311 0.19478362629555659 0 0.20175647890764661 0.1766611855385242 0 0.222969821373944 0.18486024116822919 0 0.20825100505065611 0.1479524506617145 0 0.19328286706318201 0.15816101519244849 0 0.21407297417592491 0.16463727265408601 0 0.21407297417592491 0.16463727265408601 0 0.2335476341927957 0.1677564015428894 0 0.22463003846732529 0.1524323418207105 0 0.2335476341927957 0.1677564015428894 0 0.23909001012971079 0.1508895210836331 0 0.22463003846732529 0.1524323418207105 0 0.2335476341927957 0.1677564015428894 0 0.222969821373944 0.18486024116822919 0 0.24009935978751701 0.18268750516746349 0 0.21407297417592491 0.16463727265408601 0 0.2335476341927957 0.1677564015428894 0 0.222969821373944 0.18486024116822919 0 0.2335476341927957 0.1677564015428894 0 0.24009935978751701 0.18268750516746349 0 0.25538089575682471 0.17709261206443511 0 0.2335476341927957 0.1677564015428894 0 0.25332258905290589 0.16087109394117829 0 0.25538089575682471 0.17709261206443511 0 0.2335476341927957 0.1677564015428894 0 0.23909001012971079 0.1508895210836331 0 0.25332258905290589 0.16087109394117829 0 0.23909001012971079 0.1508895210836331 0 0.25327884258801769 0.14441352075213529 0 0.25332258905290589 0.16087109394117829 0 0.23909001012971079 0.1508895210836331 0 0.24152698823064939 0.13901865988427059 0 0.25327884258801769 0.14441352075213529 0 0.23909001012971079 0.1508895210836331 0 0.23097762250553919 0.1396314970719677 0 0.24152698823064939 0.13901865988427059 0 0.23909001012971079 0.1508895210836331 0 0.22463003846732529 0.1524323418207105 0 0.23097762250553919 0.1396314970719677 0 0.2195549761252652 0.14107485639752901 0 0.22463003846732529 0.1524323418207105 0 0.23097762250553919 0.1396314970719677 0 0.2226371772083772 0.13123241011700679 0 0.23008978960411439 0.12761418914414049 0 0.2243903559616891 0.123823548445868 0 0.2226371772083772 0.13123241011700679 0 0.2243903559616891 0.123823548445868 0 0.21788586408594371 0.1239663949870692 0 0.2195549761252652 0.14107485639752901 0 0.2226371772083772 0.13123241011700679 0 0.23097762250553919 0.1396314970719677 0 0.2226371772083772 0.13123241011700679 0 0.23097762250553919 0.1396314970719677 0 0.23008978960411439 0.12761418914414049 0 0.23097762250553919 0.1396314970719677 0 0.23008978960411439 0.12761418914414049 0 0.2390469496264456 0.12849347173304401 0 0.23097762250553919 0.1396314970719677 0 0.2390469496264456 0.12849347173304401 0 0.24152698823064939 0.13901865988427059 0 0.2390469496264456 0.12849347173304401 0 0.24152698823064939 0.13901865988427059 0 0.24854473890169121 0.13271112874541779 0 0.24152698823064939 0.13901865988427059 0 0.24854473890169121 0.13271112874541779 0 0.25327884258801769 0.14441352075213529 0 0.2390469496264456 0.12849347173304401 0 0.24854473890169121 0.13271112874541779 0 0.25002981921467371 0.1210434623962709 0 0.2390469496264456 0.12849347173304401 0 0.2408325710780328 0.1148285184122987 0 0.25002981921467371 0.1210434623962709 0 0.2408325710780328 0.1148285184122987 0 0.25250081952329112 0.10730119291591329 0 0.25002981921467371 0.1210434623962709 0 0.2390469496264456 0.12849347173304401 0 0.2408325710780328 0.1148285184122987 0 0.23023817325090079 0.1184461375769522 0 0.23955905647520881 0.1026926303145706 0 0.24745047341450829 0.091852884101340918 0 0.25250081952329112 0.10730119291591329 0 0.2408325710780328 0.1148285184122987 0 0.23955905647520881 0.1026926303145706 0 0.25250081952329112 0.10730119291591329 0 0.2408325710780328 0.1148285184122987 0 0.23955905647520881 0.1026926303145706 0 0.2316232231040804 0.1092109524688582 0 0.23955905647520881 0.1026926303145706 0 0.23321715654444461 0.090267614264926965 0 0.24745047341450829 0.091852884101340918 0 0.23955905647520881 0.1026926303145706 0 0.22691819265520891 0.1009499519989937 0 0.23321715654444461 0.090267614264926965 0 0.23955905647520881 0.1026926303145706 0 0.22691819265520891 0.1009499519989937 0 0.2316232231040804 0.1092109524688582 0 0.22691819265520891 0.1009499519989937 0 0.22056812206105059 0.10913752404147591 0 0.21745955308316969 0.10194895660575561 0 0.22691819265520891 0.1009499519989937 0 0.2316232231040804 0.1092109524688582 0 0.22056812206105059 0.10913752404147591 0 0.22691819265520891 0.1009499519989937 0 0.21856468252686631 0.090438632887806972 0 0.23321715654444461 0.090267614264926965 0 0.22691819265520891 0.1009499519989937 0 0.21745955308316969 0.10194895660575561 0 0.21856468252686631 0.090438632887806972 0 0.23008978960411439 0.12761418914414049 0 0.2390469496264456 0.12849347173304401 0 0.23023817325090079 0.1184461375769522 0 0.23008978960411439 0.12761418914414049 0 0.23023817325090079 0.1184461375769522 0 0.2243903559616891 0.123823548445868 0 0.2408325710780328 0.1148285184122987 0 0.2316232231040804 0.1092109524688582 0 0.23023817325090079 0.1184461375769522 0 0.2316232231040804 0.1092109524688582 0 0.22056812206105059 0.10913752404147591 0 0.23023817325090079 0.1184461375769522 0 0.22056812206105059 0.10913752404147591 0 0.22110077565910941 0.1178586104041715 0 0.21469772218314029 0.1164436367004574 0 0.22056812206105059 0.10913752404147591 0 0.23023817325090079 0.1184461375769522 0 0.22110077565910941 0.1178586104041715 0 0.23023817325090079 0.1184461375769522 0 0.22110077565910941 0.1178586104041715 0 0.2243903559616891 0.123823548445868 0 0.22110077565910941 0.1178586104041715 0 0.2243903559616891 0.123823548445868 0 0.21788586408594371 0.1239663949870692 0 0.22110077565910941 0.1178586104041715 0 0.21788586408594371 0.1239663949870692 0 0.21469772218314029 0.1164436367004574 0 0.21788586408594371 0.1239663949870692 0 0.21103310177239529 0.1220663832417814 0 0.21469772218314029 0.1164436367004574 0 0.21103310177239529 0.1220663832417814 0 0.20694098372519321 0.1153812534030242 0 0.21469772218314029 0.1164436367004574 0 0.21103310177239529 0.1220663832417814 0 0.20694098372519321 0.1153812534030242 0 0.20694098372519321 0.1153812534030242 0 0.21253799658202149 0.1102660056456813 0 0.22056812206105059 0.10913752404147591 0 0.21253799658202149 0.1102660056456813 0 0.21469772218314029 0.1164436367004574 0 0.20694098372519321 0.1153812534030242 0 0.21253799658202149 0.1102660056456813 0 0.21469772218314029 0.1164436367004574 0 0.21253799658202149 0.1102660056456813 0 0.21745955308316969 0.10194895660575561 0 0.20870877159070109 0.098952668454819981 0 0.22056812206105059 0.10913752404147591 0 0.21253799658202149 0.1102660056456813 0 0.21745955308316969 0.10194895660575561 0 0.20694098372519321 0.1153812534030242 0 0.21253799658202149 0.1102660056456813 0 0.20870877159070109 0.098952668454819981 0 0.20694098372519321 0.1153812534030242 0 0.20870877159070109 0.098952668454819981 0 0.19506964624688039 0.095987523435594829 0 0.21745955308316969 0.10194895660575561 0 0.20870877159070109 0.098952668454819981 0 0.21856468252686631 0.090438632887806972 0 0.20694098372519321 0.1153812534030242 0 0.19506964624688039 0.095987523435594829 0 0.18309998045936091 0.1115502248759178 0 0.20694098372519321 0.1153812534030242 0 0.19506964624688039 0.095987523435594829 0 0.20870877159070109 0.098952668454819981 0 0.19506964624688039 0.095987523435594829 0 0.20247224473403291 0.091891368132039589 0 0.1877526721111118 0.1329179234914924 0 0.21103310177239529 0.1220663832417814 0 0.20694098372519321 0.1153812534030242 0 0.1877526721111118 0.1329179234914924 0 0.20694098372519321 0.1153812534030242 0 0.1877526721111118 0.1329179234914924 0 0.20694098372519321 0.1153812534030242 0 0.18309998045936091 0.1115502248759178 0 0.19595002674153861 0.074960292122904781 0 0.19538949274033521 0.062698826145331579 0 0.20945986126095889 0.076403896065047827 0 0.19595002674153861 0.074960292122904781 0 0.19538949274033521 0.062698826145331579 0 0.18319830876856519 0.076593793468166832 0 0.19595002674153861 0.074960292122904781 0 0.19801521823918999 0.085288403710576902 0 0.18319830876856519 0.076593793468166832 0 0.19506964624688039 0.095987523435594829 0 0.18319830876856519 0.076593793468166832 0 0.19506964624688039 0.095987523435594829 0 0.19801521823918999 0.085288403710576902 0 0.18319830876856519 0.076593793468166832 0 0.19801521823918999 0.085288403710576902 0 0.18319830876856519 0.076593793468166832 0 0.19506964624688039 0.095987523435594829 0 0.20247224473403291 0.091891368132039589 0 0.19801521823918999 0.085288403710576902 0 0.20247224473403291 0.091891368132039589 0 0.19801521823918999 0.085288403710576902 0 0.20809534285935999 0.087336876927166698 0 0.19595002674153861 0.074960292122904781 0 0.19801521823918999 0.085288403710576902 0 0.20945986126095889 0.076403896065047827 0 0.19801521823918999 0.085288403710576902 0 0.20809534285935999 0.087336876927166698 0 0.20945986126095889 0.076403896065047827 0 0.20870877159070109 0.098952668454819981 0 0.20247224473403291 0.091891368132039589 0 0.20809534285935999 0.087336876927166698 0 0.20870877159070109 0.098952668454819981 0 0.20809534285935999 0.087336876927166698 0 0.21856468252686631 0.090438632887806972 0 0.20809534285935999 0.087336876927166698 0 0.21856468252686631 0.090438632887806972 0 0.20945986126095889 0.076403896065047827 0 0.21856468252686631 0.090438632887806972 0 0.20945986126095889 0.076403896065047827 0 0.22500791656976871 0.076037650818766095 0 0.19538949274033521 0.062698826145331579 0 0.20945986126095889 0.076403896065047827 0 0.2160574880360806 0.060081403146667288 0 0.20945986126095889 0.076403896065047827 0 0.22500791656976871 0.076037650818766095 0 0.2160574880360806 0.060081403146667288 0 0.22500791656976871 0.076037650818766095 0 0.23912812821837001 0.07809484547742572 0 0.23362018283189209 0.060939513070721728 0 0.22500791656976871 0.076037650818766095 0 0.23362018283189209 0.060939513070721728 0 0.2160574880360806 0.060081403146667288 0 0.21856468252686631 0.090438632887806972 0 0.22500791656976871 0.076037650818766095 0 0.23321715654444461 0.090267614264926965 0 0.22500791656976871 0.076037650818766095 0 0.23321715654444461 0.090267614264926965 0 0.23912812821837001 0.07809484547742572 0 0.24745047341450829 0.091852884101340918 0 0.23912812821837001 0.07809484547742572 0 0.25711452023783993 0.077914187043372246 0 0.23321715654444461 0.090267614264926965 0 0.24745047341450829 0.091852884101340918 0 0.23912812821837001 0.07809484547742572 0 0.24561880858526181 0.065545558692949271 0 0.23912812821837001 0.07809484547742572 0 0.23362018283189209 0.060939513070721728 0 0.24561880858526181 0.065545558692949271 0 0.23912812821837001 0.07809484547742572 0 0.25711452023783993 0.077914187043372246 0 0.24561880858526181 0.065545558692949271 0 0.24603174092988009 0.048095312086837073 0 0.23362018283189209 0.060939513070721728 0 0.24603174092988009 0.048095312086837073 0 0.23079039641583141 0.037198624681381139 0 0.23362018283189209 0.060939513070721728 0 0.24561880858526181 0.065545558692949271 0 0.24603174092988009 0.048095312086837073 0 0.25707782727615391 0.060245437798373283 0 0.23079039641583141 0.037198624681381139 0 0.24241349775591731 0.0297215941444193 0 0.2586169358199919 0.035038103177067369 0 0.24603174092988009 0.048095312086837073 0 0.23079039641583141 0.037198624681381139 0 0.2586169358199919 0.035038103177067369 0 0.23079039641583141 0.037198624681381139 0 0.2586169358199919 0.035038103177067369 0 0.23079039641583141 0.037198624681381139 0 0.23362018283189209 0.060939513070721728 0 0.2160574880360806 0.060081403146667288 0 0.23740048780557829 0.0059290775085717564 0 0.26156360621507929 0.0096706653718756502 0 0.23740048780557829 0.0059290775085717564 0 0.25022560895119728 0.019460721921587279 0 0.26156360621507929 0.0096706653718756502 0 0.23740048780557829 0.0059290775085717564 0 0.2365205400837681 0.020453928375854729 0 0.25022560895119728 0.019460721921587279 0 0.23079039641583141 0.037198624681381139 0 0.2365205400837681 0.020453928375854729 0 0.24241349775591731 0.0297215941444193 0 0.2365205400837681 0.020453928375854729 0 0.24241349775591731 0.0297215941444193 0 0.25022560895119728 0.019460721921587279 0 0.24241349775591731 0.0297215941444193 0 0.2512444035911186 0.027069204809184171 0 0.25593033067929449 0.032602166680231963 0 0.24241349775591731 0.0297215941444193 0 0.2512444035911186 0.027069204809184171 0 0.25022560895119728 0.019460721921587279 0 0.23079039641583141 0.037198624681381139 0 0.22438554537692881 0.01860147867110281 0 0.21511010663429769 0.032060338073350472 0 0.23079039641583141 0.037198624681381139 0 0.2365205400837681 0.020453928375854729 0 0.22438554537692881 0.01860147867110281 0 0.23740048780557829 0.0059290775085717564 0 0.22438554537692881 0.01860147867110281 0 0.2132373693960779 0.002187489645264109 0 0.23740048780557829 0.0059290775085717564 0 0.2132373693960779 0.002187489645264109 0 0.23740048780557829 0.0059290775085717564 0 0.2365205400837681 0.020453928375854729 0 0.22438554537692881 0.01860147867110281 0 0.2132373693960779 0.002187489645264109 0 0.20449001243812309 0.018095686181560652 0 0.2124125193551073 0.018018126649035061 0 0.22438554537692881 0.01860147867110281 0 0.2132373693960779 0.002187489645264109 0 0.2124125193551073 0.018018126649035061 0 0.2132373693960779 0.002187489645264109 0 0.20449001243812309 0.018095686181560652 0 0.19843054512869701 -0.0001053035709871271 0 0.2132373693960779 0.002187489645264109 0 0.20449001243812309 0.018095686181560652 0 0.2132373693960779 0.002187489645264109 0 0.19843054512869701 -0.0001053035709871271 0 0.20449001243812309 0.018095686181560652 0 0.21511010663429769 0.032060338073350472 0 0.19097991622765839 0.042665538169259699 0 0.20449001243812309 0.018095686181560652 0 0.2124125193551073 0.018018126649035061 0 0.21511010663429769 0.032060338073350472 0 0.22438554537692881 0.01860147867110281 0 0.2124125193551073 0.018018126649035061 0 0.21511010663429769 0.032060338073350472 0 0.20449001243812309 0.018095686181560652 0 0.18981154703053199 0.015473458301380871 0 0.19097991622765839 0.042665538169259699 0 0.20449001243812309 0.018095686181560652 0 0.19097991622765839 0.042665538169259699 0 0.20449001243812309 0.018095686181560652 0 0.18981154703053199 0.015473458301380871 0 0.19843054512869701 -0.0001053035709871271 0 0.20449001243812309 0.018095686181560652 0 0.19843054512869701 -0.0001053035709871271 0 0.1900865585313167 0.003660253412649975 0 0.19843054512869701 -0.0001053035709871271 0 0.19481376673693221 -0.00066535107419350009 0 0.18981154703053199 0.015473458301380871 0 0.1900865585313167 0.003660253412649975 0 0.19843054512869701 -0.0001053035709871271 0 0.1900865585313167 0.003660253412649975 0 0.18615534909213211 -0.001758144403956826 0 0.19481376673693221 -0.00066535107419350009 0 0.23079039641583141 0.037198624681381139 0 0.2160574880360806 0.060081403146667288 0 0.20688009135622851 0.046088960071298209 0 0.19538949274033521 0.062698826145331579 0 0.2160574880360806 0.060081403146667288 0 0.20688009135622851 0.046088960071298209 0 0.23079039641583141 0.037198624681381139 0 0.20688009135622851 0.046088960071298209 0 0.21511010663429769 0.032060338073350472 0 0.20688009135622851 0.046088960071298209 0 0.21511010663429769 0.032060338073350472 0 0.19097991622765839 0.042665538169259699 0 0.19538949274033521 0.062698826145331579 0 0.20688009135622851 0.046088960071298209 0 0.19097991622765839 0.042665538169259699 0 0.19538949274033521 0.062698826145331579 0 0.19097991622765839 0.042665538169259699 0 0.1774698200171923 0.067235390156957967 0 0.19097991622765839 0.042665538169259699 0 0.1626901971665031 0.043090510516365012 0 0.1774698200171923 0.067235390156957967 0 0.19097991622765839 0.042665538169259699 0 0.1774698200171923 0.067235390156957967 0 0.19097991622765839 0.042665538169259699 0 0.1626901971665031 0.043090510516365012 0 0.17406448111176351 0.021687027734083208 0 0.1626901971665031 0.043090510516365012 0 0.1505368333110193 0.039956815857396237 0 0.15923977423396971 0.062534848168503188 0 0.1626901971665031 0.043090510516365012 0 0.1774698200171923 0.067235390156957967 0 0.15923977423396971 0.062534848168503188 0 0.1626901971665031 0.043090510516365012 0 0.1774698200171923 0.067235390156957967 0 0.18981154703053199 0.015473458301380871 0 0.18122158466829291 0.0053566078110054913 0 0.17406448111176351 0.021687027734083208 0 0.18122158466829291 0.0053566078110054913 0 0.17406448111176351 0.021687027734083208 0 0.16713804098071469 0.0077839740234780502 0 0.1900865585313167 0.003660253412649975 0 0.18122158466829291 0.0053566078110054913 0 0.18615534909213211 -0.001758144403956826 0 0.18981154703053199 0.015473458301380871 0 0.1900865585313167 0.003660253412649975 0 0.18122158466829291 0.0053566078110054913 0 0.18981154703053199 0.015473458301380871 0 0.19097991622765839 0.042665538169259699 0 0.17406448111176351 0.021687027734083208 0 0.1626901971665031 0.043090510516365012 0 0.17406448111176351 0.021687027734083208 0 0.14791057431581159 0.018945630875773448 0 0.17406448111176351 0.021687027734083208 0 0.16713804098071469 0.0077839740234780502 0 0.14791057431581159 0.018945630875773448 0 0.16713804098071469 0.0077839740234780502 0 0.15442804697685361 0.0026242170640909351 0 0.14791057431581159 0.018945630875773448 0 0.16713804098071469 0.0077839740234780502 0 0.15442804697685361 0.0026242170640909351 0 0.16596048227959651 -0.0062121719888348784 0 0.18122158466829291 0.0053566078110054913 0 0.16713804098071469 0.0077839740234780502 0 0.16596048227959651 -0.0062121719888348784 0 0.15442804697685361 0.0026242170640909351 0 0.14791057431581159 0.018945630875773448 0 0.13313095146512011 -0.0051992487648181377 0 0.1418338923880697 0.017378783546289078 0 0.14791057431581159 0.018945630875773448 0 0.13313095146512011 -0.0051992487648181377 0 0.1418338923880697 0.017378783546289078 0 0.1505368333110193 0.039956815857396237 0 0.1418338923880697 0.017378783546289078 0 0.14791057431581159 0.018945630875773448 0 0.1505368333110193 0.039956815857396237 0 0.1418338923880697 0.017378783546289078 0 0.1505368333110193 0.039956815857396237 0 0.13769070707741929 0.032893046862039421 0 0.1626901971665031 0.043090510516365012 0 0.14791057431581159 0.018945630875773448 0 0.1232204744159258 0.030540992791317771 0 0.1418338923880697 0.017378783546289078 0 0.1272059714669049 0.01179698337579236 0 0.1232204744159258 0.030540992791317771 0 0.1418338923880697 0.017378783546289078 0 0.13769070707741929 0.032893046862039421 0 0.1272059714669049 0.01179698337579236 0 0.1195207288501979 -0.001194353383229735 0 0.13313095146512011 -0.0051992487648181377 0 0.1418338923880697 0.017378783546289078 0 0.13313095146512011 -0.0051992487648181377 0 0.1418338923880697 0.017378783546289078 0 0.1272059714669049 0.01179698337579236 0 0.13313095146512011 -0.0051992487648181377 0 0.14791057431581159 0.018945630875773448 0 0.13313095146512011 -0.0051992487648181377 0 0.14468542691572639 0.053994310243528333 0 0.14350516151557521 0.068649909150297506 0 0.15923977423396971 0.062534848168503188 0 0.14468542691572639 0.053994310243528333 0 0.1505368333110193 0.039956815857396237 0 0.15923977423396971 0.062534848168503188 0 0.1505368333110193 0.039956815857396237 0 0.15923977423396971 0.062534848168503188 0 0.14468542691572639 0.053994310243528333 0 0.1366784634572461 0.062385790913364998 0 0.14350516151557521 0.068649909150297506 0 0.14468542691572639 0.053994310243528333 0 0.15923977423396971 0.062534848168503188 0 0.1626901971665031 0.043090510516365012 0 0.14791057431581159 0.018945630875773448 0 0.1505368333110193 0.039956815857396237 0 0.1505368333110193 0.039956815857396237 0 0.14076101172541189 0.043074486320379517 0 0.13769070707741929 0.032893046862039421 0 0.14468542691572639 0.053994310243528333 0 0.1505368333110193 0.039956815857396237 0 0.14076101172541189 0.043074486320379517 0 0.14076101172541189 0.043074486320379517 0 0.13769070707741929 0.032893046862039421 0 0.13013107959748271 0.045453772318554062 0 0.1232204744159258 0.030540992791317771 0 0.13769070707741929 0.032893046862039421 0 0.13013107959748271 0.045453772318554062 0 0.1180504621153383 0.042859463544297011 0 0.13013107959748271 0.045453772318554062 0 0.13045527104952351 0.056402318551776007 0 0.14468542691572639 0.053994310243528333 0 0.14076101172541189 0.043074486320379517 0 0.13013107959748271 0.045453772318554062 0 0.14468542691572639 0.053994310243528333 0 0.13013107959748271 0.045453772318554062 0 0.14468542691572639 0.053994310243528333 0 0.13013107959748271 0.045453772318554062 0 0.13045527104952351 0.056402318551776007 0 0.14468542691572639 0.053994310243528333 0 0.1366784634572461 0.062385790913364998 0 0.13045527104952351 0.056402318551776007 0 0.12161212966019599 0.062809334139398737 0 0.13045527104952351 0.056402318551776007 0 0.1366784634572461 0.062385790913364998 0 0.13045527104952351 0.056402318551776007 0 0.12934288480482059 0.062600272528911788 0 0.12161212966019599 0.062809334139398737 0 0.13045527104952351 0.056402318551776007 0 0.12934288480482059 0.062600272528911788 0 0.12161212966019599 0.062809334139398737 0 0.12862567505231701 0.06880364651110718 0 0.1366784634572461 0.062385790913364998 0 0.12862567505231701 0.06880364651110718 0 0.12934288480482059 0.062600272528911788 0 0.12161212966019599 0.062809334139398737 0 0.12862567505231701 0.06880364651110718 0 0.12934288480482059 0.062600272528911788 0 0.12862567505231701 0.06880364651110718 0 0.14350516151557521 0.068649909150297506 0 0.13511067195055429 0.079858402170115417 0 0.1366784634572461 0.062385790913364998 0 0.12862567505231701 0.06880364651110718 0 0.14350516151557521 0.068649909150297506 0 0.14350516151557521 0.068649909150297506 0 0.15444347298790739 0.077298423511939982 0 0.15923977423396971 0.062534848168503188 0 0.14350516151557521 0.068649909150297506 0 0.1452704140205319 0.08244640875036599 0 0.13511067195055429 0.079858402170115417 0 0.14350516151557521 0.068649909150297506 0 0.15444347298790739 0.077298423511939982 0 0.1452704140205319 0.08244640875036599 0 0.15573804463079399 0.088233236233412463 0 0.1452704140205319 0.08244640875036599 0 0.1422412817350619 0.099435892572317885 0 0.1452704140205319 0.08244640875036599 0 0.1360960746453016 0.088551714407507059 0 0.1422412817350619 0.099435892572317885 0 0.15444347298790739 0.077298423511939982 0 0.15573804463079399 0.088233236233412463 0 0.1452704140205319 0.08244640875036599 0 0.122159592140168 0.090267859458788985 0 0.12862567505231701 0.06880364651110718 0 0.13511067195055429 0.079858402170115417 0 0.122159592140168 0.090267859458788985 0 0.1360960746453016 0.088551714407507059 0 0.1422412817350619 0.099435892572317885 0 0.1452704140205319 0.08244640875036599 0 0.1360960746453016 0.088551714407507059 0 0.13511067195055429 0.079858402170115417 0 0.122159592140168 0.090267859458788985 0 0.1360960746453016 0.088551714407507059 0 0.13511067195055429 0.079858402170115417 0 0.1244312862506923 0.11647714783315261 0 0.122159592140168 0.090267859458788985 0 0.1422412817350619 0.099435892572317885 0 0.1244312862506923 0.11647714783315261 0 0.1516552415398581 0.11418252972073389 0 0.1244312862506923 0.11647714783315261 0 0.13565164914228919 0.12425239835068461 0 0.1516552415398581 0.11418252972073389 0 0.1244312862506923 0.11647714783315261 0 0.1516552415398581 0.11418252972073389 0 0.1422412817350619 0.099435892572317885 0 0.1244312862506923 0.11647714783315261 0 0.12595656005345329 0.1340747375619383 0 0.13565164914228919 0.12425239835068461 0 0.13565164914228919 0.12425239835068461 0 0.14670638086083351 0.1221253018907065 0 0.1516552415398581 0.11418252972073389 0 0.14063123489802909 0.12798468734324089 0 0.13565164914228919 0.12425239835068461 0 0.14670638086083351 0.1221253018907065 0 0.15403325864839779 0.11398209443971111 0 0.1516552415398581 0.11418252972073389 0 0.15403325864839779 0.11398209443971111 0 0.1516552415398581 0.11418252972073389 0 0.1526009090133581 0.11756595460350749 0 0.15403325864839779 0.11398209443971111 0 0.15557035677581391 0.1167162192514211 0 0.1526009090133581 0.11756595460350749 0 0.1516552415398581 0.11418252972073389 0 0.15061907539168551 0.1190531217267445 0 0.1526009090133581 0.11756595460350749 0 0.14670638086083351 0.1221253018907065 0 0.1516552415398581 0.11418252972073389 0 0.15061907539168551 0.1190531217267445 0 0.14670638086083351 0.1221253018907065 0 0.15061907539168551 0.1190531217267445 0 0.15231712002808551 0.1213737158485442 0 0.15061907539168551 0.1190531217267445 0 0.1526009090133581 0.11756595460350749 0 0.15231712002808551 0.1213737158485442 0 0.15557035677581391 0.1167162192514211 0 0.1526009090133581 0.11756595460350749 0 0.1556266787620115 0.11903695230980089 0 0.1526009090133581 0.11756595460350749 0 0.1556266787620115 0.11903695230980089 0 0.15231712002808551 0.1213737158485442 0 0.1556266787620115 0.11903695230980089 0 0.15231712002808551 0.1213737158485442 0 0.1573146585629808 0.1235612420306245 0 0.15151178436659599 0.12607672355801411 0 0.15231712002808551 0.1213737158485442 0 0.1573146585629808 0.1235612420306245 0 0.15151178436659599 0.12607672355801411 0 0.14670638086083351 0.1221253018907065 0 0.15231712002808551 0.1213737158485442 0 0.1516552415398581 0.11418252972073389 0 0.1422412817350619 0.099435892572317885 0 0.15973652302728081 0.099485677313195922 0 0.15573804463079399 0.088233236233412463 0 0.1422412817350619 0.099435892572317885 0 0.15973652302728081 0.099485677313195922 0 0.1516552415398581 0.11418252972073389 0 0.15973652302728081 0.099485677313195922 0 0.15403325864839779 0.11398209443971111 0 0.1516552415398581 0.11418252972073389 0 0.15973652302728081 0.099485677313195922 0 0.15403325864839779 0.11398209443971111 0 0.15973652302728081 0.099485677313195922 0 0.16649112065834401 0.1085587246120248 0 0.15973652302728081 0.099485677313195922 0 0.16649112065834401 0.1085587246120248 0 0.1736846089776172 0.1000090707856735 0 0.15973652302728081 0.099485677313195922 0 0.1736846089776172 0.1000090707856735 0 0.16781780451470421 0.084788824905658325 0 0.1573146585629808 0.1235612420306245 0 0.16002058067948791 0.1162798756526647 0 0.1687215818939726 0.1177916957383512 0 0.1556266787620115 0.11903695230980089 0 0.1573146585629808 0.1235612420306245 0 0.16002058067948791 0.1162798756526647 0 0.15557035677581391 0.1167162192514211 0 0.1556266787620115 0.11903695230980089 0 0.16002058067948791 0.1162798756526647 0 0.15403325864839779 0.11398209443971111 0 0.16649112065834401 0.1085587246120248 0 0.16002058067948791 0.1162798756526647 0 0.15403325864839779 0.11398209443971111 0 0.15557035677581391 0.1167162192514211 0 0.16002058067948791 0.1162798756526647 0 0.16649112065834401 0.1085587246120248 0 0.16002058067948791 0.1162798756526647 0 0.1687215818939726 0.1177916957383512 0 0.16649112065834401 0.1085587246120248 0 0.1687215818939726 0.1177916957383512 0 0.18309998045936091 0.1115502248759178 0 0.1877526721111118 0.1329179234914924 0 0.1687215818939726 0.1177916957383512 0 0.18309998045936091 0.1115502248759178 0 0.16649112065834401 0.1085587246120248 0 0.18309998045936091 0.1115502248759178 0 0.1736846089776172 0.1000090707856735 0 0.19506964624688039 0.095987523435594829 0 0.1736846089776172 0.1000090707856735 0 0.17992263093538829 0.089212848304623338 0 0.19506964624688039 0.095987523435594829 0 0.18309998045936091 0.1115502248759178 0 0.1736846089776172 0.1000090707856735 0 0.19506964624688039 0.095987523435594829 0 0.17992263093538829 0.089212848304623338 0 0.18319830876856519 0.076593793468166832 0 0.1736846089776172 0.1000090707856735 0 0.17992263093538829 0.089212848304623338 0 0.16781780451470421 0.084788824905658325 0 0.17992263093538829 0.089212848304623338 0 0.18319830876856519 0.076593793468166832 0 0.16781780451470421 0.084788824905658325 0 0.19538949274033521 0.062698826145331579 0 0.18319830876856519 0.076593793468166832 0 0.1774698200171923 0.067235390156957967 0 0.18319830876856519 0.076593793468166832 0 0.1774698200171923 0.067235390156957967 0 0.1774698200171923 0.067235390156957967 0 0.1749767513167973 0.071769357051758437 0 0.18319830876856519 0.076593793468166832 0 0.1749767513167973 0.071769357051758437 0 0.18319830876856519 0.076593793468166832 0 0.1774698200171923 0.067235390156957967 0 0.1749767513167973 0.071769357051758437 0 0.18319830876856519 0.076593793468166832 0 0.1749767513167973 0.071769357051758437 0 0.16781780451470421 0.084788824905658325 0 0.1774698200171923 0.067235390156957967 0 0.1749767513167973 0.071769357051758437 0 0.15923977423396971 0.062534848168503188 0 0.1749767513167973 0.071769357051758437 0 0.15923977423396971 0.062534848168503188 0 0.15444347298790739 0.077298423511939982 0 0.15923977423396971 0.062534848168503188 0 0.16781780451470421 0.084788824905658325 0 0.15923977423396971 0.062534848168503188 0 0.16781780451470421 0.084788824905658325 0 0.1749767513167973 0.071769357051758437 0 0.15923977423396971 0.062534848168503188 0 0.16781780451470421 0.084788824905658325 0 0.15444347298790739 0.077298423511939982 0 0.15573804463079399 0.088233236233412463 0 0.16781780451470421 0.084788824905658325 0 0.15573804463079399 0.088233236233412463 0 0.15973652302728081 0.099485677313195922 0 0.16781780451470421 0.084788824905658325 0 0.15973652302728081 0.099485677313195922 0 0.16781780451470421 0.084788824905658325 0 0.1736846089776172 0.1000090707856735 0 0.16781780451470421 0.084788824905658325 0 0.1749767513167973 0.071769357051758437 0 0.16781780451470421 0.084788824905658325 0 0.097338097424920736 0.47016191885545028 0 0.1011317950179524 0.4858461305506534 0 0.088767342802527696 0.48402524519887308 0 0.097338097424920736 0.47016191885545028 0 0.1011317950179524 0.4858461305506534 0 0.1168356570365645 0.48719688358687452 0 0.1011317950179524 0.4858461305506534 0 0.098423597097651708 0.49999999999999928 0 0.088767342802527696 0.48402524519887308 0 0.1011317950179524 0.4858461305506534 0 0.098423597097651708 0.49999999999999928 0 0.1168356570365645 0.48719688358687452 0 0.098423597097651708 0.49999999999999928 0 0.1168356570365645 0.48719688358687452 0 0.12537502216261889 0.5 0 0.097338097424920736 0.47016191885545028 0 0.1168356570365645 0.48719688358687452 0 0.12272986558341679 0.46755831466623321 0 0.097338097424920736 0.47016191885545028 0 0.12272986558341679 0.46755831466623321 0 0.12272986558341679 0.46755831466623321 0 0.1194139762985746 0.44746307811691582 0 0.1067726401865103 0.45533116624964681 0 0.1194139762985746 0.44746307811691582 0 0.1015043949829499 0.437764596234613 0 0.12637243707708509 0.42832167071525762 0 0.1015043949829499 0.437764596234613 0 0.1067726401865103 0.45533116624964681 0 0.092876866642689224 0.45370792337502158 0 0.1194139762985746 0.44746307811691582 0 0.1015043949829499 0.437764596234613 0 0.1067726401865103 0.45533116624964681 0 0.097338097424920736 0.47016191885545028 0 0.1067726401865103 0.45533116624964681 0 0.092876866642689224 0.45370792337502158 0 0.097338097424920736 0.47016191885545028 0 0.12272986558341679 0.46755831466623321 0 0.1067726401865103 0.45533116624964681 0 0.097338097424920736 0.47016191885545028 0 0.081643360692044267 0.46022000903202559 0 0.071946329266424636 0.47276552304466751 0 0.097338097424920736 0.47016191885545028 0 0.092876866642689224 0.45370792337502158 0 0.081643360692044267 0.46022000903202559 0 0.092876866642689224 0.45370792337502158 0 0.081643360692044267 0.46022000903202559 0 0.076636352888814735 0.44720752175396838 0 0.1015043949829499 0.437764596234613 0 0.089526282753180919 0.43920821772680441 0 0.076636352888814735 0.44720752175396838 0 0.1015043949829499 0.437764596234613 0 0.092876866642689224 0.45370792337502158 0 0.076636352888814735 0.44720752175396838 0 0.1015043949829499 0.437764596234613 0 0.076636352888814735 0.44720752175396838 0 0.089526282753180919 0.43920821772680441 0 0.076636352888814735 0.44720752175396838 0 0.074908825929397738 0.43581651760668277 0 0.076636352888814735 0.44720752175396838 0 0.062549935643749374 0.44114849749990931 0 0.069419157237372034 0.45725715813102041 0 0.062549935643749374 0.44114849749990931 0 0.069419157237372034 0.45725715813102041 0 0.058469031741131848 0.45243950670391508 0 0.076636352888814735 0.44720752175396838 0 0.062549935643749374 0.44114849749990931 0 0.074908825929397738 0.43581651760668277 0 0.081643360692044267 0.46022000903202559 0 0.069419157237372034 0.45725715813102041 0 0.071946329266424636 0.47276552304466751 0 0.081643360692044267 0.46022000903202559 0 0.076636352888814735 0.44720752175396838 0 0.069419157237372034 0.45725715813102041 0 0.069419157237372034 0.45725715813102041 0 0.060243854438493109 0.46086493671767431 0 0.058469031741131848 0.45243950670391508 0 0.069419157237372034 0.45725715813102041 0 0.071946329266424636 0.47276552304466751 0 0.060243854438493109 0.46086493671767431 0 0.071946329266424636 0.47276552304466751 0 0.088767342802527696 0.48402524519887308 0 0.073020341636848299 0.49010235694270998 0 0.071946329266424636 0.47276552304466751 0 0.073020341636848299 0.49010235694270998 0 0.047617086176044682 0.48020471388542141 0 0.097338097424920736 0.47016191885545028 0 0.071946329266424636 0.47276552304466751 0 0.097338097424920736 0.47016191885545028 0 0.071946329266424636 0.47276552304466751 0 0.088767342802527696 0.48402524519887308 0 0.098423597097651708 0.49999999999999928 0 0.073020341636848299 0.49010235694270998 0 0.098423597097651708 0.49999999999999928 0 0.088767342802527696 0.48402524519887308 0 0.073020341636848299 0.49010235694270998 0 0.098423597097651708 0.49999999999999928 0 0.08348635704797952 0.49999999999999822 0 0.073020341636848299 0.49010235694270998 0 0.08348635704797952 0.49999999999999822 0 0.073020341636848299 0.49010235694270998 0 0.058094764072453987 0.48797548059417861 0 0.08348635704797952 0.49999999999999822 0 0.056265589754729388 0.5 0 0.058094764072453987 0.48797548059417861 0 0.08348635704797952 0.49999999999999822 0 0.058094764072453987 0.48797548059417861 0 0.073020341636848299 0.49010235694270998 0 0.047617086176044682 0.48020471388542141 0 0.073020341636848299 0.49010235694270998 0 0.058094764072453987 0.48797548059417861 0 0.047617086176044682 0.48020471388542141 0 0.056265589754729388 0.5 0 0.058094764072453987 0.48797548059417861 0 0.042655206108104297 0.4917781963921381 0 0.071946329266424636 0.47276552304466751 0 0.046554561107928542 0.47536912723388453 0 0.071946329266424636 0.47276552304466751 0 0.047617086176044682 0.48020471388542141 0 0.046554561107928542 0.47536912723388453 0 0.071946329266424636 0.47276552304466751 0 0.046554561107928542 0.47536912723388453 0 0.052653267606100063 0.4657927124614914 0 0.046554561107928542 0.47536912723388453 0 0.041628013188480667 0.46846210300911451 0 0.052653267606100063 0.4657927124614914 0 0.058094764072453987 0.48797548059417861 0 0.032703171096927573 0.47595096118836022 0 0.058094764072453987 0.48797548059417861 0 0.047617086176044682 0.48020471388542141 0 0.032703171096927573 0.47595096118836022 0 0.046554561107928542 0.47536912723388453 0 0.032703171096927573 0.47595096118836022 0 0.041628013188480667 0.46846210300911451 0 0.047617086176044682 0.48020471388542141 0 0.046554561107928542 0.47536912723388453 0 0.032703171096927573 0.47595096118836022 0 0.032703171096927573 0.47595096118836022 0 0.032837812176921263 0.46414750013618239 0 0.041628013188480667 0.46846210300911451 0 0.058094764072453987 0.48797548059417861 0 0.032703171096927573 0.47595096118836022 0 0.042655206108104297 0.4917781963921381 0 0.032703171096927573 0.47595096118836022 0 0.042655206108104297 0.4917781963921381 0 0.02904482246147921 0.5 0 0.056265589754729388 0.5 0 0.042655206108104297 0.4917781963921381 0 0.02904482246147921 0.5 0 0.032703171096927573 0.47595096118836022 0 0.02904482246147921 0.5 0 0.01486539584239272 0.48725055925748922 0 0.032703171096927573 0.47595096118836022 0 0.0073115781214012554 0.46392644178254189 0 0.032703171096927573 0.47595096118836022 0 0.01016015936896277 0.47570058240850882 0 0.01486539584239272 0.48725055925748922 0 0.032703171096927573 0.47595096118836022 0 0.01016015936896277 0.47570058240850882 0 0.0073115781214012554 0.46392644178254189 0 0.01016015936896277 0.47570058240850882 0 0.00079915787713980067 0.48380178818253211 0 0.01486539584239272 0.48725055925748922 0 0.01016015936896277 0.47570058240850882 0 0.0073115781214012554 0.46392644178254189 0 0.0054114998955236034 0.46864804595923232 0 -0.002540330405828736 0.46770344598872898 0 -0.00012984661960833009 0.47462569808089689 0 0.0054114998955236034 0.46864804595923232 0 -0.00012984661960833009 0.47462569808089689 0 0.01016015936896277 0.47570058240850882 0 0.0054114998955236034 0.46864804595923232 0 -0.00012984661960833009 0.47462569808089689 0 0.01016015936896277 0.47570058240850882 0 0.00079915787713980067 0.48380178818253211 0 0.00079915787713980067 0.48380178818253211 0 0.0018240551682290329 0.5 0 0.01486539584239272 0.48725055925748922 0 0.02904482246147921 0.5 0 0.0018240551682290329 0.5 0 0.01486539584239272 0.48725055925748922 0 -0.0082520182386178285 0.44752539581358081 0 0.018463648595818491 0.43621407614749258 0 -0.0082520182386178285 0.44752539581358081 0 0.016015289320526069 0.43850686624797192 0 0.018463648595818491 0.43621407614749258 0 -0.0028292168140803208 0.44959852108272791 0 -0.0082520182386178285 0.44752539581358081 0 0.016015289320526069 0.43850686624797192 0 -0.0082520182386178285 0.44752539581358081 0 0.0053858341513508129 0.43968751691377422 0 0.018463648595818491 0.43621407614749258 0 -0.0028292168140803208 0.44959852108272791 0 0.016015289320526069 0.43850686624797192 0 -0.0028292168140803208 0.44959852108272791 0 0.003686567682114407 0.45348632369656539 0 0.016015289320526069 0.43850686624797192 0 0.0073115781214012554 0.46392644178254189 0 0.016015289320526069 0.43850686624797192 0 0.018463648595818491 0.43621407614749258 0 0.0073115781214012554 0.46392644178254189 0 0.018463648595818491 0.43621407614749258 0 0.003686567682114407 0.45348632369656539 0 0.0073115781214012554 0.46392644178254189 0 0.016015289320526069 0.43850686624797192 0 -0.0052704842108084043 0.45796804236960659 0 0.003686567682114407 0.45348632369656539 0 0.0073115781214012554 0.46392644178254189 0 -0.002540330405828736 0.46770344598872898 0 0.0073115781214012554 0.46392644178254189 0 0.0054114998955236034 0.46864804595923232 0 -0.0052704842108084043 0.45796804236960659 0 0.0073115781214012554 0.46392644178254189 0 0.0073115781214012554 0.46392644178254189 0 0.0054114998955236034 0.46864804595923232 0 0.0073115781214012554 0.46392644178254189 0 0.029231852816914719 0.45427383728422571 0 0.032837812176921263 0.46414750013618239 0 0.0073115781214012554 0.46392644178254189 0 0.029231852816914719 0.45427383728422571 0 0.0268013711671269 0.44379410395332819 0 0.032703171096927573 0.47595096118836022 0 0.0073115781214012554 0.46392644178254189 0 0.032837812176921263 0.46414750013618239 0 0.029231852816914719 0.45427383728422571 0 0.0268013711671269 0.44379410395332819 0 0.033186630963942872 0.44609904385553772 0 0.0073115781214012554 0.46392644178254189 0 0.0268013711671269 0.44379410395332819 0 0.018463648595818491 0.43621407614749258 0 0.0268013711671269 0.44379410395332819 0 0.023732967701774601 0.43398306491354383 0 0.018463648595818491 0.43621407614749258 0 0.0268013711671269 0.44379410395332819 0 0.029875993350003301 0.4374471742814286 0 0.023732967701774601 0.43398306491354383 0 0.0268013711671269 0.44379410395332819 0 0.033186630963942872 0.44609904385553772 0 0.029875993350003301 0.4374471742814286 0 0.036754504434223512 0.43941760096183219 0 0.033186630963942872 0.44609904385553772 0 0.029875993350003301 0.4374471742814286 0 0.036754504434223512 0.43941760096183219 0 0.033186630963942872 0.44609904385553772 0 0.040499760684755998 0.45015715915631899 0 0.029231852816914719 0.45427383728422571 0 0.033186630963942872 0.44609904385553772 0 0.040499760684755998 0.45015715915631899 0 0.040499760684755998 0.45015715915631899 0 0.044677625831814283 0.43996947973686978 0 0.049209307106565403 0.44689676236402831 0 0.036754504434223512 0.43941760096183219 0 0.040499760684755998 0.45015715915631899 0 0.044677625831814283 0.43996947973686978 0 0.029231852816914719 0.45427383728422571 0 0.032837812176921263 0.46414750013618239 0 0.036624006090581973 0.45752015621546122 0 0.029231852816914719 0.45427383728422571 0 0.040499760684755998 0.45015715915631899 0 0.036624006090581973 0.45752015621546122 0 0.032837812176921263 0.46414750013618239 0 0.036624006090581973 0.45752015621546122 0 0.0433912539545259 0.4610502140256536 0 0.040499760684755998 0.45015715915631899 0 0.0433912539545259 0.4610502140256536 0 0.050922904279479327 0.45603017880694358 0 0.040499760684755998 0.45015715915631899 0 0.036624006090581973 0.45752015621546122 0 0.0433912539545259 0.4610502140256536 0 0.032837812176921263 0.46414750013618239 0 0.0433912539545259 0.4610502140256536 0 0.041628013188480667 0.46846210300911451 0 0.0433912539545259 0.4610502140256536 0 0.041628013188480667 0.46846210300911451 0 0.052653267606100063 0.4657927124614914 0 0.071946329266424636 0.47276552304466751 0 0.052653267606100063 0.4657927124614914 0 0.060243854438493109 0.46086493671767431 0 0.0433912539545259 0.4610502140256536 0 0.052653267606100063 0.4657927124614914 0 0.050922904279479327 0.45603017880694358 0 0.052653267606100063 0.4657927124614914 0 0.050922904279479327 0.45603017880694358 0 0.060243854438493109 0.46086493671767431 0 0.050922904279479327 0.45603017880694358 0 0.060243854438493109 0.46086493671767431 0 0.058469031741131848 0.45243950670391508 0 0.062549935643749374 0.44114849749990931 0 0.049209307106565403 0.44689676236402831 0 0.05217764507713625 0.43556498405841121 0 0.044677625831814283 0.43996947973686978 0 0.049209307106565403 0.44689676236402831 0 0.05217764507713625 0.43556498405841121 0 0.040499760684755998 0.45015715915631899 0 0.050922904279479327 0.45603017880694358 0 0.049209307106565403 0.44689676236402831 0 0.050922904279479327 0.45603017880694358 0 0.049209307106565403 0.44689676236402831 0 0.058469031741131848 0.45243950670391508 0 0.062549935643749374 0.44114849749990931 0 0.049209307106565403 0.44689676236402831 0 0.058469031741131848 0.45243950670391508 0 0.062549935643749374 0.44114849749990931 0 0.05217764507713625 0.43556498405841121 0 0.062673167969352239 0.43220817619515589 0 0.055283811842125739 0.42331008397343273 0 0.05217764507713625 0.43556498405841121 0 0.062673167969352239 0.43220817619515589 0 0.055283811842125739 0.42331008397343273 0 0.062673167969352239 0.43220817619515589 0 0.068445621354352115 0.42520079783734421 0 0.055283811842125739 0.42331008397343273 0 0.05217764507713625 0.43556498405841121 0 0.042917567472382623 0.42834317995551963 0 0.054191675884896352 0.40966895180268631 0 0.068115331400254914 0.40533303765924561 0 0.063724457881659605 0.41574827176540519 0 0.055283811842125739 0.42331008397343273 0 0.054191675884896352 0.40966895180268631 0 0.063724457881659605 0.41574827176540519 0 0.055283811842125739 0.42331008397343273 0 0.063724457881659605 0.41574827176540519 0 0.068445621354352115 0.42520079783734421 0 0.055283811842125739 0.42331008397343273 0 0.054191675884896352 0.40966895180268631 0 0.040884036807953612 0.41433371364516169 0 0.054191675884896352 0.40966895180268631 0 0.040884036807953612 0.41433371364516169 0 0.045850949982409593 0.4049191013996189 0 0.040884036807953612 0.41433371364516169 0 0.038213886564479431 0.40576158179300631 0 0.045850949982409593 0.4049191013996189 0 0.040884036807953612 0.41433371364516169 0 0.042917567472382623 0.42834317995551963 0 0.03619576359543223 0.4219720449641165 0 0.040884036807953612 0.41433371364516169 0 0.03619576359543223 0.4219720449641165 0 0.026763802161845759 0.41558858862241632 0 0.040884036807953612 0.41433371364516169 0 0.026763802161845759 0.41558858862241632 0 0.038213886564479431 0.40576158179300631 0 0.036754504434223512 0.43941760096183219 0 0.044677625831814283 0.43996947973686978 0 0.042917567472382623 0.42834317995551963 0 0.044677625831814283 0.43996947973686978 0 0.05217764507713625 0.43556498405841121 0 0.042917567472382623 0.42834317995551963 0 0.055283811842125739 0.42331008397343273 0 0.040884036807953612 0.41433371364516169 0 0.042917567472382623 0.42834317995551963 0 0.042917567472382623 0.42834317995551963 0 0.03619576359543223 0.4219720449641165 0 0.032867398283708008 0.42973987798998159 0 0.03619576359543223 0.4219720449641165 0 0.032867398283708008 0.42973987798998159 0 0.026763802161845759 0.41558858862241632 0 0.036754504434223512 0.43941760096183219 0 0.042917567472382623 0.42834317995551963 0 0.032867398283708008 0.42973987798998159 0 0.036754504434223512 0.43941760096183219 0 0.032867398283708008 0.42973987798998159 0 0.029875993350003301 0.4374471742814286 0 0.032867398283708008 0.42973987798998159 0 0.023732967701774601 0.43398306491354383 0 0.026763802161845759 0.41558858862241632 0 0.018463648595818491 0.43621407614749258 0 0.026763802161845759 0.41558858862241632 0 0.023732967701774601 0.43398306491354383 0 0.018463648595818491 0.43621407614749258 0 0.026763802161845759 0.41558858862241632 0 0.018463648595818491 0.43621407614749258 0 0.026763802161845759 0.41558858862241632 0 0.01058193137125424 0.42098199403715592 0 0.032867398283708008 0.42973987798998159 0 0.029875993350003301 0.4374471742814286 0 0.023732967701774601 0.43398306491354383 0 0.023732967701774601 0.43398306491354383 0 0.018463648595818491 0.43621407614749258 0 0.026763802161845759 0.41558858862241632 0 0.01058193137125424 0.42098199403715592 0 0.013285443315123839 0.40979800641730191 0 0.026763802161845759 0.41558858862241632 0 0.013285443315123839 0.40979800641730191 0 0.021017066798357541 0.40340809801385591 0 0.01058193137125424 0.42098199403715592 0 0.013285443315123839 0.40979800641730191 0 0.0016941141115774749 0.40820952139338279 0 -0.0045322490052715951 0.42213904960798337 0 0.01058193137125424 0.42098199403715592 0 0.0016941141115774749 0.40820952139338279 0 -0.0045322490052715951 0.42213904960798337 0 0.01058193137125424 0.42098199403715592 0 0.0046778973195330479 0.43049481374472531 0 -0.0065096785154871162 0.4334514320172197 0 0.0053858341513508129 0.43968751691377422 0 0.0046778973195330479 0.43049481374472531 0 0.0053858341513508129 0.43968751691377422 0 0.018463648595818491 0.43621407614749258 0 0.0046778973195330479 0.43049481374472531 0 0.018463648595818491 0.43621407614749258 0 0.01058193137125424 0.42098199403715592 0 0.0046778973195330479 0.43049481374472531 0 -0.0046592386712307511 0.38406812442034161 0 0.004340173904461269 0.37532524476536749 0 0.0089550659885869084 0.39328269591836518 0 0.004340173904461269 0.37532524476536749 0 0.0089550659885869084 0.39328269591836518 0 0.023374897433661359 0.38377422417001239 0 0.013285443315123839 0.40979800641730191 0 0.0016941141115774749 0.40820952139338279 0 0.0089550659885869084 0.39328269591836518 0 0.013285443315123839 0.40979800641730191 0 0.0089550659885869084 0.39328269591836518 0 0.021017066798357541 0.40340809801385591 0 0.0089550659885869084 0.39328269591836518 0 0.038080583537526552 0.39179457752201918 0 0.0089550659885869084 0.39328269591836518 0 0.035063955727873672 0.39496310109734029 0 0.038080583537526552 0.39179457752201918 0 0.0089550659885869084 0.39328269591836518 0 0.021017066798357541 0.40340809801385591 0 0.035063955727873672 0.39496310109734029 0 0.026763802161845759 0.41558858862241632 0 0.035063955727873672 0.39496310109734029 0 0.026763802161845759 0.41558858862241632 0 0.021017066798357541 0.40340809801385591 0 0.035063955727873672 0.39496310109734029 0 0.0089550659885869084 0.39328269591836518 0 0.023374897433661359 0.38377422417001239 0 0.038080583537526552 0.39179457752201918 0 0.023374897433661359 0.38377422417001239 0 0.035918118198356587 0.37679040371782713 0 0.028420254264375042 0.36834400531876882 0 0.023374897433661359 0.38377422417001239 0 0.035918118198356587 0.37679040371782713 0 0.036265909408262458 0.38418816012978851 0 0.035918118198356587 0.37679040371782713 0 0.036265909408262458 0.38418816012978851 0 0.04354781886190285 0.38127875159629437 0 0.023374897433661359 0.38377422417001239 0 0.036265909408262458 0.38418816012978851 0 0.038080583537526552 0.39179457752201918 0 0.036265909408262458 0.38418816012978851 0 0.042396459633223242 0.38573357390595769 0 0.038080583537526552 0.39179457752201918 0 0.042396459633223242 0.38573357390595769 0 0.04354781886190285 0.38127875159629437 0 0.050439335638752733 0.38496726959755112 0 0.036265909408262458 0.38418816012978851 0 0.042396459633223242 0.38573357390595769 0 0.04354781886190285 0.38127875159629437 0 0.042396459633223242 0.38573357390595769 0 0.038080583537526552 0.39179457752201918 0 0.050439335638752733 0.38496726959755112 0 0.04354781886190285 0.38127875159629437 0 0.052484395042878329 0.37752982370530808 0 0.043987096155691068 0.37326810013556139 0 0.035918118198356587 0.37679040371782713 0 0.04354781886190285 0.38127875159629437 0 0.043987096155691068 0.37326810013556139 0 0.026763802161845759 0.41558858862241632 0 0.038213886564479431 0.40576158179300631 0 0.035063955727873672 0.39496310109734029 0 0.038080583537526552 0.39179457752201918 0 0.042506688142314508 0.39900340420049413 0 0.053876706529988598 0.39940440250349002 0 0.038213886564479431 0.40576158179300631 0 0.035063955727873672 0.39496310109734029 0 0.042506688142314508 0.39900340420049413 0 0.035063955727873672 0.39496310109734029 0 0.038080583537526552 0.39179457752201918 0 0.042506688142314508 0.39900340420049413 0 0.038213886564479431 0.40576158179300631 0 0.042506688142314508 0.39900340420049413 0 0.045850949982409593 0.4049191013996189 0 0.038080583537526552 0.39179457752201918 0 0.053876706529988598 0.39940440250349002 0 0.067206101086466102 0.3903064591256733 0 0.038080583537526552 0.39179457752201918 0 0.067206101086466102 0.3903064591256733 0 0.054191675884896352 0.40966895180268631 0 0.045850949982409593 0.4049191013996189 0 0.053876706529988598 0.39940440250349002 0 0.042506688142314508 0.39900340420049413 0 0.045850949982409593 0.4049191013996189 0 0.053876706529988598 0.39940440250349002 0 0.054191675884896352 0.40966895180268631 0 0.053876706529988598 0.39940440250349002 0 0.068115331400254914 0.40533303765924561 0 0.038080583537526552 0.39179457752201918 0 0.050439335638752733 0.38496726959755112 0 0.067206101086466102 0.3903064591256733 0 0.050439335638752733 0.38496726959755112 0 0.058920655670519378 0.38316043173005448 0 0.067206101086466102 0.3903064591256733 0 0.04354781886190285 0.38127875159629437 0 0.052484395042878329 0.37752982370530808 0 0.050439335638752733 0.38496726959755112 0 0.052484395042878329 0.37752982370530808 0 0.050439335638752733 0.38496726959755112 0 0.058920655670519378 0.38316043173005448 0 0.052484395042878329 0.37752982370530808 0 0.058920655670519378 0.38316043173005448 0 0.06430059982753196 0.3791326377135078 0 0.06430059982753196 0.3791326377135078 0 0.080920194528108225 0.38646523526278082 0 0.068803121197329162 0.36947598273629062 0 0.06430059982753196 0.3791326377135078 0 0.067206101086466102 0.3903064591256733 0 0.080920194528108225 0.38646523526278082 0 0.058920655670519378 0.38316043173005448 0 0.06430059982753196 0.3791326377135078 0 0.067206101086466102 0.3903064591256733 0 0.080920194528108225 0.38646523526278082 0 0.1004775448978564 0.38313386556750278 0 0.092850166915639923 0.37100513811108238 0 0.080920194528108225 0.38646523526278082 0 0.1004775448978564 0.38313386556750278 0 0.09447135578280276 0.39749342038524949 0 0.080920194528108225 0.38646523526278082 0 0.077142526451723495 0.4041269799346327 0 0.085223238640644572 0.41283672649479258 0 0.080920194528108225 0.38646523526278082 0 0.085223238640644572 0.41283672649479258 0 0.09447135578280276 0.39749342038524949 0 0.080920194528108225 0.38646523526278082 0 0.085223238640644572 0.41283672649479258 0 0.080920194528108225 0.38646523526278082 0 0.077142526451723495 0.4041269799346327 0 0.073824102076452541 0.39702918333743009 0 0.077142526451723495 0.4041269799346327 0 0.073824102076452541 0.39702918333743009 0 0.068115331400254914 0.40533303765924561 0 0.067206101086466102 0.3903064591256733 0 0.080920194528108225 0.38646523526278082 0 0.073824102076452541 0.39702918333743009 0 0.067206101086466102 0.3903064591256733 0 0.073824102076452541 0.39702918333743009 0 0.068115331400254914 0.40533303765924561 0 0.053876706529988598 0.39940440250349002 0 0.067206101086466102 0.3903064591256733 0 0.068115331400254914 0.40533303765924561 0 0.068115331400254914 0.40533303765924561 0 0.063724457881659605 0.41574827176540519 0 0.073805255934642322 0.41520067418413831 0 0.063724457881659605 0.41574827176540519 0 0.073805255934642322 0.41520067418413831 0 0.068445621354352115 0.42520079783734421 0 0.077142526451723495 0.4041269799346327 0 0.068115331400254914 0.40533303765924561 0 0.073805255934642322 0.41520067418413831 0 0.062549935643749374 0.44114849749990931 0 0.062673167969352239 0.43220817619515589 0 0.074908825929397738 0.43581651760668277 0 0.062673167969352239 0.43220817619515589 0 0.068445621354352115 0.42520079783734421 0 0.074908825929397738 0.43581651760668277 0 0.068445621354352115 0.42520079783734421 0 0.074908825929397738 0.43581651760668277 0 0.078522148166622938 0.42606741559390099 0 0.073805255934642322 0.41520067418413831 0 0.068445621354352115 0.42520079783734421 0 0.078522148166622938 0.42606741559390099 0 0.089526282753180919 0.43920821772680441 0 0.085223238640644572 0.41283672649479258 0 0.089526282753180919 0.43920821772680441 0 0.078522148166622938 0.42606741559390099 0 0.085223238640644572 0.41283672649479258 0 0.089526282753180919 0.43920821772680441 0 0.087901110467112437 0.42053231113652489 0 0.085223238640644572 0.41283672649479258 0 0.089526282753180919 0.43920821772680441 0 0.087901110467112437 0.42053231113652489 0 0.095599534635084485 0.42950721054937779 0 0.089526282753180919 0.43920821772680441 0 0.074908825929397738 0.43581651760668277 0 0.078522148166622938 0.42606741559390099 0 0.077142526451723495 0.4041269799346327 0 0.073805255934642322 0.41520067418413831 0 0.085223238640644572 0.41283672649479258 0 0.073805255934642322 0.41520067418413831 0 0.078522148166622938 0.42606741559390099 0 0.085223238640644572 0.41283672649479258 0 0.087901110467112437 0.42053231113652489 0 0.085223238640644572 0.41283672649479258 0 0.1109691610301229 0.40420478236467189 0 0.087901110467112437 0.42053231113652489 0 0.1053582592253111 0.42073692348173408 0 0.1109691610301229 0.40420478236467189 0 0.087901110467112437 0.42053231113652489 0 0.1109691610301229 0.40420478236467189 0 0.1015043949829499 0.437764596234613 0 0.1053582592253111 0.42073692348173408 0 0.095599534635084485 0.42950721054937779 0 0.087901110467112437 0.42053231113652489 0 0.1053582592253111 0.42073692348173408 0 0.095599534635084485 0.42950721054937779 0 0.1015043949829499 0.437764596234613 0 0.089526282753180919 0.43920821772680441 0 0.095599534635084485 0.42950721054937779 0 0.1015043949829499 0.437764596234613 0 0.1053582592253111 0.42073692348173408 0 0.12637243707708509 0.42832167071525762 0 0.1015043949829499 0.437764596234613 0 0.12637243707708509 0.42832167071525762 0 0.1109691610301229 0.40420478236467189 0 0.13313107468670221 0.40865402693005098 0 0.12637243707708509 0.42832167071525762 0 0.1053582592253111 0.42073692348173408 0 0.1109691610301229 0.40420478236467189 0 0.12637243707708509 0.42832167071525762 0 0.1109691610301229 0.40420478236467189 0 0.11686128871008319 0.38085285868847701 0 0.1340372115931335 0.38787725359281888 0 0.1109691610301229 0.40420478236467189 0 0.1340372115931335 0.38787725359281888 0 0.1109691610301229 0.40420478236467189 0 0.11686128871008319 0.38085285868847701 0 0.1004775448978564 0.38313386556750278 0 0.11686128871008319 0.38085285868847701 0 0.1004775448978564 0.38313386556750278 0 0.1075284327816998 0.36416898872765291 0 0.1109691610301229 0.40420478236467189 0 0.1004775448978564 0.38313386556750278 0 0.09447135578280276 0.39749342038524949 0 0.085223238640644572 0.41283672649479258 0 0.1109691610301229 0.40420478236467189 0 0.09447135578280276 0.39749342038524949 0 0.1093095874571313 0.35175375257417901 0 0.099448946948292052 0.35129971295651069 0 0.1075284327816998 0.36416898872765291 0 0.1093095874571313 0.35175375257417901 0 0.099448946948292052 0.35129971295651069 0 0.1061712292754603 0.33934589356559319 0 0.099448946948292052 0.35129971295651069 0 0.093516025515997414 0.34163569809186312 0 0.088593524397497903 0.34905899780179622 0 0.099448946948292052 0.35129971295651069 0 0.1061712292754603 0.33934589356559319 0 0.093516025515997414 0.34163569809186312 0 0.099448946948292052 0.35129971295651069 0 0.1075284327816998 0.36416898872765291 0 0.092615450545215944 0.35930163906108259 0 0.1004775448978564 0.38313386556750278 0 0.1075284327816998 0.36416898872765291 0 0.092850166915639923 0.37100513811108238 0 0.1075284327816998 0.36416898872765291 0 0.092615450545215944 0.35930163906108259 0 0.092850166915639923 0.37100513811108238 0 0.11686128871008319 0.38085285868847701 0 0.1075284327816998 0.36416898872765291 0 0.13129409324760349 0.36487940318973833 0 0.1075284327816998 0.36416898872765291 0 0.1206757332302552 0.35310459368013009 0 0.13129409324760349 0.36487940318973833 0 0.1093095874571313 0.35175375257417901 0 0.1075284327816998 0.36416898872765291 0 0.1206757332302552 0.35310459368013009 0 0.1093095874571313 0.35175375257417901 0 0.1206757332302552 0.35310459368013009 0 0.11968572573704819 0.34082259920106911 0 0.1093095874571313 0.35175375257417901 0 0.11968572573704819 0.34082259920106911 0 0.1061712292754603 0.33934589356559319 0 0.1206757332302552 0.35310459368013009 0 0.11968572573704819 0.34082259920106911 0 0.13301313875331891 0.34503603543703698 0 0.11968572573704819 0.34082259920106911 0 0.11853786748341399 0.32797800483923822 0 0.13095279113552891 0.3310564366932307 0 0.11853786748341399 0.32797800483923822 0 0.10668627298053129 0.32714240201028638 0 0.1061712292754603 0.33934589356559319 0 0.11968572573704819 0.34082259920106911 0 0.11853786748341399 0.32797800483923822 0 0.1061712292754603 0.33934589356559319 0 0.11853786748341399 0.32797800483923822 0 0.1160065679323484 0.31379325908782679 0 0.13327250895134671 0.31780571094325127 0 0.11853786748341399 0.32797800483923822 0 0.1160065679323484 0.31379325908782679 0 0.10668627298053129 0.32714240201028638 0 0.1160065679323484 0.31379325908782679 0 0.1004326694849827 0.31889892764789018 0 0.1021973816078494 0.30871092209096512 0 0.1160065679323484 0.31379325908782679 0 0.10668627298053129 0.32714240201028638 0 0.1004326694849827 0.31889892764789018 0 0.10668627298053129 0.32714240201028638 0 0.1004326694849827 0.31889892764789018 0 0.096877867774217252 0.33058525650857978 0 0.1004326694849827 0.31889892764789018 0 0.096877867774217252 0.33058525650857978 0 0.089544180242856528 0.31782795724637508 0 0.1004326694849827 0.31889892764789018 0 0.089544180242856528 0.31782795724637508 0 0.1021973816078494 0.30871092209096512 0 0.10668627298053129 0.32714240201028638 0 0.1061712292754603 0.33934589356559319 0 0.096877867774217252 0.33058525650857978 0 0.1061712292754603 0.33934589356559319 0 0.096877867774217252 0.33058525650857978 0 0.093516025515997414 0.34163569809186312 0 0.093516025515997414 0.34163569809186312 0 0.08035565020034037 0.33783442522309642 0 0.088593524397497903 0.34905899780179622 0 0.093516025515997414 0.34163569809186312 0 0.085949114386406705 0.331104779340545 0 0.08035565020034037 0.33783442522309642 0 0.096877867774217252 0.33058525650857978 0 0.093516025515997414 0.34163569809186312 0 0.085949114386406705 0.331104779340545 0 0.085949114386406705 0.331104779340545 0 0.08035565020034037 0.33783442522309642 0 0.07231410630303553 0.33372225279875728 0 0.085949114386406705 0.331104779340545 0 0.078991912474107792 0.31994178821270858 0 0.07231410630303553 0.33372225279875728 0 0.096877867774217252 0.33058525650857978 0 0.085949114386406705 0.331104779340545 0 0.089544180242856528 0.31782795724637508 0 0.085949114386406705 0.331104779340545 0 0.089544180242856528 0.31782795724637508 0 0.078991912474107792 0.31994178821270858 0 0.089544180242856528 0.31782795724637508 0 0.078991912474107792 0.31994178821270858 0 0.07835549809179071 0.30936759737677327 0 0.07231410630303553 0.33372225279875728 0 0.068011062190499183 0.30735076156674551 0 0.078991912474107792 0.31994178821270858 0 0.07231410630303553 0.33372225279875728 0 0.068011062190499183 0.30735076156674551 0 0.07231410630303553 0.33372225279875728 0 0.0553746910379289 0.32113956497626672 0 0.068011062190499183 0.30735076156674551 0 0.07231410630303553 0.33372225279875728 0 0.062714906162008616 0.34217314636719748 0 0.0553746910379289 0.32113956497626672 0 0.08035565020034037 0.33783442522309642 0 0.07231410630303553 0.33372225279875728 0 0.081189316113196783 0.34682783344498452 0 0.062714906162008616 0.34217314636719748 0 0.070055121286088332 0.36320672775812818 0 0.062567221349147203 0.35975377468517622 0 0.07231410630303553 0.33372225279875728 0 0.076617150415571877 0.36009374403076899 0 0.062714906162008616 0.34217314636719748 0 0.076617150415571877 0.36009374403076899 0 0.070055121286088332 0.36320672775812818 0 0.062714906162008616 0.34217314636719748 0 0.070055121286088332 0.36320672775812818 0 0.07231410630303553 0.33372225279875728 0 0.062714906162008616 0.34217314636719748 0 0.076617150415571877 0.36009374403076899 0 0.07231410630303553 0.33372225279875728 0 0.081189316113196783 0.34682783344498452 0 0.076617150415571877 0.36009374403076899 0 0.08035565020034037 0.33783442522309642 0 0.081189316113196783 0.34682783344498452 0 0.088593524397497903 0.34905899780179622 0 0.081189316113196783 0.34682783344498452 0 0.084869327179965856 0.35639913306786569 0 0.088593524397497903 0.34905899780179622 0 0.081189316113196783 0.34682783344498452 0 0.084869327179965856 0.35639913306786569 0 0.076617150415571877 0.36009374403076899 0 0.099448946948292052 0.35129971295651069 0 0.092615450545215944 0.35930163906108259 0 0.088593524397497903 0.34905899780179622 0 0.084869327179965856 0.35639913306786569 0 0.092615450545215944 0.35930163906108259 0 0.088593524397497903 0.34905899780179622 0 0.080920194528108225 0.38646523526278082 0 0.076617150415571877 0.36009374403076899 0 0.080920194528108225 0.38646523526278082 0 0.085165672466742573 0.36633566810531731 0 0.076617150415571877 0.36009374403076899 0 0.080920194528108225 0.38646523526278082 0 0.092850166915639923 0.37100513811108238 0 0.085165672466742573 0.36633566810531731 0 0.092615450545215944 0.35930163906108259 0 0.092850166915639923 0.37100513811108238 0 0.085165672466742573 0.36633566810531731 0 0.084869327179965856 0.35639913306786569 0 0.092615450545215944 0.35930163906108259 0 0.085165672466742573 0.36633566810531731 0 0.084869327179965856 0.35639913306786569 0 0.085165672466742573 0.36633566810531731 0 0.076617150415571877 0.36009374403076899 0 0.080920194528108225 0.38646523526278082 0 0.076617150415571877 0.36009374403076899 0 0.068803121197329162 0.36947598273629062 0 0.076617150415571877 0.36009374403076899 0 0.070055121286088332 0.36320672775812818 0 0.068803121197329162 0.36947598273629062 0 0.070055121286088332 0.36320672775812818 0 0.062567221349147203 0.35975377468517622 0 0.068803121197329162 0.36947598273629062 0 0.062567221349147203 0.35975377468517622 0 0.068803121197329162 0.36947598273629062 0 0.05835843977752745 0.36820377696738188 0 0.06430059982753196 0.3791326377135078 0 0.068803121197329162 0.36947598273629062 0 0.05835843977752745 0.36820377696738188 0 0.052484395042878329 0.37752982370530808 0 0.06430059982753196 0.3791326377135078 0 0.05835843977752745 0.36820377696738188 0 0.062567221349147203 0.35975377468517622 0 0.05835843977752745 0.36820377696738188 0 0.055449939982909993 0.35588804804502799 0 0.05835843977752745 0.36820377696738188 0 0.049033058710321507 0.36661053224480872 0 0.055449939982909993 0.35588804804502799 0 0.052484395042878329 0.37752982370530808 0 0.05835843977752745 0.36820377696738188 0 0.049033058710321507 0.36661053224480872 0 0.052484395042878329 0.37752982370530808 0 0.049033058710321507 0.36661053224480872 0 0.043987096155691068 0.37326810013556139 0 0.062714906162008616 0.34217314636719748 0 0.062567221349147203 0.35975377468517622 0 0.055449939982909993 0.35588804804502799 0 0.062714906162008616 0.34217314636719748 0 0.055449939982909993 0.35588804804502799 0 0.051571172517391857 0.34568844117578978 0 0.055449939982909993 0.35588804804502799 0 0.051571172517391857 0.34568844117578978 0 0.044730497875880119 0.3532976680339448 0 0.049033058710321507 0.36661053224480872 0 0.055449939982909993 0.35588804804502799 0 0.044730497875880119 0.3532976680339448 0 0.044730497875880119 0.3532976680339448 0 0.038952089964996051 0.36413098941356858 0 0.02853998983550567 0.35351467955004051 0 0.044730497875880119 0.3532976680339448 0 0.02853998983550567 0.35351467955004051 0 0.039915191372584008 0.34021933489219153 0 0.051571172517391857 0.34568844117578978 0 0.044730497875880119 0.3532976680339448 0 0.039915191372584008 0.34021933489219153 0 0.035918118198356587 0.37679040371782713 0 0.043987096155691068 0.37326810013556139 0 0.038952089964996051 0.36413098941356858 0 0.049033058710321507 0.36661053224480872 0 0.043987096155691068 0.37326810013556139 0 0.038952089964996051 0.36413098941356858 0 0.049033058710321507 0.36661053224480872 0 0.044730497875880119 0.3532976680339448 0 0.038952089964996051 0.36413098941356858 0 0.038952089964996051 0.36413098941356858 0 0.028420254264375042 0.36834400531876882 0 0.02853998983550567 0.35351467955004051 0 0.035918118198356587 0.37679040371782713 0 0.038952089964996051 0.36413098941356858 0 0.028420254264375042 0.36834400531876882 0 0.023374897433661359 0.38377422417001239 0 0.028420254264375042 0.36834400531876882 0 0.015316175889355519 0.36350972974239532 0 0.028420254264375042 0.36834400531876882 0 0.02853998983550567 0.35351467955004051 0 0.015316175889355519 0.36350972974239532 0 0.02853998983550567 0.35351467955004051 0 0.022689383087542599 0.33970973187949788 0 0.039915191372584008 0.34021933489219153 0 0.02853998983550567 0.35351467955004051 0 0.01211316254345729 0.34918974815322168 0 0.015316175889355519 0.36350972974239532 0 0.02853998983550567 0.35351467955004051 0 0.01211316254345729 0.34918974815322168 0 0.022689383087542599 0.33970973187949788 0 -0.003353034474883573 0.35101667105113399 0 0.01211316254345729 0.34918974815322168 0 0.015316175889355519 0.36350972974239532 0 -0.003353034474883573 0.35101667105113399 0 0.004340173904461269 0.37532524476536749 0 0.015316175889355519 0.36350972974239532 0 0.004340173904461269 0.37532524476536749 0 0.023374897433661359 0.38377422417001239 0 0.015316175889355519 0.36350972974239532 0 0.0050556740678513118 0.32913959941934551 0 0.022740013778092621 0.31517735778631012 0 0.0134643826105862 0.30726252778755708 0 0.0027817502058227121 0.31571106157761608 0 0.0050556740678513118 0.32913959941934551 0 0.0134643826105862 0.30726252778755708 0 0.0050556740678513118 0.32913959941934551 0 0.0134643826105862 0.30726252778755708 0 0.01211316254345729 0.34918974815322168 0 0.0050556740678513118 0.32913959941934551 0 0.022689383087542599 0.33970973187949788 0 -0.003353034474883573 0.35101667105113399 0 0.01211316254345729 0.34918974815322168 0 0.0050556740678513118 0.32913959941934551 0 -0.003353034474883573 0.35101667105113399 0 0.0050556740678513118 0.32913959941934551 0 0.022689383087542599 0.33970973187949788 0 0.02782289761831469 0.32648529738269078 0 0.039915191372584008 0.34021933489219153 0 0.0050556740678513118 0.32913959941934551 0 0.022689383087542599 0.33970973187949788 0 0.02782289761831469 0.32648529738269078 0 0.0050556740678513118 0.32913959941934551 0 0.02782289761831469 0.32648529738269078 0 0.022740013778092621 0.31517735778631012 0 0.02782289761831469 0.32648529738269078 0 0.022740013778092621 0.31517735778631012 0 0.035708474969673519 0.31289593786747788 0 0.035708474969673519 0.31289593786747788 0 0.041926348794794642 0.32714861858184929 0 0.0553746910379289 0.32113956497626672 0 0.02782289761831469 0.32648529738269078 0 0.035708474969673519 0.31289593786747788 0 0.041926348794794642 0.32714861858184929 0 0.02782289761831469 0.32648529738269078 0 0.041926348794794642 0.32714861858184929 0 0.039915191372584008 0.34021933489219153 0 0.041926348794794642 0.32714861858184929 0 0.039915191372584008 0.34021933489219153 0 0.050810488975472037 0.33500295779061962 0 0.062714906162008616 0.34217314636719748 0 0.050810488975472037 0.33500295779061962 0 0.0553746910379289 0.32113956497626672 0 0.062714906162008616 0.34217314636719748 0 0.0553746910379289 0.32113956497626672 0 0.051571172517391857 0.34568844117578978 0 0.039915191372584008 0.34021933489219153 0 0.050810488975472037 0.33500295779061962 0 0.062714906162008616 0.34217314636719748 0 0.051571172517391857 0.34568844117578978 0 0.050810488975472037 0.33500295779061962 0 0.041926348794794642 0.32714861858184929 0 0.050810488975472037 0.33500295779061962 0 0.0553746910379289 0.32113956497626672 0 0.048034475913848879 0.30010598358533608 0 0.073329377456643724 0.29727128403595532 0 0.0553746910379289 0.32113956497626672 0 0.048034475913848879 0.30010598358533608 0 0.0553746910379289 0.32113956497626672 0 0.048034475913848879 0.30010598358533608 0 0.068011062190499183 0.30735076156674551 0 0.048034475913848879 0.30010598358533608 0 0.057856309135681142 0.28463665954384848 0 0.073329377456643724 0.29727128403595532 0 0.048034475913848879 0.30010598358533608 0 0.057856309135681142 0.28463665954384848 0 0.042819229314837878 0.28516155594121673 0 0.048034475913848879 0.30010598358533608 0 0.042819229314837878 0.28516155594121673 0 0.032190272247397303 0.2930318050765412 0 0.048034475913848879 0.30010598358533608 0 0.042819229314837878 0.28516155594121673 0 0.042819229314837878 0.28516155594121673 0 0.032190272247397303 0.2930318050765412 0 0.029718620112660118 0.28363038720236811 0 0.042819229314837878 0.28516155594121673 0 0.029718620112660118 0.28363038720236811 0 0.033804386655137068 0.27636062595237743 0 0.035708474969673519 0.31289593786747788 0 0.048034475913848879 0.30010598358533608 0 0.020495919851050801 0.30319212062088952 0 0.048034475913848879 0.30010598358533608 0 0.020495919851050801 0.30319212062088952 0 0.035708474969673519 0.31289593786747788 0 0.0553746910379289 0.32113956497626672 0 0.048034475913848879 0.30010598358533608 0 0.048034475913848879 0.30010598358533608 0 0.032190272247397303 0.2930318050765412 0 0.020495919851050801 0.30319212062088952 0 0.022740013778092621 0.31517735778631012 0 0.035708474969673519 0.31289593786747788 0 0.020495919851050801 0.30319212062088952 0 0.022740013778092621 0.31517735778631012 0 0.020495919851050801 0.30319212062088952 0 0.0134643826105862 0.30726252778755708 0 0.020495919851050801 0.30319212062088952 0 0.020437749088471392 0.29190383236180117 0 0.0085398575381979199 0.29643002228602178 0 0.032190272247397303 0.2930318050765412 0 0.029718620112660118 0.28363038720236811 0 0.020437749088471392 0.29190383236180117 0 0.032190272247397303 0.2930318050765412 0 0.020495919851050801 0.30319212062088952 0 0.020437749088471392 0.29190383236180117 0 0.029718620112660118 0.28363038720236811 0 0.020437749088471392 0.29190383236180117 0 0.020609141881252221 0.28011518643373678 0 0.020437749088471392 0.29190383236180117 0 0.009339036332343259 0.28753891841412482 0 0.020609141881252221 0.28011518643373678 0 0.020437749088471392 0.29190383236180117 0 0.0085398575381979199 0.29643002228602178 0 0.009339036332343259 0.28753891841412482 0 0.009339036332343259 0.28753891841412482 0 0.0082258406708304622 0.27655853066215441 0 0.020609141881252221 0.28011518643373678 0 -0.0043755329488266211 0.28197219357938841 0 0.009339036332343259 0.28753891841412482 0 0.0082258406708304622 0.27655853066215441 0 -0.00053078136912822172 0.29323698237685231 0 -0.0043755329488266211 0.28197219357938841 0 0.009339036332343259 0.28753891841412482 0 -0.00053078136912822172 0.29323698237685231 0 0.0085398575381979199 0.29643002228602178 0 0.009339036332343259 0.28753891841412482 0 -0.0070426362117476243 0.30627825765644129 0 -0.00053078136912822172 0.29323698237685231 0 0.0085398575381979199 0.29643002228602178 0 -0.0070426362117476243 0.30627825765644129 0 0.020495919851050801 0.30319212062088952 0 0.0134643826105862 0.30726252778755708 0 -0.0070426362117476243 0.30627825765644129 0 0.020495919851050801 0.30319212062088952 0 -0.0070426362117476243 0.30627825765644129 0 0.0027817502058227121 0.31571106157761608 0 0.0134643826105862 0.30726252778755708 0 -0.0070426362117476243 0.30627825765644129 0 0.020495919851050801 0.30319212062088952 0 0.0085398575381979199 0.29643002228602178 0 0.009312599233707905 0.24404109572130439 0 0.013389461377836059 0.25243481734571738 0 0.0013968678610932379 0.25402272509214019 0 0.0091961128527961265 0.2632701857072689 0 0.013389461377836059 0.25243481734571738 0 0.0013968678610932379 0.25402272509214019 0 -0.0028270096312297622 0.27028594766949049 0 0.0091961128527961265 0.2632701857072689 0 0.0082258406708304622 0.27655853066215441 0 -0.0028270096312297622 0.27028594766949049 0 -0.0043755329488266211 0.28197219357938841 0 0.0082258406708304622 0.27655853066215441 0 0.0082258406708304622 0.27655853066215441 0 0.015410932395507679 0.27254801086809788 0 0.020609141881252221 0.28011518643373678 0 0.0091961128527961265 0.2632701857072689 0 0.0082258406708304622 0.27655853066215441 0 0.015410932395507679 0.27254801086809788 0 0.0091961128527961265 0.2632701857072689 0 0.015410932395507679 0.27254801086809788 0 0.023612634177151929 0.27024814066923147 0 0.0091961128527961265 0.2632701857072689 0 0.023612634177151929 0.27024814066923147 0 0.035387721514425562 0.26386195372005677 0 0.015410932395507679 0.27254801086809788 0 0.020609141881252221 0.28011518643373678 0 0.023612634177151929 0.27024814066923147 0 0.020609141881252221 0.28011518643373678 0 0.027969720175493259 0.276268771051489 0 0.023612634177151929 0.27024814066923147 0 0.029718620112660118 0.28363038720236811 0 0.020609141881252221 0.28011518643373678 0 0.027969720175493259 0.276268771051489 0 0.029718620112660118 0.28363038720236811 0 0.027969720175493259 0.276268771051489 0 0.033804386655137068 0.27636062595237743 0 0.027969720175493259 0.276268771051489 0 0.023612634177151929 0.27024814066923147 0 0.032103818051264991 0.2709895149997314 0 0.023612634177151929 0.27024814066923147 0 0.035387721514425562 0.26386195372005677 0 0.032103818051264991 0.2709895149997314 0 0.013389461377836059 0.25243481734571738 0 0.037788142842462319 0.26101833332846502 0 0.013389461377836059 0.25243481734571738 0 0.035387721514425562 0.26386195372005677 0 0.037788142842462319 0.26101833332846502 0 0.013389461377836059 0.25243481734571738 0 0.030532060240475941 0.25156469816248078 0 0.037788142842462319 0.26101833332846502 0 0.02276421990113224 0.24638130569216371 0 0.013389461377836059 0.25243481734571738 0 0.030532060240475941 0.25156469816248078 0 0.0091961128527961265 0.2632701857072689 0 0.035387721514425562 0.26386195372005677 0 0.0091961128527961265 0.2632701857072689 0 0.013389461377836059 0.25243481734571738 0 0.035387721514425562 0.26386195372005677 0 0.030532060240475941 0.25156469816248078 0 0.038568233832345943 0.25334849326819803 0 0.037788142842462319 0.26101833332846502 0 0.03655137256399639 0.24660990211337741 0 0.030532060240475941 0.25156469816248078 0 0.038568233832345943 0.25334849326819803 0 0.035387721514425562 0.26386195372005677 0 0.037788142842462319 0.26101833332846502 0 0.039489071040550737 0.27073113842246371 0 0.037788142842462319 0.26101833332846502 0 0.043269017456093427 0.25562876004231622 0 0.051974669880021758 0.25870858247353978 0 0.044745023269543688 0.24943963109906189 0 0.043269017456093427 0.25562876004231622 0 0.051974669880021758 0.25870858247353978 0 0.044745023269543688 0.24943963109906189 0 0.038568233832345943 0.25334849326819803 0 0.043269017456093427 0.25562876004231622 0 0.038568233832345943 0.25334849326819803 0 0.037788142842462319 0.26101833332846502 0 0.043269017456093427 0.25562876004231622 0 0.042819229314837878 0.28516155594121673 0 0.033804386655137068 0.27636062595237743 0 0.039489071040550737 0.27073113842246371 0 0.027969720175493259 0.276268771051489 0 0.033804386655137068 0.27636062595237743 0 0.032103818051264991 0.2709895149997314 0 0.033804386655137068 0.27636062595237743 0 0.032103818051264991 0.2709895149997314 0 0.039489071040550737 0.27073113842246371 0 0.035387721514425562 0.26386195372005677 0 0.032103818051264991 0.2709895149997314 0 0.039489071040550737 0.27073113842246371 0 0.037788142842462319 0.26101833332846502 0 0.039489071040550737 0.27073113842246371 0 0.04777197257136101 0.27278604744683349 0 0.042819229314837878 0.28516155594121673 0 0.039489071040550737 0.27073113842246371 0 0.04777197257136101 0.27278604744683349 0 0.037788142842462319 0.26101833332846502 0 0.04777197257136101 0.27278604744683349 0 0.062186824307088613 0.26960184931121273 0 0.057856309135681142 0.28463665954384848 0 0.042819229314837878 0.28516155594121673 0 0.04777197257136101 0.27278604744683349 0 0.057856309135681142 0.28463665954384848 0 0.04777197257136101 0.27278604744683349 0 0.062186824307088613 0.26960184931121273 0 0.037788142842462319 0.26101833332846502 0 0.062186824307088613 0.26960184931121273 0 0.05606680537807171 0.24357561070627001 0 0.051974669880021758 0.25870858247353978 0 0.068291763036194997 0.25330529894196557 0 0.062186824307088613 0.26960184931121273 0 0.051974669880021758 0.25870858247353978 0 0.068291763036194997 0.25330529894196557 0 0.037788142842462319 0.26101833332846502 0 0.062186824307088613 0.26960184931121273 0 0.051974669880021758 0.25870858247353978 0 0.05606680537807171 0.24357561070627001 0 0.044745023269543688 0.24943963109906189 0 0.051974669880021758 0.25870858247353978 0 0.062186824307088613 0.26960184931121273 0 0.068291763036194997 0.25330529894196557 0 0.085415694092067757 0.25758338042960732 0 0.085415694092067757 0.25758338042960732 0 0.086585505771714893 0.27818536529396032 0 0.10103780266583109 0.27012913035362052 0 0.062186824307088613 0.26960184931121273 0 0.086585505771714893 0.27818536529396032 0 0.072595118741502943 0.28390978009220702 0 0.062186824307088613 0.26960184931121273 0 0.086585505771714893 0.27818536529396032 0 0.062186824307088613 0.26960184931121273 0 0.085415694092067757 0.25758338042960732 0 0.086585505771714893 0.27818536529396032 0 0.057856309135681142 0.28463665954384848 0 0.062186824307088613 0.26960184931121273 0 0.072595118741502943 0.28390978009220702 0 0.057856309135681142 0.28463665954384848 0 0.072595118741502943 0.28390978009220702 0 0.073329377456643724 0.29727128403595532 0 0.072595118741502943 0.28390978009220702 0 0.073329377456643724 0.29727128403595532 0 0.082783570242324994 0.28845075347717392 0 0.048034475913848879 0.30010598358533608 0 0.068011062190499183 0.30735076156674551 0 0.073329377456643724 0.29727128403595532 0 0.068011062190499183 0.30735076156674551 0 0.073329377456643724 0.29727128403595532 0 0.07835549809179071 0.30936759737677327 0 0.078991912474107792 0.31994178821270858 0 0.068011062190499183 0.30735076156674551 0 0.07835549809179071 0.30936759737677327 0 0.073329377456643724 0.29727128403595532 0 0.088410143279715761 0.30552286904732839 0 0.098624278999438389 0.29443658448657289 0 0.089544180242856528 0.31782795724637508 0 0.07835549809179071 0.30936759737677327 0 0.088410143279715761 0.30552286904732839 0 0.073329377456643724 0.29727128403595532 0 0.07835549809179071 0.30936759737677327 0 0.088410143279715761 0.30552286904732839 0 0.089544180242856528 0.31782795724637508 0 0.088410143279715761 0.30552286904732839 0 0.1021973816078494 0.30871092209096512 0 0.073329377456643724 0.29727128403595532 0 0.098624278999438389 0.29443658448657289 0 0.086585505771714893 0.27818536529396032 0 0.082783570242324994 0.28845075347717392 0 0.098624278999438389 0.29443658448657289 0 0.073329377456643724 0.29727128403595532 0 0.082783570242324994 0.28845075347717392 0 0.098624278999438389 0.29443658448657289 0 0.086585505771714893 0.27818536529396032 0 0.072595118741502943 0.28390978009220702 0 0.082783570242324994 0.28845075347717392 0 0.086585505771714893 0.27818536529396032 0 0.11098418723634119 0.28676888127670802 0 0.086585505771714893 0.27818536529396032 0 0.098624278999438389 0.29443658448657289 0 0.11098418723634119 0.28676888127670802 0 0.098624278999438389 0.29443658448657289 0 0.108936911682014 0.29943953421276792 0 0.11098418723634119 0.28676888127670802 0 0.088410143279715761 0.30552286904732839 0 0.098624278999438389 0.29443658448657289 0 0.1021973816078494 0.30871092209096512 0 0.098624278999438389 0.29443658448657289 0 0.108936911682014 0.29943953421276792 0 0.1021973816078494 0.30871092209096512 0 0.1160065679323484 0.31379325908782679 0 0.108936911682014 0.29943953421276792 0 0.1021973816078494 0.30871092209096512 0 0.1160065679323484 0.31379325908782679 0 0.108936911682014 0.29943953421276792 0 0.1202380412649306 0.30014446082461371 0 0.1160065679323484 0.31379325908782679 0 0.1202380412649306 0.30014446082461371 0 0.13105151069117951 0.30602701441798208 0 0.1202380412649306 0.30014446082461371 0 0.11098418723634119 0.28676888127670802 0 0.1353828687009675 0.29535239725945561 0 0.11098418723634119 0.28676888127670802 0 0.1353828687009675 0.29535239725945561 0 0.11098418723634119 0.28676888127670802 0 0.12557397759394731 0.2809338209176937 0 0.1353828687009675 0.29535239725945561 0 0.108936911682014 0.29943953421276792 0 0.1202380412649306 0.30014446082461371 0 0.11098418723634119 0.28676888127670802 0 0.1146123413007263 0.27109361487978728 0 0.13005454618069401 0.26980034540649672 0 0.12557397759394731 0.2809338209176937 0 0.11098418723634119 0.28676888127670802 0 0.1146123413007263 0.27109361487978728 0 0.12557397759394731 0.2809338209176937 0 0.1146123413007263 0.27109361487978728 0 0.12343781925255951 0.2597904129548132 0 0.13005454618069401 0.26980034540649672 0 0.1146123413007263 0.27109361487978728 0 0.12343781925255951 0.2597904129548132 0 0.1075912849283055 0.25701440988803942 0 0.1205808241545786 0.24661975241566669 0 0.12343781925255951 0.2597904129548132 0 0.1075912849283055 0.25701440988803942 0 0.085415694092067757 0.25758338042960732 0 0.1075912849283055 0.25701440988803942 0 0.10103780266583109 0.27012913035362052 0 0.1029152892405529 0.23835334100434241 0 0.085415694092067757 0.25758338042960732 0 0.1075912849283055 0.25701440988803942 0 0.11098418723634119 0.28676888127670802 0 0.1146123413007263 0.27109361487978728 0 0.10103780266583109 0.27012913035362052 0 0.086585505771714893 0.27818536529396032 0 0.11098418723634119 0.28676888127670802 0 0.10103780266583109 0.27012913035362052 0 0.1146123413007263 0.27109361487978728 0 0.1075912849283055 0.25701440988803942 0 0.10103780266583109 0.27012913035362052 0 0.1505727630334667 0.26882422237984888 0 0.13683594455100739 0.28165386576602081 0 0.14854958083370809 0.28555456353699421 0 0.14941813094186671 0.24467380843777731 0 0.1505727630334667 0.26882422237984888 0 0.13554901525109189 0.2541709038296896 0 0.14941813094186671 0.24467380843777731 0 0.1505727630334667 0.26882422237984888 0 0.1645791295241763 0.25255829741004221 0 0.12343781925255951 0.2597904129548132 0 0.13554901525109189 0.2541709038296896 0 0.13005454618069401 0.26980034540649672 0 0.1505727630334667 0.26882422237984888 0 0.13554901525109189 0.2541709038296896 0 0.13005454618069401 0.26980034540649672 0 0.1205808241545786 0.24661975241566669 0 0.12343781925255951 0.2597904129548132 0 0.13554901525109189 0.2541709038296896 0 0.1505727630334667 0.26882422237984888 0 0.13005454618069401 0.26980034540649672 0 0.13683594455100739 0.28165386576602081 0 0.13005454618069401 0.26980034540649672 0 0.12557397759394731 0.2809338209176937 0 0.13683594455100739 0.28165386576602081 0 0.12557397759394731 0.2809338209176937 0 0.1353828687009675 0.29535239725945561 0 0.13683594455100739 0.28165386576602081 0 0.1353828687009675 0.29535239725945561 0 0.13683594455100739 0.28165386576602081 0 0.14854958083370809 0.28555456353699421 0 0.1353828687009675 0.29535239725945561 0 0.13105151069117951 0.30602701441798208 0 0.1486927487918954 0.30196612522304972 0 0.1202380412649306 0.30014446082461371 0 0.1353828687009675 0.29535239725945561 0 0.13105151069117951 0.30602701441798208 0 0.13105151069117951 0.30602701441798208 0 0.1486927487918954 0.30196612522304972 0 0.14497846140960691 0.31399362939551451 0 0.1486927487918954 0.30196612522304972 0 0.15772751530687651 0.31709970727918813 0 0.14497846140960691 0.31399362939551451 0 0.1353828687009675 0.29535239725945561 0 0.1486927487918954 0.30196612522304972 0 0.14854958083370809 0.28555456353699421 0 0.1486927487918954 0.30196612522304972 0 0.14854958083370809 0.28555456353699421 0 0.17203832099426131 0.28609184575532609 0 0.1486927487918954 0.30196612522304972 0 0.17203832099426131 0.28609184575532609 0 0.1486927487918954 0.30196612522304972 0 0.16717265092239239 0.30611485630411539 0 0.15772751530687651 0.31709970727918813 0 0.1486927487918954 0.30196612522304972 0 0.16717265092239239 0.30611485630411539 0 0.17203832099426131 0.28609184575532609 0 0.16717265092239239 0.30611485630411539 0 0.18295654400844691 0.3027425344733754 0 0.174448125510482 0.32267406878963778 0 0.16717265092239239 0.30611485630411539 0 0.18295654400844691 0.3027425344733754 0 0.17203832099426131 0.28609184575532609 0 0.18295654400844691 0.3027425344733754 0 0.17203832099426131 0.28609184575532609 0 0.18953798715903331 0.2867240303498883 0 0.17203832099426131 0.28609184575532609 0 0.17544452670183669 0.26599742670443011 0 0.19538389319662799 0.27021756628760379 0 0.17203832099426131 0.28609184575532609 0 0.19538389319662799 0.27021756628760379 0 0.18953798715903331 0.2867240303498883 0 0.17203832099426131 0.28609184575532609 0 0.19538389319662799 0.27021756628760379 0 0.1505727630334667 0.26882422237984888 0 0.14854958083370809 0.28555456353699421 0 0.17203832099426131 0.28609184575532609 0 0.1505727630334667 0.26882422237984888 0 0.17203832099426131 0.28609184575532609 0 0.17544452670183669 0.26599742670443011 0 0.1505727630334667 0.26882422237984888 0 0.17544452670183669 0.26599742670443011 0 0.1645791295241763 0.25255829741004221 0 0.18550809091682491 0.24827420494296279 0 0.17544452670183669 0.26599742670443011 0 0.19538389319662799 0.27021756628760379 0 0.18550809091682491 0.24827420494296279 0 0.17544452670183669 0.26599742670443011 0 0.1645791295241763 0.25255829741004221 0 0.18550809091682491 0.24827420494296279 0 0.19538389319662799 0.27021756628760379 0 0.18550809091682491 0.24827420494296279 0 0.19538389319662799 0.27021756628760379 0 0.21839258869488601 0.25457235273870971 0 0.2131271123110007 0.28109553153265682 0 0.20510077359108569 0.26522153081136629 0 0.23298377630904571 0.27542484427162728 0 0.19538389319662799 0.27021756628760379 0 0.2131271123110007 0.28109553153265682 0 0.20510077359108569 0.26522153081136629 0 0.19538389319662799 0.27021756628760379 0 0.20510077359108569 0.26522153081136629 0 0.21839258869488601 0.25457235273870971 0 0.19538389319662799 0.27021756628760379 0 0.21839258869488601 0.25457235273870971 0 0.21839258869488601 0.25457235273870971 0 0.23298377630904571 0.27542484427162728 0 0.24142358919607121 0.25808606837721387 0 0.20510077359108569 0.26522153081136629 0 0.21839258869488601 0.25457235273870971 0 0.23298377630904571 0.27542484427162728 0 0.24140128419315809 0.23892713918983621 0 0.21839258869488601 0.25457235273870971 0 0.24142358919607121 0.25808606837721387 0 0.20510077359108569 0.26522153081136629 0 0.23298377630904571 0.27542484427162728 0 0.23298377630904571 0.27542484427162728 0 0.26086677902700561 0.28562815773188821 0 0.25353115032000612 0.26837113287090469 0 0.23298377630904571 0.27542484427162728 0 0.24142358919607121 0.25808606837721387 0 0.25353115032000612 0.26837113287090469 0 0.23298377630904571 0.27542484427162728 0 0.26086677902700561 0.28562815773188821 0 0.24405904503509121 0.29841073786922728 0 0.2263973640658074 0.30131947242108681 0 0.2416292303626397 0.31699761252133579 0 0.24405904503509121 0.29841073786922728 0 0.2416292303626397 0.31699761252133579 0 0.25841807541095752 0.31268360240019838 0 0.23298377630904571 0.27542484427162728 0 0.24405904503509121 0.29841073786922728 0 0.2263973640658074 0.30131947242108681 0 0.23298377630904571 0.27542484427162728 0 0.24405904503509121 0.29841073786922728 0 0.26086677902700561 0.28562815773188821 0 0.2131271123110007 0.28109553153265682 0 0.23298377630904571 0.27542484427162728 0 0.2263973640658074 0.30131947242108681 0 0.2263973640658074 0.30131947242108681 0 0.20576975439242901 0.29329424387160341 0 0.21615561558822249 0.3163709214556063 0 0.20576975439242901 0.29329424387160341 0 0.1952780154296026 0.3193646474447025 0 0.21615561558822249 0.3163709214556063 0 0.20576975439242901 0.29329424387160341 0 0.21615561558822249 0.3163709214556063 0 0.2131271123110007 0.28109553153265682 0 0.2263973640658074 0.30131947242108681 0 0.20576975439242901 0.29329424387160341 0 0.19538389319662799 0.27021756628760379 0 0.2131271123110007 0.28109553153265682 0 0.20576975439242901 0.29329424387160341 0 0.18295654400844691 0.3027425344733754 0 0.20576975439242901 0.29329424387160341 0 0.18953798715903331 0.2867240303498883 0 0.19538389319662799 0.27021756628760379 0 0.20576975439242901 0.29329424387160341 0 0.18953798715903331 0.2867240303498883 0 0.19538389319662799 0.27021756628760379 0 0.20576975439242901 0.29329424387160341 0 0.18295654400844691 0.3027425344733754 0 0.20576975439242901 0.29329424387160341 0 0.1952780154296026 0.3193646474447025 0 0.1952780154296026 0.3193646474447025 0 0.19746726829410521 0.33025876631807177 0 0.18694913192248491 0.33414927597589322 0 0.1952780154296026 0.3193646474447025 0 0.19746726829410521 0.33025876631807177 0 0.20541830329350441 0.32814124000019462 0 0.20324136328216491 0.33889466727725992 0 0.18017331271915449 0.35522219604911293 0 0.18694913192248491 0.33414927597589322 0 0.19746726829410521 0.33025876631807177 0 0.20324136328216491 0.33889466727725992 0 0.18694913192248491 0.33414927597589322 0 0.19746726829410521 0.33025876631807177 0 0.20324136328216491 0.33889466727725992 0 0.20541830329350441 0.32814124000019462 0 0.20324136328216491 0.33889466727725992 0 0.21558534184301201 0.33551392589643381 0 0.21183214904226241 0.34603596056963221 0 0.20324136328216491 0.33889466727725992 0 0.20541830329350441 0.32814124000019462 0 0.21558534184301201 0.33551392589643381 0 0.1952780154296026 0.3193646474447025 0 0.20541830329350441 0.32814124000019462 0 0.21615561558822249 0.3163709214556063 0 0.20541830329350441 0.32814124000019462 0 0.21558534184301201 0.33551392589643381 0 0.21615561558822249 0.3163709214556063 0 0.21615561558822249 0.3163709214556063 0 0.22654147678401609 0.33944759903960919 0 0.21615561558822249 0.3163709214556063 0 0.229888930618388 0.32136777667412131 0 0.22654147678401609 0.33944759903960919 0 0.2263973640658074 0.30131947242108681 0 0.229888930618388 0.32136777667412131 0 0.2416292303626397 0.31699761252133579 0 0.2263973640658074 0.30131947242108681 0 0.21615561558822249 0.3163709214556063 0 0.229888930618388 0.32136777667412131 0 0.21558534184301201 0.33551392589643381 0 0.22654147678401609 0.33944759903960919 0 0.22472862567523449 0.35513914061482821 0 0.229888930618388 0.32136777667412131 0 0.22654147678401609 0.33944759903960919 0 0.23872096629125411 0.33270327793296828 0 0.21558534184301201 0.33551392589643381 0 0.21615561558822249 0.3163709214556063 0 0.22654147678401609 0.33944759903960919 0 0.22654147678401609 0.33944759903960919 0 0.23872096629125411 0.33270327793296828 0 0.2370905778847307 0.34304832858591322 0 0.23872096629125411 0.33270327793296828 0 0.2370905778847307 0.34304832858591322 0 0.24326591777100909 0.34576404307860092 0 0.23872096629125411 0.33270327793296828 0 0.24326591777100909 0.34576404307860092 0 0.25419885645550211 0.33858598021416342 0 0.23872096629125411 0.33270327793296828 0 0.25182475824432737 0.32576052868738448 0 0.25419885645550211 0.33858598021416342 0 0.229888930618388 0.32136777667412131 0 0.23872096629125411 0.33270327793296828 0 0.2416292303626397 0.31699761252133579 0 0.23872096629125411 0.33270327793296828 0 0.2416292303626397 0.31699761252133579 0 0.25182475824432737 0.32576052868738448 0 0.23692733797980969 0.3625242766236122 0 0.2482470132318087 0.37185134434554379 0 0.23387190950745701 0.3747643553332225 0 0.23692733797980969 0.3625242766236122 0 0.2482470132318087 0.37185134434554379 0 0.2482561328248489 0.35658198081574849 0 0.2482561328248489 0.35658198081574849 0 0.24326591777100909 0.34576404307860092 0 0.2388213349471002 0.35084614524691887 0 0.24326591777100909 0.34576404307860092 0 0.25164428255554228 0.34700345054066112 0 0.25419885645550211 0.33858598021416342 0 0.2482561328248489 0.35658198081574849 0 0.24326591777100909 0.34576404307860092 0 0.25164428255554228 0.34700345054066112 0 0.2370905778847307 0.34304832858591322 0 0.24326591777100909 0.34576404307860092 0 0.2388213349471002 0.35084614524691887 0 0.23692733797980969 0.3625242766236122 0 0.2482561328248489 0.35658198081574849 0 0.2388213349471002 0.35084614524691887 0 0.22654147678401609 0.33944759903960919 0 0.23692733797980969 0.3625242766236122 0 0.22654147678401609 0.33944759903960919 0 0.23692733797980969 0.3625242766236122 0 0.2388213349471002 0.35084614524691887 0 0.21558534184301201 0.33551392589643381 0 0.22472862567523449 0.35513914061482821 0 0.22654147678401609 0.33944759903960919 0 0.23692733797980969 0.3625242766236122 0 0.22472862567523449 0.35513914061482821 0 0.22654147678401609 0.33944759903960919 0 0.2370905778847307 0.34304832858591322 0 0.2388213349471002 0.35084614524691887 0 0.22472862567523449 0.35513914061482821 0 0.23387190950745701 0.3747643553332225 0 0.21965270063378639 0.36853145408395788 0 0.22472862567523449 0.35513914061482821 0 0.23387190950745701 0.3747643553332225 0 0.23692733797980969 0.3625242766236122 0 0.22472862567523449 0.35513914061482821 0 0.23387190950745701 0.3747643553332225 0 0.23387190950745701 0.3747643553332225 0 0.21965270063378639 0.36853145408395788 0 0.22215246186082571 0.3777774423746903 0 0.22472862567523449 0.35513914061482821 0 0.21965270063378639 0.36853145408395788 0 0.20708236865272731 0.35614730351282059 0 0.21965270063378639 0.36853145408395788 0 0.2092406318484332 0.37726399144374478 0 0.22215246186082571 0.3777774423746903 0 0.20708236865272731 0.35614730351282059 0 0.19561082712762309 0.36716575011448771 0 0.2092406318484332 0.37726399144374478 0 0.21965270063378639 0.36853145408395788 0 0.20708236865272731 0.35614730351282059 0 0.2092406318484332 0.37726399144374478 0 0.21558534184301201 0.33551392589643381 0 0.22472862567523449 0.35513914061482821 0 0.21183214904226241 0.34603596056963221 0 0.22472862567523449 0.35513914061482821 0 0.20708236865272731 0.35614730351282059 0 0.21183214904226241 0.34603596056963221 0 0.20324136328216491 0.33889466727725992 0 0.20708236865272731 0.35614730351282059 0 0.21183214904226241 0.34603596056963221 0 0.20324136328216491 0.33889466727725992 0 0.20708236865272731 0.35614730351282059 0 0.18017331271915449 0.35522219604911293 0 0.20324136328216491 0.33889466727725992 0 0.18017331271915449 0.35522219604911293 0 0.20708236865272731 0.35614730351282059 0 0.19561082712762309 0.36716575011448771 0 0.18017331271915449 0.35522219604911293 0 0.19561082712762309 0.36716575011448771 0 0.18594699529017761 0.38002950945227232 0 0.2092406318484332 0.37726399144374478 0 0.15710526215614401 0.37154972482096582 0 0.18017331271915449 0.35522219604911293 0 0.18594699529017761 0.38002950945227232 0 0.19561082712762309 0.36716575011448771 0 0.18017331271915449 0.35522219604911293 0 0.18594699529017761 0.38002950945227232 0 0.15710526215614401 0.37154972482096582 0 0.18017331271915449 0.35522219604911293 0 0.15710526215614401 0.37154972482096582 0 0.18017331271915449 0.35522219604911293 0 0.1647971084504056 0.3411492656255673 0 0.18694913192248491 0.33414927597589322 0 0.174448125510482 0.32267406878963778 0 0.1647971084504056 0.3411492656255673 0 0.18017331271915449 0.35522219604911293 0 0.18694913192248491 0.33414927597589322 0 0.1647971084504056 0.3411492656255673 0 0.18295654400844691 0.3027425344733754 0 0.1952780154296026 0.3193646474447025 0 0.174448125510482 0.32267406878963778 0 0.1952780154296026 0.3193646474447025 0 0.18694913192248491 0.33414927597589322 0 0.174448125510482 0.32267406878963778 0 0.16717265092239239 0.30611485630411539 0 0.174448125510482 0.32267406878963778 0 0.15772751530687651 0.31709970727918813 0 0.174448125510482 0.32267406878963778 0 0.16170174810580709 0.32801195385816673 0 0.15772751530687651 0.31709970727918813 0 0.174448125510482 0.32267406878963778 0 0.16170174810580709 0.32801195385816673 0 0.1647971084504056 0.3411492656255673 0 0.16170174810580709 0.32801195385816673 0 0.1647971084504056 0.3411492656255673 0 0.14744048036426999 0.33025507283982453 0 0.14744048036426999 0.33025507283982453 0 0.13301313875331891 0.34503603543703698 0 0.14675616471797029 0.35066701238274223 0 0.1647971084504056 0.3411492656255673 0 0.14744048036426999 0.33025507283982453 0 0.14675616471797029 0.35066701238274223 0 0.15772751530687651 0.31709970727918813 0 0.14744048036426999 0.33025507283982453 0 0.14497846140960691 0.31399362939551451 0 0.14744048036426999 0.33025507283982453 0 0.14497846140960691 0.31399362939551451 0 0.13327250895134671 0.31780571094325127 0 0.16170174810580709 0.32801195385816673 0 0.15772751530687651 0.31709970727918813 0 0.14744048036426999 0.33025507283982453 0 0.14744048036426999 0.33025507283982453 0 0.13327250895134671 0.31780571094325127 0 0.13095279113552891 0.3310564366932307 0 0.1160065679323484 0.31379325908782679 0 0.13105151069117951 0.30602701441798208 0 0.13327250895134671 0.31780571094325127 0 0.13105151069117951 0.30602701441798208 0 0.14497846140960691 0.31399362939551451 0 0.13327250895134671 0.31780571094325127 0 0.11853786748341399 0.32797800483923822 0 0.13327250895134671 0.31780571094325127 0 0.13095279113552891 0.3310564366932307 0 0.14744048036426999 0.33025507283982453 0 0.13095279113552891 0.3310564366932307 0 0.13301313875331891 0.34503603543703698 0 0.11968572573704819 0.34082259920106911 0 0.13095279113552891 0.3310564366932307 0 0.13301313875331891 0.34503603543703698 0 0.13301313875331891 0.34503603543703698 0 0.13129409324760349 0.36487940318973833 0 0.14675616471797029 0.35066701238274223 0 0.1206757332302552 0.35310459368013009 0 0.13301313875331891 0.34503603543703698 0 0.13129409324760349 0.36487940318973833 0 0.15710526215614401 0.37154972482096582 0 0.13129409324760349 0.36487940318973833 0 0.1340372115931335 0.38787725359281888 0 0.15710526215614401 0.37154972482096582 0 0.13129409324760349 0.36487940318973833 0 0.14675616471797029 0.35066701238274223 0 0.15710526215614401 0.37154972482096582 0 0.1647971084504056 0.3411492656255673 0 0.14675616471797029 0.35066701238274223 0 0.1340372115931335 0.38787725359281888 0 0.13313107468670221 0.40865402693005098 0 0.15663268026934421 0.39561257671438982 0 0.15710526215614401 0.37154972482096582 0 0.1340372115931335 0.38787725359281888 0 0.15710526215614401 0.37154972482096582 0 0.1340372115931335 0.38787725359281888 0 0.15663268026934421 0.39561257671438982 0 0.11686128871008319 0.38085285868847701 0 0.13129409324760349 0.36487940318973833 0 0.1340372115931335 0.38787725359281888 0 0.1109691610301229 0.40420478236467189 0 0.1340372115931335 0.38787725359281888 0 0.13313107468670221 0.40865402693005098 0 0.13313107468670221 0.40865402693005098 0 0.12637243707708509 0.42832167071525762 0 0.15124047917122041 0.41887874519590218 0 0.12637243707708509 0.42832167071525762 0 0.15124047917122041 0.41887874519590218 0 0.13947782664218689 0.44565412562262252 0 0.12637243707708509 0.42832167071525762 0 0.15124047917122041 0.41887874519590218 0 0.15124047917122041 0.41887874519590218 0 0.16171350023688111 0.43754920490161803 0 0.13947782664218689 0.44565412562262252 0 0.13313107468670221 0.40865402693005098 0 0.15124047917122041 0.41887874519590218 0 0.15663268026934421 0.39561257671438982 0 0.17610852126535559 0.4094358196765468 0 0.18298173459538139 0.44100411494292502 0 0.16171350023688111 0.43754920490161803 0 0.15124047917122041 0.41887874519590218 0 0.17610852126535559 0.4094358196765468 0 0.15663268026934421 0.39561257671438982 0 0.17610852126535559 0.4094358196765468 0 0.20299288751014929 0.42546593331249061 0 0.18298173459538139 0.44100411494292502 0 0.15124047917122041 0.41887874519590218 0 0.17610852126535559 0.4094358196765468 0 0.15124047917122041 0.41887874519590218 0 0.17610852126535559 0.4094358196765468 0 0.16171350023688111 0.43754920490161803 0 0.17610852126535559 0.4094358196765468 0 0.15663268026934421 0.39561257671438982 0 0.18594699529017761 0.38002950945227232 0 0.15710526215614401 0.37154972482096582 0 0.15663268026934421 0.39561257671438982 0 0.18594699529017761 0.38002950945227232 0 0.18594699529017761 0.38002950945227232 0 0.2009765633594908 0.39999289415719141 0 0.2092406318484332 0.37726399144374478 0 0.17610852126535559 0.4094358196765468 0 0.2009765633594908 0.39999289415719141 0 0.17610852126535559 0.4094358196765468 0 0.18594699529017761 0.38002950945227232 0 0.2009765633594908 0.39999289415719141 0 0.2009765633594908 0.39999289415719141 0 0.22584460545362611 0.39054996863783598 0 0.2009765633594908 0.39999289415719141 0 0.22584460545362611 0.39054996863783598 0 0.22300404042491709 0.40992775168205609 0 0.2009765633594908 0.39999289415719141 0 0.2092406318484332 0.37726399144374478 0 0.22584460545362611 0.39054996863783598 0 0.23387190950745701 0.3747643553332225 0 0.22215246186082571 0.3777774423746903 0 0.22584460545362611 0.39054996863783598 0 0.2092406318484332 0.37726399144374478 0 0.22215246186082571 0.3777774423746903 0 0.22584460545362611 0.39054996863783598 0 0.23387190950745701 0.3747643553332225 0 0.22584460545362611 0.39054996863783598 0 0.24301519333968091 0.39438957005161618 0 0.22584460545362611 0.39054996863783598 0 0.24301519333968091 0.39438957005161618 0 0.22300404042491709 0.40992775168205609 0 0.24301519333968091 0.39438957005161618 0 0.22300404042491709 0.40992775168205609 0 0.24301519333968091 0.39438957005161618 0 0.25264943008263391 0.41506856987244672 0 0.24301519333968091 0.39438957005161618 0 0.23893549619817811 0.41057321440238032 0 0.22300404042491709 0.40992775168205609 0 0.23387190950745701 0.3747643553332225 0 0.24301519333968091 0.39438957005161618 0 0.2482470132318087 0.37185134434554379 0 0.23387190950745701 0.3747643553332225 0 0.24301519333968091 0.39438957005161618 0 0.2370733209454807 0.42290696600340211 0 0.23325979991323309 0.44156550593014648 0 0.26228366682558829 0.43574756969327649 0 0.2370733209454807 0.42290696600340211 0 0.23893549619817811 0.41057321440238032 0 0.25264943008263391 0.41506856987244672 0 0.24301519333968091 0.39438957005161618 0 0.23893549619817811 0.41057321440238032 0 0.25264943008263391 0.41506856987244672 0 0.2370733209454807 0.42290696600340211 0 0.23893549619817811 0.41057321440238032 0 0.22300404042491709 0.40992775168205609 0 0.2370733209454807 0.42290696600340211 0 0.22300404042491709 0.40992775168205609 0 0.22064444272656189 0.42911060091509112 0 0.2370733209454807 0.42290696600340211 0 0.22064444272656189 0.42911060091509112 0 0.23325979991323309 0.44156550593014648 0 0.22064444272656189 0.42911060091509112 0 0.20299288751014929 0.42546593331249061 0 0.20888363040968511 0.45138506425137898 0 0.22300404042491709 0.40992775168205609 0 0.22064444272656189 0.42911060091509112 0 0.20299288751014929 0.42546593331249061 0 0.22300404042491709 0.40992775168205609 0 0.20299288751014929 0.42546593331249061 0 0.2009765633594908 0.39999289415719141 0 0.22300404042491709 0.40992775168205609 0 0.20299288751014929 0.42546593331249061 0 0.17610852126535559 0.4094358196765468 0 0.2009765633594908 0.39999289415719141 0 0.20299288751014929 0.42546593331249061 0 0.20299288751014929 0.42546593331249061 0 0.18298173459538139 0.44100411494292502 0 0.20299288751014929 0.42546593331249061 0 0.20888363040968511 0.45138506425137898 0 0.18298173459538139 0.44100411494292502 0 0.20888363040968511 0.45138506425137898 0 0.1867450842524892 0.46155570800788409 0 0.18298173459538139 0.44100411494292502 0 0.20888363040968511 0.45138506425137898 0 0.19517148689675351 0.47810825339448398 0 0.1867450842524892 0.46155570800788409 0 0.20888363040968511 0.45138506425137898 0 0.22128343018348309 0.47507870999702051 0 0.19517148689675351 0.47810825339448398 0 0.20888363040968511 0.45138506425137898 0 0.23325979991323309 0.44156550593014648 0 0.23138503815418221 0.4597113486619786 0 0.22064444272656189 0.42911060091509112 0 0.20888363040968511 0.45138506425137898 0 0.23325979991323309 0.44156550593014648 0 0.20888363040968511 0.45138506425137898 0 0.23138503815418221 0.4597113486619786 0 0.22128343018348309 0.47507870999702051 0 0.23138503815418221 0.4597113486619786 0 0.24283357568523611 0.47462858947463488 0 0.25106567462320878 0.45666187649755641 0 0.23325979991323309 0.44156550593014648 0 0.25106567462320878 0.45666187649755641 0 0.26228366682558829 0.43574756969327649 0 0.23325979991323309 0.44156550593014648 0 0.23138503815418221 0.4597113486619786 0 0.25106567462320878 0.45666187649755641 0 0.2331807224224875 0.5 0 0.25438062262181849 0.48709091025474449 0 0.26013214748745461 0.50000000000000178 0 0.24283357568523611 0.47462858947463488 0 0.2331807224224875 0.5 0 0.25438062262181849 0.48709091025474449 0 0.23138503815418221 0.4597113486619786 0 0.24283357568523611 0.47462858947463488 0 0.22128343018348309 0.47507870999702051 0 0.24283357568523611 0.47462858947463488 0 0.22128343018348309 0.47507870999702051 0 0.2331807224224875 0.5 0 0.22128343018348309 0.47507870999702051 0 0.2331807224224875 0.5 0 0.20622929735752041 0.5 0 0.22128343018348309 0.47507870999702051 0 0.20622929735752041 0.5 0 0.19517148689675351 0.47810825339448398 0 0.22128343018348309 0.47507870999702051 0 0.19517148689675351 0.47810825339448398 0 0.20622929735752041 0.5 0 0.19517148689675351 0.47810825339448398 0 0.17927787229255329 0.5 0 0.19517148689675351 0.47810825339448398 0 0.17927787229255329 0.5 0 0.16905954361002379 0.48113779679194751 0 0.17927787229255329 0.5 0 0.16905954361002379 0.48113779679194751 0 0.15232644722758609 0.5 0 0.16905954361002379 0.48113779679194751 0 0.16996709046264041 0.45831063257558791 0 0.15536975250481769 0.46868472706387548 0 0.19517148689675351 0.47810825339448398 0 0.16905954361002379 0.48113779679194751 0 0.19517148689675351 0.47810825339448398 0 0.16905954361002379 0.48113779679194751 0 0.1867450842524892 0.46155570800788409 0 0.1867450842524892 0.46155570800788409 0 0.18298173459538139 0.44100411494292502 0 0.16996709046264041 0.45831063257558791 0 0.16905954361002379 0.48113779679194751 0 0.1867450842524892 0.46155570800788409 0 0.16996709046264041 0.45831063257558791 0 0.16171350023688111 0.43754920490161803 0 0.16996709046264041 0.45831063257558791 0 0.15317206460667299 0.45471397767778787 0 0.18298173459538139 0.44100411494292502 0 0.16171350023688111 0.43754920490161803 0 0.16996709046264041 0.45831063257558791 0 0.16996709046264041 0.45831063257558791 0 0.15536975250481769 0.46868472706387548 0 0.15317206460667299 0.45471397767778787 0 0.15536975250481769 0.46868472706387548 0 0.15317206460667299 0.45471397767778787 0 0.14170246352145721 0.46509388808464358 0 0.15317206460667299 0.45471397767778787 0 0.14170246352145721 0.46509388808464358 0 0.13947782664218689 0.44565412562262252 0 0.16171350023688111 0.43754920490161803 0 0.15317206460667299 0.45471397767778787 0 0.13947782664218689 0.44565412562262252 0 0.1194139762985746 0.44746307811691582 0 0.12637243707708509 0.42832167071525762 0 0.13947782664218689 0.44565412562262252 0 0.12272986558341679 0.46755831466623321 0 0.1194139762985746 0.44746307811691582 0 0.13947782664218689 0.44565412562262252 0 0.12272986558341679 0.46755831466623321 0 0.14170246352145721 0.46509388808464358 0 0.13947782664218689 0.44565412562262252 0 0.12272986558341679 0.46755831466623321 0 0.14170246352145721 0.46509388808464358 0 0.1429476003232942 0.48416734018941088 0 0.1168356570365645 0.48719688358687452 0 0.12272986558341679 0.46755831466623321 0 0.1429476003232942 0.48416734018941088 0 0.12537502216261889 0.5 0 0.15232644722758609 0.5 0 0.1429476003232942 0.48416734018941088 0 0.1168356570365645 0.48719688358687452 0 0.12537502216261889 0.5 0 0.1429476003232942 0.48416734018941088 0 0.1168356570365645 0.48719688358687452 0 0.1429476003232942 0.48416734018941088 0 0.16905954361002379 0.48113779679194751 0 0.15232644722758609 0.5 0 0.1429476003232942 0.48416734018941088 0 0.16905954361002379 0.48113779679194751 0 0.15536975250481769 0.46868472706387548 0 0.1429476003232942 0.48416734018941088 0 0.15536975250481769 0.46868472706387548 0 0.14170246352145721 0.46509388808464358 0 0.1429476003232942 0.48416734018941088 0 0.16905954361002379 0.48113779679194751 0 0.1429476003232942 0.48416734018941088 0 0.3511016530837805 0.49999999999999839 0 0.38550110992932601 0.5 0 0.37613613637947579 0.48480528121087041 0 0.35581865244119271 0.47583168627037942 0 0.3511016530837805 0.49999999999999839 0 0.36243308016116488 0.47692806207637861 0 0.35581865244119271 0.47583168627037942 0 0.34978288295024001 0.4619987697214934 0 0.34039446680399782 0.47176083590416418 0 0.35581865244119271 0.47583168627037942 0 0.34519210044690829 0.48306038496562181 0 0.34039446680399782 0.47176083590416418 0 0.35581865244119271 0.47583168627037942 0 0.34519210044690829 0.48306038496562181 0 0.3511016530837805 0.49999999999999839 0 0.35581865244119271 0.47583168627037942 0 0.3511016530837805 0.49999999999999839 0 0.3511016530837805 0.49999999999999839 0 0.36243308016116488 0.47692806207637861 0 0.37613613637947579 0.48480528121087041 0 0.36243308016116488 0.47692806207637861 0 0.36676587126593713 0.46483578193954822 0 0.38311814693722518 0.46702494097506209 0 0.36243308016116488 0.47692806207637861 0 0.38311814693722518 0.46702494097506209 0 0.36243308016116488 0.47692806207637861 0 0.38311814693722518 0.46702494097506209 0 0.37613613637947579 0.48480528121087041 0 0.35581865244119271 0.47583168627037942 0 0.36243308016116488 0.47692806207637861 0 0.36676587126593713 0.46483578193954822 0 0.36676587126593713 0.46483578193954822 0 0.37192382499149762 0.45273084783515988 0 0.38311814693722518 0.46702494097506209 0 0.35581865244119271 0.47583168627037942 0 0.36676587126593713 0.46483578193954822 0 0.36053565179860497 0.45166337254076061 0 0.36676587126593713 0.46483578193954822 0 0.37192382499149762 0.45273084783515988 0 0.36053565179860497 0.45166337254076061 0 0.36053565179860497 0.45166337254076061 0 0.36525265115601752 0.42749505881114169 0 0.37092296091976951 0.43938961692773432 0 0.36053565179860497 0.45166337254076061 0 0.36525265115601752 0.42749505881114169 0 0.36053565179860497 0.45166337254076061 0 0.35434762303447198 0.44296181384603073 0 0.36525265115601752 0.42749505881114169 0 0.37092296091976951 0.43938961692773432 0 0.37192382499149762 0.45273084783515988 0 0.36053565179860497 0.45166337254076061 0 0.35434762303447198 0.44296181384603073 0 0.33849126055697981 0.44166186027466547 0 0.34773480452384659 0.42884195973254779 0 0.35434762303447198 0.44296181384603073 0 0.34830668824395961 0.45131843995551901 0 0.33849126055697981 0.44166186027466547 0 0.36053565179860497 0.45166337254076061 0 0.35434762303447198 0.44296181384603073 0 0.34830668824395961 0.45131843995551901 0 0.35581865244119271 0.47583168627037942 0 0.36053565179860497 0.45166337254076061 0 0.35581865244119271 0.47583168627037942 0 0.36053565179860497 0.45166337254076061 0 0.34978288295024001 0.4619987697214934 0 0.36053565179860497 0.45166337254076061 0 0.34830668824395961 0.45131843995551901 0 0.34978288295024001 0.4619987697214934 0 0.34830668824395961 0.45131843995551901 0 0.34978288295024001 0.4619987697214934 0 0.3383760228795013 0.4583063833946448 0 0.3383760228795013 0.4583063833946448 0 0.32048792167951867 0.46705978310409069 0 0.34039446680399782 0.47176083590416418 0 0.34978288295024001 0.4619987697214934 0 0.3383760228795013 0.4583063833946448 0 0.34039446680399782 0.47176083590416418 0 0.34830668824395961 0.45131843995551901 0 0.3383760228795013 0.4583063833946448 0 0.33849126055697981 0.44166186027466547 0 0.3383760228795013 0.4583063833946448 0 0.33849126055697981 0.44166186027466547 0 0.32479706928022251 0.452673238229999 0 0.32479706928022251 0.452673238229999 0 0.30049212884419718 0.45686185320388439 0 0.31943211737689731 0.43661813707283298 0 0.33849126055697981 0.44166186027466547 0 0.32479706928022251 0.452673238229999 0 0.31943211737689731 0.43661813707283298 0 0.32479706928022251 0.452673238229999 0 0.32048792167951867 0.46705978310409069 0 0.30049212884419718 0.45686185320388439 0 0.3383760228795013 0.4583063833946448 0 0.32479706928022251 0.452673238229999 0 0.32048792167951867 0.46705978310409069 0 0.32048792167951867 0.46705978310409069 0 0.33146853870656628 0.48373965843677552 0 0.30713907131343388 0.48059491611224409 0 0.32048792167951867 0.46705978310409069 0 0.33146853870656628 0.48373965843677552 0 0.34039446680399782 0.47176083590416418 0 0.34519210044690829 0.48306038496562181 0 0.33146853870656628 0.48373965843677552 0 0.34039446680399782 0.47176083590416418 0 0.3511016530837805 0.49999999999999839 0 0.33146853870656628 0.48373965843677552 0 0.32166009383080651 0.5 0 0.34519210044690829 0.48306038496562181 0 0.3511016530837805 0.49999999999999839 0 0.33146853870656628 0.48373965843677552 0 0.33146853870656628 0.48373965843677552 0 0.32166009383080651 0.5 0 0.30713907131343388 0.48059491611224409 0 0.32166009383080651 0.5 0 0.30713907131343388 0.48059491611224409 0 0.29221853457783242 0.50000000000000344 0 0.30713907131343388 0.48059491611224409 0 0.28155214031149711 0.47710556933493597 0 0.30049212884419718 0.45686185320388439 0 0.28155214031149711 0.47710556933493597 0 0.29221853457783242 0.50000000000000344 0 0.27617534103264352 0.5 0 0.30713907131343388 0.48059491611224409 0 0.28155214031149711 0.47710556933493597 0 0.29221853457783242 0.50000000000000344 0 0.28155214031149711 0.47710556933493597 0 0.29221853457783242 0.50000000000000344 0 0.27617534103264352 0.5 0 0.27084214389947631 0.48855278466746932 0 0.26013214748745461 0.50000000000000178 0 0.28155214031149711 0.47710556933493597 0 0.27617534103264352 0.5 0 0.27084214389947631 0.48855278466746932 0 0.28155214031149711 0.47710556933493597 0 0.27084214389947631 0.48855278466746932 0 0.28155214031149711 0.47710556933493597 0 0.27084214389947631 0.48855278466746932 0 0.26491452361443818 0.47227317713161798 0 0.24283357568523611 0.47462858947463488 0 0.26491452361443818 0.47227317713161798 0 0.25438062262181849 0.48709091025474449 0 0.27084214389947631 0.48855278466746932 0 0.26491452361443818 0.47227317713161798 0 0.25438062262181849 0.48709091025474449 0 0.27084214389947631 0.48855278466746932 0 0.25438062262181849 0.48709091025474449 0 0.26013214748745461 0.50000000000000178 0 0.27084214389947631 0.48855278466746932 0 0.26013214748745461 0.50000000000000178 0 0.25106567462320878 0.45666187649755641 0 0.27191790356854267 0.45642656951410632 0 0.26228366682558829 0.43574756969327649 0 0.24283357568523611 0.47462858947463488 0 0.26491452361443818 0.47227317713161798 0 0.25106567462320878 0.45666187649755641 0 0.26491452361443818 0.47227317713161798 0 0.25106567462320878 0.45666187649755641 0 0.27191790356854267 0.45642656951410632 0 0.28155214031149711 0.47710556933493597 0 0.26491452361443818 0.47227317713161798 0 0.27191790356854267 0.45642656951410632 0 0.28155214031149711 0.47710556933493597 0 0.27191790356854267 0.45642656951410632 0 0.27191790356854267 0.45642656951410632 0 0.28907876219969098 0.43361846572781287 0 0.26228366682558829 0.43574756969327649 0 0.27191790356854267 0.45642656951410632 0 0.26228366682558829 0.43574756969327649 0 0.27191790356854267 0.45642656951410632 0 0.30049212884419718 0.45686185320388439 0 0.28907876219969098 0.43361846572781287 0 0.28155214031149711 0.47710556933493597 0 0.27191790356854267 0.45642656951410632 0 0.30049212884419718 0.45686185320388439 0 0.28155214031149711 0.47710556933493597 0 0.30049212884419718 0.45686185320388439 0 0.32048792167951867 0.46705978310409069 0 0.30713907131343388 0.48059491611224409 0 0.30049212884419718 0.45686185320388439 0 0.30049212884419718 0.45686185320388439 0 0.28907876219969098 0.43361846572781287 0 0.31943211737689731 0.43661813707283298 0 0.30049212884419718 0.45686185320388439 0 0.31943211737689731 0.43661813707283298 0 0.30545679836761058 0.420840095570714 0 0.28907876219969098 0.43361846572781287 0 0.31943211737689731 0.43661813707283298 0 0.31247555448823211 0.4065088815410185 0 0.30545679836761058 0.420840095570714 0 0.29125046891670858 0.40768114277763012 0 0.29125046891670858 0.40768114277763012 0 0.28907876219969098 0.43361846572781287 0 0.27267448064090122 0.41854485133793778 0 0.30545679836761058 0.420840095570714 0 0.29125046891670858 0.40768114277763012 0 0.28907876219969098 0.43361846572781287 0 0.28907876219969098 0.43361846572781287 0 0.27267448064090122 0.41854485133793778 0 0.26228366682558829 0.43574756969327649 0 0.29125046891670858 0.40768114277763012 0 0.27267448064090122 0.41854485133793778 0 0.26811007517988439 0.40060850861852321 0 0.27267448064090122 0.41854485133793778 0 0.25264943008263391 0.41506856987244672 0 0.26811007517988439 0.40060850861852321 0 0.2370733209454807 0.42290696600340211 0 0.25264943008263391 0.41506856987244672 0 0.26228366682558829 0.43574756969327649 0 0.25264943008263391 0.41506856987244672 0 0.26228366682558829 0.43574756969327649 0 0.27267448064090122 0.41854485133793778 0 0.25264943008263391 0.41506856987244672 0 0.26228366682558829 0.43574756969327649 0 0.2482470132318087 0.37185134434554379 0 0.24301519333968091 0.39438957005161618 0 0.262551241611166 0.37922029581359462 0 0.24301519333968091 0.39438957005161618 0 0.262551241611166 0.37922029581359462 0 0.24301519333968091 0.39438957005161618 0 0.262551241611166 0.37922029581359462 0 0.26811007517988439 0.40060850861852321 0 0.24301519333968091 0.39438957005161618 0 0.25264943008263391 0.41506856987244672 0 0.26811007517988439 0.40060850861852321 0 0.262551241611166 0.37922029581359462 0 0.26811007517988439 0.40060850861852321 0 0.28506361575177691 0.38611634656403232 0 0.262551241611166 0.37922029581359462 0 0.28506361575177691 0.38611634656403232 0 0.28208728988264697 0.36405102157556768 0 0.28506361575177691 0.38611634656403232 0 0.30648708493035193 0.38888072016703151 0 0.29797501254949682 0.37401719358627528 0 0.29125046891670858 0.40768114277763012 0 0.26811007517988439 0.40060850861852321 0 0.28506361575177691 0.38611634656403232 0 0.29125046891670858 0.40768114277763012 0 0.28506361575177691 0.38611634656403232 0 0.30648708493035193 0.38888072016703151 0 0.31247555448823211 0.4065088815410185 0 0.29125046891670858 0.40768114277763012 0 0.30648708493035193 0.38888072016703151 0 0.30648708493035193 0.38888072016703151 0 0.31251379536477009 0.3724997386909259 0 0.29797501254949682 0.37401719358627528 0 0.30648708493035193 0.38888072016703151 0 0.32162719290256969 0.38174086122502232 0 0.32378301979800972 0.394833180348309 0 0.30648708493035193 0.38888072016703151 0 0.32162719290256969 0.38174086122502232 0 0.31251379536477009 0.3724997386909259 0 0.32162719290256969 0.38174086122502232 0 0.33345447044449672 0.38403188038934249 0 0.32378301979800972 0.394833180348309 0 0.32162719290256969 0.38174086122502232 0 0.33345447044449672 0.38403188038934249 0 0.33039309091580871 0.36794480391142259 0 0.33345447044449672 0.38403188038934249 0 0.34374358360496687 0.37606236151767841 0 0.33039309091580871 0.36794480391142259 0 0.33345447044449672 0.38403188038934249 0 0.3421078330918178 0.38705711139373389 0 0.33589173762137808 0.39718515365406992 0 0.33345447044449672 0.38403188038934249 0 0.3421078330918178 0.38705711139373389 0 0.34374358360496687 0.37606236151767841 0 0.33589173762137808 0.39718515365406992 0 0.33837210590959732 0.41637442094178162 0 0.34666156158943101 0.39507948910554103 0 0.3421078330918178 0.38705711139373389 0 0.33589173762137808 0.39718515365406992 0 0.34666156158943101 0.39507948910554103 0 0.33345447044449672 0.38403188038934249 0 0.33589173762137808 0.39718515365406992 0 0.32378301979800972 0.394833180348309 0 0.33589173762137808 0.39718515365406992 0 0.32378301979800972 0.394833180348309 0 0.32630590440469859 0.40646632441635627 0 0.31247555448823211 0.4065088815410185 0 0.32378301979800972 0.394833180348309 0 0.32630590440469859 0.40646632441635627 0 0.31247555448823211 0.4065088815410185 0 0.30648708493035193 0.38888072016703151 0 0.32378301979800972 0.394833180348309 0 0.31247555448823211 0.4065088815410185 0 0.32100710420627598 0.41742998559660233 0 0.32630590440469859 0.40646632441635627 0 0.31247555448823211 0.4065088815410185 0 0.30545679836761058 0.420840095570714 0 0.32100710420627598 0.41742998559660233 0 0.30545679836761058 0.420840095570714 0 0.32100710420627598 0.41742998559660233 0 0.31943211737689731 0.43661813707283298 0 0.32100710420627598 0.41742998559660233 0 0.31943211737689731 0.43661813707283298 0 0.33837210590959732 0.41637442094178162 0 0.33849126055697981 0.44166186027466547 0 0.33837210590959732 0.41637442094178162 0 0.34773480452384659 0.42884195973254779 0 0.31943211737689731 0.43661813707283298 0 0.33837210590959732 0.41637442094178162 0 0.33849126055697981 0.44166186027466547 0 0.31943211737689731 0.43661813707283298 0 0.33837210590959732 0.41637442094178162 0 0.32100710420627598 0.41742998559660233 0 0.32630590440469859 0.40646632441635627 0 0.33837210590959732 0.41637442094178162 0 0.33589173762137808 0.39718515365406992 0 0.32630590440469859 0.40646632441635627 0 0.33837210590959732 0.41637442094178162 0 0.33837210590959732 0.41637442094178162 0 0.35824146863996281 0.41732199193781699 0 0.35731209444229728 0.39613070481073032 0 0.33837210590959732 0.41637442094178162 0 0.35731209444229728 0.39613070481073032 0 0.33837210590959732 0.41637442094178162 0 0.35824146863996281 0.41732199193781699 0 0.34773480452384659 0.42884195973254779 0 0.35434762303447198 0.44296181384603073 0 0.35824146863996281 0.41732199193781699 0 0.34773480452384659 0.42884195973254779 0 0.35434762303447198 0.44296181384603073 0 0.35824146863996281 0.41732199193781699 0 0.36525265115601752 0.42749505881114169 0 0.35434762303447198 0.44296181384603073 0 0.35824146863996281 0.41732199193781699 0 0.36525265115601752 0.42749505881114169 0 0.37000071319738959 0.42433193034315791 0 0.36591017698604922 0.41964294997626772 0 0.37092296091976951 0.43938961692773432 0 0.36525265115601752 0.42749505881114169 0 0.37000071319738959 0.42433193034315791 0 0.35824146863996281 0.41732199193781699 0 0.36877817186693618 0.41301465943001903 0 0.36779192784015718 0.40390700260872359 0 0.35824146863996281 0.41732199193781699 0 0.36591017698604922 0.41964294997626772 0 0.36877817186693618 0.41301465943001903 0 0.35824146863996281 0.41732199193781699 0 0.36525265115601752 0.42749505881114169 0 0.36591017698604922 0.41964294997626772 0 0.36591017698604922 0.41964294997626772 0 0.37101451892863269 0.41887673631329497 0 0.36877817186693618 0.41301465943001903 0 0.37101451892863269 0.41887673631329497 0 0.36877817186693618 0.41301465943001903 0 0.37936901366415587 0.41851740550373551 0 0.37000071319738959 0.42433193034315791 0 0.37101451892863269 0.41887673631329497 0 0.37936901366415587 0.41851740550373551 0 0.37000071319738959 0.42433193034315791 0 0.36591017698604922 0.41964294997626772 0 0.37101451892863269 0.41887673631329497 0 0.36877817186693618 0.41301465943001903 0 0.37680910359599418 0.40611571608601987 0 0.37936901366415587 0.41851740550373551 0 0.36877817186693618 0.41301465943001903 0 0.36779192784015718 0.40390700260872359 0 0.37680910359599418 0.40611571608601987 0 0.36779192784015718 0.40390700260872359 0 0.37422473952013219 0.39927691022152861 0 0.36936991119550061 0.39530981435076179 0 0.36779192784015718 0.40390700260872359 0 0.37422473952013219 0.39927691022152861 0 0.37680910359599418 0.40611571608601987 0 0.35824146863996281 0.41732199193781699 0 0.36213531424545359 0.39168217002960348 0 0.35824146863996281 0.41732199193781699 0 0.36779192784015718 0.40390700260872359 0 0.36213531424545359 0.39168217002960348 0 0.36779192784015718 0.40390700260872359 0 0.36213531424545359 0.39168217002960348 0 0.36936991119550061 0.39530981435076179 0 0.36936991119550061 0.39530981435076179 0 0.37111164107540201 0.38604060083203973 0 0.37546942330986471 0.392876571140854 0 0.36213531424545359 0.39168217002960348 0 0.36936991119550061 0.39530981435076179 0 0.37111164107540201 0.38604060083203973 0 0.37422473952013219 0.39927691022152861 0 0.36936991119550061 0.39530981435076179 0 0.37546942330986471 0.392876571140854 0 0.36213531424545359 0.39168217002960348 0 0.37111164107540201 0.38604060083203973 0 0.36602915985094442 0.36604234812139003 0 0.36213531424545359 0.39168217002960348 0 0.35400465702555273 0.37790391522905858 0 0.36602915985094442 0.36604234812139003 0 0.37111164107540201 0.38604060083203973 0 0.36602915985094442 0.36604234812139003 0 0.38255439677524639 0.38429210051758922 0 0.36213531424545359 0.39168217002960348 0 0.36602915985094442 0.36604234812139003 0 0.36213531424545359 0.39168217002960348 0 0.35433818630773262 0.38820630135081169 0 0.35400465702555273 0.37790391522905858 0 0.35433818630773262 0.38820630135081169 0 0.35400465702555273 0.37790391522905858 0 0.34926752988030502 0.38423491565594919 0 0.3421078330918178 0.38705711139373389 0 0.34374358360496687 0.37606236151767841 0 0.34926752988030502 0.38423491565594919 0 0.34374358360496687 0.37606236151767841 0 0.35400465702555273 0.37790391522905858 0 0.34926752988030502 0.38423491565594919 0 0.35433818630773262 0.38820630135081169 0 0.34926752988030502 0.38423491565594919 0 0.34666156158943101 0.39507948910554103 0 0.3421078330918178 0.38705711139373389 0 0.34926752988030502 0.38423491565594919 0 0.34666156158943101 0.39507948910554103 0 0.33837210590959732 0.41637442094178162 0 0.34666156158943101 0.39507948910554103 0 0.35731209444229728 0.39613070481073032 0 0.35824146863996281 0.41732199193781699 0 0.36213531424545359 0.39168217002960348 0 0.35731209444229728 0.39613070481073032 0 0.35433818630773262 0.38820630135081169 0 0.34666156158943101 0.39507948910554103 0 0.35731209444229728 0.39613070481073032 0 0.36213531424545359 0.39168217002960348 0 0.35433818630773262 0.38820630135081169 0 0.35731209444229728 0.39613070481073032 0 0.34851416826391379 0.36119539469891909 0 0.36602915985094442 0.36604234812139003 0 0.36140765715172651 0.35020023343297102 0 0.34851416826391379 0.36119539469891909 0 0.36140765715172651 0.35020023343297102 0 0.34807737579371151 0.34047220773830722 0 0.34374358360496687 0.37606236151767841 0 0.35400465702555273 0.37790391522905858 0 0.34851416826391379 0.36119539469891909 0 0.35400465702555273 0.37790391522905858 0 0.34851416826391379 0.36119539469891909 0 0.36602915985094442 0.36604234812139003 0 0.36140765715172651 0.35020023343297102 0 0.37205635918113023 0.33759325004721019 0 0.38427987039732642 0.35147038732672498 0 0.36602915985094442 0.36604234812139003 0 0.36140765715172651 0.35020023343297102 0 0.38427987039732642 0.35147038732672498 0 0.36140765715172651 0.35020023343297102 0 0.37205635918113023 0.33759325004721019 0 0.34807737579371151 0.34047220773830722 0 0.37205635918113023 0.33759325004721019 0 0.35902668895714579 0.3228008946260108 0 0.34807737579371151 0.34047220773830722 0 0.37205635918113023 0.33759325004721019 0 0.34807737579371151 0.34047220773830722 0 0.37205635918113023 0.33759325004721019 0 0.35902668895714579 0.3228008946260108 0 0.37205635918113023 0.33759325004721019 0 0.36695312981490319 0.32184923260174331 0 0.35902668895714579 0.3228008946260108 0 0.36695312981490319 0.32184923260174331 0 0.35902668895714579 0.3228008946260108 0 0.3459970187331638 0.3080085392048092 0 0.36695312981490319 0.32184923260174331 0 0.3459970187331638 0.3080085392048092 0 0.34589442069071041 0.32483309613317157 0 0.35902668895714579 0.3228008946260108 0 0.3459970187331638 0.3080085392048092 0 0.35902668895714579 0.3228008946260108 0 0.3459970187331638 0.3080085392048092 0 0.34589442069071041 0.32483309613317157 0 0.35902668895714579 0.3228008946260108 0 0.34807737579371151 0.34047220773830722 0 0.34589442069071041 0.32483309613317157 0 0.34807737579371151 0.34047220773830722 0 0.33192832923092419 0.32565628662346818 0 0.34807737579371151 0.34047220773830722 0 0.32409839240629279 0.34335116542940491 0 0.34807737579371151 0.34047220773830722 0 0.33192832923092419 0.32565628662346818 0 0.32409839240629279 0.34335116542940491 0 0.33192832923092419 0.32565628662346818 0 0.32381310833864219 0.31259224492313092 0 0.3459970187331638 0.3080085392048092 0 0.34589442069071041 0.32483309613317157 0 0.33192832923092419 0.32565628662346818 0 0.3459970187331638 0.3080085392048092 0 0.33192832923092419 0.32565628662346818 0 0.32381310833864219 0.31259224492313092 0 0.31282521849436151 0.32633725833519561 0 0.32381310833864219 0.31259224492313092 0 0.31282521849436151 0.32633725833519561 0 0.30323710340959747 0.30876688125036822 0 0.33192832923092419 0.32565628662346818 0 0.31282521849436151 0.32633725833519561 0 0.32409839240629279 0.34335116542940491 0 0.31282521849436151 0.32633725833519561 0 0.32409839240629279 0.34335116542940491 0 0.30533622863161608 0.33726250974068339 0 0.32409839240629279 0.34335116542940491 0 0.31602561090547371 0.35897727840971588 0 0.30162333815412801 0.34888174733754068 0 0.32409839240629279 0.34335116542940491 0 0.31602561090547371 0.35897727840971588 0 0.33342172765704009 0.35438817003755402 0 0.34851416826391379 0.36119539469891909 0 0.34807737579371151 0.34047220773830722 0 0.33342172765704009 0.35438817003755402 0 0.34807737579371151 0.34047220773830722 0 0.32409839240629279 0.34335116542940491 0 0.33342172765704009 0.35438817003755402 0 0.34851416826391379 0.36119539469891909 0 0.33342172765704009 0.35438817003755402 0 0.33039309091580871 0.36794480391142259 0 0.34374358360496687 0.37606236151767841 0 0.34851416826391379 0.36119539469891909 0 0.33039309091580871 0.36794480391142259 0 0.31602561090547371 0.35897727840971588 0 0.33039309091580871 0.36794480391142259 0 0.31251379536477009 0.3724997386909259 0 0.32162719290256969 0.38174086122502232 0 0.33039309091580871 0.36794480391142259 0 0.31251379536477009 0.3724997386909259 0 0.31602561090547371 0.35897727840971588 0 0.33342172765704009 0.35438817003755402 0 0.33039309091580871 0.36794480391142259 0 0.31602561090547371 0.35897727840971588 0 0.31251379536477009 0.3724997386909259 0 0.30257477998491977 0.36343757484608791 0 0.31251379536477009 0.3724997386909259 0 0.30257477998491977 0.36343757484608791 0 0.29797501254949682 0.37401719358627528 0 0.32409839240629279 0.34335116542940491 0 0.30011940901887407 0.34623012312050261 0 0.32409839240629279 0.34335116542940491 0 0.30162333815412801 0.34888174733754068 0 0.30011940901887407 0.34623012312050261 0 0.31602561090547371 0.35897727840971588 0 0.30257477998491977 0.36343757484608791 0 0.30162333815412801 0.34888174733754068 0 0.30162333815412801 0.34888174733754068 0 0.30011940901887407 0.34623012312050261 0 0.28904688353175551 0.34730127986378773 0 0.30257477998491977 0.36343757484608791 0 0.30162333815412801 0.34888174733754068 0 0.28208728988264697 0.36405102157556768 0 0.28904688353175551 0.34730127986378773 0 0.28208728988264697 0.36405102157556768 0 0.274620461552328 0.35161834833244948 0 0.30162333815412801 0.34888174733754068 0 0.28208728988264697 0.36405102157556768 0 0.30162333815412801 0.34888174733754068 0 0.28904688353175551 0.34730127986378773 0 0.28208728988264697 0.36405102157556768 0 0.30011940901887407 0.34623012312050261 0 0.28904688353175551 0.34730127986378773 0 0.29454030114667179 0.34138227919706599 0 0.28904688353175551 0.34730127986378773 0 0.274620461552328 0.35161834833244948 0 0.28062743818193903 0.34010135513438039 0 0.28506361575177691 0.38611634656403232 0 0.29797501254949682 0.37401719358627528 0 0.28208728988264697 0.36405102157556768 0 0.30257477998491977 0.36343757484608791 0 0.29797501254949682 0.37401719358627528 0 0.28208728988264697 0.36405102157556768 0 0.262551241611166 0.37922029581359462 0 0.28208728988264697 0.36405102157556768 0 0.26269968828449841 0.36242142278643741 0 0.262551241611166 0.37922029581359462 0 0.28208728988264697 0.36405102157556768 0 0.28208728988264697 0.36405102157556768 0 0.274620461552328 0.35161834833244948 0 0.26269968828449841 0.36242142278643741 0 0.274620461552328 0.35161834833244948 0 0.26767082147146698 0.34153969773249138 0 0.28062743818193903 0.34010135513438039 0 0.274620461552328 0.35161834833244948 0 0.25935307939463931 0.35055643510750328 0 0.26767082147146698 0.34153969773249138 0 0.274620461552328 0.35161834833244948 0 0.25935307939463931 0.35055643510750328 0 0.26269968828449841 0.36242142278643741 0 0.25935307939463931 0.35055643510750328 0 0.25164428255554228 0.34700345054066112 0 0.25419885645550211 0.33858598021416342 0 0.2482561328248489 0.35658198081574849 0 0.25935307939463931 0.35055643510750328 0 0.25164428255554228 0.34700345054066112 0 0.2482561328248489 0.35658198081574849 0 0.25935307939463931 0.35055643510750328 0 0.26269968828449841 0.36242142278643741 0 0.2482470132318087 0.37185134434554379 0 0.2482561328248489 0.35658198081574849 0 0.26269968828449841 0.36242142278643741 0 0.2482470132318087 0.37185134434554379 0 0.262551241611166 0.37922029581359462 0 0.26269968828449841 0.36242142278643741 0 0.2416292303626397 0.31699761252133579 0 0.25841807541095752 0.31268360240019838 0 0.25182475824432737 0.32576052868738448 0 0.25841807541095752 0.31268360240019838 0 0.25182475824432737 0.32576052868738448 0 0.26485805580638438 0.32841472294978552 0 0.25841807541095752 0.31268360240019838 0 0.26485805580638438 0.32841472294978552 0 0.27116237113678832 0.31880421584815111 0 0.25182475824432737 0.32576052868738448 0 0.25419885645550211 0.33858598021416342 0 0.26485805580638438 0.32841472294978552 0 0.25935307939463931 0.35055643510750328 0 0.25419885645550211 0.33858598021416342 0 0.26767082147146698 0.34153969773249138 0 0.25419885645550211 0.33858598021416342 0 0.26485805580638438 0.32841472294978552 0 0.26767082147146698 0.34153969773249138 0 0.26485805580638438 0.32841472294978552 0 0.26767082147146698 0.34153969773249138 0 0.27396388419427398 0.3344791338864343 0 0.26485805580638438 0.32841472294978552 0 0.27396388419427398 0.3344791338864343 0 0.27767549028317318 0.32607085260148611 0 0.26767082147146698 0.34153969773249138 0 0.28062743818193903 0.34010135513438039 0 0.27396388419427398 0.3344791338864343 0 0.27396388419427398 0.3344791338864343 0 0.27767549028317318 0.32607085260148611 0 0.28492006205853387 0.33219970384943442 0 0.28062743818193903 0.34010135513438039 0 0.27396388419427398 0.3344791338864343 0 0.28492006205853387 0.33219970384943442 0 0.25841807541095752 0.31268360240019838 0 0.27116237113678832 0.31880421584815111 0 0.27422342284277129 0.3081602550294737 0 0.27767549028317318 0.32607085260148611 0 0.27116237113678832 0.31880421584815111 0 0.2811734231683044 0.31722071917878247 0 0.26485805580638438 0.32841472294978552 0 0.27767549028317318 0.32607085260148611 0 0.27116237113678832 0.31880421584815111 0 0.27116237113678832 0.31880421584815111 0 0.2811734231683044 0.31722071917878247 0 0.27422342284277129 0.3081602550294737 0 0.28995275297095541 0.32213700337920831 0 0.30323710340959747 0.30876688125036822 0 0.28737655236090298 0.30939032499735492 0 0.2811734231683044 0.31722071917878247 0 0.28995275297095541 0.32213700337920831 0 0.28737655236090298 0.30939032499735492 0 0.27767549028317318 0.32607085260148611 0 0.2811734231683044 0.31722071917878247 0 0.28995275297095541 0.32213700337920831 0 0.27767549028317318 0.32607085260148611 0 0.28995275297095541 0.32213700337920831 0 0.28492006205853387 0.33219970384943442 0 0.28995275297095541 0.32213700337920831 0 0.29489244403222359 0.3340969279933752 0 0.30080028272917858 0.32598562086990579 0 0.28904688353175551 0.34730127986378773 0 0.28062743818193903 0.34010135513438039 0 0.28841849187633589 0.33884891273014223 0 0.28062743818193903 0.34010135513438039 0 0.28841849187633589 0.33884891273014223 0 0.28492006205853387 0.33219970384943442 0 0.28995275297095541 0.32213700337920831 0 0.28492006205853387 0.33219970384943442 0 0.29489244403222359 0.3340969279933752 0 0.28841849187633589 0.33884891273014223 0 0.28492006205853387 0.33219970384943442 0 0.29489244403222359 0.3340969279933752 0 0.28904688353175551 0.34730127986378773 0 0.28841849187633589 0.33884891273014223 0 0.29454030114667179 0.34138227919706599 0 0.28841849187633589 0.33884891273014223 0 0.29489244403222359 0.3340969279933752 0 0.29454030114667179 0.34138227919706599 0 0.29489244403222359 0.3340969279933752 0 0.29454030114667179 0.34138227919706599 0 0.29872209570734642 0.33974296001290683 0 0.32409839240629279 0.34335116542940491 0 0.30011940901887407 0.34623012312050261 0 0.30533622863161608 0.33726250974068339 0 0.29489244403222359 0.3340969279933752 0 0.29872209570734642 0.33974296001290683 0 0.30533622863161608 0.33726250974068339 0 0.30011940901887407 0.34623012312050261 0 0.29872209570734642 0.33974296001290683 0 0.30533622863161608 0.33726250974068339 0 0.30011940901887407 0.34623012312050261 0 0.29454030114667179 0.34138227919706599 0 0.29872209570734642 0.33974296001290683 0 0.29489244403222359 0.3340969279933752 0 0.30533622863161608 0.33726250974068339 0 0.30080028272917858 0.32598562086990579 0 0.31282521849436151 0.32633725833519561 0 0.30533622863161608 0.33726250974068339 0 0.30080028272917858 0.32598562086990579 0 0.31282521849436151 0.32633725833519561 0 0.30080028272917858 0.32598562086990579 0 0.30323710340959747 0.30876688125036822 0 0.28995275297095541 0.32213700337920831 0 0.30080028272917858 0.32598562086990579 0 0.30323710340959747 0.30876688125036822 0 0.30323710340959747 0.30876688125036822 0 0.28874978174496557 0.29583147119214898 0 0.30415872491716028 0.28037597919882212 0 0.30323710340959747 0.30876688125036822 0 0.30415872491716028 0.28037597919882212 0 0.32507787182516262 0.2941922592018148 0 0.30323710340959747 0.30876688125036822 0 0.28874978174496557 0.29583147119214898 0 0.28737655236090298 0.30939032499735492 0 0.28874978174496557 0.29583147119214898 0 0.28737655236090298 0.30939032499735492 0 0.27422342284277129 0.3081602550294737 0 0.2811734231683044 0.31722071917878247 0 0.28737655236090298 0.30939032499735492 0 0.27422342284277129 0.3081602550294737 0 0.28874978174496557 0.29583147119214898 0 0.27422342284277129 0.3081602550294737 0 0.26086677902700561 0.28562815773188821 0 0.28874978174496557 0.29583147119214898 0 0.26086677902700561 0.28562815773188821 0 0.28323957800915789 0.26655969919582928 0 0.28874978174496557 0.29583147119214898 0 0.26086677902700561 0.28562815773188821 0 0.24405904503509121 0.29841073786922728 0 0.25841807541095752 0.31268360240019838 0 0.26086677902700561 0.28562815773188821 0 0.25841807541095752 0.31268360240019838 0 0.27422342284277129 0.3081602550294737 0 0.26086677902700561 0.28562815773188821 0 0.24142358919607121 0.25808606837721387 0 0.26232043110115549 0.25274341919283649 0 0.25353115032000612 0.26837113287090469 0 0.26086677902700561 0.28562815773188821 0 0.25353115032000612 0.26837113287090469 0 0.28323957800915789 0.26655969919582928 0 0.26232043110115549 0.25274341919283649 0 0.25353115032000612 0.26837113287090469 0 0.28323957800915789 0.26655969919582928 0 0.26232043110115549 0.25274341919283649 0 0.28323957800915789 0.26655969919582928 0 0.28675163135586812 0.24142749753939799 0 0.26232043110115549 0.25274341919283649 0 0.28323957800915789 0.26655969919582928 0 0.28323957800915789 0.26655969919582928 0 0.29819223908463671 0.25511476016800011 0 0.28675163135586812 0.24142749753939799 0 0.28323957800915789 0.26655969919582928 0 0.30415872491716028 0.28037597919882212 0 0.28323957800915789 0.26655969919582928 0 0.30415872491716028 0.28037597919882212 0 0.29819223908463671 0.25511476016800011 0 0.28874978174496557 0.29583147119214898 0 0.28323957800915789 0.26655969919582928 0 0.30415872491716028 0.28037597919882212 0 0.30415872491716028 0.28037597919882212 0 0.29819223908463671 0.25511476016800011 0 0.31283947485178998 0.26380570477876758 0 0.29819223908463671 0.25511476016800011 0 0.31283947485178998 0.26380570477876758 0 0.31286308011063851 0.24532202083054641 0 0.31283947485178998 0.26380570477876758 0 0.32244059046442008 0.25768147012080322 0 0.31286308011063851 0.24532202083054641 0 0.32244059046442008 0.25768147012080322 0 0.3358039582351468 0.25396688748271312 0 0.31286308011063851 0.24532202083054641 0 0.31283947485178998 0.26380570477876758 0 0.32244059046442008 0.25768147012080322 0 0.32825584866010538 0.26763126739118592 0 0.3358039582351468 0.25396688748271312 0 0.3380309722238683 0.26947649535286872 0 0.32825584866010538 0.26763126739118592 0 0.32244059046442008 0.25768147012080322 0 0.3358039582351468 0.25396688748271312 0 0.32825584866010538 0.26763126739118592 0 0.3358039582351468 0.25396688748271312 0 0.3380309722238683 0.26947649535286872 0 0.34687145320678059 0.26728896608698871 0 0.3380309722238683 0.26947649535286872 0 0.33478966458886988 0.27951413886364879 0 0.34443393642843861 0.27898121693980682 0 0.33478966458886988 0.27951413886364879 0 0.33795345456224068 0.28495418964563862 0 0.34443393642843861 0.27898121693980682 0 0.3380309722238683 0.26947649535286872 0 0.34687145320678059 0.26728896608698871 0 0.34443393642843861 0.27898121693980682 0 0.3380309722238683 0.26947649535286872 0 0.32825584866010538 0.26763126739118592 0 0.33478966458886988 0.27951413886364879 0 0.32825584866010538 0.26763126739118592 0 0.33478966458886988 0.27951413886364879 0 0.32214703615001922 0.27898814474487249 0 0.30415872491716028 0.28037597919882212 0 0.31283947485178998 0.26380570477876758 0 0.32214703615001922 0.27898814474487249 0 0.31283947485178998 0.26380570477876758 0 0.32825584866010538 0.26763126739118592 0 0.32214703615001922 0.27898814474487249 0 0.30415872491716028 0.28037597919882212 0 0.32507787182516262 0.2941922592018148 0 0.30415872491716028 0.28037597919882212 0 0.32214703615001922 0.27898814474487249 0 0.32507787182516262 0.2941922592018148 0 0.32214703615001922 0.27898814474487249 0 0.32507787182516262 0.2941922592018148 0 0.32887261255641748 0.28856750208039111 0 0.32381310833864219 0.31259224492313092 0 0.30323710340959747 0.30876688125036822 0 0.32507787182516262 0.2941922592018148 0 0.32507787182516262 0.2941922592018148 0 0.32887261255641748 0.28856750208039111 0 0.3459970187331638 0.3080085392048092 0 0.32507787182516262 0.2941922592018148 0 0.3459970187331638 0.3080085392048092 0 0.32887261255641748 0.28856750208039111 0 0.3459970187331638 0.3080085392048092 0 0.32381310833864219 0.31259224492313092 0 0.32507787182516262 0.2941922592018148 0 0.3459970187331638 0.3080085392048092 0 0.32887261255641748 0.28856750208039111 0 0.34371760467523699 0.29275390069870771 0 0.3459970187331638 0.3080085392048092 0 0.33478966458886988 0.27951413886364879 0 0.32887261255641748 0.28856750208039111 0 0.33795345456224068 0.28495418964563862 0 0.33478966458886988 0.27951413886364879 0 0.32214703615001922 0.27898814474487249 0 0.32887261255641748 0.28856750208039111 0 0.32887261255641748 0.28856750208039111 0 0.34371760467523699 0.29275390069870771 0 0.33795345456224068 0.28495418964563862 0 0.34371760467523699 0.29275390069870771 0 0.33795345456224068 0.28495418964563862 0 0.34443393642843861 0.27898121693980682 0 0.34371760467523699 0.29275390069870771 0 0.3459970187331638 0.3080085392048092 0 0.36177524203261618 0.28882504046470647 0 0.34371760467523699 0.29275390069870771 0 0.35347430859236112 0.28280072447855642 0 0.36177524203261618 0.28882504046470647 0 0.34371760467523699 0.29275390069870771 0 0.35347430859236112 0.28280072447855642 0 0.34443393642843861 0.27898121693980682 0 0.35347430859236112 0.28280072447855642 0 0.36177524203261618 0.28882504046470647 0 0.36135560326841859 0.27980791790000559 0 0.36695312981490319 0.32184923260174331 0 0.3459970187331638 0.3080085392048092 0 0.37216202243157648 0.30391182465333921 0 0.3459970187331638 0.3080085392048092 0 0.37216202243157648 0.30391182465333921 0 0.36177524203261618 0.28882504046470647 0 0.37216202243157648 0.30391182465333921 0 0.36177524203261618 0.28882504046470647 0 0.37744021378696457 0.28599468586905191 0 0.36177524203261618 0.28882504046470647 0 0.36836647040724319 0.2815265389760902 0 0.37744021378696457 0.28599468586905191 0 0.36177524203261618 0.28882504046470647 0 0.36836647040724319 0.2815265389760902 0 0.36135560326841859 0.27980791790000559 0 0.36836647040724319 0.2815265389760902 0 0.37385863836621852 0.27860701273030081 0 0.37744021378696457 0.28599468586905191 0 0.36740265458199778 0.27439803791638639 0 0.35874483635965521 0.26261175413487992 0 0.381685714484163 0.27125662078704799 0 0.35874483635965521 0.26261175413487992 0 0.381685714484163 0.27125662078704799 0 0.37385863836621852 0.27860701273030081 0 0.36740265458199778 0.27439803791638639 0 0.381685714484163 0.27125662078704799 0 0.36836647040724319 0.2815265389760902 0 0.37385863836621852 0.27860701273030081 0 0.36740265458199778 0.27439803791638639 0 0.36836647040724319 0.2815265389760902 0 0.36740265458199778 0.27439803791638639 0 0.36135560326841859 0.27980791790000559 0 0.36740265458199778 0.27439803791638639 0 0.36135560326841859 0.27980791790000559 0 0.35608915655709489 0.27363554638955562 0 0.36740265458199778 0.27439803791638639 0 0.35874483635965521 0.26261175413487992 0 0.35608915655709489 0.27363554638955562 0 0.37216520196338382 0.26250538526113232 0 0.35874483635965521 0.26261175413487992 0 0.381685714484163 0.27125662078704799 0 0.37216520196338382 0.26250538526113232 0 0.37312360809717432 0.25657133323275721 0 0.35224759394217242 0.2479253194459636 0 0.37216520196338382 0.26250538526113232 0 0.35874483635965521 0.26261175413487992 0 0.35224759394217242 0.2479253194459636 0 0.37216520196338382 0.26250538526113232 0 0.35224759394217242 0.2479253194459636 0 0.3358039582351468 0.25396688748271312 0 0.35874483635965521 0.26261175413487992 0 0.34687145320678059 0.26728896608698871 0 0.3358039582351468 0.25396688748271312 0 0.35874483635965521 0.26261175413487992 0 0.35224759394217242 0.2479253194459636 0 0.3358039582351468 0.25396688748271312 0 0.35874483635965521 0.26261175413487992 0 0.34687145320678059 0.26728896608698871 0 0.34443393642843861 0.27898121693980682 0 0.35608915655709489 0.27363554638955562 0 0.35347430859236112 0.28280072447855642 0 0.34443393642843861 0.27898121693980682 0 0.35608915655709489 0.27363554638955562 0 0.35347430859236112 0.28280072447855642 0 0.36135560326841859 0.27980791790000559 0 0.35608915655709489 0.27363554638955562 0 0.35874483635965521 0.26261175413487992 0 0.34687145320678059 0.26728896608698871 0 0.35608915655709489 0.27363554638955562 0 0.39344306779005223 0.27230033237831303 0 0.38470396208546659 0.27239399433896022 0 0.39452283612847561 0.29327419615876571 0 0.39344306779005223 0.27230033237831303 0 0.39644535449312418 0.26191393482814967 0 0.38828600676639702 0.26432884528874978 0 0.39344306779005223 0.27230033237831303 0 0.40274807823316289 0.26831192179080571 0 0.39644535449312418 0.26191393482814967 0 0.39344306779005223 0.27230033237831303 0 0.40274807823316289 0.26831192179080571 0 0.40485173876458941 0.28267613629829041 0 0.40274807823316289 0.26831192179080571 0 0.39644535449312418 0.26191393482814967 0 0.40767330916685562 0.25609664483624212 0 0.39644535449312418 0.26191393482814967 0 0.40767330916685562 0.25609664483624212 0 0.39469495487488282 0.24788321047481071 0 0.39644535449312418 0.26191393482814967 0 0.38864587099104703 0.25735990491446231 0 0.39469495487488282 0.24788321047481071 0 0.39644535449312418 0.26191393482814967 0 0.38828600676639702 0.26432884528874978 0 0.38864587099104703 0.25735990491446231 0 0.38828600676639702 0.26432884528874978 0 0.38864587099104703 0.25735990491446231 0 0.38273844128199053 0.26019715847994412 0 0.38828600676639702 0.26432884528874978 0 0.38273844128199053 0.26019715847994412 0 0.38504487116062958 0.26767977667965592 0 0.3853334202703782 0.25144975246871659 0 0.38864587099104703 0.25735990491446231 0 0.38273844128199053 0.26019715847994412 0 0.3853334202703782 0.25144975246871659 0 0.38864587099104703 0.25735990491446231 0 0.39469495487488282 0.24788321047481071 0 0.37312360809717432 0.25657133323275721 0 0.37893046416378739 0.25005134563455528 0 0.38273844128199053 0.26019715847994412 0 0.3853334202703782 0.25144975246871659 0 0.37893046416378739 0.25005134563455528 0 0.38273844128199053 0.26019715847994412 0 0.37312360809717432 0.25657133323275721 0 0.381685714484163 0.27125662078704799 0 0.37216520196338382 0.26250538526113232 0 0.37312360809717432 0.25657133323275721 0 0.381685714484163 0.27125662078704799 0 0.37312360809717432 0.25657133323275721 0 0.38273844128199053 0.26019715847994412 0 0.381685714484163 0.27125662078704799 0 0.381685714484163 0.27125662078704799 0 0.38470396208546659 0.27239399433896022 0 0.39452283612847561 0.29327419615876571 0 0.39344306779005223 0.27230033237831303 0 0.38470396208546659 0.27239399433896022 0 0.38786947695063628 0.26917573717141968 0 0.38273844128199053 0.26019715847994412 0 0.381685714484163 0.27125662078704799 0 0.38504487116062958 0.26767977667965592 0 0.39344306779005223 0.27230033237831303 0 0.38828600676639702 0.26432884528874978 0 0.38786947695063628 0.26917573717141968 0 0.381685714484163 0.27125662078704799 0 0.38504487116062958 0.26767977667965592 0 0.38470396208546659 0.27239399433896022 0 0.38504487116062958 0.26767977667965592 0 0.38470396208546659 0.27239399433896022 0 0.38786947695063628 0.26917573717141968 0 0.381685714484163 0.27125662078704799 0 0.38470396208546659 0.27239399433896022 0 0.38828600676639702 0.26432884528874978 0 0.38504487116062958 0.26767977667965592 0 0.38786947695063628 0.26917573717141968 0 0.37385863836621852 0.27860701273030081 0 0.381685714484163 0.27125662078704799 0 0.37744021378696457 0.28599468586905191 0 0.381685714484163 0.27125662078704799 0 0.37744021378696457 0.28599468586905191 0 0.39452283612847561 0.29327419615876571 0 0.381685714484163 0.27125662078704799 0 0.39452283612847561 0.29327419615876571 0 0.37216202243157648 0.30391182465333921 0 0.37744021378696457 0.28599468586905191 0 0.39452283612847561 0.29327419615876571 0 0.37216202243157648 0.30391182465333921 0 0.39452283612847561 0.29327419615876571 0 0.38699433063728061 0.31527742834082251 0 0.39452283612847561 0.29327419615876571 0 0.40735995777278922 0.31529177153048282 0 0.39452283612847561 0.29327419615876571 0 0.40735995777278922 0.31529177153048282 0 0.38699433063728061 0.31527742834082251 0 0.39344306779005223 0.27230033237831303 0 0.39452283612847561 0.29327419615876571 0 0.40485173876458941 0.28267613629829041 0 0.39452283612847561 0.29327419615876571 0 0.40485173876458941 0.28267613629829041 0 0.41754629488840023 0.29524454689303942 0 0.41754629488840023 0.29524454689303942 0 0.4311872754373709 0.27809903511566009 0 0.41468339262694692 0.27218437615878938 0 0.40485173876458941 0.28267613629829041 0 0.41754629488840023 0.29524454689303942 0 0.41468339262694692 0.27218437615878938 0 0.39452283612847561 0.29327419615876571 0 0.41754629488840023 0.29524454689303942 0 0.40735995777278922 0.31529177153048282 0 0.41754629488840023 0.29524454689303942 0 0.43070121468300132 0.32102849156772251 0 0.40735995777278922 0.31529177153048282 0 0.41754629488840023 0.29524454689303942 0 0.43942509361447452 0.30330863025379029 0 0.43070121468300132 0.32102849156772251 0 0.41754629488840023 0.29524454689303942 0 0.4311872754373709 0.27809903511566009 0 0.43942509361447452 0.30330863025379029 0 0.4311872754373709 0.27809903511566009 0 0.41468339262694692 0.27218437615878938 0 0.42548962472733798 0.25271719739518789 0 0.40274807823316289 0.26831192179080571 0 0.40485173876458941 0.28267613629829041 0 0.41468339262694692 0.27218437615878938 0 0.40274807823316289 0.26831192179080571 0 0.41468339262694692 0.27218437615878938 0 0.40767330916685562 0.25609664483624212 0 0.41468339262694692 0.27218437615878938 0 0.40767330916685562 0.25609664483624212 0 0.42548962472733798 0.25271719739518789 0 0.4311872754373709 0.27809903511566009 0 0.42548962472733798 0.25271719739518789 0 0.44077755232383792 0.26053687963790823 0 0.42548962472733798 0.25271719739518789 0 0.44077755232383792 0.26053687963790823 0 0.44359590638341029 0.2449215294474314 0 0.44077755232383792 0.26053687963790823 0 0.45924072944994132 0.26799093352283149 0 0.45874486442221207 0.25191056812173451 0 0.44077755232383792 0.26053687963790823 0 0.45874486442221207 0.25191056812173451 0 0.44359590638341029 0.2449215294474314 0 0.4311872754373709 0.27809903511566009 0 0.44077755232383792 0.26053687963790823 0 0.44833244727853849 0.28668173117932277 0 0.44077755232383792 0.26053687963790823 0 0.45924072944994132 0.26799093352283149 0 0.44833244727853849 0.28668173117932277 0 0.44077755232383792 0.26053687963790823 0 0.44833244727853849 0.28668173117932277 0 0.45924072944994132 0.26799093352283149 0 0.47195365473071521 0.27933001153174541 0 0.44833244727853849 0.28668173117932277 0 0.45924072944994132 0.26799093352283149 0 0.45874486442221207 0.25191056812173451 0 0.47824650100279109 0.25602441365766121 0 0.45874486442221207 0.25191056812173451 0 0.47824650100279109 0.25602441365766121 0 0.46933416233355002 0.24299103372249159 0 0.47824650100279109 0.25602441365766121 0 0.47195365473071521 0.27933001153174541 0 0.48475267675913208 0.27158269047631622 0 0.45924072944994132 0.26799093352283149 0 0.47824650100279109 0.25602441365766121 0 0.47195365473071521 0.27933001153174541 0 0.47195365473071521 0.27933001153174541 0 0.48475267675913208 0.27158269047631622 0 0.48269678510424502 0.28418641294855579 0 0.48475267675913208 0.27158269047631622 0 0.49755105694838597 0.27201467455136352 0 0.4912552980326218 0.26306195551398881 0 0.49755105694838597 0.27201467455136352 0 0.5 0.26847991866884852 0 0.5 0.29339092869122307 0 0.48475267675913208 0.27158269047631622 0 0.49755105694838597 0.27201467455136352 0 0.48269678510424502 0.28418641294855579 0 0.49755105694838597 0.27201467455136352 0 0.5 0.26847991866884852 0 0.4912552980326218 0.26306195551398881 0 0.47824650100279109 0.25602441365766121 0 0.4912552980326218 0.26306195551398881 0 0.5 0.24356890864647379 0 0.5 0.26847991866884852 0 0.4912552980326218 0.26306195551398881 0 0.5 0.24356890864647379 0 0.47824650100279109 0.25602441365766121 0 0.48475267675913208 0.27158269047631622 0 0.4912552980326218 0.26306195551398881 0 0.48911143983256161 0.29926170407256603 0 0.5 0.29339092869122307 0 0.5 0.31830193871359769 0 0.49755105694838597 0.27201467455136352 0 0.48911143983256161 0.29926170407256603 0 0.48269678510424502 0.28418641294855579 0 0.49755105694838597 0.27201467455136352 0 0.48911143983256161 0.29926170407256603 0 0.5 0.29339092869122307 0 0.49755105694838597 0.27201467455136352 0 0.48911143983256161 0.29926170407256603 0 0.47195365473071521 0.27933001153174541 0 0.48269678510424502 0.28418641294855579 0 0.47011509725042949 0.29874298411078831 0 0.48911143983256161 0.29926170407256603 0 0.48269678510424502 0.28418641294855579 0 0.47011509725042949 0.29874298411078831 0 0.48911143983256161 0.29926170407256603 0 0.47011509725042949 0.29874298411078831 0 0.48067182271673708 0.32650873359376842 0 0.47011509725042949 0.29874298411078831 0 0.44833244727853849 0.28668173117932277 0 0.45588734223323918 0.31282658272073732 0 0.47195365473071521 0.27933001153174541 0 0.47011509725042949 0.29874298411078831 0 0.44833244727853849 0.28668173117932277 0 0.4311872754373709 0.27809903511566009 0 0.44833244727853849 0.28668173117932277 0 0.43942509361447452 0.30330863025379029 0 0.43942509361447452 0.30330863025379029 0 0.45588734223323918 0.31282658272073732 0 0.43070121468300132 0.32102849156772251 0 0.44833244727853849 0.28668173117932277 0 0.43942509361447452 0.30330863025379029 0 0.45588734223323918 0.31282658272073732 0 0.44833244727853849 0.28668173117932277 0 0.45588734223323918 0.31282658272073732 0 0.448070902395172 0.33067503636224849 0 0.45588734223323918 0.31282658272073732 0 0.43070121468300132 0.32102849156772251 0 0.448070902395172 0.33067503636224849 0 0.43668897460385991 0.33802409466628291 0 0.43070121468300132 0.32102849156772251 0 0.448070902395172 0.33067503636224849 0 0.4509596724681984 0.34597130660985181 0 0.43668897460385991 0.33802409466628291 0 0.448070902395172 0.33067503636224849 0 0.46344223718793992 0.33897143426215193 0 0.4509596724681984 0.34597130660985181 0 0.448070902395172 0.33067503636224849 0 0.46344223718793992 0.33897143426215193 0 0.45588734223323918 0.31282658272073732 0 0.46344223718793992 0.33897143426215193 0 0.45588734223323918 0.31282658272073732 0 0.48067182271673708 0.32650873359376842 0 0.46344223718793992 0.33897143426215193 0 0.45588734223323918 0.31282658272073732 0 0.47011509725042949 0.29874298411078831 0 0.45588734223323918 0.31282658272073732 0 0.48067182271673708 0.32650873359376842 0 0.46344223718793992 0.33897143426215193 0 0.48067182271673708 0.32650873359376842 0 0.47223220560091311 0.3537557631149707 0 0.48067182271673708 0.32650873359376842 0 0.47223220560091311 0.3537557631149707 0 0.48067182271673708 0.32650873359376842 0 0.49999999999999739 0.3432129487359723 0 0.47223220560091311 0.3537557631149707 0 0.48067182271673708 0.32650873359376842 0 0.49999999999999739 0.3432129487359723 0 0.5 0.31830193871359769 0 0.48911143983256161 0.29926170407256603 0 0.48067182271673708 0.32650873359376842 0 0.48911143983256161 0.29926170407256603 0 0.48067182271673708 0.32650873359376842 0 0.5 0.31830193871359769 0 0.48462506131484462 0.36210889275229752 0 0.5 0.36538246488633103 0 0.48349849911015469 0.37881947749249129 0 0.49999999999999739 0.3432129487359723 0 0.47223220560091311 0.3537557631149707 0 0.49999999999999739 0.3432129487359723 0 0.48462506131484462 0.36210889275229752 0 0.5 0.36538246488633103 0 0.49999999999999739 0.3432129487359723 0 0.48462506131484462 0.36210889275229752 0 0.47223220560091311 0.3537557631149707 0 0.48462506131484462 0.36210889275229752 0 0.47223220560091311 0.3537557631149707 0 0.46739460186315518 0.36937380953172211 0 0.48462506131484462 0.36210889275229752 0 0.46739460186315518 0.36937380953172211 0 0.48349849911015469 0.37881947749249129 0 0.47223220560091311 0.3537557631149707 0 0.46739460186315518 0.36937380953172211 0 0.46739460186315518 0.36937380953172211 0 0.45414510423174043 0.36062303350918079 0 0.44930750049397739 0.37624107992593242 0 0.47223220560091311 0.3537557631149707 0 0.46739460186315518 0.36937380953172211 0 0.45414510423174043 0.36062303350918079 0 0.47223220560091311 0.3537557631149707 0 0.45414510423174043 0.36062303350918079 0 0.47223220560091311 0.3537557631149707 0 0.45414510423174043 0.36062303350918079 0 0.4509596724681984 0.34597130660985181 0 0.46344223718793992 0.33897143426215193 0 0.47223220560091311 0.3537557631149707 0 0.4509596724681984 0.34597130660985181 0 0.45414510423174043 0.36062303350918079 0 0.4509596724681984 0.34597130660985181 0 0.43562604991909898 0.35064535888233211 0 0.4509596724681984 0.34597130660985181 0 0.43562604991909898 0.35064535888233211 0 0.43668897460385991 0.33802409466628291 0 0.45414510423174043 0.36062303350918079 0 0.43605800286256768 0.36749030390339121 0 0.45414510423174043 0.36062303350918079 0 0.43605800286256768 0.36749030390339121 0 0.43562604991909898 0.35064535888233211 0 0.45414510423174043 0.36062303350918079 0 0.43605800286256768 0.36749030390339121 0 0.44930750049397739 0.37624107992593242 0 0.43605800286256768 0.36749030390339121 0 0.44930750049397739 0.37624107992593242 0 0.43605800286256768 0.36749030390339121 0 0.42042272087576299 0.37342667297113469 0 0.43588641146379892 0.38340597586918751 0 0.43605800286256768 0.36749030390339121 0 0.42042272087576299 0.37342667297113469 0 0.43605800286256768 0.36749030390339121 0 0.42042272087576299 0.37342667297113469 0 0.41198362187960452 0.35159011495103543 0 0.43605800286256768 0.36749030390339121 0 0.41198362187960452 0.35159011495103543 0 0.42042272087576299 0.37342667297113469 0 0.39845317715951378 0.35931083761804239 0 0.40007287044761719 0.37605628743184349 0 0.42042272087576299 0.37342667297113469 0 0.41198362187960452 0.35159011495103543 0 0.39845317715951378 0.35931083761804239 0 0.43605800286256768 0.36749030390339121 0 0.41198362187960452 0.35159011495103543 0 0.43562604991909898 0.35064535888233211 0 0.41198362187960452 0.35159011495103543 0 0.43562604991909898 0.35064535888233211 0 0.42392092346862348 0.34017329965425108 0 0.43668897460385991 0.33802409466628291 0 0.42392092346862348 0.34017329965425108 0 0.43070121468300132 0.32102849156772251 0 0.42392092346862348 0.34017329965425108 0 0.43070121468300132 0.32102849156772251 0 0.41155345216491362 0.33285116161983591 0 0.43562604991909898 0.35064535888233211 0 0.43668897460385991 0.33802409466628291 0 0.42392092346862348 0.34017329965425108 0 0.43070121468300132 0.32102849156772251 0 0.40735995777278922 0.31529177153048282 0 0.41155345216491362 0.33285116161983591 0 0.41198362187960452 0.35159011495103543 0 0.42392092346862348 0.34017329965425108 0 0.41155345216491362 0.33285116161983591 0 0.41155345216491362 0.33285116161983591 0 0.38790924089664541 0.3356899259986732 0 0.41198362187960452 0.35159011495103543 0 0.38790924089664541 0.3356899259986732 0 0.41198362187960452 0.35159011495103543 0 0.41155345216491362 0.33285116161983591 0 0.38790924089664541 0.3356899259986732 0 0.40735995777278922 0.31529177153048282 0 0.41155345216491362 0.33285116161983591 0 0.38790924089664541 0.3356899259986732 0 0.40735995777278922 0.31529177153048282 0 0.38699433063728061 0.31527742834082251 0 0.38790924089664541 0.3356899259986732 0 0.36695312981490319 0.32184923260174331 0 0.37216202243157648 0.30391182465333921 0 0.38699433063728061 0.31527742834082251 0 0.36695312981490319 0.32184923260174331 0 0.38699433063728061 0.31527742834082251 0 0.38790924089664541 0.3356899259986732 0 0.37205635918113023 0.33759325004721019 0 0.38790924089664541 0.3356899259986732 0 0.37205635918113023 0.33759325004721019 0 0.38790924089664541 0.3356899259986732 0 0.38427987039732642 0.35147038732672498 0 0.37205635918113023 0.33759325004721019 0 0.36695312981490319 0.32184923260174331 0 0.38790924089664541 0.3356899259986732 0 0.36695312981490319 0.32184923260174331 0 0.38790924089664541 0.3356899259986732 0 0.37205635918113023 0.33759325004721019 0 0.38427987039732642 0.35147038732672498 0 0.38790924089664541 0.3356899259986732 0 0.38427987039732642 0.35147038732672498 0 0.39845317715951378 0.35931083761804239 0 0.36602915985094442 0.36604234812139003 0 0.38605073846013049 0.36763163702883689 0 0.38255439677524639 0.38429210051758922 0 0.38427987039732642 0.35147038732672498 0 0.38605073846013049 0.36763163702883689 0 0.39845317715951378 0.35931083761804239 0 0.36602915985094442 0.36604234812139003 0 0.38427987039732642 0.35147038732672498 0 0.38605073846013049 0.36763163702883689 0 0.38605073846013049 0.36763163702883689 0 0.39845317715951378 0.35931083761804239 0 0.40007287044761719 0.37605628743184349 0 0.41198362187960452 0.35159011495103543 0 0.38790924089664541 0.3356899259986732 0 0.39845317715951378 0.35931083761804239 0 0.3984325666905677 0.39979605835387461 0 0.39496920901563881 0.38932481931790908 0 0.38419135016881789 0.39689882966673729 0 0.3984325666905677 0.39979605835387461 0 0.39991217951303037 0.41124407223877207 0 0.41159178245276712 0.40359082712682559 0 0.3984325666905677 0.39979605835387461 0 0.39496920901563881 0.38932481931790908 0 0.40959486099594472 0.38958082061950122 0 0.40007287044761719 0.37605628743184349 0 0.39496920901563881 0.38932481931790908 0 0.38255439677524639 0.38429210051758922 0 0.40007287044761719 0.37605628743184349 0 0.39496920901563881 0.38932481931790908 0 0.40959486099594472 0.38958082061950122 0 0.39496920901563881 0.38932481931790908 0 0.38255439677524639 0.38429210051758922 0 0.38419135016881789 0.39689882966673729 0 0.38605073846013049 0.36763163702883689 0 0.40007287044761719 0.37605628743184349 0 0.38255439677524639 0.38429210051758922 0 0.37111164107540201 0.38604060083203973 0 0.38255439677524639 0.38429210051758922 0 0.37546942330986471 0.392876571140854 0 0.37422473952013219 0.39927691022152861 0 0.37546942330986471 0.392876571140854 0 0.38419135016881789 0.39689882966673729 0 0.38255439677524639 0.38429210051758922 0 0.37546942330986471 0.392876571140854 0 0.38419135016881789 0.39689882966673729 0 0.3984325666905677 0.39979605835387461 0 0.38419135016881789 0.39689882966673729 0 0.38879181847559119 0.40924441288895469 0 0.38419135016881789 0.39689882966673729 0 0.37680910359599418 0.40611571608601987 0 0.38879181847559119 0.40924441288895469 0 0.37422473952013219 0.39927691022152861 0 0.38419135016881789 0.39689882966673729 0 0.37680910359599418 0.40611571608601987 0 0.37680910359599418 0.40611571608601987 0 0.37936901366415587 0.41851740550373551 0 0.38879181847559119 0.40924441288895469 0 0.37936901366415587 0.41851740550373551 0 0.38879181847559119 0.40924441288895469 0 0.39498789325749872 0.42192920918746502 0 0.37000071319738959 0.42433193034315791 0 0.38690196345533739 0.4407268751084511 0 0.37092296091976951 0.43938961692773432 0 0.37000071319738959 0.42433193034315791 0 0.38690196345533739 0.4407268751084511 0 0.37000071319738959 0.42433193034315791 0 0.37936901366415587 0.41851740550373551 0 0.38690196345533739 0.4407268751084511 0 0.37936901366415587 0.41851740550373551 0 0.39498789325749872 0.42192920918746502 0 0.38690196345533739 0.4407268751084511 0 0.39498789325749872 0.42192920918746502 0 0.4082467852056359 0.43528795840466328 0 0.38690196345533739 0.4407268751084511 0 0.39498789325749872 0.42192920918746502 0 0.41032257766401131 0.41702695941054319 0 0.4082467852056359 0.43528795840466328 0 0.3984325666905677 0.39979605835387461 0 0.38879181847559119 0.40924441288895469 0 0.39991217951303037 0.41124407223877207 0 0.38879181847559119 0.40924441288895469 0 0.39498789325749872 0.42192920918746502 0 0.39991217951303037 0.41124407223877207 0 0.39498789325749872 0.42192920918746502 0 0.39991217951303037 0.41124407223877207 0 0.41032257766401131 0.41702695941054319 0 0.39991217951303037 0.41124407223877207 0 0.41032257766401131 0.41702695941054319 0 0.41159178245276712 0.40359082712682559 0 0.41032257766401131 0.41702695941054319 0 0.42780099953173562 0.40940817876423491 0 0.41159178245276712 0.40359082712682559 0 0.41032257766401131 0.41702695941054319 0 0.4082467852056359 0.43528795840466328 0 0.42820737041775758 0.42561773626264537 0 0.4082467852056359 0.43528795840466328 0 0.42820737041775758 0.42561773626264537 0 0.42820851480147359 0.44543761044831931 0 0.42820737041775758 0.42561773626264537 0 0.44026018455567828 0.42932162905856569 0 0.42820851480147359 0.44543761044831931 0 0.42820737041775758 0.42561773626264537 0 0.43792109463115969 0.41911043248575131 0 0.44026018455567828 0.42932162905856569 0 0.42820737041775758 0.42561773626264537 0 0.42780099953173562 0.40940817876423491 0 0.43792109463115969 0.41911043248575131 0 0.41032257766401131 0.41702695941054319 0 0.42820737041775758 0.42561773626264537 0 0.42780099953173562 0.40940817876423491 0 0.42780099953173562 0.40940817876423491 0 0.43792109463115969 0.41911043248575131 0 0.44235869614123552 0.40883106169692829 0 0.42780099953173562 0.40940817876423491 0 0.43595366972413302 0.3978139097759098 0 0.42443870635783087 0.39352368707690349 0 0.42780099953173562 0.40940817876423491 0 0.43595366972413302 0.3978139097759098 0 0.44235869614123552 0.40883106169692829 0 0.43595366972413302 0.3978139097759098 0 0.42443870635783087 0.39352368707690349 0 0.43588641146379892 0.38340597586918751 0 0.42780099953173562 0.40940817876423491 0 0.42443870635783087 0.39352368707690349 0 0.41159178245276712 0.40359082712682559 0 0.42443870635783087 0.39352368707690349 0 0.41159178245276712 0.40359082712682559 0 0.40959486099594472 0.38958082061950122 0 0.3984325666905677 0.39979605835387461 0 0.41159178245276712 0.40359082712682559 0 0.40959486099594472 0.38958082061950122 0 0.42042272087576299 0.37342667297113469 0 0.40007287044761719 0.37605628743184349 0 0.40959486099594472 0.38958082061950122 0 0.42042272087576299 0.37342667297113469 0 0.42443870635783087 0.39352368707690349 0 0.40959486099594472 0.38958082061950122 0 0.42042272087576299 0.37342667297113469 0 0.42443870635783087 0.39352368707690349 0 0.43588641146379892 0.38340597586918751 0 0.43605800286256768 0.36749030390339121 0 0.43588641146379892 0.38340597586918751 0 0.44930750049397739 0.37624107992593242 0 0.44930750049397739 0.37624107992593242 0 0.44730348520445518 0.39260260188461632 0 0.46255699812538892 0.38499185594847091 0 0.43588641146379892 0.38340597586918751 0 0.44930750049397739 0.37624107992593242 0 0.44730348520445518 0.39260260188461632 0 0.43595366972413302 0.3978139097759098 0 0.44730348520445518 0.39260260188461632 0 0.44235869614123552 0.40883106169692829 0 0.44730348520445518 0.39260260188461632 0 0.45676761031739471 0.4036827062974277 0 0.44235869614123552 0.40883106169692829 0 0.43595366972413302 0.3978139097759098 0 0.43588641146379892 0.38340597586918751 0 0.44730348520445518 0.39260260188461632 0 0.45676761031739471 0.4036827062974277 0 0.46255699812538892 0.38499185594847091 0 0.48127849906268699 0.39735667656776291 0 0.45676761031739471 0.4036827062974277 0 0.46255699812538892 0.38499185594847091 0 0.44730348520445518 0.39260260188461632 0 0.45676761031739471 0.4036827062974277 0 0.46255699812538892 0.38499185594847091 0 0.46739460186315518 0.36937380953172211 0 0.44930750049397739 0.37624107992593242 0 0.46255699812538892 0.38499185594847091 0 0.44930750049397739 0.37624107992593242 0 0.46255699812538892 0.38499185594847091 0 0.46739460186315518 0.36937380953172211 0 0.46255699812538892 0.38499185594847091 0 0.46739460186315518 0.36937380953172211 0 0.46255699812538892 0.38499185594847091 0 0.48349849911015469 0.37881947749249129 0 0.46255699812538892 0.38499185594847091 0 0.48349849911015469 0.37881947749249129 0 0.48127849906268699 0.39735667656776291 0 0.45676761031739471 0.4036827062974277 0 0.48127849906268699 0.39735667656776291 0 0.46909732254772729 0.41463806893859673 0 0.46255699812538892 0.38499185594847091 0 0.48127849906268699 0.39735667656776291 0 0.48127849906268699 0.39735667656776291 0 0.49999999999998979 0.4097214971870482 0 0.48127849906268699 0.39735667656776291 0 0.5 0.38755198103668947 0 0.49999999999998979 0.4097214971870482 0 0.5 0.36538246488633103 0 0.48349849911015469 0.37881947749249129 0 0.5 0.38755198103668947 0 0.48349849911015469 0.37881947749249129 0 0.48127849906268699 0.39735667656776291 0 0.5 0.38755198103668947 0 0.5 0.43455808130897799 0 0.47704908776503102 0.42600382154527611 0 0.48395226638135841 0.4402431311965519 0 0.5 0.43455808130897799 0 0.4851508451460832 0.41317987188907818 0 0.47704908776503102 0.42600382154527611 0 0.5 0.43455808130897799 0 0.4851508451460832 0.41317987188907818 0 0.49999999999998979 0.4097214971870482 0 0.48127849906268699 0.39735667656776291 0 0.4851508451460832 0.41317987188907818 0 0.49999999999998979 0.4097214971870482 0 0.48127849906268699 0.39735667656776291 0 0.4851508451460832 0.41317987188907818 0 0.46909732254772729 0.41463806893859673 0 0.4851508451460832 0.41317987188907818 0 0.46909732254772729 0.41463806893859673 0 0.47704908776503102 0.42600382154527611 0 0.46909732254772729 0.41463806893859673 0 0.47704908776503102 0.42600382154527611 0 0.46347725801709883 0.42638456686965331 0 0.47704908776503102 0.42600382154527611 0 0.46714765225578081 0.43813895467358083 0 0.48395226638135841 0.4402431311965519 0 0.47704908776503102 0.42600382154527611 0 0.46347725801709883 0.42638456686965331 0 0.46714765225578081 0.43813895467358083 0 0.46347725801709883 0.42638456686965331 0 0.45261381588966187 0.43375340102289278 0 0.46714765225578081 0.43813895467358083 0 0.46347725801709883 0.42638456686965331 0 0.45261381588966187 0.43375340102289278 0 0.45097822250939168 0.42237355664638188 0 0.45676761031739471 0.4036827062974277 0 0.46909732254772729 0.41463806893859673 0 0.45097822250939168 0.42237355664638188 0 0.45676761031739471 0.4036827062974277 0 0.45097822250939168 0.42237355664638188 0 0.46909732254772729 0.41463806893859673 0 0.46347725801709883 0.42638456686965331 0 0.45097822250939168 0.42237355664638188 0 0.45676761031739471 0.4036827062974277 0 0.44235869614123552 0.40883106169692829 0 0.45097822250939168 0.42237355664638188 0 0.43792109463115969 0.41911043248575131 0 0.44235869614123552 0.40883106169692829 0 0.45097822250939168 0.42237355664638188 0 0.45261381588966187 0.43375340102289278 0 0.44026018455567828 0.42932162905856569 0 0.42820851480147359 0.44543761044831931 0 0.45261381588966187 0.43375340102289278 0 0.45097822250939168 0.42237355664638188 0 0.44026018455567828 0.42932162905856569 0 0.43792109463115969 0.41911043248575131 0 0.45097822250939168 0.42237355664638188 0 0.44026018455567828 0.42932162905856569 0 0.45261381588966187 0.43375340102289278 0 0.45154280142377212 0.44981988954537772 0 0.42820851480147359 0.44543761044831931 0 0.5 0.5 0 0.4455277151939559 0.49759639345230572 0 0.4333737662261169 0.5 0 0.45261381588966187 0.43375340102289278 0 0.42820851480147359 0.44543761044831931 0 0.45568734046478659 0.46568900595178581 0 0.44127686650438008 0.47585374608906988 0 0.43228405471362819 0.46167599055316821 0 0.45154280142377212 0.44981988954537772 0 0.45568734046478659 0.46568900595178581 0 0.43228405471362819 0.46167599055316821 0 0.45154280142377212 0.44981988954537772 0 0.45568734046478659 0.46568900595178581 0 0.47331543041730201 0.45422437462251941 0 0.45261381588966187 0.43375340102289278 0 0.45154280142377212 0.44981988954537772 0 0.46714765225578081 0.43813895467358083 0 0.45154280142377212 0.44981988954537772 0 0.46714765225578081 0.43813895467358083 0 0.47331543041730201 0.45422437462251941 0 0.46714765225578081 0.43813895467358083 0 0.48395226638135841 0.4402431311965519 0 0.47331543041730201 0.45422437462251941 0 0.45568734046478659 0.46568900595178581 0 0.47331543041730201 0.45422437462251941 0 0.47928597457077848 0.47221272887046462 0 0.47331543041730201 0.45422437462251941 0 0.5 0.45939466543090779 0 0.47928597457077848 0.47221272887046462 0 0.48395226638135841 0.4402431311965519 0 0.47331543041730201 0.45422437462251941 0 0.5 0.45939466543090779 0 0.5 0.43455808130897799 0 0.48395226638135841 0.4402431311965519 0 0.5 0.45939466543090779 0 0.5 0.5 0 0.47061049731443488 0.48882496876367892 0 0.4455277151939559 0.49759639345230572 0 0.5 0.5 0 0.49999999999999828 0.48423124955283769 0 0.47061049731443488 0.48882496876367892 0 0.49999999999999828 0.48423124955283769 0 0.47061049731443488 0.48882496876367892 0 0.5 0.45939466543090779 0 0.49999999999999828 0.48423124955283769 0 0.47928597457077848 0.47221272887046462 0 0.49999999999999828 0.48423124955283769 0 0.47928597457077848 0.47221272887046462 0 0.47061049731443488 0.48882496876367892 0 0.47928597457077848 0.47221272887046462 0 0.47061049731443488 0.48882496876367892 0 0.45761633469665031 0.47919982752990359 0 0.47061049731443488 0.48882496876367892 0 0.45761633469665031 0.47919982752990359 0 0.44122099462887149 0.49341868797451932 0 0.47061049731443488 0.48882496876367892 0 0.44122099462887149 0.49341868797451932 0 0.45568734046478659 0.46568900595178581 0 0.47928597457077848 0.47221272887046462 0 0.45761633469665031 0.47919982752990359 0 0.45568734046478659 0.46568900595178581 0 0.45761633469665031 0.47919982752990359 0 0.44127686650438008 0.47585374608906988 0 0.45761633469665031 0.47919982752990359 0 0.44127686650438008 0.47585374608906988 0 0.44122099462887149 0.49341868797451932 0 0.47061049731443488 0.48882496876367892 0 0.4455277151939559 0.49759639345230572 0 0.44122099462887149 0.49341868797451932 0 0.4455277151939559 0.49759639345230572 0 0.44122099462887149 0.49341868797451932 0 0.4333737662261169 0.5 0 0.4455277151939559 0.49759639345230572 0 0.44122099462887149 0.49341868797451932 0 0.4333737662261169 0.5 0 0.4177260211727345 0.4970910641994058 0 0.38550110992932601 0.5 0 0.44122099462887149 0.49341868797451932 0 0.4177260211727345 0.4970910641994058 0 0.44122099462887149 0.49341868797451932 0 0.4177260211727345 0.4970910641994058 0 0.42251210417107898 0.47527025392413108 0 0.44122099462887149 0.49341868797451932 0 0.4333737662261169 0.5 0 0.4177260211727345 0.4970910641994058 0 0.4177260211727345 0.4970910641994058 0 0.42251210417107898 0.47527025392413108 0 0.39852669178588251 0.48007340300291151 0 0.42251210417107898 0.47527025392413108 0 0.40380321371328498 0.45712181987374462 0 0.39852669178588251 0.48007340300291151 0 0.44127686650438008 0.47585374608906988 0 0.42251210417107898 0.47527025392413108 0 0.43228405471362819 0.46167599055316821 0 0.44127686650438008 0.47585374608906988 0 0.44122099462887149 0.49341868797451932 0 0.42251210417107898 0.47527025392413108 0 0.44122099462887149 0.49341868797451932 0 0.42251210417107898 0.47527025392413108 0 0.45154280142377212 0.44981988954537772 0 0.43228405471362819 0.46167599055316821 0 0.42820851480147359 0.44543761044831931 0 0.42820851480147359 0.44543761044831931 0 0.40380321371328498 0.45712181987374462 0 0.4082467852056359 0.43528795840466328 0 0.42820851480147359 0.44543761044831931 0 0.40380321371328498 0.45712181987374462 0 0.42251210417107898 0.47527025392413108 0 0.40380321371328498 0.45712181987374462 0 0.43228405471362819 0.46167599055316821 0 0.42820851480147359 0.44543761044831931 0 0.40380321371328498 0.45712181987374462 0 0.42251210417107898 0.47527025392413108 0 0.43228405471362819 0.46167599055316821 0 0.40380321371328498 0.45712181987374462 0 0.40380321371328498 0.45712181987374462 0 0.38311814693722518 0.46702494097506209 0 0.40380321371328498 0.45712181987374462 0 0.38311814693722518 0.46702494097506209 0 0.39852669178588251 0.48007340300291151 0 0.40380321371328498 0.45712181987374462 0 0.38690196345533739 0.4407268751084511 0 0.38311814693722518 0.46702494097506209 0 0.40380321371328498 0.45712181987374462 0 0.38690196345533739 0.4407268751084511 0 0.4082467852056359 0.43528795840466328 0 0.40380321371328498 0.45712181987374462 0 0.38690196345533739 0.4407268751084511 0 0.37092296091976951 0.43938961692773432 0 0.37192382499149762 0.45273084783515988 0 0.38690196345533739 0.4407268751084511 0 0.37192382499149762 0.45273084783515988 0 0.38690196345533739 0.4407268751084511 0 0.38311814693722518 0.46702494097506209 0 0.38311814693722518 0.46702494097506209 0 0.37613613637947579 0.48480528121087041 0 0.39852669178588251 0.48007340300291151 0 0.4177260211727345 0.4970910641994058 0 0.38550110992932601 0.5 0 0.39852669178588251 0.48007340300291151 0 0.38550110992932601 0.5 0 0.37613613637947579 0.48480528121087041 0 0.39852669178588251 0.48007340300291151 0 0.34259539096436398 0.09118829322831902 0 0.32633281564015992 0.072668432215551165 0 0.34567260853765808 0.071329901325467543 0 0.34259539096436398 0.09118829322831902 0 0.32633281564015992 0.072668432215551165 0 0.32351134297334733 0.093877659623467502 0 0.32633281564015992 0.072668432215551165 0 0.34567260853765808 0.071329901325467543 0 0.33250164792649162 0.052151241473614073 0 0.32633281564015992 0.072668432215551165 0 0.31223709232351993 0.056058648764058069 0 0.30317902354651988 0.075442409051350412 0 0.32633281564015992 0.072668432215551165 0 0.32351134297334733 0.093877659623467502 0 0.30317902354651988 0.075442409051350412 0 0.32351134297334733 0.093877659623467502 0 0.30317902354651988 0.075442409051350412 0 0.32351134297334733 0.093877659623467502 0 0.33291570853134211 0.11141330338696261 0 0.31040793943754952 0.1125417237173037 0 0.33291570853134211 0.11141330338696261 0 0.31040793943754952 0.1125417237173037 0 0.32435478528943018 0.13693357267951059 0 0.33291570853134211 0.11141330338696261 0 0.35247160992972693 0.1077380327513143 0 0.34394273747561172 0.12797668246282889 0 0.34259539096436398 0.09118829322831902 0 0.32351134297334733 0.093877659623467502 0 0.33291570853134211 0.11141330338696261 0 0.34259539096436398 0.09118829322831902 0 0.33291570853134211 0.11141330338696261 0 0.35247160992972693 0.1077380327513143 0 0.34259539096436398 0.09118829322831902 0 0.35247160992972693 0.1077380327513143 0 0.35942853527027108 0.08819232105907529 0 0.35247160992972693 0.1077380327513143 0 0.36744753186943618 0.1199087634939994 0 0.34394273747561172 0.12797668246282889 0 0.35247160992972693 0.1077380327513143 0 0.36744753186943618 0.1199087634939994 0 0.37390898500207681 0.1041512651792777 0 0.35247160992972693 0.1077380327513143 0 0.37390898500207681 0.1041512651792777 0 0.35942853527027108 0.08819232105907529 0 0.37390898500207681 0.1041512651792777 0 0.374244235244309 0.089538525487199636 0 0.35942853527027108 0.08819232105907529 0 0.374244235244309 0.089538525487199636 0 0.35942853527027108 0.08819232105907529 0 0.36767838194349212 0.065207908382873617 0 0.34259539096436398 0.09118829322831902 0 0.35942853527027108 0.08819232105907529 0 0.34567260853765808 0.071329901325467543 0 0.35942853527027108 0.08819232105907529 0 0.34567260853765808 0.071329901325467543 0 0.36767838194349212 0.065207908382873617 0 0.36767838194349212 0.065207908382873617 0 0.36720056452803479 0.046410068451118613 0 0.35138213141341362 0.049213522568778881 0 0.36767838194349212 0.065207908382873617 0 0.35138213141341362 0.049213522568778881 0 0.36767838194349212 0.065207908382873617 0 0.36720056452803479 0.046410068451118613 0 0.38078446969602209 0.058068329676514208 0 0.36720056452803479 0.046410068451118613 0 0.35919888701021169 0.031352287885643051 0 0.38436572452315998 0.019848123384192388 0 0.35919888701021169 0.031352287885643051 0 0.34684176264918221 0.033267158878167939 0 0.35138213141341362 0.049213522568778881 0 0.36720056452803479 0.046410068451118613 0 0.35919888701021169 0.031352287885643051 0 0.35138213141341362 0.049213522568778881 0 0.34684176264918221 0.033267158878167939 0 0.35138213141341362 0.049213522568778881 0 0.33508588088333502 0.033219136754684131 0 0.34567260853765808 0.071329901325467543 0 0.36767838194349212 0.065207908382873617 0 0.35138213141341362 0.049213522568778881 0 0.37189854200638939 0.0052554674511347751 0 0.35787163828763818 0.014978793070746141 0 0.38436572452315998 0.019848123384192388 0 0.37189854200638939 0.0052554674511347751 0 0.35787163828763818 0.014978793070746141 0 0.35235534956952219 0.001626809587882895 0 0.35919888701021169 0.031352287885643051 0 0.35787163828763818 0.014978793070746141 0 0.38436572452315998 0.019848123384192388 0 0.35787163828763818 0.014978793070746141 0 0.38436572452315998 0.019848123384192388 0 0.34753150065984162 0.024396060960854352 0 0.35787163828763818 0.014978793070746141 0 0.34062235347350173 0.018212489844603091 0 0.35919888701021169 0.031352287885643051 0 0.34753150065984162 0.024396060960854352 0 0.35787163828763818 0.014978793070746141 0 0.35919888701021169 0.031352287885643051 0 0.34684176264918221 0.033267158878167939 0 0.34753150065984162 0.024396060960854352 0 0.35787163828763818 0.014978793070746141 0 0.34230059718848171 0.0025810500958884639 0 0.3313775520521165 0.010109462757299891 0 0.35787163828763818 0.014978793070746141 0 0.3313775520521165 0.010109462757299891 0 0.35787163828763818 0.014978793070746141 0 0.35235534956952219 0.001626809587882895 0 0.34230059718848171 0.0025810500958884639 0 0.35787163828763818 0.014978793070746141 0 0.3313775520521165 0.010109462757299891 0 0.34062235347350173 0.018212489844603091 0 0.34230059718848171 0.0025810500958884639 0 0.3313775520521165 0.010109462757299891 0 0.33122203488715368 -0.001204029555422461 0 0.3313775520521165 0.010109462757299891 0 0.33035322987751881 0.017291128189472881 0 0.34062235347350173 0.018212489844603091 0 0.3313775520521165 0.010109462757299891 0 0.33035322987751881 0.017291128189472881 0 0.32406770797834378 0.016600379937713929 0 0.33035322987751881 0.017291128189472881 0 0.33597784649039358 0.02428700424464221 0 0.32129516110051931 0.036674888476765477 0 0.33035322987751881 0.017291128189472881 0 0.34062235347350173 0.018212489844603091 0 0.33597784649039358 0.02428700424464221 0 0.34753150065984162 0.024396060960854352 0 0.34062235347350173 0.018212489844603091 0 0.33597784649039358 0.02428700424464221 0 0.34684176264918221 0.033267158878167939 0 0.33597784649039358 0.02428700424464221 0 0.33508588088333502 0.033219136754684131 0 0.34684176264918221 0.033267158878167939 0 0.34753150065984162 0.024396060960854352 0 0.33597784649039358 0.02428700424464221 0 0.33035322987751881 0.017291128189472881 0 0.32129516110051931 0.036674888476765477 0 0.33035322987751881 0.017291128189472881 0 0.31904689536315423 0.023243705327429611 0 0.32129516110051931 0.036674888476765477 0 0.31476601529599157 0.03067854944696723 0 0.31904689536315423 0.023243705327429611 0 0.32129516110051931 0.036674888476765477 0 0.31476601529599157 0.03067854944696723 0 0.31904689536315423 0.023243705327429611 0 0.30978138035003572 0.022038709433883811 0 0.31904689536315423 0.023243705327429611 0 0.31549315462058558 0.015757223476653349 0 0.32406770797834378 0.016600379937713929 0 0.31904689536315423 0.023243705327429611 0 0.31549315462058558 0.015757223476653349 0 0.30978138035003572 0.022038709433883811 0 0.33035322987751881 0.017291128189472881 0 0.31904689536315423 0.023243705327429611 0 0.32406770797834378 0.016600379937713929 0 0.3313775520521165 0.010109462757299891 0 0.3048834658165947 0.0052401324438536376 0 0.32067872675594261 -0.0026339777492341539 0 0.3313775520521165 0.010109462757299891 0 0.31549315462058558 0.015757223476653349 0 0.32406770797834378 0.016600379937713929 0 0.3313775520521165 0.010109462757299891 0 0.3048834658165947 0.0052401324438536376 0 0.3313775520521165 0.010109462757299891 0 0.31549315462058558 0.015757223476653349 0 0.3048834658165947 0.0052401324438536376 0 0.3313775520521165 0.010109462757299891 0 0.33122203488715368 -0.001204029555422461 0 0.32067872675594261 -0.0026339777492341539 0 0.34567260853765808 0.071329901325467543 0 0.35138213141341362 0.049213522568778881 0 0.33250164792649162 0.052151241473614073 0 0.35138213141341362 0.049213522568778881 0 0.33250164792649162 0.052151241473614073 0 0.33508588088333502 0.033219136754684131 0 0.35138213141341362 0.049213522568778881 0 0.33508588088333502 0.033219136754684131 0 0.33250164792649162 0.052151241473614073 0 0.33508588088333502 0.033219136754684131 0 0.32129516110051931 0.036674888476765477 0 0.33597784649039358 0.02428700424464221 0 0.33508588088333502 0.033219136754684131 0 0.32129516110051931 0.036674888476765477 0 0.32129516110051931 0.036674888476765477 0 0.31223709232351993 0.056058648764058069 0 0.3117265394023061 0.040540916190054309 0 0.32129516110051931 0.036674888476765477 0 0.31223709232351993 0.056058648764058069 0 0.31476601529599157 0.03067854944696723 0 0.32129516110051931 0.036674888476765477 0 0.3117265394023061 0.040540916190054309 0 0.32633281564015992 0.072668432215551165 0 0.33250164792649162 0.052151241473614073 0 0.31223709232351993 0.056058648764058069 0 0.33250164792649162 0.052151241473614073 0 0.32129516110051931 0.036674888476765477 0 0.31223709232351993 0.056058648764058069 0 0.31223709232351993 0.056058648764058069 0 0.29946273547611862 0.057229431517782037 0 0.30153684635117828 0.042176412141511119 0 0.31476601529599157 0.03067854944696723 0 0.28669147555799179 0.032858326312018099 0 0.31476601529599157 0.03067854944696723 0 0.30153684635117828 0.042176412141511119 0 0.28669147555799179 0.032858326312018099 0 0.31223709232351993 0.056058648764058069 0 0.3117265394023061 0.040540916190054309 0 0.30153684635117828 0.042176412141511119 0 0.31476601529599157 0.03067854944696723 0 0.3117265394023061 0.040540916190054309 0 0.30153684635117828 0.042176412141511119 0 0.30153684635117828 0.042176412141511119 0 0.28669147555799179 0.032858326312018099 0 0.28089797968325619 0.055240256114208561 0 0.29946273547611862 0.057229431517782037 0 0.30153684635117828 0.042176412141511119 0 0.28089797968325619 0.055240256114208561 0 0.31549315462058558 0.015757223476653349 0 0.3048834658165947 0.0052401324438536376 0 0.30978138035003572 0.022038709433883811 0 0.31476601529599157 0.03067854944696723 0 0.28669147555799179 0.032858326312018099 0 0.30000764346078768 0.022480970831864091 0 0.3048834658165947 0.0052401324438536376 0 0.30000764346078768 0.022480970831864091 0 0.30978138035003572 0.022038709433883811 0 0.31476601529599157 0.03067854944696723 0 0.30000764346078768 0.022480970831864091 0 0.30978138035003572 0.022038709433883811 0 0.28669147555799179 0.032858326312018099 0 0.28572672462458037 0.013412253235179561 0 0.2773735374221849 0.022837657734229279 0 0.28669147555799179 0.032858326312018099 0 0.30000764346078768 0.022480970831864091 0 0.28572672462458037 0.013412253235179561 0 0.3048834658165947 0.0052401324438536376 0 0.30000764346078768 0.022480970831864091 0 0.28572672462458037 0.013412253235179561 0 0.3048834658165947 0.0052401324438536376 0 0.28572672462458037 0.013412253235179561 0 0.27838937958107302 0.000370802130407388 0 0.3048834658165947 0.0052401324438536376 0 0.27838937958107302 0.000370802130407388 0 0.28572672462458037 0.013412253235179561 0 0.27838937958107302 0.000370802130407388 0 0.26156360621507929 0.0096706653718756502 0 0.28572672462458037 0.013412253235179561 0 0.2773735374221849 0.022837657734229279 0 0.26156360621507929 0.0096706653718756502 0 0.28572672462458037 0.013412253235179561 0 0.26156360621507929 0.0096706653718756502 0 0.26603355150264207 0.02087200762138142 0 0.2773735374221849 0.022837657734229279 0 0.26156360621507929 0.0096706653718756502 0 0.28669147555799179 0.032858326312018099 0 0.2773735374221849 0.022837657734229279 0 0.263195217642398 0.028091920903539621 0 0.26603355150264207 0.02087200762138142 0 0.2773735374221849 0.022837657734229279 0 0.263195217642398 0.028091920903539621 0 0.263195217642398 0.028091920903539621 0 0.25640817697806528 0.026492336490498151 0 0.2594852322578764 0.02091753046177643 0 0.263195217642398 0.028091920903539621 0 0.25853766527993738 0.030556131812834269 0 0.2586169358199919 0.035038103177067369 0 0.263195217642398 0.028091920903539621 0 0.25853766527993738 0.030556131812834269 0 0.25640817697806528 0.026492336490498151 0 0.25853766527993738 0.030556131812834269 0 0.25640817697806528 0.026492336490498151 0 0.25593033067929449 0.032602166680231963 0 0.2512444035911186 0.027069204809184171 0 0.25640817697806528 0.026492336490498151 0 0.25593033067929449 0.032602166680231963 0 0.2512444035911186 0.027069204809184171 0 0.25640817697806528 0.026492336490498151 0 0.25022560895119728 0.019460721921587279 0 0.25640817697806528 0.026492336490498151 0 0.25022560895119728 0.019460721921587279 0 0.2594852322578764 0.02091753046177643 0 0.25022560895119728 0.019460721921587279 0 0.2594852322578764 0.02091753046177643 0 0.26156360621507929 0.0096706653718756502 0 0.26603355150264207 0.02087200762138142 0 0.2594852322578764 0.02091753046177643 0 0.26156360621507929 0.0096706653718756502 0 0.26603355150264207 0.02087200762138142 0 0.263195217642398 0.028091920903539621 0 0.2594852322578764 0.02091753046177643 0 0.27838937958107302 0.000370802130407388 0 0.26156360621507929 0.0096706653718756502 0 0.25189529334555122 -0.0044985281830388643 0 0.23740048780557829 0.0059290775085717564 0 0.26156360621507929 0.0096706653718756502 0 0.25189529334555122 -0.0044985281830388643 0 0.26633805219587242 0.054283561609040229 0 0.28089797968325619 0.055240256114208561 0 0.2586169358199919 0.035038103177067369 0 0.26633805219587242 0.054283561609040229 0 0.28089797968325619 0.055240256114208561 0 0.26890466667340862 0.066924162636445475 0 0.28669147555799179 0.032858326312018099 0 0.2586169358199919 0.035038103177067369 0 0.28669147555799179 0.032858326312018099 0 0.263195217642398 0.028091920903539621 0 0.2586169358199919 0.035038103177067369 0 0.28089797968325619 0.055240256114208561 0 0.2586169358199919 0.035038103177067369 0 0.28669147555799179 0.032858326312018099 0 0.28089797968325619 0.055240256114208561 0 0.2586169358199919 0.035038103177067369 0 0.26633805219587242 0.054283561609040229 0 0.2586169358199919 0.035038103177067369 0 0.25747043175206252 0.049641061323833287 0 0.24241349775591731 0.0297215941444193 0 0.2586169358199919 0.035038103177067369 0 0.25593033067929449 0.032602166680231963 0 0.25853766527993738 0.030556131812834269 0 0.2586169358199919 0.035038103177067369 0 0.25593033067929449 0.032602166680231963 0 0.2586169358199919 0.035038103177067369 0 0.25593033067929449 0.032602166680231963 0 0.24603174092988009 0.048095312086837073 0 0.2586169358199919 0.035038103177067369 0 0.25747043175206252 0.049641061323833287 0 0.24603174092988009 0.048095312086837073 0 0.25747043175206252 0.049641061323833287 0 0.25707782727615391 0.060245437798373283 0 0.26633805219587242 0.054283561609040229 0 0.25747043175206252 0.049641061323833287 0 0.25707782727615391 0.060245437798373283 0 0.26633805219587242 0.054283561609040229 0 0.25707782727615391 0.060245437798373283 0 0.26890466667340862 0.066924162636445475 0 0.25707782727615391 0.060245437798373283 0 0.25711452023783993 0.077914187043372246 0 0.26890466667340862 0.066924162636445475 0 0.24561880858526181 0.065545558692949271 0 0.25707782727615391 0.060245437798373283 0 0.25711452023783993 0.077914187043372246 0 0.24745047341450829 0.091852884101340918 0 0.25711452023783993 0.077914187043372246 0 0.26318315948789578 0.094846834591836821 0 0.25711452023783993 0.077914187043372246 0 0.28019903511195587 0.07899808981781152 0 0.26318315948789578 0.094846834591836821 0 0.28019903511195587 0.07899808981781152 0 0.27704698579063403 0.10153588731093929 0 0.26318315948789578 0.094846834591836821 0 0.25711452023783993 0.077914187043372246 0 0.28019903511195587 0.07899808981781152 0 0.26890466667340862 0.066924162636445475 0 0.28089797968325619 0.055240256114208561 0 0.28019903511195587 0.07899808981781152 0 0.26890466667340862 0.066924162636445475 0 0.28089797968325619 0.055240256114208561 0 0.28019903511195587 0.07899808981781152 0 0.30317902354651988 0.075442409051350412 0 0.32351134297334733 0.093877659623467502 0 0.30317902354651988 0.075442409051350412 0 0.29221398683915389 0.098906973994449143 0 0.29946273547611862 0.057229431517782037 0 0.28089797968325619 0.055240256114208561 0 0.30317902354651988 0.075442409051350412 0 0.28089797968325619 0.055240256114208561 0 0.30317902354651988 0.075442409051350412 0 0.28019903511195587 0.07899808981781152 0 0.29221398683915389 0.098906973994449143 0 0.27704698579063403 0.10153588731093929 0 0.28019903511195587 0.07899808981781152 0 0.30317902354651988 0.075442409051350412 0 0.29221398683915389 0.098906973994449143 0 0.30317902354651988 0.075442409051350412 0 0.29221398683915389 0.098906973994449143 0 0.31223709232351993 0.056058648764058069 0 0.30317902354651988 0.075442409051350412 0 0.31223709232351993 0.056058648764058069 0 0.29946273547611862 0.057229431517782037 0 0.30317902354651988 0.075442409051350412 0 0.32351134297334733 0.093877659623467502 0 0.31040793943754952 0.1125417237173037 0 0.29221398683915389 0.098906973994449143 0 0.31040793943754952 0.1125417237173037 0 0.28866889485897668 0.1156757653404643 0 0.30282219884211542 0.13642222730628251 0 0.31040793943754952 0.1125417237173037 0 0.29221398683915389 0.098906973994449143 0 0.28866889485897668 0.1156757653404643 0 0.29221398683915389 0.098906973994449143 0 0.28866889485897668 0.1156757653404643 0 0.27704698579063403 0.10153588731093929 0 0.28866889485897668 0.1156757653404643 0 0.27709180723285132 0.1203128863991703 0 0.28624829377365052 0.13060062157279681 0 0.27709180723285132 0.1203128863991703 0 0.26561505684139219 0.1142869411873305 0 0.27148399324395578 0.1310274720955284 0 0.28866889485897668 0.1156757653404643 0 0.27709180723285132 0.1203128863991703 0 0.27704698579063403 0.10153588731093929 0 0.27709180723285132 0.1203128863991703 0 0.27704698579063403 0.10153588731093929 0 0.26561505684139219 0.1142869411873305 0 0.27704698579063403 0.10153588731093929 0 0.26318315948789578 0.094846834591836821 0 0.26561505684139219 0.1142869411873305 0 0.26318315948789578 0.094846834591836821 0 0.25250081952329112 0.10730119291591329 0 0.26561505684139219 0.1142869411873305 0 0.24745047341450829 0.091852884101340918 0 0.26318315948789578 0.094846834591836821 0 0.25250081952329112 0.10730119291591329 0 0.26561505684139219 0.1142869411873305 0 0.25002981921467371 0.1210434623962709 0 0.25884109484866957 0.13058652896136841 0 0.25250081952329112 0.10730119291591329 0 0.26561505684139219 0.1142869411873305 0 0.25002981921467371 0.1210434623962709 0 0.26561505684139219 0.1142869411873305 0 0.25884109484866957 0.13058652896136841 0 0.27148399324395578 0.1310274720955284 0 0.24854473890169121 0.13271112874541779 0 0.25002981921467371 0.1210434623962709 0 0.25884109484866957 0.13058652896136841 0 0.24854473890169121 0.13271112874541779 0 0.25884109484866957 0.13058652896136841 0 0.25327884258801769 0.14441352075213529 0 0.25884109484866957 0.13058652896136841 0 0.26465378394273881 0.1418230663694672 0 0.25327884258801769 0.14441352075213529 0 0.25884109484866957 0.13058652896136841 0 0.27148399324395578 0.1310274720955284 0 0.26465378394273881 0.1418230663694672 0 0.27148399324395578 0.1310274720955284 0 0.26465378394273881 0.1418230663694672 0 0.28209763100893509 0.14513962572657849 0 0.27148399324395578 0.1310274720955284 0 0.28624829377365052 0.13060062157279681 0 0.28209763100893509 0.14513962572657849 0 0.27709180723285132 0.1203128863991703 0 0.27148399324395578 0.1310274720955284 0 0.28624829377365052 0.13060062157279681 0 0.26703114100141451 0.15437259890063601 0 0.26465378394273881 0.1418230663694672 0 0.28209763100893509 0.14513962572657849 0 0.26703114100141451 0.15437259890063601 0 0.29213529537934751 0.15872272448906069 0 0.28209763100893509 0.14513962572657849 0 0.26703114100141451 0.15437259890063601 0 0.25327884258801769 0.14441352075213529 0 0.25332258905290589 0.16087109394117829 0 0.26703114100141451 0.15437259890063601 0 0.26465378394273881 0.1418230663694672 0 0.25327884258801769 0.14441352075213529 0 0.26703114100141451 0.15437259890063601 0 0.25332258905290589 0.16087109394117829 0 0.27404389162640092 0.17040468342170731 0 0.25332258905290589 0.16087109394117829 0 0.25538089575682471 0.17709261206443511 0 0.27404389162640092 0.17040468342170731 0 0.25538089575682471 0.17709261206443511 0 0.25716385179167578 0.19213686191455909 0 0.27452334747510893 0.19102970086981011 0 0.24009935978751701 0.18268750516746349 0 0.25538089575682471 0.17709261206443511 0 0.25716385179167578 0.19213686191455909 0 0.25538089575682471 0.17709261206443511 0 0.27404389162640092 0.17040468342170731 0 0.27452334747510893 0.19102970086981011 0 0.27404389162640092 0.17040468342170731 0 0.28970466867587419 0.1734438744848176 0 0.27452334747510893 0.19102970086981011 0 0.26703114100141451 0.15437259890063601 0 0.27404389162640092 0.17040468342170731 0 0.29213529537934751 0.15872272448906069 0 0.27404389162640092 0.17040468342170731 0 0.29213529537934751 0.15872272448906069 0 0.28970466867587419 0.1734438744848176 0 0.28970466867587419 0.1734438744848176 0 0.2976079140601352 0.184601825371146 0 0.27452334747510893 0.19102970086981011 0 0.2976079140601352 0.184601825371146 0 0.30843725204150318 0.19334471872953241 0 0.32437973420446808 0.18250431545860721 0 0.2976079140601352 0.184601825371146 0 0.32437973420446808 0.18250431545860721 0 0.28970466867587419 0.1734438744848176 0 0.31015998290861108 0.17291023762722141 0 0.2976079140601352 0.184601825371146 0 0.31015998290861108 0.17291023762722141 0 0.2976079140601352 0.184601825371146 0 0.32437973420446808 0.18250431545860721 0 0.29213529537934751 0.15872272448906069 0 0.28970466867587419 0.1734438744848176 0 0.31015998290861108 0.17291023762722141 0 0.29213529537934751 0.15872272448906069 0 0.31015998290861108 0.17291023762722141 0 0.316975502825254 0.15716868927210059 0 0.30282219884211542 0.13642222730628251 0 0.316975502825254 0.15716868927210059 0 0.29213529537934751 0.15872272448906069 0 0.30282219884211542 0.13642222730628251 0 0.316975502825254 0.15716868927210059 0 0.30282219884211542 0.13642222730628251 0 0.28624829377365052 0.13060062157279681 0 0.28209763100893509 0.14513962572657849 0 0.28866889485897668 0.1156757653404643 0 0.30282219884211542 0.13642222730628251 0 0.28866889485897668 0.1156757653404643 0 0.30282219884211542 0.13642222730628251 0 0.28624829377365052 0.13060062157279681 0 0.29213529537934751 0.15872272448906069 0 0.30282219884211542 0.13642222730628251 0 0.28209763100893509 0.14513962572657849 0 0.26232043110115549 0.25274341919283649 0 0.2736024596837548 0.2313424984213755 0 0.28675163135586812 0.24142749753939799 0 0.24140128419315809 0.23892713918983621 0 0.26232043110115549 0.25274341919283649 0 0.24140128419315809 0.23892713918983621 0 0.26232043110115549 0.25274341919283649 0 0.25843244608827559 0.22734646679336329 0 0.26232043110115549 0.25274341919283649 0 0.25843244608827559 0.22734646679336329 0 0.2736024596837548 0.2313424984213755 0 0.25843244608827559 0.22734646679336329 0 0.2736024596837548 0.2313424984213755 0 0.27546360798340652 0.21576579439690979 0 0.25843244608827559 0.22734646679336329 0 0.27546360798340652 0.21576579439690979 0 0.2736024596837548 0.2313424984213755 0 0.27546360798340652 0.21576579439690979 0 0.29256470925852091 0.22260178779740319 0 0.27546360798340652 0.21576579439690979 0 0.27452334747510893 0.19102970086981011 0 0.29249476987853767 0.20418512200045691 0 0.27546360798340652 0.21576579439690979 0 0.25803884317546311 0.20845380393523991 0 0.27452334747510893 0.19102970086981011 0 0.24055090568073731 0.21746015111279141 0 0.25843244608827559 0.22734646679336329 0 0.25803884317546311 0.20845380393523991 0 0.25843244608827559 0.22734646679336329 0 0.27546360798340652 0.21576579439690979 0 0.25803884317546311 0.20845380393523991 0 0.25803884317546311 0.20845380393523991 0 0.25716385179167578 0.19213686191455909 0 0.27452334747510893 0.19102970086981011 0 0.240700984391507 0.19891521551657099 0 0.25803884317546311 0.20845380393523991 0 0.25716385179167578 0.19213686191455909 0 0.2976079140601352 0.184601825371146 0 0.27452334747510893 0.19102970086981011 0 0.29249476987853767 0.20418512200045691 0 0.27452334747510893 0.19102970086981011 0 0.29249476987853767 0.20418512200045691 0 0.2976079140601352 0.184601825371146 0 0.30843725204150318 0.19334471872953241 0 0.29249476987853767 0.20418512200045691 0 0.30843725204150318 0.19334471872953241 0 0.29249476987853767 0.20418512200045691 0 0.29249476987853767 0.20418512200045691 0 0.29256470925852091 0.22260178779740319 0 0.31241237789974918 0.2187651878156259 0 0.29249476987853767 0.20418512200045691 0 0.31241237789974918 0.2187651878156259 0 0.30843725204150318 0.19334471872953241 0 0.29249476987853767 0.20418512200045691 0 0.31241237789974918 0.2187651878156259 0 0.27546360798340652 0.21576579439690979 0 0.29249476987853767 0.20418512200045691 0 0.29256470925852091 0.22260178779740319 0 0.27546360798340652 0.21576579439690979 0 0.29249476987853767 0.20418512200045691 0 0.2736024596837548 0.2313424984213755 0 0.29256470925852091 0.22260178779740319 0 0.28675163135586812 0.24142749753939799 0 0.29256470925852091 0.22260178779740319 0 0.31241237789974918 0.2187651878156259 0 0.31286308011063851 0.24532202083054641 0 0.29256470925852091 0.22260178779740319 0 0.28675163135586812 0.24142749753939799 0 0.31286308011063851 0.24532202083054641 0 0.29819223908463671 0.25511476016800011 0 0.28675163135586812 0.24142749753939799 0 0.31286308011063851 0.24532202083054641 0 0.3358039582351468 0.25396688748271312 0 0.3323299859209608 0.23334525363079481 0 0.35224759394217242 0.2479253194459636 0 0.3323299859209608 0.23334525363079481 0 0.35224759394217242 0.2479253194459636 0 0.3358039582351468 0.25396688748271312 0 0.31286308011063851 0.24532202083054641 0 0.3358039582351468 0.25396688748271312 0 0.31286308011063851 0.24532202083054641 0 0.3323299859209608 0.23334525363079481 0 0.31241237789974918 0.2187651878156259 0 0.3323299859209608 0.23334525363079481 0 0.31241237789974918 0.2187651878156259 0 0.3323299859209608 0.23334525363079481 0 0.32963091309803738 0.2152204782214161 0 0.31241237789974918 0.2187651878156259 0 0.31286308011063851 0.24532202083054641 0 0.3323299859209608 0.23334525363079481 0 0.3323299859209608 0.23334525363079481 0 0.34170718973733838 0.2208131148458419 0 0.32963091309803738 0.2152204782214161 0 0.3323299859209608 0.23334525363079481 0 0.34170718973733838 0.2208131148458419 0 0.35400656134782982 0.2313434350846246 0 0.34170718973733838 0.2208131148458419 0 0.32963091309803738 0.2152204782214161 0 0.34239945439986358 0.2049428002932987 0 0.32963091309803738 0.2152204782214161 0 0.34239945439986358 0.2049428002932987 0 0.32451458068399969 0.19981069392070519 0 0.31241237789974918 0.2187651878156259 0 0.32963091309803738 0.2152204782214161 0 0.32451458068399969 0.19981069392070519 0 0.30843725204150318 0.19334471872953241 0 0.31241237789974918 0.2187651878156259 0 0.32451458068399969 0.19981069392070519 0 0.30843725204150318 0.19334471872953241 0 0.32451458068399969 0.19981069392070519 0 0.32437973420446808 0.18250431545860721 0 0.30843725204150318 0.19334471872953241 0 0.32437973420446808 0.18250431545860721 0 0.34239945439986358 0.2049428002932987 0 0.32451458068399969 0.19981069392070519 0 0.3379203776828722 0.19164131236475909 0 0.32451458068399969 0.19981069392070519 0 0.3379203776828722 0.19164131236475909 0 0.32437973420446808 0.18250431545860721 0 0.34239945439986358 0.2049428002932987 0 0.3379203776828722 0.19164131236475909 0 0.34801167198016358 0.1928341459637897 0 0.34801167198016358 0.1928341459637897 0 0.3578648190243266 0.19877347572753601 0 0.35137424527767741 0.18038935822913971 0 0.3379203776828722 0.19164131236475909 0 0.34801167198016358 0.1928341459637897 0 0.35137424527767741 0.18038935822913971 0 0.34239945439986358 0.2049428002932987 0 0.34801167198016358 0.1928341459637897 0 0.3578648190243266 0.19877347572753601 0 0.3578648190243266 0.19877347572753601 0 0.37489042857522359 0.1952991860309323 0 0.35137424527767741 0.18038935822913971 0 0.36074649690446903 0.2154327334524013 0 0.37300775917707468 0.228336620140213 0 0.3836555967594848 0.21030298208983511 0 0.37489042857522359 0.1952991860309323 0 0.36074649690446903 0.2154327334524013 0 0.3836555967594848 0.21030298208983511 0 0.3578648190243266 0.19877347572753601 0 0.37489042857522359 0.1952991860309323 0 0.36074649690446903 0.2154327334524013 0 0.34239945439986358 0.2049428002932987 0 0.3578648190243266 0.19877347572753601 0 0.36074649690446903 0.2154327334524013 0 0.34170718973733838 0.2208131148458419 0 0.34239945439986358 0.2049428002932987 0 0.36074649690446903 0.2154327334524013 0 0.34170718973733838 0.2208131148458419 0 0.36074649690446903 0.2154327334524013 0 0.35400656134782982 0.2313434350846246 0 0.36074649690446903 0.2154327334524013 0 0.35400656134782982 0.2313434350846246 0 0.37300775917707468 0.228336620140213 0 0.35400656134782982 0.2313434350846246 0 0.37300775917707468 0.228336620140213 0 0.36456150171018648 0.24188604567846581 0 0.37312360809717432 0.25657133323275721 0 0.36456150171018648 0.24188604567846581 0 0.35224759394217242 0.2479253194459636 0 0.37300775917707468 0.228336620140213 0 0.36456150171018648 0.24188604567846581 0 0.38165737004018352 0.2417571428398109 0 0.37312360809717432 0.25657133323275721 0 0.36456150171018648 0.24188604567846581 0 0.37312360809717432 0.25657133323275721 0 0.37893046416378739 0.25005134563455528 0 0.36456150171018648 0.24188604567846581 0 0.3323299859209608 0.23334525363079481 0 0.35400656134782982 0.2313434350846246 0 0.35224759394217242 0.2479253194459636 0 0.35400656134782982 0.2313434350846246 0 0.36456150171018648 0.24188604567846581 0 0.35224759394217242 0.2479253194459636 0 0.32435478528943018 0.13693357267951059 0 0.33386365745378982 0.15677622306846431 0 0.3473455710551801 0.1464496659239416 0 0.33386365745378982 0.15677622306846431 0 0.34951362129069241 0.16541403622885009 0 0.3473455710551801 0.1464496659239416 0 0.33291570853134211 0.11141330338696261 0 0.32435478528943018 0.13693357267951059 0 0.34394273747561172 0.12797668246282889 0 0.32435478528943018 0.13693357267951059 0 0.3473455710551801 0.1464496659239416 0 0.34394273747561172 0.12797668246282889 0 0.31040793943754952 0.1125417237173037 0 0.30282219884211542 0.13642222730628251 0 0.32435478528943018 0.13693357267951059 0 0.32435478528943018 0.13693357267951059 0 0.316975502825254 0.15716868927210059 0 0.33386365745378982 0.15677622306846431 0 0.30282219884211542 0.13642222730628251 0 0.32435478528943018 0.13693357267951059 0 0.316975502825254 0.15716868927210059 0 0.316975502825254 0.15716868927210059 0 0.33112880680839257 0.17791515123791879 0 0.316975502825254 0.15716868927210059 0 0.33112880680839257 0.17791515123791879 0 0.33386365745378982 0.15677622306846431 0 0.31015998290861108 0.17291023762722141 0 0.316975502825254 0.15716868927210059 0 0.33112880680839257 0.17791515123791879 0 0.31015998290861108 0.17291023762722141 0 0.32437973420446808 0.18250431545860721 0 0.33112880680839257 0.17791515123791879 0 0.32437973420446808 0.18250431545860721 0 0.33112880680839257 0.17791515123791879 0 0.33252282589414778 0.17995855848591541 0 0.33112880680839257 0.17791515123791879 0 0.34951362129069241 0.16541403622885009 0 0.32437973420446808 0.18250431545860721 0 0.35137424527767741 0.18038935822913971 0 0.3379203776828722 0.19164131236475909 0 0.32437973420446808 0.18250431545860721 0 0.35137424527767741 0.18038935822913971 0 0.32437973420446808 0.18250431545860721 0 0.33252282589414778 0.17995855848591541 0 0.35137424527767741 0.18038935822913971 0 0.32437973420446808 0.18250431545860721 0 0.33252282589414778 0.17995855848591541 0 0.33112880680839257 0.17791515123791879 0 0.33252282589414778 0.17995855848591541 0 0.33112880680839257 0.17791515123791879 0 0.33112880680839257 0.17791515123791879 0 0.33386365745378982 0.15677622306846431 0 0.34951362129069241 0.16541403622885009 0 0.33112880680839257 0.17791515123791879 0 0.34951362129069241 0.16541403622885009 0 0.34951362129069241 0.16541403622885009 0 0.36789843577299253 0.15291292121978189 0 0.34951362129069241 0.16541403622885009 0 0.35137424527767741 0.18038935822913971 0 0.36555059039737531 0.1669083722141991 0 0.33252282589414778 0.17995855848591541 0 0.34951362129069241 0.16541403622885009 0 0.35137424527767741 0.18038935822913971 0 0.35137424527767741 0.18038935822913971 0 0.36555059039737531 0.1669083722141991 0 0.37836875635088668 0.1782744009996734 0 0.37489042857522359 0.1952991860309323 0 0.35137424527767741 0.18038935822913971 0 0.37836875635088668 0.1782744009996734 0 0.35137424527767741 0.18038935822913971 0 0.37836875635088668 0.1782744009996734 0 0.36555059039737531 0.1669083722141991 0 0.38059789329462751 0.15755114439355061 0 0.37836875635088668 0.1782744009996734 0 0.34951362129069241 0.16541403622885009 0 0.36555059039737531 0.1669083722141991 0 0.36789843577299253 0.15291292121978189 0 0.36555059039737531 0.1669083722141991 0 0.36789843577299253 0.15291292121978189 0 0.38059789329462751 0.15755114439355061 0 0.36789843577299253 0.15291292121978189 0 0.3473455710551801 0.1464496659239416 0 0.36511299386545187 0.13419424433677041 0 0.36789843577299253 0.15291292121978189 0 0.36511299386545187 0.13419424433677041 0 0.38628325025529198 0.14041180621071259 0 0.34951362129069241 0.16541403622885009 0 0.36789843577299253 0.15291292121978189 0 0.3473455710551801 0.1464496659239416 0 0.36744753186943618 0.1199087634939994 0 0.34394273747561172 0.12797668246282889 0 0.36511299386545187 0.13419424433677041 0 0.3473455710551801 0.1464496659239416 0 0.34394273747561172 0.12797668246282889 0 0.36511299386545187 0.13419424433677041 0 0.34394273747561172 0.12797668246282889 0 0.36511299386545187 0.13419424433677041 0 0.36744753186943618 0.1199087634939994 0 0.36511299386545187 0.13419424433677041 0 0.37909921731021112 0.1300962966962215 0 0.37909921731021112 0.1300962966962215 0 0.39145856108966609 0.1368927521560612 0 0.38519374947121399 0.1190739172835709 0 0.36511299386545187 0.13419424433677041 0 0.37909921731021112 0.1300962966962215 0 0.38628325025529198 0.14041180621071259 0 0.36511299386545187 0.13419424433677041 0 0.38628325025529198 0.14041180621071259 0 0.37909921731021112 0.1300962966962215 0 0.38628325025529198 0.14041180621071259 0 0.39145856108966609 0.1368927521560612 0 0.38628325025529198 0.14041180621071259 0 0.39145856108966609 0.1368927521560612 0 0.38964643730127629 0.14139955161950529 0 0.39145856108966609 0.1368927521560612 0 0.38964643730127629 0.14139955161950529 0 0.38628325025529198 0.14041180621071259 0 0.39145856108966609 0.1368927521560612 0 0.39145856108966609 0.1368927521560612 0 0.40623940060255631 0.1462727933081254 0 0.41246723839188909 0.122607490186377 0 0.39145856108966609 0.1368927521560612 0 0.41246723839188909 0.122607490186377 0 0.39145856108966609 0.1368927521560612 0 0.40623940060255631 0.1462727933081254 0 0.38964643730127629 0.14139955161950529 0 0.40623940060255631 0.1462727933081254 0 0.39553825133011611 0.1499562085146281 0 0.38964643730127629 0.14139955161950529 0 0.40623940060255631 0.1462727933081254 0 0.38964643730127629 0.14139955161950529 0 0.40623940060255631 0.1462727933081254 0 0.39553825133011611 0.1499562085146281 0 0.406836084568029 0.1584260995851289 0 0.39553825133011611 0.1499562085146281 0 0.38856341076481282 0.15070131085222499 0 0.38964643730127629 0.14139955161950529 0 0.39553825133011611 0.1499562085146281 0 0.38856341076481282 0.15070131085222499 0 0.39436397027131481 0.16088082991720409 0 0.36789843577299253 0.15291292121978189 0 0.38628325025529198 0.14041180621071259 0 0.38059789329462751 0.15755114439355061 0 0.38628325025529198 0.14041180621071259 0 0.38856341076481282 0.15070131085222499 0 0.38059789329462751 0.15755114439355061 0 0.36789843577299253 0.15291292121978189 0 0.38628325025529198 0.14041180621071259 0 0.38628325025529198 0.14041180621071259 0 0.38856341076481282 0.15070131085222499 0 0.38964643730127629 0.14139955161950529 0 0.38628325025529198 0.14041180621071259 0 0.38964643730127629 0.14139955161950529 0 0.38059789329462751 0.15755114439355061 0 0.37836875635088668 0.1782744009996734 0 0.39436397027131481 0.16088082991720409 0 0.38856341076481282 0.15070131085222499 0 0.38059789329462751 0.15755114439355061 0 0.39436397027131481 0.16088082991720409 0 0.37836875635088668 0.1782744009996734 0 0.40536326742409601 0.17615944377020709 0 0.39479507665921759 0.1934128191285 0 0.37836875635088668 0.1782744009996734 0 0.40536326742409601 0.17615944377020709 0 0.37836875635088668 0.1782744009996734 0 0.40536326742409601 0.17615944377020709 0 0.39436397027131481 0.16088082991720409 0 0.40536326742409601 0.17615944377020709 0 0.39436397027131481 0.16088082991720409 0 0.406836084568029 0.1584260995851289 0 0.39553825133011611 0.1499562085146281 0 0.39436397027131481 0.16088082991720409 0 0.406836084568029 0.1584260995851289 0 0.406836084568029 0.1584260995851289 0 0.43235777849730522 0.17404448654074081 0 0.42283236390383622 0.15114603499674559 0 0.40536326742409601 0.17615944377020709 0 0.406836084568029 0.1584260995851289 0 0.43235777849730522 0.17404448654074081 0 0.40536326742409601 0.17615944377020709 0 0.39479507665921759 0.1934128191285 0 0.4203867305338031 0.19054336393098631 0 0.40536326742409601 0.17615944377020709 0 0.43235777849730522 0.17404448654074081 0 0.40536326742409601 0.17615944377020709 0 0.43235777849730522 0.17404448654074081 0 0.4203867305338031 0.19054336393098631 0 0.43235777849730522 0.17404448654074081 0 0.4203867305338031 0.19054336393098631 0 0.44352731484436708 0.18833529990568251 0 0.43235777849730522 0.17404448654074081 0 0.42283236390383622 0.15114603499674559 0 0.44844602494690189 0.15245775464525829 0 0.42283236390383622 0.15114603499674559 0 0.43531720459405038 0.13172356040665159 0 0.44844602494690189 0.15245775464525829 0 0.42283236390383622 0.15114603499674559 0 0.43531720459405038 0.13172356040665159 0 0.41888266213218361 0.13759244706457899 0 0.43531720459405038 0.13172356040665159 0 0.41888266213218361 0.13759244706457899 0 0.41246723839188909 0.122607490186377 0 0.40623940060255631 0.1462727933081254 0 0.41888266213218361 0.13759244706457899 0 0.41246723839188909 0.122607490186377 0 0.40623940060255631 0.1462727933081254 0 0.42283236390383622 0.15114603499674559 0 0.40623940060255631 0.1462727933081254 0 0.42283236390383622 0.15114603499674559 0 0.41888266213218361 0.13759244706457899 0 0.40623940060255631 0.1462727933081254 0 0.406836084568029 0.1584260995851289 0 0.42283236390383622 0.15114603499674559 0 0.39469495487488282 0.24788321047481071 0 0.39621327666181322 0.227921413292452 0 0.41205245791107148 0.2380027719803719 0 0.39469495487488282 0.24788321047481071 0 0.38165737004018352 0.2417571428398109 0 0.39621327666181322 0.227921413292452 0 0.40767330916685562 0.25609664483624212 0 0.39469495487488282 0.24788321047481071 0 0.41205245791107148 0.2380027719803719 0 0.37893046416378739 0.25005134563455528 0 0.36456150171018648 0.24188604567846581 0 0.38165737004018352 0.2417571428398109 0 0.3853334202703782 0.25144975246871659 0 0.39469495487488282 0.24788321047481071 0 0.38165737004018352 0.2417571428398109 0 0.3853334202703782 0.25144975246871659 0 0.37893046416378739 0.25005134563455528 0 0.38165737004018352 0.2417571428398109 0 0.37300775917707468 0.228336620140213 0 0.39621327666181322 0.227921413292452 0 0.3836555967594848 0.21030298208983511 0 0.37300775917707468 0.228336620140213 0 0.38165737004018352 0.2417571428398109 0 0.39621327666181322 0.227921413292452 0 0.39621327666181322 0.227921413292452 0 0.3836555967594848 0.21030298208983511 0 0.40949301232321461 0.207317361714073 0 0.3836555967594848 0.21030298208983511 0 0.39479507665921759 0.1934128191285 0 0.40949301232321461 0.207317361714073 0 0.3836555967594848 0.21030298208983511 0 0.40949301232321461 0.207317361714073 0 0.37489042857522359 0.1952991860309323 0 0.37836875635088668 0.1782744009996734 0 0.39479507665921759 0.1934128191285 0 0.37489042857522359 0.1952991860309323 0 0.3836555967594848 0.21030298208983511 0 0.39479507665921759 0.1934128191285 0 0.4203867305338031 0.19054336393098631 0 0.43533042788694448 0.20433174133831089 0 0.40949301232321461 0.207317361714073 0 0.39479507665921759 0.1934128191285 0 0.4203867305338031 0.19054336393098631 0 0.40949301232321461 0.207317361714073 0 0.4203867305338031 0.19054336393098631 0 0.43533042788694448 0.20433174133831089 0 0.44352731484436708 0.18833529990568251 0 0.43533042788694448 0.20433174133831089 0 0.41893178554678112 0.22184980380804939 0 0.43475839699800628 0.22890676371672339 0 0.43533042788694448 0.20433174133831089 0 0.40949301232321461 0.207317361714073 0 0.43533042788694448 0.20433174133831089 0 0.40949301232321461 0.207317361714073 0 0.41893178554678112 0.22184980380804939 0 0.39621327666181322 0.227921413292452 0 0.40949301232321461 0.207317361714073 0 0.41893178554678112 0.22184980380804939 0 0.39621327666181322 0.227921413292452 0 0.41893178554678112 0.22184980380804939 0 0.41205245791107148 0.2380027719803719 0 0.41893178554678112 0.22184980380804939 0 0.43475839699800628 0.22890676371672339 0 0.41205245791107148 0.2380027719803719 0 0.42548962472733798 0.25271719739518789 0 0.43475839699800628 0.22890676371672339 0 0.44359590638341029 0.2449215294474314 0 0.42548962472733798 0.25271719739518789 0 0.43475839699800628 0.22890676371672339 0 0.41205245791107148 0.2380027719803719 0 0.40767330916685562 0.25609664483624212 0 0.42548962472733798 0.25271719739518789 0 0.41205245791107148 0.2380027719803719 0 0.45874486442221207 0.25191056812173451 0 0.44359590638341029 0.2449215294474314 0 0.45914673001651041 0.2319838007356638 0 0.45874486442221207 0.25191056812173451 0 0.45914673001651041 0.2319838007356638 0 0.46933416233355002 0.24299103372249159 0 0.43475839699800628 0.22890676371672339 0 0.44359590638341029 0.2449215294474314 0 0.45914673001651041 0.2319838007356638 0 0.43475839699800628 0.22890676371672339 0 0.45914673001651041 0.2319838007356638 0 0.44976759103061442 0.21597957103768231 0 0.45914673001651041 0.2319838007356638 0 0.46608188451988769 0.21733738850545281 0 0.44976759103061442 0.21597957103768231 0 0.46608188451988769 0.21733738850545281 0 0.44976759103061442 0.21597957103768231 0 0.4611678434506743 0.20134612096254861 0 0.43533042788694448 0.20433174133831089 0 0.44976759103061442 0.21597957103768231 0 0.4611678434506743 0.20134612096254861 0 0.43533042788694448 0.20433174133831089 0 0.43475839699800628 0.22890676371672339 0 0.44976759103061442 0.21597957103768231 0 0.43533042788694448 0.20433174133831089 0 0.45819784856003898 0.2000220664733954 0 0.4611678434506743 0.20134612096254861 0 0.43533042788694448 0.20433174133831089 0 0.4611678434506743 0.20134612096254861 0 0.43533042788694448 0.20433174133831089 0 0.44352731484436708 0.18833529990568251 0 0.45819784856003898 0.2000220664733954 0 0.44352731484436708 0.18833529990568251 0 0.45610127326511901 0.18841361570514059 0 0.45819784856003898 0.2000220664733954 0 0.45610127326511901 0.18841361570514059 0 0.45819784856003898 0.2000220664733954 0 0.46645648730782308 0.1903485894336383 0 0.45819784856003898 0.2000220664733954 0 0.4611678434506743 0.20134612096254861 0 0.45819784856003898 0.2000220664733954 0 0.4611678434506743 0.20134612096254861 0 0.46645648730782308 0.1903485894336383 0 0.46645648730782308 0.1903485894336383 0 0.48058392172533732 0.19910251270493329 0 0.48059287944484669 0.180448804349605 0 0.4611678434506743 0.20134612096254861 0 0.48058392172533732 0.19910251270493329 0 0.4611678434506743 0.20134612096254861 0 0.46645648730782308 0.1903485894336383 0 0.48058392172533732 0.19910251270493329 0 0.48058392172533732 0.19910251270493329 0 0.50000000000000022 0.19685890444731791 0 0.49105133099055642 0.20455226124912951 0 0.48058392172533732 0.19910251270493329 0 0.50000000000000022 0.19685890444731791 0 0.48059287944484669 0.180448804349605 0 0.48058392172533732 0.19910251270493329 0 0.50000000000000022 0.19685890444731791 0 0.49105133099055642 0.20455226124912951 0 0.49999999999999889 0.21865789862409921 0 0.48058392172533659 0.21000200979332401 0 0.49999999999999889 0.21865789862409921 0 0.48058392172533659 0.21000200979332401 0 0.50000000000000022 0.19685890444731791 0 0.49105133099055642 0.20455226124912951 0 0.49999999999999889 0.21865789862409921 0 0.4611678434506743 0.20134612096254861 0 0.48058392172533659 0.21000200979332401 0 0.46608188451988769 0.21733738850545281 0 0.4611678434506743 0.20134612096254861 0 0.48058392172533659 0.21000200979332401 0 0.4611678434506743 0.20134612096254861 0 0.48058392172533732 0.19910251270493329 0 0.48058392172533659 0.21000200979332401 0 0.48058392172533732 0.19910251270493329 0 0.49105133099055642 0.20455226124912951 0 0.48058392172533659 0.21000200979332401 0 0.46608188451988769 0.21733738850545281 0 0.48058392172533659 0.21000200979332401 0 0.4811985538926864 0.2320453523749072 0 0.45914673001651041 0.2319838007356638 0 0.46608188451988769 0.21733738850545281 0 0.4811985538926864 0.2320453523749072 0 0.49999999999999889 0.21865789862409921 0 0.48058392172533659 0.21000200979332401 0 0.4811985538926864 0.2320453523749072 0 0.49999999999999889 0.21865789862409921 0 0.4811985538926864 0.2320453523749072 0 0.5 0.24356890864647379 0 0.47824650100279109 0.25602441365766121 0 0.4811985538926864 0.2320453523749072 0 0.5 0.24356890864647379 0 0.45914673001651041 0.2319838007356638 0 0.4811985538926864 0.2320453523749072 0 0.46933416233355002 0.24299103372249159 0 0.47824650100279109 0.25602441365766121 0 0.4811985538926864 0.2320453523749072 0 0.46933416233355002 0.24299103372249159 0 0.46386124328525669 0.13213278224152611 0 0.44844602494690189 0.15245775464525829 0 0.47716457806540602 0.15434859204147061 0 0.43531720459405038 0.13172356040665159 0 0.46386124328525669 0.13213278224152611 0 0.45237608692537518 0.11522524120842879 0 0.43531720459405038 0.13172356040665159 0 0.46386124328525669 0.13213278224152611 0 0.44844602494690189 0.15245775464525829 0 0.43235777849730522 0.17404448654074081 0 0.44844602494690189 0.15245775464525829 0 0.45935228957051449 0.1719295293112745 0 0.43235777849730522 0.17404448654074081 0 0.44352731484436708 0.18833529990568251 0 0.45935228957051449 0.1719295293112745 0 0.43235777849730522 0.17404448654074081 0 0.45935228957051449 0.1719295293112745 0 0.44352731484436708 0.18833529990568251 0 0.45610127326511901 0.18841361570514059 0 0.45935228957051449 0.1719295293112745 0 0.45610127326511901 0.18841361570514059 0 0.46645648730782308 0.1903485894336383 0 0.45935228957051449 0.1719295293112745 0 0.44844602494690189 0.15245775464525829 0 0.45935228957051449 0.1719295293112745 0 0.47716457806540602 0.15434859204147061 0 0.45935228957051449 0.1719295293112745 0 0.48059287944484669 0.180448804349605 0 0.47716457806540602 0.15434859204147061 0 0.46645648730782308 0.1903485894336383 0 0.45935228957051449 0.1719295293112745 0 0.48059287944484669 0.180448804349605 0 0.50000000000000022 0.19685890444731791 0 0.48059287944484669 0.180448804349605 0 0.5 0.1701046981589954 0 0.48059287944484669 0.180448804349605 0 0.5 0.1701046981589954 0 0.47716457806540602 0.15434859204147061 0 0.5 0.14335049187067289 0 0.47716457806540602 0.15434859204147061 0 0.48434193741578191 0.12997338872651171 0 0.5 0.1701046981589954 0 0.5 0.14335049187067289 0 0.47716457806540602 0.15434859204147061 0 0.46386124328525669 0.13213278224152611 0 0.47716457806540602 0.15434859204147061 0 0.48434193741578191 0.12997338872651171 0 0.5 0.14335049187067289 0 0.48434193741578191 0.12997338872651171 0 0.5 0.1165962855823504 0 0.5 0.1165962855823504 0 0.49064601299021759 0.1032191824381892 0 0.47474147805710581 0.1099106689302415 0 0.48434193741578191 0.12997338872651171 0 0.5 0.1165962855823504 0 0.47474147805710581 0.1099106689302415 0 0.5 0.1165962855823504 0 0.49064601299021759 0.1032191824381892 0 0.5 0.089842079294027988 0 0.4719132331114228 0.094751314883328774 0 0.47474147805710581 0.1099106689302415 0 0.48562171282895478 0.087688555618957054 0 0.49064601299021759 0.1032191824381892 0 0.47474147805710581 0.1099106689302415 0 0.48562171282895478 0.087688555618957054 0 0.47474147805710581 0.1099106689302415 0 0.48562171282895478 0.087688555618957054 0 0.46386124328525669 0.13213278224152611 0 0.48434193741578191 0.12997338872651171 0 0.47474147805710581 0.1099106689302415 0 0.46386124328525669 0.13213278224152611 0 0.47474147805710581 0.1099106689302415 0 0.49650194760080302 0.065466442307672235 0 0.49999999999999278 0.063087873005705591 0 0.5 0.089842079294027988 0 0.49650194760080302 0.065466442307672235 0 0.47549327029857408 0.07975170427734779 0 0.49650194760080302 0.065466442307672235 0 0.48562171282895478 0.087688555618957054 0 0.49650194760080302 0.065466442307672235 0 0.47549327029857408 0.07975170427734779 0 0.48781477910702442 0.05864953202960186 0 0.49650194760080302 0.065466442307672235 0 0.48562171282895478 0.087688555618957054 0 0.47549327029857408 0.07975170427734779 0 0.49763479404338379 0.063152683226257028 0 0.49650194760080302 0.065466442307672235 0 0.49763479404338379 0.063152683226257028 0 0.49650194760080302 0.065466442307672235 0 0.49999999999999278 0.063087873005705591 0 0.49650194760080302 0.065466442307672235 0 0.49999999999999278 0.063087873005705591 0 0.49650194760080302 0.065466442307672235 0 0.5 0.089842079294027988 0 0.48562171282895478 0.087688555618957054 0 0.49064601299021759 0.1032191824381892 0 0.5 0.089842079294027988 0 0.48562171282895478 0.087688555618957054 0 0.4719132331114228 0.094751314883328774 0 0.48562171282895478 0.087688555618957054 0 0.47549327029857408 0.07975170427734779 0 0.47549327029857408 0.07975170427734779 0 0.46944388359236122 0.051538144439365011 0 0.48781477910702442 0.05864953202960186 0 0.47549327029857408 0.07975170427734779 0 0.45647467020029342 0.072028715007201746 0 0.46944388359236122 0.051538144439365011 0 0.47549327029857408 0.07975170427734779 0 0.45647467020029342 0.072028715007201746 0 0.4544845929963458 0.094036966247024206 0 0.4719132331114228 0.094751314883328774 0 0.47549327029857408 0.07975170427734779 0 0.4544845929963458 0.094036966247024206 0 0.47549327029857408 0.07975170427734779 0 0.4544845929963458 0.094036966247024206 0 0.45647467020029342 0.072028715007201746 0 0.4544845929963458 0.094036966247024206 0 0.4360595792168539 0.077488508873908873 0 0.4544845929963458 0.094036966247024206 0 0.42934935268669999 0.092471932304215798 0 0.4360595792168539 0.077488508873908873 0 0.45647467020029342 0.072028715007201746 0 0.4360595792168539 0.077488508873908873 0 0.44689202489733187 0.057328251198362823 0 0.46386124328525669 0.13213278224152611 0 0.47474147805710581 0.1099106689302415 0 0.45237608692537518 0.11522524120842879 0 0.4719132331114228 0.094751314883328774 0 0.47474147805710581 0.1099106689302415 0 0.4544845929963458 0.094036966247024206 0 0.47474147805710581 0.1099106689302415 0 0.4544845929963458 0.094036966247024206 0 0.45237608692537518 0.11522524120842879 0 0.4544845929963458 0.094036966247024206 0 0.43347591569411748 0.10832222821670059 0 0.42934935268669999 0.092471932304215798 0 0.4544845929963458 0.094036966247024206 0 0.45237608692537518 0.11522524120842879 0 0.43347591569411748 0.10832222821670059 0 0.4544845929963458 0.094036966247024206 0 0.43347591569411748 0.10832222821670059 0 0.43531720459405038 0.13172356040665159 0 0.45237608692537518 0.11522524120842879 0 0.43347591569411748 0.10832222821670059 0 0.41246723839188909 0.122607490186377 0 0.43347591569411748 0.10832222821670059 0 0.43531720459405038 0.13172356040665159 0 0.41246723839188909 0.122607490186377 0 0.43347591569411748 0.10832222821670059 0 0.41246723839188909 0.122607490186377 0 0.41705688273558489 0.10192262033625241 0 0.43347591569411748 0.10832222821670059 0 0.41246723839188909 0.122607490186377 0 0.41705688273558489 0.10192262033625241 0 0.40190302997476568 0.1109170836787922 0 0.41705688273558489 0.10192262033625241 0 0.41234749885985489 0.084941415201518794 0 0.40190302997476568 0.1109170836787922 0 0.41234749885985489 0.084941415201518794 0 0.40190302997476568 0.1109170836787922 0 0.41705688273558489 0.10192262033625241 0 0.43347591569411748 0.10832222821670059 0 0.42934935268669999 0.092471932304215798 0 0.42934935268669999 0.092471932304215798 0 0.4360595792168539 0.077488508873908873 0 0.41234749885985489 0.084941415201518794 0 0.4360595792168539 0.077488508873908873 0 0.4227919677449441 0.058965746724245378 0 0.44689202489733187 0.057328251198362823 0 0.4360595792168539 0.077488508873908873 0 0.41234749885985489 0.084941415201518794 0 0.4227919677449441 0.058965746724245378 0 0.41234749885985489 0.084941415201518794 0 0.4060087449383169 0.068066034231038949 0 0.4227919677449441 0.058965746724245378 0 0.41234749885985489 0.084941415201518794 0 0.4227919677449441 0.058965746724245378 0 0.41705688273558489 0.10192262033625241 0 0.42934935268669999 0.092471932304215798 0 0.41234749885985489 0.084941415201518794 0 0.38397463247357078 0.081202294196968422 0 0.40027088300364949 0.097196680011063297 0 0.39836668605476661 0.080295217766921848 0 0.38397463247357078 0.081202294196968422 0 0.40027088300364949 0.097196680011063297 0 0.41234749885985489 0.084941415201518794 0 0.39836668605476661 0.080295217766921848 0 0.40027088300364949 0.097196680011063297 0 0.39836668605476661 0.080295217766921848 0 0.4060087449383169 0.068066034231038949 0 0.38810462910482257 0.070163871307044823 0 0.41234749885985489 0.084941415201518794 0 0.39836668605476661 0.080295217766921848 0 0.4060087449383169 0.068066034231038949 0 0.4060087449383169 0.068066034231038949 0 0.38810462910482257 0.070163871307044823 0 0.40785758903118818 0.050134496101338563 0 0.36767838194349212 0.065207908382873617 0 0.38810462910482257 0.070163871307044823 0 0.38397463247357078 0.081202294196968422 0 0.36767838194349212 0.065207908382873617 0 0.38397463247357078 0.081202294196968422 0 0.36767838194349212 0.065207908382873617 0 0.38810462910482257 0.070163871307044823 0 0.38078446969602209 0.058068329676514208 0 0.39836668605476661 0.080295217766921848 0 0.38810462910482257 0.070163871307044823 0 0.38397463247357078 0.081202294196968422 0 0.374244235244309 0.089538525487199636 0 0.36767838194349212 0.065207908382873617 0 0.38397463247357078 0.081202294196968422 0 0.38397463247357078 0.081202294196968422 0 0.38508257681170932 0.096372538541899561 0 0.40027088300364949 0.097196680011063297 0 0.374244235244309 0.089538525487199636 0 0.38397463247357078 0.081202294196968422 0 0.38508257681170932 0.096372538541899561 0 0.37390898500207681 0.1041512651792777 0 0.374244235244309 0.089538525487199636 0 0.38508257681170932 0.096372538541899561 0 0.37390898500207681 0.1041512651792777 0 0.38508257681170932 0.096372538541899561 0 0.38955359841603632 0.1066779873243149 0 0.36744753186943618 0.1199087634939994 0 0.37390898500207681 0.1041512651792777 0 0.38519374947121399 0.1190739172835709 0 0.36744753186943618 0.1199087634939994 0 0.37909921731021112 0.1300962966962215 0 0.38519374947121399 0.1190739172835709 0 0.37390898500207681 0.1041512651792777 0 0.38955359841603632 0.1066779873243149 0 0.38519374947121399 0.1190739172835709 0 0.38955359841603632 0.1066779873243149 0 0.38519374947121399 0.1190739172835709 0 0.40190302997476568 0.1109170836787922 0 0.39145856108966609 0.1368927521560612 0 0.40190302997476568 0.1109170836787922 0 0.39145856108966609 0.1368927521560612 0 0.41246723839188909 0.122607490186377 0 0.40190302997476568 0.1109170836787922 0 0.39145856108966609 0.1368927521560612 0 0.38519374947121399 0.1190739172835709 0 0.40190302997476568 0.1109170836787922 0 0.41234749885985489 0.084941415201518794 0 0.40190302997476568 0.1109170836787922 0 0.40027088300364949 0.097196680011063297 0 0.38508257681170932 0.096372538541899561 0 0.38955359841603632 0.1066779873243149 0 0.40027088300364949 0.097196680011063297 0 0.38955359841603632 0.1066779873243149 0 0.40190302997476568 0.1109170836787922 0 0.40027088300364949 0.097196680011063297 0 0.38436572452315998 0.019848123384192388 0 0.40632041938666752 0.027411640025524701 0 0.40666232653245149 0.0055596494295298672 0 0.38436572452315998 0.019848123384192388 0 0.39570927372323861 0.03559268580225234 0 0.40632041938666752 0.027411640025524701 0 0.38819295041751273 0.0012759751335580101 0 0.38436572452315998 0.019848123384192388 0 0.40666232653245149 0.0055596494295298672 0 0.37189854200638939 0.0052554674511347751 0 0.38819295041751273 0.0012759751335580101 0 0.38436572452315998 0.019848123384192388 0 0.38436572452315998 0.019848123384192388 0 0.38429336195193858 0.04497648369795372 0 0.39570927372323861 0.03559268580225234 0 0.36720056452803479 0.046410068451118613 0 0.38436572452315998 0.019848123384192388 0 0.38429336195193858 0.04497648369795372 0 0.36720056452803479 0.046410068451118613 0 0.38429336195193858 0.04497648369795372 0 0.38078446969602209 0.058068329676514208 0 0.38810462910482257 0.070163871307044823 0 0.40785758903118818 0.050134496101338563 0 0.38810462910482257 0.070163871307044823 0 0.38078446969602209 0.058068329676514208 0 0.40785758903118818 0.050134496101338563 0 0.38429336195193858 0.04497648369795372 0 0.38078446969602209 0.058068329676514208 0 0.40785758903118818 0.050134496101338563 0 0.39570927372323861 0.03559268580225234 0 0.40785758903118818 0.050134496101338563 0 0.40632041938666752 0.027411640025524701 0 0.38429336195193858 0.04497648369795372 0 0.39570927372323861 0.03559268580225234 0 0.40785758903118818 0.050134496101338563 0 0.40785758903118818 0.050134496101338563 0 0.42761054895755368 0.0301051208956323 0 0.40632041938666752 0.027411640025524701 0 0.40785758903118818 0.050134496101338563 0 0.42761054895755368 0.0301051208956323 0 0.4060087449383169 0.068066034231038949 0 0.40785758903118818 0.050134496101338563 0 0.4227919677449441 0.058965746724245378 0 0.40785758903118818 0.050134496101338563 0 0.4227919677449441 0.058965746724245378 0 0.43446293537432412 0.046081766975604309 0 0.4227919677449441 0.058965746724245378 0 0.43446293537432412 0.046081766975604309 0 0.44689202489733187 0.057328251198362823 0 0.43446293537432412 0.046081766975604309 0 0.42761054895755368 0.0301051208956323 0 0.45019847161015569 0.034881564480640753 0 0.40785758903118818 0.050134496101338563 0 0.43446293537432412 0.046081766975604309 0 0.42761054895755368 0.0301051208956323 0 0.42761054895755368 0.0301051208956323 0 0.42523805051198149 0.0099657241553064158 0 0.44736350888391929 0.010075745689925969 0 0.42761054895755368 0.0301051208956323 0 0.44736350888391929 0.010075745689925969 0 0.42761054895755368 0.0301051208956323 0 0.40632041938666752 0.027411640025524701 0 0.42523805051198149 0.0099657241553064158 0 0.40666232653245149 0.0055596494295298672 0 0.42523805051198149 0.0099657241553064158 0 0.42311386344738339 -0.0077353998708953207 0 0.40632041938666752 0.027411640025524701 0 0.40666232653245149 0.0055596494295298672 0 0.42523805051198149 0.0099657241553064158 0 0.44736350888391929 0.010075745689925969 0 0.44035763586391391 -0.0056224112378790107 0 0.46129729026147248 -0.0023581389534472561 0 0.42523805051198149 0.0099657241553064158 0 0.44736350888391929 0.010075745689925969 0 0.44035763586391391 -0.0056224112378790107 0 0.42761054895755368 0.0301051208956323 0 0.44736350888391929 0.010075745689925969 0 0.45019847161015569 0.034881564480640753 0 0.44736350888391929 0.010075745689925969 0 0.45019847161015569 0.034881564480640753 0 0.47278586389113347 0.016976887865358892 0 0.44736350888391929 0.010075745689925969 0 0.47278586389113347 0.016976887865358892 0 0.46129729026147248 -0.0023581389534472561 0 0.45019847161015569 0.034881564480640753 0 0.46944388359236122 0.051538144439365011 0 0.47278586389113347 0.016976887865358892 0 0.43446293537432412 0.046081766975604309 0 0.44689202489733187 0.057328251198362823 0 0.45019847161015569 0.034881564480640753 0 0.45647467020029342 0.072028715007201746 0 0.44689202489733187 0.057328251198362823 0 0.46944388359236122 0.051538144439365011 0 0.44689202489733187 0.057328251198362823 0 0.45019847161015569 0.034881564480640753 0 0.46944388359236122 0.051538144439365011 0 0.46944388359236122 0.051538144439365011 0 0.5 0.033338685897368103 0 0.47278586389113347 0.016976887865358892 0 0.49763479404338379 0.063152683226257028 0 0.5 0.033338685897368103 0 0.48781477910702442 0.05864953202960186 0 0.46944388359236122 0.051538144439365011 0 0.5 0.033338685897368103 0 0.48781477910702442 0.05864953202960186 0 0.49763479404338379 0.063152683226257028 0 0.49999999999999278 0.063087873005705591 0 0.5 0.033338685897368103 0 0.49763479404338379 0.063152683226257028 0 0.49650194760080302 0.065466442307672235 0 0.48781477910702442 0.05864953202960186 0 0.47278586389113347 0.016976887865358892 0 0.5 0.0035894987890304759 0 0.47936316500174009 -0.010952567808100409 0 0.47278586389113347 0.016976887865358892 0 0.47936316500174009 -0.010952567808100409 0 0.46129729026147248 -0.0023581389534472561 0 0.5 0.033338685897368103 0 0.47278586389113347 0.016976887865358892 0 0.5 0.0035894987890304759 0 0.5 0.0035894987890304759 0 0.47936316500174009 -0.010952567808100409 0 0.5 -0.02615968831930704 0 0.47936316500174009 -0.010952567808100409 0 0.47634265772156642 -0.039761765699935468 0 0.45613028309061232 -0.020831022027479992 0 0.47936316500174009 -0.010952567808100409 0 0.5 -0.02615968831930704 0 0.47634265772156642 -0.039761765699935468 0 0.5 -0.02615968831930704 0 0.5 -0.055908875427644611 0 0.47634265772156642 -0.039761765699935468 0 0.5 -0.055908875427644611 0 0.48073760695757689 -0.061403441828900437 0 0.47634265772156642 -0.039761765699935468 0 0.48073760695757689 -0.061403441828900437 0 0.47634265772156642 -0.039761765699935468 0 0.46470933413469728 -0.05845417016512984 0 0.45274006974299552 -0.044614602145661257 0 0.45613028309061232 -0.020831022027479992 0 0.47634265772156642 -0.039761765699935468 0 0.45274006974299552 -0.044614602145661257 0 0.45613028309061232 -0.020831022027479992 0 0.46470933413469728 -0.05845417016512984 0 0.45274006974299552 -0.044614602145661257 0 0.44934985639537878 -0.068398182263842533 0 0.47634265772156642 -0.039761765699935468 0 0.46470933413469728 -0.05845417016512984 0 0.45274006974299552 -0.044614602145661257 0 0.45274006974299552 -0.044614602145661257 0 0.44934985639537878 -0.068398182263842533 0 0.44199352079435861 -0.060133890873057358 0 0.45274006974299552 -0.044614602145661257 0 0.44934985639537878 -0.068398182263842533 0 0.44199352079435861 -0.060133890873057358 0 0.45274006974299552 -0.044614602145661257 0 0.43602152466242422 -0.049892311053965459 0 0.45274006974299552 -0.044614602145661257 0 0.44482649212135789 -0.031259867834383059 0 0.43373967405561431 -0.037582640221919802 0 0.45274006974299552 -0.044614602145661257 0 0.43373967405561431 -0.037582640221919802 0 0.43602152466242422 -0.049892311053965459 0 0.45274006974299552 -0.044614602145661257 0 0.44482649212135789 -0.031259867834383059 0 0.45613028309061232 -0.020831022027479992 0 0.44482649212135789 -0.031259867834383059 0 0.43669594159620961 -0.0220112069424712 0 0.43373967405561431 -0.037582640221919802 0 0.44035763586391391 -0.0056224112378790107 0 0.45613028309061232 -0.020831022027479992 0 0.43669594159620961 -0.0220112069424712 0 0.44482649212135789 -0.031259867834383059 0 0.45613028309061232 -0.020831022027479992 0 0.43669594159620961 -0.0220112069424712 0 0.44035763586391391 -0.0056224112378790107 0 0.46129729026147248 -0.0023581389534472561 0 0.45613028309061232 -0.020831022027479992 0 0.47936316500174009 -0.010952567808100409 0 0.46129729026147248 -0.0023581389534472561 0 0.45613028309061232 -0.020831022027479992 0 0.47113031965393848 -0.12094760686799939 0 0.48298448903035118 -0.11412201014314891 0 0.48143876179773099 -0.13590062899659289 0 0.47113031965393848 -0.12094760686799939 0 0.48298448903035118 -0.11412201014314891 0 0.47537974029847019 -0.1091270893411744 0 0.48298448903035118 -0.11412201014314891 0 0.5 -0.1154072496443197 0 0.49054131932718148 -0.1021389026776212 0 0.48298448903035118 -0.11412201014314891 0 0.5 -0.1154072496443197 0 0.48143876179773099 -0.13590062899659289 0 0.5 -0.1154072496443197 0 0.49054131932718148 -0.1021389026776212 0 0.5 -0.085658062535982182 0 0.49054131932718148 -0.1021389026776212 0 0.47941679310478619 -0.10121058333118579 0 0.48741383487072337 -0.092750052071663772 0 0.47941679310478619 -0.10121058333118579 0 0.47650192041653622 -0.10042396930258569 0 0.48741383487072337 -0.092750052071663772 0 0.47650192041653622 -0.10042396930258569 0 0.48741383487072337 -0.092750052071663772 0 0.47650192041653622 -0.10042396930258569 0 0.47929574547506232 -0.092860658684433953 0 0.48741383487072337 -0.092750052071663772 0 0.47537974029847019 -0.1091270893411744 0 0.47650192041653622 -0.10042396930258569 0 0.45744595206783267 -0.113825277063651 0 0.47511546125589188 -0.094406224936893185 0 0.47650192041653622 -0.10042396930258569 0 0.47929574547506232 -0.092860658684433953 0 0.47941679310478619 -0.10121058333118579 0 0.47650192041653622 -0.10042396930258569 0 0.48298448903035118 -0.11412201014314891 0 0.49054131932718148 -0.1021389026776212 0 0.47941679310478619 -0.10121058333118579 0 0.47941679310478619 -0.10121058333118579 0 0.47537974029847019 -0.1091270893411744 0 0.47650192041653622 -0.10042396930258569 0 0.48298448903035118 -0.11412201014314891 0 0.47941679310478619 -0.10121058333118579 0 0.47537974029847019 -0.1091270893411744 0 0.470129572023613 -0.094113903770107948 0 0.47650192041653622 -0.10042396930258569 0 0.46123078173214871 -0.096302865842305033 0 0.47650192041653622 -0.10042396930258569 0 0.46123078173214871 -0.096302865842305033 0 0.470129572023613 -0.094113903770107948 0 0.47511546125589188 -0.094406224936893185 0 0.47650192041653622 -0.10042396930258569 0 0.470129572023613 -0.094113903770107948 0 0.47466174425146013 -0.088588509539032467 0 0.46642755437635042 -0.08462896515794785 0 0.47511546125589188 -0.094406224936893185 0 0.47466174425146013 -0.088588509539032467 0 0.47929574547506232 -0.092860658684433953 0 0.470129572023613 -0.094113903770107948 0 0.47511546125589188 -0.094406224936893185 0 0.47466174425146013 -0.088588509539032467 0 0.47466174425146013 -0.088588509539032467 0 0.47411188535304322 -0.075419194958673594 0 0.46642755437635042 -0.08462896515794785 0 0.48166573145906638 -0.086245697835062141 0 0.48708786733189191 -0.077457218538469208 0 0.47411188535304322 -0.075419194958673594 0 0.47466174425146013 -0.088588509539032467 0 0.48166573145906638 -0.086245697835062141 0 0.47411188535304322 -0.075419194958673594 0 0.48166573145906638 -0.086245697835062141 0 0.47929574547506232 -0.092860658684433953 0 0.48741383487072337 -0.092750052071663772 0 0.47466174425146013 -0.088588509539032467 0 0.48166573145906638 -0.086245697835062141 0 0.47929574547506232 -0.092860658684433953 0 0.49054131932718148 -0.1021389026776212 0 0.48741383487072337 -0.092750052071663772 0 0.5 -0.085658062535982182 0 0.48166573145906638 -0.086245697835062141 0 0.48741383487072337 -0.092750052071663772 0 0.48708786733189191 -0.077457218538469208 0 0.48741383487072337 -0.092750052071663772 0 0.5 -0.085658062535982182 0 0.48708786733189191 -0.077457218538469208 0 0.5 -0.055908875427644611 0 0.5 -0.085658062535982182 0 0.48708786733189191 -0.077457218538469208 0 0.5 -0.055908875427644611 0 0.48073760695757689 -0.061403441828900437 0 0.48708786733189191 -0.077457218538469208 0 0.48073760695757689 -0.061403441828900437 0 0.48708786733189191 -0.077457218538469208 0 0.47411188535304322 -0.075419194958673594 0 0.48073760695757689 -0.061403441828900437 0 0.46470933413469728 -0.05845417016512984 0 0.47411188535304322 -0.075419194958673594 0 0.46470933413469728 -0.05845417016512984 0 0.47411188535304322 -0.075419194958673594 0 0.46143044187678789 -0.071727104089648594 0 0.47411188535304322 -0.075419194958673594 0 0.46143044187678789 -0.071727104089648594 0 0.46642755437635042 -0.08462896515794785 0 0.46143044187678789 -0.071727104089648594 0 0.44934985639537878 -0.068398182263842533 0 0.45700090102104968 -0.081622212747919573 0 0.46470933413469728 -0.05845417016512984 0 0.46143044187678789 -0.071727104089648594 0 0.44934985639537878 -0.068398182263842533 0 0.44199352079435861 -0.060133890873057358 0 0.44934985639537878 -0.068398182263842533 0 0.43525076802964729 -0.089291841544752504 0 0.44199352079435861 -0.060133890873057358 0 0.43525076802964729 -0.089291841544752504 0 0.44934985639537878 -0.068398182263842533 0 0.44595964304776148 -0.092181762382023691 0 0.44934985639537878 -0.068398182263842533 0 0.44595964304776148 -0.092181762382023691 0 0.43525076802964729 -0.089291841544752504 0 0.44934985639537878 -0.068398182263842533 0 0.44595964304776148 -0.092181762382023691 0 0.45700090102104968 -0.081622212747919573 0 0.44595964304776148 -0.092181762382023691 0 0.43889668990180902 -0.099163075252228311 0 0.43525076802964729 -0.089291841544752504 0 0.44595964304776148 -0.092181762382023691 0 0.43525076802964729 -0.089291841544752504 0 0.44595964304776148 -0.092181762382023691 0 0.45700090102104968 -0.081622212747919573 0 0.46123078173214871 -0.096302865842305033 0 0.46143044187678789 -0.071727104089648594 0 0.45700090102104968 -0.081622212747919573 0 0.46642755437635042 -0.08462896515794785 0 0.45700090102104968 -0.081622212747919573 0 0.46642755437635042 -0.08462896515794785 0 0.46123078173214871 -0.096302865842305033 0 0.470129572023613 -0.094113903770107948 0 0.46642755437635042 -0.08462896515794785 0 0.46123078173214871 -0.096302865842305033 0 0.47650192041653622 -0.10042396930258569 0 0.45744595206783267 -0.113825277063651 0 0.46123078173214871 -0.096302865842305033 0 0.44441662925397951 -0.10300656555073499 0 0.45744595206783267 -0.113825277063651 0 0.47650192041653622 -0.10042396930258569 0 0.46123078173214871 -0.096302865842305033 0 0.45744595206783267 -0.113825277063651 0 0.44595964304776148 -0.092181762382023691 0 0.46123078173214871 -0.096302865842305033 0 0.44595964304776148 -0.092181762382023691 0 0.46123078173214871 -0.096302865842305033 0 0.44441662925397951 -0.10300656555073499 0 0.44595964304776148 -0.092181762382023691 0 0.43889668990180902 -0.099163075252228311 0 0.44441662925397951 -0.10300656555073499 0 0.44595964304776148 -0.092181762382023691 0 0.44441662925397951 -0.10300656555073499 0 0.43889668990180902 -0.099163075252228311 0 0.44441662925397951 -0.10300656555073499 0 0.42995971927584758 -0.112172131531402 0 0.44441662925397951 -0.10300656555073499 0 0.44255307107919739 -0.1140576397426263 0 0.45744595206783267 -0.113825277063651 0 0.45744595206783267 -0.113825277063651 0 0.45834574360343289 -0.13191037978366241 0 0.43838998371912979 -0.12722658482471719 0 0.45744595206783267 -0.113825277063651 0 0.43838998371912979 -0.12722658482471719 0 0.44255307107919739 -0.1140576397426263 0 0.45744595206783267 -0.113825277063651 0 0.43838998371912979 -0.12722658482471719 0 0.44441662925397951 -0.10300656555073499 0 0.44255307107919739 -0.1140576397426263 0 0.42995971927584758 -0.112172131531402 0 0.47113031965393848 -0.12094760686799939 0 0.45744595206783267 -0.113825277063651 0 0.45834574360343289 -0.13191037978366241 0 0.47113031965393848 -0.12094760686799939 0 0.47537974029847019 -0.1091270893411744 0 0.45744595206783267 -0.113825277063651 0 0.41934698305463791 -0.1221939738031026 0 0.42995971927584758 -0.112172131531402 0 0.40615091590116348 -0.1087325683531611 0 0.41934698305463791 -0.1221939738031026 0 0.40615091590116348 -0.1087325683531611 0 0.40960050740841558 -0.12702113758470751 0 0.41934698305463791 -0.1221939738031026 0 0.42995971927584758 -0.112172131531402 0 0.42466867052204699 -0.13505242151805119 0 0.42995971927584758 -0.112172131531402 0 0.42466867052204699 -0.13505242151805119 0 0.43838998371912979 -0.12722658482471719 0 0.42995971927584758 -0.112172131531402 0 0.42466867052204699 -0.13505242151805119 0 0.44255307107919739 -0.1140576397426263 0 0.42995971927584758 -0.112172131531402 0 0.43838998371912979 -0.12722658482471719 0 0.42995971927584758 -0.112172131531402 0 0.42317383048071577 -0.098550979787744686 0 0.43525076802964729 -0.089291841544752504 0 0.42995971927584758 -0.112172131531402 0 0.43525076802964729 -0.089291841544752504 0 0.43889668990180902 -0.099163075252228311 0 0.42995971927584758 -0.112172131531402 0 0.43525076802964729 -0.089291841544752504 0 0.42995971927584758 -0.112172131531402 0 0.42317383048071577 -0.098550979787744686 0 0.40615091590116348 -0.1087325683531611 0 0.41739465847868412 -0.084473152095427759 0 0.40615091590116348 -0.1087325683531611 0 0.39828807175479169 -0.094106078289467002 0 0.41739465847868412 -0.084473152095427759 0 0.40615091590116348 -0.1087325683531611 0 0.42317383048071577 -0.098550979787744686 0 0.41739465847868412 -0.084473152095427759 0 0.40615091590116348 -0.1087325683531611 0 0.41739465847868412 -0.084473152095427759 0 0.42236939103416288 -0.07373970573607147 0 0.40225396571793531 -0.080387251062312745 0 0.41739465847868412 -0.084473152095427759 0 0.40225396571793531 -0.080387251062312745 0 0.41739465847868412 -0.084473152095427759 0 0.42236939103416288 -0.07373970573607147 0 0.41739465847868412 -0.084473152095427759 0 0.42466980641140217 -0.080844347224306362 0 0.42236939103416288 -0.07373970573607147 0 0.42317383048071577 -0.098550979787744686 0 0.41739465847868412 -0.084473152095427759 0 0.43525076802964729 -0.089291841544752504 0 0.41739465847868412 -0.084473152095427759 0 0.43525076802964729 -0.089291841544752504 0 0.42466980641140217 -0.080844347224306362 0 0.41739465847868412 -0.084473152095427759 0 0.43525076802964729 -0.089291841544752504 0 0.43525076802964729 -0.089291841544752504 0 0.42466980641140217 -0.080844347224306362 0 0.42712514382717082 -0.074120373531304531 0 0.42236939103416288 -0.07373970573607147 0 0.42992588653341512 -0.057435866644938903 0 0.42466980641140217 -0.080844347224306362 0 0.42236939103416288 -0.07373970573607147 0 0.42712514382717082 -0.074120373531304531 0 0.43525076802964729 -0.089291841544752504 0 0.42712514382717082 -0.074120373531304531 0 0.43214748120209512 -0.069739654693250552 0 0.42236939103416288 -0.07373970573607147 0 0.43214748120209512 -0.069739654693250552 0 0.42992588653341512 -0.057435866644938903 0 0.42236939103416288 -0.07373970573607147 0 0.42712514382717082 -0.074120373531304531 0 0.43214748120209512 -0.069739654693250552 0 0.42236939103416288 -0.07373970573607147 0 0.42992588653341512 -0.057435866644938903 0 0.418098347427724 -0.061434186487311318 0 0.44199352079435861 -0.060133890873057358 0 0.43525076802964729 -0.089291841544752504 0 0.43214748120209512 -0.069739654693250552 0 0.42236939103416288 -0.07373970573607147 0 0.42712514382717082 -0.074120373531304531 0 0.42236939103416288 -0.07373970573607147 0 0.39353981758802659 -0.071432081551434046 0 0.42236939103416288 -0.07373970573607147 0 0.40856567099190633 -0.065532569500933044 0 0.418098347427724 -0.061434186487311318 0 0.42236939103416288 -0.07373970573607147 0 0.40856567099190633 -0.065532569500933044 0 0.39353981758802659 -0.071432081551434046 0 0.42236939103416288 -0.07373970573607147 0 0.39353981758802659 -0.071432081551434046 0 0.40225396571793531 -0.080387251062312745 0 0.40856567099190633 -0.065532569500933044 0 0.40093801840853299 -0.063628486842732646 0 0.39353981758802659 -0.071432081551434046 0 0.40093801840853299 -0.063628486842732646 0 0.39353981758802659 -0.071432081551434046 0 0.39376691503868111 -0.055955676327846877 0 0.39353981758802659 -0.071432081551434046 0 0.37841272088533728 -0.079177289070131676 0 0.36471024414189002 -0.069124457366798092 0 0.39353981758802659 -0.071432081551434046 0 0.38053336184469938 -0.058312837178131918 0 0.36471024414189002 -0.069124457366798092 0 0.39353981758802659 -0.071432081551434046 0 0.36471024414189002 -0.069124457366798092 0 0.39353981758802659 -0.071432081551434046 0 0.38943527586495652 -0.084598673559406354 0 0.37841272088533728 -0.079177289070131676 0 0.38943527586495652 -0.084598673559406354 0 0.37841272088533728 -0.079177289070131676 0 0.37801525568825861 -0.090149969173203642 0 0.38943527586495652 -0.084598673559406354 0 0.37801525568825861 -0.090149969173203642 0 0.38550732495312467 -0.095650381711385651 0 0.41739465847868412 -0.084473152095427759 0 0.40225396571793531 -0.080387251062312745 0 0.39828807175479169 -0.094106078289467002 0 0.38943527586495652 -0.084598673559406354 0 0.39828807175479169 -0.094106078289467002 0 0.38550732495312467 -0.095650381711385651 0 0.38943527586495652 -0.084598673559406354 0 0.40225396571793531 -0.080387251062312745 0 0.39828807175479169 -0.094106078289467002 0 0.39353981758802659 -0.071432081551434046 0 0.38943527586495652 -0.084598673559406354 0 0.40225396571793531 -0.080387251062312745 0 0.39828807175479169 -0.094106078289467002 0 0.38550732495312467 -0.095650381711385651 0 0.38898628961288623 -0.1107944429551084 0 0.40615091590116348 -0.1087325683531611 0 0.39828807175479169 -0.094106078289467002 0 0.38898628961288623 -0.1107944429551084 0 0.38898628961288623 -0.1107944429551084 0 0.37268472884612719 -0.11328737858187519 0 0.37349775888664349 -0.1006861224672385 0 0.37801525568825861 -0.090149969173203642 0 0.38550732495312467 -0.095650381711385651 0 0.37349775888664349 -0.1006861224672385 0 0.38550732495312467 -0.095650381711385651 0 0.38898628961288623 -0.1107944429551084 0 0.37349775888664349 -0.1006861224672385 0 0.38898628961288623 -0.1107944429551084 0 0.38200606603978482 -0.1247417562322093 0 0.37268472884612719 -0.11328737858187519 0 0.38898628961288623 -0.1107944429551084 0 0.38200606603978482 -0.1247417562322093 0 0.39490717332364189 -0.13299198461089401 0 0.38200606603978482 -0.1247417562322093 0 0.37268472884612719 -0.11328737858187519 0 0.37082404598795438 -0.12601947394668861 0 0.40615091590116348 -0.1087325683531611 0 0.38898628961288623 -0.1107944429551084 0 0.39490717332364189 -0.13299198461089401 0 0.40615091590116348 -0.1087325683531611 0 0.39490717332364189 -0.13299198461089401 0 0.40960050740841558 -0.12702113758470751 0 0.40615091590116348 -0.1087325683531611 0 0.39490717332364189 -0.13299198461089401 0 0.41290158888218909 -0.022493473237322259 0 0.41968299781645091 -0.037530984465498997 0 0.40401099069029273 -0.02841613724555006 0 0.41290158888218909 -0.022493473237322259 0 0.42311386344738339 -0.0077353998708953207 0 0.42455538216242378 -0.026024466680199521 0 0.41290158888218909 -0.022493473237322259 0 0.42455538216242378 -0.026024466680199521 0 0.41968299781645091 -0.037530984465498997 0 0.41290158888218909 -0.022493473237322259 0 0.40401099069029273 -0.02841613724555006 0 0.40666232653245149 0.0055596494295298672 0 0.41065502961737199 -0.009805854768911151 0 0.42311386344738339 -0.0077353998708953207 0 0.41290158888218909 -0.022493473237322259 0 0.41065502961737199 -0.009805854768911151 0 0.39985498889565518 -0.01088870076823352 0 0.41290158888218909 -0.022493473237322259 0 0.41065502961737199 -0.009805854768911151 0 0.42311386344738339 -0.0077353998708953207 0 0.44035763586391391 -0.0056224112378790107 0 0.42311386344738339 -0.0077353998708953207 0 0.43669594159620961 -0.0220112069424712 0 0.42523805051198149 0.0099657241553064158 0 0.44035763586391391 -0.0056224112378790107 0 0.42311386344738339 -0.0077353998708953207 0 0.42311386344738339 -0.0077353998708953207 0 0.43669594159620961 -0.0220112069424712 0 0.42455538216242378 -0.026024466680199521 0 0.43669594159620961 -0.0220112069424712 0 0.42455538216242378 -0.026024466680199521 0 0.43373967405561431 -0.037582640221919802 0 0.43373967405561431 -0.037582640221919802 0 0.43602152466242422 -0.049892311053965459 0 0.4217084721857377 -0.04969455538424998 0 0.43373967405561431 -0.037582640221919802 0 0.4217084721857377 -0.04969455538424998 0 0.41968299781645091 -0.037530984465498997 0 0.42455538216242378 -0.026024466680199521 0 0.43373967405561431 -0.037582640221919802 0 0.41968299781645091 -0.037530984465498997 0 0.44199352079435861 -0.060133890873057358 0 0.42992588653341512 -0.057435866644938903 0 0.43602152466242422 -0.049892311053965459 0 0.44199352079435861 -0.060133890873057358 0 0.43214748120209512 -0.069739654693250552 0 0.42992588653341512 -0.057435866644938903 0 0.42992588653341512 -0.057435866644938903 0 0.43602152466242422 -0.049892311053965459 0 0.4217084721857377 -0.04969455538424998 0 0.42992588653341512 -0.057435866644938903 0 0.418098347427724 -0.061434186487311318 0 0.4217084721857377 -0.04969455538424998 0 0.4217084721857377 -0.04969455538424998 0 0.40788278050108451 -0.057428386887115712 0 0.40501022647003809 -0.045088345986714191 0 0.418098347427724 -0.061434186487311318 0 0.4217084721857377 -0.04969455538424998 0 0.40788278050108451 -0.057428386887115712 0 0.40856567099190633 -0.065532569500933044 0 0.418098347427724 -0.061434186487311318 0 0.40788278050108451 -0.057428386887115712 0 0.4217084721857377 -0.04969455538424998 0 0.41968299781645091 -0.037530984465498997 0 0.40501022647003809 -0.045088345986714191 0 0.41968299781645091 -0.037530984465498997 0 0.40501022647003809 -0.045088345986714191 0 0.40401099069029273 -0.02841613724555006 0 0.41968299781645091 -0.037530984465498997 0 0.40401099069029273 -0.02841613724555006 0 0.38488694104839538 -0.041156035963375942 0 0.40401099069029273 -0.02841613724555006 0 0.40501022647003809 -0.045088345986714191 0 0.38488694104839538 -0.041156035963375942 0 0.40401099069029273 -0.02841613724555006 0 0.38488694104839538 -0.041156035963375942 0 0.38619928917695928 -0.027981469624754559 0 0.40401099069029273 -0.02841613724555006 0 0.40501022647003809 -0.045088345986714191 0 0.39376691503868111 -0.055955676327846877 0 0.38488694104839538 -0.041156035963375942 0 0.40093801840853299 -0.063628486842732646 0 0.40788278050108451 -0.057428386887115712 0 0.39376691503868111 -0.055955676327846877 0 0.40856567099190633 -0.065532569500933044 0 0.40093801840853299 -0.063628486842732646 0 0.40788278050108451 -0.057428386887115712 0 0.40788278050108451 -0.057428386887115712 0 0.40501022647003809 -0.045088345986714191 0 0.39376691503868111 -0.055955676327846877 0 0.38053336184469938 -0.058312837178131918 0 0.38488694104839538 -0.041156035963375942 0 0.36576289140649981 -0.053895934681204342 0 0.38488694104839538 -0.041156035963375942 0 0.36576289140649981 -0.053895934681204342 0 0.39376691503868111 -0.055955676327846877 0 0.38053336184469938 -0.058312837178131918 0 0.38488694104839538 -0.041156035963375942 0 0.39353981758802659 -0.071432081551434046 0 0.39376691503868111 -0.055955676327846877 0 0.38053336184469938 -0.058312837178131918 0 0.38488694104839538 -0.041156035963375942 0 0.37771605483924198 -0.02895904146125881 0 0.36688356962536561 -0.037683216277819613 0 0.38488694104839538 -0.041156035963375942 0 0.37771605483924198 -0.02895904146125881 0 0.38619928917695928 -0.027981469624754559 0 0.37771605483924198 -0.02895904146125881 0 0.38619928917695928 -0.027981469624754559 0 0.37818317012990738 -0.01339466382883346 0 0.38619928917695928 -0.027981469624754559 0 0.40401099069029273 -0.02841613724555006 0 0.37818317012990738 -0.01339466382883346 0 0.41290158888218909 -0.022493473237322259 0 0.40401099069029273 -0.02841613724555006 0 0.39985498889565518 -0.01088870076823352 0 0.40401099069029273 -0.02841613724555006 0 0.37818317012990738 -0.01339466382883346 0 0.40401099069029273 -0.02841613724555006 0 0.39985498889565518 -0.01088870076823352 0 0.37818317012990738 -0.01339466382883346 0 0.38819295041751273 0.0012759751335580101 0 0.40666232653245149 0.0055596494295298672 0 0.39985498889565518 -0.01088870076823352 0 0.40666232653245149 0.0055596494295298672 0 0.41065502961737199 -0.009805854768911151 0 0.39985498889565518 -0.01088870076823352 0 0.38819295041751273 0.0012759751335580101 0 0.39985498889565518 -0.01088870076823352 0 0.37818317012990738 -0.01339466382883346 0 0.37189854200638939 0.0052554674511347751 0 0.38819295041751273 0.0012759751335580101 0 0.37818317012990738 -0.01339466382883346 0 0.37189854200638939 0.0052554674511347751 0 0.35235534956952219 0.001626809587882895 0 0.37818317012990738 -0.01339466382883346 0 0.35235534956952219 0.001626809587882895 0 0.37818317012990738 -0.01339466382883346 0 0.34791544004596892 -0.0087409646321380888 0 0.35235534956952219 0.001626809587882895 0 0.37818317012990738 -0.01339466382883346 0 0.37818317012990738 -0.01339466382883346 0 0.35248901618792361 -0.02066347637437713 0 0.34791544004596892 -0.0087409646321380888 0 0.37818317012990738 -0.01339466382883346 0 0.36592293883325477 -0.026979751383335429 0 0.35248901618792361 -0.02066347637437713 0 0.37771605483924198 -0.02895904146125881 0 0.36592293883325477 -0.026979751383335429 0 0.36688356962536561 -0.037683216277819613 0 0.37771605483924198 -0.02895904146125881 0 0.37818317012990738 -0.01339466382883346 0 0.36592293883325477 -0.026979751383335429 0 0.36592293883325477 -0.026979751383335429 0 0.35248901618792361 -0.02066347637437713 0 0.35399265055418222 -0.035044418112942649 0 0.35248901618792361 -0.02066347637437713 0 0.33974036955512948 -0.01700819072599568 0 0.34242133186625118 -0.029444011099203211 0 0.35248901618792361 -0.02066347637437713 0 0.34242133186625118 -0.029444011099203211 0 0.35399265055418222 -0.035044418112942649 0 0.35248901618792361 -0.02066347637437713 0 0.34791544004596892 -0.0087409646321380888 0 0.33974036955512948 -0.01700819072599568 0 0.35235534956952219 0.001626809587882895 0 0.34230059718848171 0.0025810500958884639 0 0.34791544004596892 -0.0087409646321380888 0 0.34230059718848171 0.0025810500958884639 0 0.33705517668666962 -0.0066037565585118068 0 0.33122203488715368 -0.001204029555422461 0 0.34230059718848171 0.0025810500958884639 0 0.34791544004596892 -0.0087409646321380888 0 0.33705517668666962 -0.0066037565585118068 0 0.33705517668666962 -0.0066037565585118068 0 0.33122203488715368 -0.001204029555422461 0 0.32720329215068322 -0.01273857315610168 0 0.33705517668666962 -0.0066037565585118068 0 0.33974036955512948 -0.01700819072599568 0 0.32720329215068322 -0.01273857315610168 0 0.34791544004596892 -0.0087409646321380888 0 0.33705517668666962 -0.0066037565585118068 0 0.33974036955512948 -0.01700819072599568 0 0.33974036955512948 -0.01700819072599568 0 0.34242133186625118 -0.029444011099203211 0 0.33135796039328058 -0.023858362535642191 0 0.34242133186625118 -0.029444011099203211 0 0.33135796039328058 -0.023858362535642191 0 0.33045227905870989 -0.036720636823360547 0 0.33974036955512948 -0.01700819072599568 0 0.33135796039328058 -0.023858362535642191 0 0.32720329215068322 -0.01273857315610168 0 0.33135796039328058 -0.023858362535642191 0 0.31995897383240962 -0.025338741962470341 0 0.32720329215068322 -0.01273857315610168 0 0.33135796039328058 -0.023858362535642191 0 0.31995897383240962 -0.025338741962470341 0 0.33045227905870989 -0.036720636823360547 0 0.31995897383240962 -0.025338741962470341 0 0.31616406974173472 -0.03669084524448115 0 0.30788125712644387 -0.027279664490000011 0 0.31995897383240962 -0.025338741962470341 0 0.32720329215068322 -0.01273857315610168 0 0.31194660848509109 -0.015904634262812418 0 0.31995897383240962 -0.025338741962470341 0 0.31194660848509109 -0.015904634262812418 0 0.30788125712644387 -0.027279664490000011 0 0.32067872675594261 -0.0026339777492341539 0 0.32720329215068322 -0.01273857315610168 0 0.31194660848509109 -0.015904634262812418 0 0.32067872675594261 -0.0026339777492341539 0 0.30877892227945342 -0.0067445652512463632 0 0.31194660848509109 -0.015904634262812418 0 0.33122203488715368 -0.001204029555422461 0 0.32067872675594261 -0.0026339777492341539 0 0.32720329215068322 -0.01273857315610168 0 0.32248539930457543 -0.054678417657523938 0 0.31345868695534818 -0.0481535092615493 0 0.31322898380551317 -0.065003709564903783 0 0.32248539930457543 -0.054678417657523938 0 0.3292356403817937 -0.066284940724967809 0 0.31322898380551317 -0.065003709564903783 0 0.32248539930457543 -0.054678417657523938 0 0.323172300588357 -0.044989683890407257 0 0.33531570197319721 -0.052490103954831398 0 0.32248539930457543 -0.054678417657523938 0 0.31322898380551317 -0.065003709564903783 0 0.32248539930457543 -0.054678417657523938 0 0.31345868695534818 -0.0481535092615493 0 0.323172300588357 -0.044989683890407257 0 0.31345868695534818 -0.0481535092615493 0 0.31616406974173472 -0.03669084524448115 0 0.323172300588357 -0.044989683890407257 0 0.31995897383240962 -0.025338741962470341 0 0.31616406974173472 -0.03669084524448115 0 0.33045227905870989 -0.036720636823360547 0 0.31616406974173472 -0.03669084524448115 0 0.323172300588357 -0.044989683890407257 0 0.33045227905870989 -0.036720636823360547 0 0.33045227905870989 -0.036720636823360547 0 0.33531570197319721 -0.052490103954831398 0 0.34528278983281369 -0.042763098313031031 0 0.323172300588357 -0.044989683890407257 0 0.33045227905870989 -0.036720636823360547 0 0.33531570197319721 -0.052490103954831398 0 0.34242133186625118 -0.029444011099203211 0 0.33045227905870989 -0.036720636823360547 0 0.34528278983281369 -0.042763098313031031 0 0.33531570197319721 -0.052490103954831398 0 0.34524229695807418 -0.067566171885031001 0 0.3292356403817937 -0.066284940724967809 0 0.33531570197319721 -0.052490103954831398 0 0.34994747104614482 -0.052454887789763732 0 0.34528278983281369 -0.042763098313031031 0 0.32248539930457543 -0.054678417657523938 0 0.33531570197319721 -0.052490103954831398 0 0.3292356403817937 -0.066284940724967809 0 0.33531570197319721 -0.052490103954831398 0 0.34994747104614482 -0.052454887789763732 0 0.34524229695807418 -0.067566171885031001 0 0.34994747104614482 -0.052454887789763732 0 0.36576289140649981 -0.053895934681204342 0 0.34524229695807418 -0.067566171885031001 0 0.34994747104614482 -0.052454887789763732 0 0.35813367506013882 -0.045559130114723193 0 0.36576289140649981 -0.053895934681204342 0 0.36576289140649981 -0.053895934681204342 0 0.34524229695807418 -0.067566171885031001 0 0.34994747104614482 -0.052454887789763732 0 0.34528278983281369 -0.042763098313031031 0 0.35813367506013882 -0.045559130114723193 0 0.34242133186625118 -0.029444011099203211 0 0.34528278983281369 -0.042763098313031031 0 0.35399265055418222 -0.035044418112942649 0 0.34528278983281369 -0.042763098313031031 0 0.35813367506013882 -0.045559130114723193 0 0.35399265055418222 -0.035044418112942649 0 0.35813367506013882 -0.045559130114723193 0 0.36688356962536561 -0.037683216277819613 0 0.36576289140649981 -0.053895934681204342 0 0.38488694104839538 -0.041156035963375942 0 0.36688356962536561 -0.037683216277819613 0 0.36576289140649981 -0.053895934681204342 0 0.36688356962536561 -0.037683216277819613 0 0.36576289140649981 -0.053895934681204342 0 0.36592293883325477 -0.026979751383335429 0 0.35399265055418222 -0.035044418112942649 0 0.36688356962536561 -0.037683216277819613 0 0.35813367506013882 -0.045559130114723193 0 0.35399265055418222 -0.035044418112942649 0 0.36688356962536561 -0.037683216277819613 0 0.38053336184469938 -0.058312837178131918 0 0.36576289140649981 -0.053895934681204342 0 0.36471024414189002 -0.069124457366798092 0 0.36576289140649981 -0.053895934681204342 0 0.36471024414189002 -0.069124457366798092 0 0.36471024414189002 -0.069124457366798092 0 0.36322319785123069 -0.090637379057856071 0 0.36471024414189002 -0.069124457366798092 0 0.36322319785123069 -0.090637379057856071 0 0.35254732811248352 -0.082408518146349419 0 0.37841272088533728 -0.079177289070131676 0 0.36471024414189002 -0.069124457366798092 0 0.36322319785123069 -0.090637379057856071 0 0.37841272088533728 -0.079177289070131676 0 0.37801525568825861 -0.090149969173203642 0 0.36322319785123069 -0.090637379057856071 0 0.36322319785123069 -0.090637379057856071 0 0.35254732811248352 -0.082408518146349419 0 0.34705806711365761 -0.094781202143161963 0 0.35254732811248352 -0.082408518146349419 0 0.34705806711365761 -0.094781202143161963 0 0.34107276089472099 -0.080751830986731693 0 0.35254732811248352 -0.082408518146349419 0 0.34797640049882222 -0.074524889591633864 0 0.34107276089472099 -0.080751830986731693 0 0.34797640049882222 -0.074524889591633864 0 0.34260811377227601 -0.069320989908389363 0 0.34107276089472099 -0.080751830986731693 0 0.36471024414189002 -0.069124457366798092 0 0.35254732811248352 -0.082408518146349419 0 0.34797640049882222 -0.074524889591633864 0 0.36576289140649981 -0.053895934681204342 0 0.36471024414189002 -0.069124457366798092 0 0.34524229695807418 -0.067566171885031001 0 0.36471024414189002 -0.069124457366798092 0 0.34524229695807418 -0.067566171885031001 0 0.36471024414189002 -0.069124457366798092 0 0.34797640049882222 -0.074524889591633864 0 0.34524229695807418 -0.067566171885031001 0 0.34797640049882222 -0.074524889591633864 0 0.34524229695807418 -0.067566171885031001 0 0.34260811377227601 -0.069320989908389363 0 0.34524229695807418 -0.067566171885031001 0 0.34260811377227601 -0.069320989908389363 0 0.3617361515605676 -0.1121503007489138 0 0.36000391278264809 -0.1372103929690886 0 0.37268472884612719 -0.11328737858187519 0 0.3617361515605676 -0.1121503007489138 0 0.37268472884612719 -0.11328737858187519 0 0.3617361515605676 -0.1121503007489138 0 0.37082404598795438 -0.12601947394668861 0 0.36322319785123069 -0.090637379057856071 0 0.3617361515605676 -0.1121503007489138 0 0.36322319785123069 -0.090637379057856071 0 0.3617361515605676 -0.1121503007489138 0 0.37349775888664349 -0.1006861224672385 0 0.37268472884612719 -0.11328737858187519 0 0.3617361515605676 -0.1121503007489138 0 0.37349775888664349 -0.1006861224672385 0 0.37801525568825861 -0.090149969173203642 0 0.36322319785123069 -0.090637379057856071 0 0.37349775888664349 -0.1006861224672385 0 0.3617361515605676 -0.1121503007489138 0 0.34705806711365761 -0.094781202143161963 0 0.33405563481500061 -0.1092755069583258 0 0.36322319785123069 -0.090637379057856071 0 0.3617361515605676 -0.1121503007489138 0 0.34705806711365761 -0.094781202143161963 0 0.3617361515605676 -0.1121503007489138 0 0.33405563481500061 -0.1092755069583258 0 0.3617361515605676 -0.1121503007489138 0 0.33405563481500061 -0.1092755069583258 0 0.34441915943734291 -0.12516449305795291 0 0.3617361515605676 -0.1121503007489138 0 0.34441915943734291 -0.12516449305795291 0 0.36000391278264809 -0.1372103929690886 0 0.33405563481500061 -0.1092755069583258 0 0.31851132082055472 -0.12898106585611799 0 0.34441915943734291 -0.12516449305795291 0 0.34705806711365761 -0.094781202143161963 0 0.33405563481500061 -0.1092755069583258 0 0.3315597908036465 -0.088047676716452666 0 0.33405563481500061 -0.1092755069583258 0 0.31672291085253218 -0.093494865501335733 0 0.30637511806943352 -0.10640071316773771 0 0.33405563481500061 -0.1092755069583258 0 0.30637511806943352 -0.10640071316773771 0 0.33405563481500061 -0.1092755069583258 0 0.3315597908036465 -0.088047676716452666 0 0.31672291085253218 -0.093494865501335733 0 0.33405563481500061 -0.1092755069583258 0 0.30637511806943352 -0.10640071316773771 0 0.31851132082055472 -0.12898106585611799 0 0.34524229695807418 -0.067566171885031001 0 0.3292356403817937 -0.066284940724967809 0 0.34524229695807418 -0.067566171885031001 0 0.3292356403817937 -0.066284940724967809 0 0.34260811377227601 -0.069320989908389363 0 0.33304290801457581 -0.076481207326468847 0 0.3292356403817937 -0.066284940724967809 0 0.34260811377227601 -0.069320989908389363 0 0.33304290801457581 -0.076481207326468847 0 0.34260811377227601 -0.069320989908389363 0 0.34107276089472099 -0.080751830986731693 0 0.34705806711365761 -0.094781202143161963 0 0.34107276089472099 -0.080751830986731693 0 0.3315597908036465 -0.088047676716452666 0 0.33304290801457581 -0.076481207326468847 0 0.3315597908036465 -0.088047676716452666 0 0.31987809243091297 -0.078939964833722578 0 0.33304290801457581 -0.076481207326468847 0 0.34107276089472099 -0.080751830986731693 0 0.3315597908036465 -0.088047676716452666 0 0.3315597908036465 -0.088047676716452666 0 0.31672291085253218 -0.093494865501335733 0 0.31987809243091297 -0.078939964833722578 0 0.3292356403817937 -0.066284940724967809 0 0.31987809243091297 -0.078939964833722578 0 0.31322898380551317 -0.065003709564903783 0 0.3292356403817937 -0.066284940724967809 0 0.31322898380551317 -0.065003709564903783 0 0.33304290801457581 -0.076481207326468847 0 0.3292356403817937 -0.066284940724967809 0 0.31987809243091297 -0.078939964833722578 0 0.31322898380551317 -0.065003709564903783 0 0.29596179256468969 -0.084264814471025587 0 0.31322898380551317 -0.065003709564903783 0 0.28859204033710528 -0.063031678771958893 0 0.31322898380551317 -0.065003709564903783 0 0.29596179256468969 -0.084264814471025587 0 0.28859204033710528 -0.063031678771958893 0 0.31987809243091297 -0.078939964833722578 0 0.31322898380551317 -0.065003709564903783 0 0.29596179256468969 -0.084264814471025587 0 0.31672291085253218 -0.093494865501335733 0 0.31987809243091297 -0.078939964833722578 0 0.29596179256468969 -0.084264814471025587 0 0.29596179256468969 -0.084264814471025587 0 0.27869460132386648 -0.1035259193771476 0 0.28087210374383792 -0.081868957298829176 0 0.29596179256468969 -0.084264814471025587 0 0.28859204033710528 -0.063031678771958893 0 0.28087210374383792 -0.081868957298829176 0 0.30637511806943352 -0.10640071316773771 0 0.29270900147572521 -0.1234359066667719 0 0.31851132082055472 -0.12898106585611799 0 0.31672291085253218 -0.093494865501335733 0 0.29596179256468969 -0.084264814471025587 0 0.30637511806943352 -0.10640071316773771 0 0.29596179256468969 -0.084264814471025587 0 0.30637511806943352 -0.10640071316773771 0 0.27869460132386648 -0.1035259193771476 0 0.29596179256468969 -0.084264814471025587 0 0.27869460132386648 -0.1035259193771476 0 0.30637511806943352 -0.10640071316773771 0 0.27869460132386648 -0.1035259193771476 0 0.29270900147572521 -0.1234359066667719 0 0.27668706403578408 -0.12473346773348599 0 0.27869460132386648 -0.1035259193771476 0 0.30637511806943352 -0.10640071316773771 0 0.29270900147572521 -0.1234359066667719 0 0.27869460132386648 -0.1035259193771476 0 0.27869460132386648 -0.1035259193771476 0 0.26019782775570188 -0.124158591544399 0 0.27869460132386648 -0.1035259193771476 0 0.25901598602891862 -0.11228364164809471 0 0.26019782775570188 -0.124158591544399 0 0.27668706403578408 -0.12473346773348599 0 0.27869460132386648 -0.1035259193771476 0 0.26019782775570188 -0.124158591544399 0 0.27869460132386648 -0.1035259193771476 0 0.25495894843157302 -0.10106082422818551 0 0.26708017724436961 -0.087617593155419407 0 0.27869460132386648 -0.1035259193771476 0 0.25495894843157302 -0.10106082422818551 0 0.27869460132386648 -0.1035259193771476 0 0.25495894843157302 -0.10106082422818551 0 0.25901598602891862 -0.11228364164809471 0 0.26019782775570188 -0.124158591544399 0 0.24901380175728391 -0.118792673427335 0 0.2428020050379375 -0.12952994944547999 0 0.25495894843157302 -0.10106082422818551 0 0.25901598602891862 -0.11228364164809471 0 0.24901380175728391 -0.118792673427335 0 0.25901598602891862 -0.11228364164809471 0 0.26019782775570188 -0.124158591544399 0 0.24901380175728391 -0.118792673427335 0 0.28859204033710528 -0.063031678771958893 0 0.27403190724915938 -0.070904780718595142 0 0.28087210374383792 -0.081868957298829176 0 0.28859204033710528 -0.063031678771958893 0 0.27403190724915938 -0.070904780718595142 0 0.26395509686869723 -0.061059647979015447 0 0.27403190724915938 -0.070904780718595142 0 0.26708017724436961 -0.087617593155419407 0 0.28087210374383792 -0.081868957298829176 0 0.27869460132386648 -0.1035259193771476 0 0.26708017724436961 -0.087617593155419407 0 0.28087210374383792 -0.081868957298829176 0 0.25495894843157302 -0.10106082422818551 0 0.26708017724436961 -0.087617593155419407 0 0.25118834862834771 -0.078951888749720561 0 0.27403190724915938 -0.070904780718595142 0 0.26708017724436961 -0.087617593155419407 0 0.25118834862834771 -0.078951888749720561 0 0.27403190724915938 -0.070904780718595142 0 0.25118834862834771 -0.078951888749720561 0 0.25118834862834771 -0.078951888749720561 0 0.26395509686869723 -0.061059647979015447 0 0.23931815340028911 -0.059087617186071993 0 0.27403190724915938 -0.070904780718595142 0 0.25118834862834771 -0.078951888749720561 0 0.26395509686869723 -0.061059647979015447 0 0.26395509686869723 -0.061059647979015447 0 0.26703719873081561 -0.046182951628910819 0 0.25250520716786889 -0.041593981443998583 0 0.26395509686869723 -0.061059647979015447 0 0.25250520716786889 -0.041593981443998583 0 0.23931815340028911 -0.059087617186071993 0 0.26395509686869723 -0.061059647979015447 0 0.23931815340028911 -0.059087617186071993 0 0.28859204033710528 -0.063031678771958893 0 0.26395509686869723 -0.061059647979015447 0 0.28859204033710528 -0.063031678771958893 0 0.26395509686869723 -0.061059647979015447 0 0.27801436768960069 -0.052834900151591729 0 0.26395509686869723 -0.061059647979015447 0 0.27801436768960069 -0.052834900151591729 0 0.26703719873081561 -0.046182951628910819 0 0.27801436768960069 -0.052834900151591729 0 0.27976156395234603 -0.042676060984409722 0 0.26703719873081561 -0.046182951628910819 0 0.27976156395234603 -0.042676060984409722 0 0.26831530768885897 -0.031821971136116609 0 0.2834568679801357 -0.031706168770765007 0 0.27976156395234603 -0.042676060984409722 0 0.26703719873081561 -0.046182951628910819 0 0.26831530768885897 -0.031821971136116609 0 0.26703719873081561 -0.046182951628910819 0 0.26831530768885897 -0.031821971136116609 0 0.25250520716786889 -0.041593981443998583 0 0.26831530768885897 -0.031821971136116609 0 0.25250520716786889 -0.041593981443998583 0 0.25528276100525488 -0.02749201401586461 0 0.25250520716786889 -0.041593981443998583 0 0.25528276100525488 -0.02749201401586461 0 0.242664754692583 -0.02754164054495338 0 0.25528276100525488 -0.02749201401586461 0 0.26301284078521242 -0.017928633617661768 0 0.24991569469175129 -0.018573843336592691 0 0.26831530768885897 -0.031821971136116609 0 0.25528276100525488 -0.02749201401586461 0 0.26301284078521242 -0.017928633617661768 0 0.27838937958107302 0.000370802130407388 0 0.25189529334555122 -0.0044985281830388643 0 0.26301284078521242 -0.017928633617661768 0 0.25189529334555122 -0.0044985281830388643 0 0.27220440147121189 -0.0095694742262052365 0 0.26301284078521242 -0.017928633617661768 0 0.25189529334555122 -0.0044985281830388643 0 0.24991569469175129 -0.018573843336592691 0 0.26301284078521242 -0.017928633617661768 0 0.27220440147121189 -0.0095694742262052365 0 0.2805765027963798 -0.018533861791569871 0 0.27838937958107302 0.000370802130407388 0 0.25189529334555122 -0.0044985281830388643 0 0.27220440147121189 -0.0095694742262052365 0 0.27220440147121189 -0.0095694742262052365 0 0.2805765027963798 -0.018533861791569871 0 0.28714799084784343 -0.0072571496691630627 0 0.27838937958107302 0.000370802130407388 0 0.27220440147121189 -0.0095694742262052365 0 0.28714799084784343 -0.0072571496691630627 0 0.26831530768885897 -0.031821971136116609 0 0.26301284078521242 -0.017928633617661768 0 0.2805765027963798 -0.018533861791569871 0 0.26831530768885897 -0.031821971136116609 0 0.2805765027963798 -0.018533861791569871 0 0.2834568679801357 -0.031706168770765007 0 0.2805765027963798 -0.018533861791569871 0 0.29546636779618729 -0.02881756441971026 0 0.2834568679801357 -0.031706168770765007 0 0.2805765027963798 -0.018533861791569871 0 0.29546636779618729 -0.02881756441971026 0 0.29760688806018498 -0.013679781436792521 0 0.2805765027963798 -0.018533861791569871 0 0.28714799084784343 -0.0072571496691630627 0 0.29760688806018498 -0.013679781436792521 0 0.3048834658165947 0.0052401324438536376 0 0.27838937958107302 0.000370802130407388 0 0.28714799084784343 -0.0072571496691630627 0 0.3048834658165947 0.0052401324438536376 0 0.28714799084784343 -0.0072571496691630627 0 0.29760688806018498 -0.013679781436792521 0 0.3048834658165947 0.0052401324438536376 0 0.29760688806018498 -0.013679781436792521 0 0.30877892227945342 -0.0067445652512463632 0 0.3048834658165947 0.0052401324438536376 0 0.32067872675594261 -0.0026339777492341539 0 0.30877892227945342 -0.0067445652512463632 0 0.29760688806018498 -0.013679781436792521 0 0.30877892227945342 -0.0067445652512463632 0 0.31194660848509109 -0.015904634262812418 0 0.29546636779618729 -0.02881756441971026 0 0.29760688806018498 -0.013679781436792521 0 0.30788125712644387 -0.027279664490000011 0 0.29760688806018498 -0.013679781436792521 0 0.31194660848509109 -0.015904634262812418 0 0.30788125712644387 -0.027279664490000011 0 0.31616406974173472 -0.03669084524448115 0 0.30788125712644387 -0.027279664490000011 0 0.30420660876093802 -0.038296335177327202 0 0.29546636779618729 -0.02881756441971026 0 0.30420660876093802 -0.038296335177327202 0 0.2926462050213941 -0.03994575740704475 0 0.29546636779618729 -0.02881756441971026 0 0.30788125712644387 -0.027279664490000011 0 0.30420660876093802 -0.038296335177327202 0 0.30420660876093802 -0.038296335177327202 0 0.30205955725306521 -0.04966246133594758 0 0.2926462050213941 -0.03994575740704475 0 0.31345868695534818 -0.0481535092615493 0 0.30420660876093802 -0.038296335177327202 0 0.30205955725306521 -0.04966246133594758 0 0.31345868695534818 -0.0481535092615493 0 0.31616406974173472 -0.03669084524448115 0 0.30420660876093802 -0.038296335177327202 0 0.31322898380551317 -0.065003709564903783 0 0.28859204033710528 -0.063031678771958893 0 0.30205955725306521 -0.04966246133594758 0 0.31345868695534818 -0.0481535092615493 0 0.31322898380551317 -0.065003709564903783 0 0.30205955725306521 -0.04966246133594758 0 0.28859204033710528 -0.063031678771958893 0 0.30205955725306521 -0.04966246133594758 0 0.28821474685070231 -0.049630171730190541 0 0.28859204033710528 -0.063031678771958893 0 0.27801436768960069 -0.052834900151591729 0 0.28821474685070231 -0.049630171730190541 0 0.27801436768960069 -0.052834900151591729 0 0.27976156395234603 -0.042676060984409722 0 0.28821474685070231 -0.049630171730190541 0 0.27976156395234603 -0.042676060984409722 0 0.28821474685070231 -0.049630171730190541 0 0.2926462050213941 -0.03994575740704475 0 0.27976156395234603 -0.042676060984409722 0 0.2834568679801357 -0.031706168770765007 0 0.2926462050213941 -0.03994575740704475 0 0.29546636779618729 -0.02881756441971026 0 0.2834568679801357 -0.031706168770765007 0 0.2926462050213941 -0.03994575740704475 0 0.30205955725306521 -0.04966246133594758 0 0.28821474685070231 -0.049630171730190541 0 0.2926462050213941 -0.03994575740704475 0 0.28469540610520672 -0.20642988552770039 0 0.29082598914275343 -0.2301737208231838 0 0.26928443902568933 -0.2190553766269106 0 0.28469540610520672 -0.20642988552770039 0 0.29082598914275343 -0.2301737208231838 0 0.31486570684369369 -0.2165786699041318 0 0.28469540610520672 -0.20642988552770039 0 0.29082598914275343 -0.2301737208231838 0 0.28469540610520672 -0.20642988552770039 0 0.30003331682349399 -0.19463909397512 0 0.28315763573839958 -0.1850035866243433 0 0.30003331682349399 -0.19463909397512 0 0.31912585281497191 -0.18736852618731981 0 0.31486570684369369 -0.2165786699041318 0 0.28469540610520672 -0.20642988552770039 0 0.30003331682349399 -0.19463909397512 0 0.31486570684369369 -0.2165786699041318 0 0.29082598914275343 -0.2301737208231838 0 0.31486570684369369 -0.2165786699041318 0 0.31646782004239848 -0.2441497901195139 0 0.29082598914275343 -0.2301737208231838 0 0.31646782004239848 -0.2441497901195139 0 0.29695657218029931 -0.25391755611866729 0 0.31787223586978269 -0.24958911259301181 0 0.31646782004239848 -0.2441497901195139 0 0.29695657218029931 -0.25391755611866729 0 0.31646782004239848 -0.2441497901195139 0 0.29695657218029931 -0.25391755611866729 0 0.29082598914275343 -0.2301737208231838 0 0.29695657218029931 -0.25391755611866729 0 0.29082598914275343 -0.2301737208231838 0 0.27368796748947521 -0.242914588277232 0 0.29695657218029931 -0.25391755611866729 0 0.26928443902568933 -0.2190553766269106 0 0.27368796748947521 -0.242914588277232 0 0.25650844091435548 -0.23419565614391979 0 0.29082598914275343 -0.2301737208231838 0 0.26928443902568933 -0.2190553766269106 0 0.27368796748947521 -0.242914588277232 0 0.25650844091435548 -0.23419565614391979 0 0.25824086010337621 -0.25532614280128291 0 0.24060480681938509 -0.25027410992644472 0 0.27368796748947521 -0.242914588277232 0 0.25650844091435548 -0.23419565614391979 0 0.25824086010337621 -0.25532614280128291 0 0.26928443902568933 -0.2190553766269106 0 0.25650844091435548 -0.23419565614391979 0 0.24877535007611021 -0.2091376918048363 0 0.26928443902568933 -0.2190553766269106 0 0.26121348042623521 -0.1914807171845917 0 0.24877535007611021 -0.2091376918048363 0 0.28469540610520672 -0.20642988552770039 0 0.26928443902568933 -0.2190553766269106 0 0.26121348042623521 -0.1914807171845917 0 0.28469540610520672 -0.20642988552770039 0 0.26121348042623521 -0.1914807171845917 0 0.28315763573839958 -0.1850035866243433 0 0.26121348042623521 -0.1914807171845917 0 0.24595680253086361 -0.1936582567822154 0 0.24877535007611021 -0.2091376918048363 0 0.26121348042623521 -0.1914807171845917 0 0.24543424042144971 -0.18264145256778069 0 0.24595680253086361 -0.1936582567822154 0 0.26121348042623521 -0.1914807171845917 0 0.25343691440229738 -0.17421686930019101 0 0.24543424042144971 -0.18264145256778069 0 0.26121348042623521 -0.1914807171845917 0 0.25343691440229738 -0.17421686930019101 0 0.27014258983088058 -0.1718148369707152 0 0.25343691440229738 -0.17421686930019101 0 0.25927065699923513 -0.16364339445047341 0 0.2441769992076103 -0.16218247220547569 0 0.25343691440229738 -0.17421686930019101 0 0.25927065699923513 -0.16364339445047341 0 0.27014258983088058 -0.1718148369707152 0 0.25927065699923513 -0.16364339445047341 0 0.25444385987449458 -0.15284299340302471 0 0.27024350668740338 -0.1524536700717109 0 0.25927065699923513 -0.16364339445047341 0 0.25444385987449458 -0.15284299340302471 0 0.2441769992076103 -0.16218247220547569 0 0.27014258983088058 -0.1718148369707152 0 0.27024350668740338 -0.1524536700717109 0 0.28449554404917887 -0.1667546868292851 0 0.25927065699923513 -0.16364339445047341 0 0.27014258983088058 -0.1718148369707152 0 0.27024350668740338 -0.1524536700717109 0 0.27024350668740338 -0.1524536700717109 0 0.28658659417139348 -0.15196345025887931 0 0.28449554404917887 -0.1667546868292851 0 0.27014258983088058 -0.1718148369707152 0 0.28315763573839958 -0.1850035866243433 0 0.28449554404917887 -0.1667546868292851 0 0.26121348042623521 -0.1914807171845917 0 0.27014258983088058 -0.1718148369707152 0 0.28315763573839958 -0.1850035866243433 0 0.25572641310432631 -0.14303418802101711 0 0.26890677558589632 -0.13428539770940179 0 0.2428020050379375 -0.12952994944547999 0 0.26890677558589632 -0.13428539770940179 0 0.2428020050379375 -0.12952994944547999 0 0.26019782775570188 -0.124158591544399 0 0.26890677558589632 -0.13428539770940179 0 0.2428020050379375 -0.12952994944547999 0 0.25572641310432631 -0.14303418802101711 0 0.25444385987449458 -0.15284299340302471 0 0.27024350668740338 -0.1524536700717109 0 0.25572641310432631 -0.14303418802101711 0 0.27024350668740338 -0.1524536700717109 0 0.26890677558589632 -0.13428539770940179 0 0.25572641310432631 -0.14303418802101711 0 0.25444385987449458 -0.15284299340302471 0 0.2422359183358995 -0.146058929475468 0 0.27024350668740338 -0.1524536700717109 0 0.26890677558589632 -0.13428539770940179 0 0.28292711403773152 -0.13826152336971029 0 0.27024350668740338 -0.1524536700717109 0 0.28292711403773152 -0.13826152336971029 0 0.28658659417139348 -0.15196345025887931 0 0.27668706403578408 -0.12473346773348599 0 0.26019782775570188 -0.124158591544399 0 0.26890677558589632 -0.13428539770940179 0 0.27668706403578408 -0.12473346773348599 0 0.26890677558589632 -0.13428539770940179 0 0.28292711403773152 -0.13826152336971029 0 0.29270900147572521 -0.1234359066667719 0 0.28292711403773152 -0.13826152336971029 0 0.29918640233975552 -0.14248877002424859 0 0.29270900147572521 -0.1234359066667719 0 0.27668706403578408 -0.12473346773348599 0 0.28292711403773152 -0.13826152336971029 0 0.28658659417139348 -0.15196345025887931 0 0.29918640233975552 -0.14248877002424859 0 0.29911569928699289 -0.16017787529022609 0 0.28292711403773152 -0.13826152336971029 0 0.28658659417139348 -0.15196345025887931 0 0.29918640233975552 -0.14248877002424859 0 0.29918640233975552 -0.14248877002424859 0 0.31851132082055472 -0.12898106585611799 0 0.31526868424613569 -0.15211279870378591 0 0.29918640233975552 -0.14248877002424859 0 0.29911569928699289 -0.16017787529022609 0 0.31526868424613569 -0.15211279870378591 0 0.29270900147572521 -0.1234359066667719 0 0.29918640233975552 -0.14248877002424859 0 0.31851132082055472 -0.12898106585611799 0 0.30003331682349399 -0.19463909397512 0 0.28315763573839958 -0.1850035866243433 0 0.29832198261519799 -0.17781480163210461 0 0.28315763573839958 -0.1850035866243433 0 0.28449554404917887 -0.1667546868292851 0 0.29832198261519799 -0.17781480163210461 0 0.28449554404917887 -0.1667546868292851 0 0.29911569928699289 -0.16017787529022609 0 0.29832198261519799 -0.17781480163210461 0 0.28658659417139348 -0.15196345025887931 0 0.28449554404917887 -0.1667546868292851 0 0.29911569928699289 -0.16017787529022609 0 0.29911569928699289 -0.16017787529022609 0 0.3129685346017832 -0.16975035185825199 0 0.31526868424613569 -0.15211279870378591 0 0.29911569928699289 -0.16017787529022609 0 0.29832198261519799 -0.17781480163210461 0 0.3129685346017832 -0.16975035185825199 0 0.30003331682349399 -0.19463909397512 0 0.29832198261519799 -0.17781480163210461 0 0.31912585281497191 -0.18736852618731981 0 0.29832198261519799 -0.17781480163210461 0 0.31912585281497191 -0.18736852618731981 0 0.3129685346017832 -0.16975035185825199 0 0.31912585281497191 -0.18736852618731981 0 0.3129685346017832 -0.16975035185825199 0 0.32992854130318372 -0.16618968038253579 0 0.3129685346017832 -0.16975035185825199 0 0.32992854130318372 -0.16618968038253579 0 0.31526868424613569 -0.15211279870378591 0 0.32992854130318372 -0.16618968038253579 0 0.33916341927851462 -0.18279859375970639 0 0.3582716740047267 -0.16227048518926321 0 0.32992854130318372 -0.16618968038253579 0 0.33756984809724921 -0.14528100661653959 0 0.3582716740047267 -0.16227048518926321 0 0.31912585281497191 -0.18736852618731981 0 0.32992854130318372 -0.16618968038253579 0 0.33916341927851462 -0.18279859375970639 0 0.32992854130318372 -0.16618968038253579 0 0.31526868424613569 -0.15211279870378591 0 0.33756984809724921 -0.14528100661653959 0 0.31851132082055472 -0.12898106585611799 0 0.31526868424613569 -0.15211279870378591 0 0.33756984809724921 -0.14528100661653959 0 0.31851132082055472 -0.12898106585611799 0 0.33756984809724921 -0.14528100661653959 0 0.34441915943734291 -0.12516449305795291 0 0.33756984809724921 -0.14528100661653959 0 0.34441915943734291 -0.12516449305795291 0 0.36000391278264809 -0.1372103929690886 0 0.36000391278264809 -0.1372103929690886 0 0.3582716740047267 -0.16227048518926321 0 0.33756984809724921 -0.14528100661653959 0 0.36000391278264809 -0.1372103929690886 0 0.3582716740047267 -0.16227048518926321 0 0.37058285927478279 -0.1499655963953852 0 0.36000391278264809 -0.1372103929690886 0 0.3582716740047267 -0.16227048518926321 0 0.37058285927478279 -0.1499655963953852 0 0.36000391278264809 -0.1372103929690886 0 0.38140795119900389 -0.14147070196362421 0 0.37058285927478279 -0.1499655963953852 0 0.3747073317717764 -0.1584475253891614 0 0.37759039324792082 -0.15178380615419931 0 0.36000391278264809 -0.1372103929690886 0 0.37082404598795438 -0.12601947394668861 0 0.38140795119900389 -0.14147070196362421 0 0.3617361515605676 -0.1121503007489138 0 0.36000391278264809 -0.1372103929690886 0 0.37082404598795438 -0.12601947394668861 0 0.33916341927851462 -0.18279859375970639 0 0.35653943522680531 -0.18733057740943779 0 0.3582716740047267 -0.16227048518926321 0 0.35653943522680531 -0.18733057740943779 0 0.3582716740047267 -0.16227048518926321 0 0.3582716740047267 -0.16227048518926321 0 0.3747073317717764 -0.1584475253891614 0 0.37377351960110522 -0.16755780600930331 0 0.37058285927478279 -0.1499655963953852 0 0.3582716740047267 -0.16227048518926321 0 0.3747073317717764 -0.1584475253891614 0 0.3582716740047267 -0.16227048518926321 0 0.37377351960110522 -0.16755780600930331 0 0.37171382719188778 -0.1827213404227305 0 0.35653943522680531 -0.18733057740943779 0 0.3582716740047267 -0.16227048518926321 0 0.37171382719188778 -0.1827213404227305 0 0.35653943522680531 -0.18733057740943779 0 0.37171382719188778 -0.1827213404227305 0 0.3741164844681672 -0.20235217667438141 0 0.35653943522680531 -0.18733057740943779 0 0.3741164844681672 -0.20235217667438141 0 0.35504777618633299 -0.2183671003973722 0 0.3741164844681672 -0.20235217667438141 0 0.35504777618633299 -0.2183671003973722 0 0.3741164844681672 -0.20235217667438141 0 0.37269349686123149 -0.21816632047496351 0 0.35504777618633299 -0.2183671003973722 0 0.33916341927851462 -0.18279859375970639 0 0.35653943522680531 -0.18733057740943779 0 0.33602257998251273 -0.20188587863191981 0 0.35653943522680531 -0.18733057740943779 0 0.35504777618633299 -0.2183671003973722 0 0.33602257998251273 -0.20188587863191981 0 0.31912585281497191 -0.18736852618731981 0 0.33916341927851462 -0.18279859375970639 0 0.33602257998251273 -0.20188587863191981 0 0.35504777618633299 -0.2183671003973722 0 0.33602257998251273 -0.20188587863191981 0 0.33547878272925957 -0.21780341826344671 0 0.33602257998251273 -0.20188587863191981 0 0.33547878272925957 -0.21780341826344671 0 0.31486570684369369 -0.2165786699041318 0 0.31912585281497191 -0.18736852618731981 0 0.33602257998251273 -0.20188587863191981 0 0.31486570684369369 -0.2165786699041318 0 0.31787223586978269 -0.24958911259301181 0 0.33597906790449922 -0.23438202412036349 0 0.31787223586978269 -0.24958911259301181 0 0.31646782004239848 -0.2441497901195139 0 0.33597906790449922 -0.23438202412036349 0 0.31646782004239848 -0.2441497901195139 0 0.33597906790449922 -0.23438202412036349 0 0.31486570684369369 -0.2165786699041318 0 0.31646782004239848 -0.2441497901195139 0 0.33597906790449922 -0.23438202412036349 0 0.35504777618633299 -0.2183671003973722 0 0.33547878272925957 -0.21780341826344671 0 0.33597906790449922 -0.23438202412036349 0 0.33547878272925957 -0.21780341826344671 0 0.31486570684369369 -0.2165786699041318 0 0.33597906790449922 -0.23438202412036349 0 0.33597906790449922 -0.23438202412036349 0 0.34923844452986258 -0.22774408434908389 0 0.33597906790449922 -0.23438202412036349 0 0.34524871132081908 -0.2363364011163335 0 0.34923844452986258 -0.22774408434908389 0 0.33597906790449922 -0.23438202412036349 0 0.34524871132081908 -0.2363364011163335 0 0.33787935769020339 -0.2568769980264306 0 0.31787223586978269 -0.24958911259301181 0 0.33597906790449922 -0.23438202412036349 0 0.33787935769020339 -0.2568769980264306 0 0.34524871132081908 -0.2363364011163335 0 0.35373981638844021 -0.24053723594273729 0 0.33787935769020339 -0.2568769980264306 0 0.35373981638844021 -0.24053723594273729 0 0.36901080839784067 -0.24663463147801831 0 0.35320831412282649 -0.25605139805805488 0 0.35373981638844021 -0.24053723594273729 0 0.33787935769020339 -0.2568769980264306 0 0.34524871132081908 -0.2363364011163335 0 0.35373981638844021 -0.24053723594273729 0 0.34923844452986258 -0.22774408434908389 0 0.35504777618633299 -0.2183671003973722 0 0.33597906790449922 -0.23438202412036349 0 0.34923844452986258 -0.22774408434908389 0 0.35504777618633299 -0.2183671003973722 0 0.33597906790449922 -0.23438202412036349 0 0.35373981638844021 -0.24053723594273729 0 0.34923844452986258 -0.22774408434908389 0 0.36358319864914412 -0.23025041426029591 0 0.35504777618633299 -0.2183671003973722 0 0.34923844452986258 -0.22774408434908389 0 0.36358319864914412 -0.23025041426029591 0 0.37269349686123149 -0.21816632047496351 0 0.35504777618633299 -0.2183671003973722 0 0.36358319864914412 -0.23025041426029591 0 0.37269349686123149 -0.21816632047496351 0 0.36358319864914412 -0.23025041426029591 0 0.38198411677216232 -0.23107989976110499 0 0.36358319864914412 -0.23025041426029591 0 0.36901080839784067 -0.24663463147801831 0 0.38198411677216232 -0.23107989976110499 0 0.35373981638844021 -0.24053723594273729 0 0.36358319864914412 -0.23025041426029591 0 0.36901080839784067 -0.24663463147801831 0 0.36901080839784067 -0.24663463147801831 0 0.38198411677216232 -0.23107989976110499 0 0.38777030597001172 -0.25401306326273237 0 0.38198411677216232 -0.23107989976110499 0 0.40905643678893538 -0.23642421005521799 0 0.38777030597001172 -0.25401306326273237 0 0.38198411677216232 -0.23107989976110499 0 0.39448235365954187 -0.21192143046201881 0 0.40905643678893538 -0.23642421005521799 0 0.37269349686123149 -0.21816632047496351 0 0.38198411677216232 -0.23107989976110499 0 0.39448235365954187 -0.21192143046201881 0 0.3741164844681672 -0.20235217667438141 0 0.37269349686123149 -0.21816632047496351 0 0.39448235365954187 -0.21192143046201881 0 0.3741164844681672 -0.20235217667438141 0 0.39318519275000141 -0.18633725295139059 0 0.37171382719188778 -0.1827213404227305 0 0.3741164844681672 -0.20235217667438141 0 0.39318519275000141 -0.18633725295139059 0 0.3741164844681672 -0.20235217667438141 0 0.39448235365954187 -0.21192143046201881 0 0.39318519275000141 -0.18633725295139059 0 0.39448235365954187 -0.21192143046201881 0 0.41517841059545069 -0.193253762597799 0 0.39318519275000141 -0.18633725295139059 0 0.39448235365954187 -0.21192143046201881 0 0.41795579879385081 -0.21544972360931841 0 0.41517841059545069 -0.193253762597799 0 0.41795579879385081 -0.21544972360931841 0 0.41517841059545069 -0.193253762597799 0 0.43373314022710913 -0.19765272952208429 0 0.41517841059545069 -0.193253762597799 0 0.43373314022710913 -0.19765272952208429 0 0.4341904257738764 -0.17890544966363231 0 0.41795579879385081 -0.21544972360931841 0 0.43373314022710913 -0.19765272952208429 0 0.44521411545645001 -0.21316614164080619 0 0.41795579879385081 -0.21544972360931841 0 0.4322640497163131 -0.2288920154954332 0 0.44521411545645001 -0.21316614164080619 0 0.4322640497163131 -0.2288920154954332 0 0.43625388796088083 -0.24860264341820151 0 0.40905643678893538 -0.23642421005521799 0 0.43625388796088083 -0.24860264341820151 0 0.40905643678893538 -0.23642421005521799 0 0.41015408743916681 -0.26237849634180072 0 0.39448235365954187 -0.21192143046201881 0 0.41795579879385081 -0.21544972360931841 0 0.40905643678893538 -0.23642421005521799 0 0.41795579879385081 -0.21544972360931841 0 0.4322640497163131 -0.2288920154954332 0 0.40905643678893538 -0.23642421005521799 0 0.39490717332364189 -0.13299198461089401 0 0.40567064602956587 -0.14144824207754289 0 0.40960050740841558 -0.12702113758470751 0 0.38200606603978482 -0.1247417562322093 0 0.37082404598795438 -0.12601947394668861 0 0.38140795119900389 -0.14147070196362421 0 0.38200606603978482 -0.1247417562322093 0 0.39490717332364189 -0.13299198461089401 0 0.38140795119900389 -0.14147070196362421 0 0.39490717332364189 -0.13299198461089401 0 0.38366343074612042 -0.15725140086862671 0 0.39490717332364189 -0.13299198461089401 0 0.38140795119900389 -0.14147070196362421 0 0.38366343074612042 -0.15725140086862671 0 0.38140795119900389 -0.14147070196362421 0 0.37759039324792082 -0.15178380615419931 0 0.38366343074612042 -0.15725140086862671 0 0.37058285927478279 -0.1499655963953852 0 0.38140795119900389 -0.14147070196362421 0 0.37759039324792082 -0.15178380615419931 0 0.3747073317717764 -0.1584475253891614 0 0.37759039324792082 -0.15178380615419931 0 0.38366343074612042 -0.15725140086862671 0 0.39490717332364189 -0.13299198461089401 0 0.40567064602956587 -0.14144824207754289 0 0.40027804702172409 -0.1540292003468495 0 0.39490717332364189 -0.13299198461089401 0 0.40027804702172409 -0.1540292003468495 0 0.38366343074612042 -0.15725140086862671 0 0.40027804702172409 -0.1540292003468495 0 0.38542689101666883 -0.1598257049642971 0 0.40688285189011247 -0.16068658440885111 0 0.39653503699476272 -0.1709659960999384 0 0.38542689101666883 -0.1598257049642971 0 0.41225390103183501 -0.17032232922839929 0 0.38542689101666883 -0.1598257049642971 0 0.41225390103183501 -0.17032232922839929 0 0.38542689101666883 -0.1598257049642971 0 0.41225390103183501 -0.17032232922839929 0 0.40688285189011247 -0.16068658440885111 0 0.40027804702172409 -0.1540292003468495 0 0.38542689101666883 -0.1598257049642971 0 0.38366343074612042 -0.15725140086862671 0 0.38542689101666883 -0.1598257049642971 0 0.3804609415912506 -0.16221962892347219 0 0.38663727706166667 -0.16642138304745679 0 0.38542689101666883 -0.1598257049642971 0 0.38366343074612042 -0.15725140086862671 0 0.3804609415912506 -0.16221962892347219 0 0.3747073317717764 -0.1584475253891614 0 0.37377351960110522 -0.16755780600930331 0 0.3804609415912506 -0.16221962892347219 0 0.3747073317717764 -0.1584475253891614 0 0.38366343074612042 -0.15725140086862671 0 0.3804609415912506 -0.16221962892347219 0 0.37377351960110522 -0.16755780600930331 0 0.3804609415912506 -0.16221962892347219 0 0.3841262386439851 -0.1726742022021196 0 0.39653503699476272 -0.1709659960999384 0 0.38542689101666883 -0.1598257049642971 0 0.38663727706166667 -0.16642138304745679 0 0.39653503699476272 -0.1709659960999384 0 0.38663727706166667 -0.16642138304745679 0 0.3841262386439851 -0.1726742022021196 0 0.3804609415912506 -0.16221962892347219 0 0.38663727706166667 -0.16642138304745679 0 0.3841262386439851 -0.1726742022021196 0 0.37171382719188778 -0.1827213404227305 0 0.3841262386439851 -0.1726742022021196 0 0.39318519275000141 -0.18633725295139059 0 0.37377351960110522 -0.16755780600930331 0 0.37171382719188778 -0.1827213404227305 0 0.3841262386439851 -0.1726742022021196 0 0.39318519275000141 -0.18633725295139059 0 0.41225390103183501 -0.17032232922839929 0 0.39653503699476272 -0.1709659960999384 0 0.39318519275000141 -0.18633725295139059 0 0.41225390103183501 -0.17032232922839929 0 0.39653503699476272 -0.1709659960999384 0 0.3841262386439851 -0.1726742022021196 0 0.39318519275000141 -0.18633725295139059 0 0.4341904257738764 -0.17890544966363231 0 0.41522546476786598 -0.16782665066081329 0 0.41225390103183501 -0.17032232922839929 0 0.41517841059545069 -0.193253762597799 0 0.4341904257738764 -0.17890544966363231 0 0.41225390103183501 -0.17032232922839929 0 0.41517841059545069 -0.193253762597799 0 0.39318519275000141 -0.18633725295139059 0 0.41225390103183501 -0.17032232922839929 0 0.4341904257738764 -0.17890544966363231 0 0.41225390103183501 -0.17032232922839929 0 0.4341904257738764 -0.17890544966363231 0 0.42361414260476998 -0.16025244852264789 0 0.41522546476786598 -0.16782665066081329 0 0.4341904257738764 -0.17890544966363231 0 0.43595861517112172 -0.1567388234360387 0 0.42361414260476998 -0.16025244852264789 0 0.42361414260476998 -0.16025244852264789 0 0.4164079111245001 -0.16070377957667559 0 0.41522546476786598 -0.16782665066081329 0 0.42361414260476998 -0.16025244852264789 0 0.4164079111245001 -0.16070377957667559 0 0.41483957004422872 -0.15559180212149529 0 0.4164079111245001 -0.16070377957667559 0 0.41522546476786598 -0.16782665066081329 0 0.41224742924776692 -0.16396898971385249 0 0.41225390103183501 -0.17032232922839929 0 0.40688285189011247 -0.16068658440885111 0 0.41224742924776692 -0.16396898971385249 0 0.41522546476786598 -0.16782665066081329 0 0.41225390103183501 -0.17032232922839929 0 0.41224742924776692 -0.16396898971385249 0 0.41522546476786598 -0.16782665066081329 0 0.41225390103183501 -0.17032232922839929 0 0.4164079111245001 -0.16070377957667559 0 0.40688285189011247 -0.16068658440885111 0 0.41224742924776692 -0.16396898971385249 0 0.40027804702172409 -0.1540292003468495 0 0.40688285189011247 -0.16068658440885111 0 0.41483957004422872 -0.15559180212149529 0 0.4164079111245001 -0.16070377957667559 0 0.40688285189011247 -0.16068658440885111 0 0.41483957004422872 -0.15559180212149529 0 0.40027804702172409 -0.1540292003468495 0 0.41933401537042703 -0.1406278925857834 0 0.41461259972809689 -0.15007365901942579 0 0.40567064602956587 -0.14144824207754289 0 0.40027804702172409 -0.1540292003468495 0 0.41933401537042703 -0.1406278925857834 0 0.40027804702172409 -0.1540292003468495 0 0.41933401537042703 -0.1406278925857834 0 0.40027804702172409 -0.1540292003468495 0 0.41461259972809689 -0.15007365901942579 0 0.41483957004422872 -0.15559180212149529 0 0.41933401537042703 -0.1406278925857834 0 0.41461259972809689 -0.15007365901942579 0 0.42399876647600809 -0.1500457410235751 0 0.41461259972809689 -0.15007365901942579 0 0.41483957004422872 -0.15559180212149529 0 0.42399876647600809 -0.1500457410235751 0 0.42361414260476998 -0.16025244852264789 0 0.41483957004422872 -0.15559180212149529 0 0.42399876647600809 -0.1500457410235751 0 0.43595861517112172 -0.1567388234360387 0 0.42361414260476998 -0.16025244852264789 0 0.42399876647600809 -0.1500457410235751 0 0.43595861517112172 -0.1567388234360387 0 0.42399876647600809 -0.1500457410235751 0 0.43296414268442651 -0.14434174881812509 0 0.41933401537042703 -0.1406278925857834 0 0.42399876647600809 -0.1500457410235751 0 0.43296414268442651 -0.14434174881812509 0 0.41933401537042703 -0.1406278925857834 0 0.42466867052204699 -0.13505242151805119 0 0.43838998371912979 -0.12722658482471719 0 0.41933401537042703 -0.1406278925857834 0 0.43838998371912979 -0.12722658482471719 0 0.41933401537042703 -0.1406278925857834 0 0.43296414268442651 -0.14434174881812509 0 0.43838998371912979 -0.12722658482471719 0 0.41934698305463791 -0.1221939738031026 0 0.41630896840719761 -0.13281864526682019 0 0.40960050740841558 -0.12702113758470751 0 0.41934698305463791 -0.1221939738031026 0 0.42466867052204699 -0.13505242151805119 0 0.41630896840719761 -0.13281864526682019 0 0.41933401537042703 -0.1406278925857834 0 0.42466867052204699 -0.13505242151805119 0 0.41630896840719761 -0.13281864526682019 0 0.40567064602956587 -0.14144824207754289 0 0.41630896840719761 -0.13281864526682019 0 0.40960050740841558 -0.12702113758470751 0 0.40567064602956587 -0.14144824207754289 0 0.41933401537042703 -0.1406278925857834 0 0.41630896840719761 -0.13281864526682019 0 0.45834574360343289 -0.13191037978366241 0 0.46243573534181942 -0.14946992298850881 0 0.48143876179773099 -0.13590062899659289 0 0.45834574360343289 -0.13191037978366241 0 0.43838998371912979 -0.12722658482471719 0 0.44684062040770711 -0.14567361455969829 0 0.43296414268442651 -0.14434174881812509 0 0.43838998371912979 -0.12722658482471719 0 0.44684062040770711 -0.14567361455969829 0 0.43595861517112172 -0.1567388234360387 0 0.44684062040770711 -0.14567361455969829 0 0.45294950192631261 -0.1643542275071376 0 0.43595861517112172 -0.1567388234360387 0 0.43296414268442651 -0.14434174881812509 0 0.44684062040770711 -0.14567361455969829 0 0.44684062040770711 -0.14567361455969829 0 0.46243573534181942 -0.14946992298850881 0 0.45294950192631261 -0.1643542275071376 0 0.45834574360343289 -0.13191037978366241 0 0.44684062040770711 -0.14567361455969829 0 0.46243573534181942 -0.14946992298850881 0 0.46243573534181942 -0.14946992298850881 0 0.45294950192631261 -0.1643542275071376 0 0.47600409097644231 -0.16480474823066499 0 0.4341904257738764 -0.17890544966363231 0 0.43595861517112172 -0.1567388234360387 0 0.45294950192631261 -0.1643542275071376 0 0.4341904257738764 -0.17890544966363231 0 0.45612695051591767 -0.1874885700988656 0 0.4341904257738764 -0.17890544966363231 0 0.45294950192631261 -0.1643542275071376 0 0.45612695051591767 -0.1874885700988656 0 0.45294950192631261 -0.1643542275071376 0 0.45612695051591767 -0.1874885700988656 0 0.47600409097644231 -0.16480474823066499 0 0.45612695051591767 -0.1874885700988656 0 0.47600409097644231 -0.16480474823066499 0 0.478063475257959 -0.19607169053409901 0 0.5 -0.17490562386099481 0 0.47600409097644231 -0.16480474823066499 0 0.478063475257959 -0.19607169053409901 0 0.5 -0.17490562386099481 0 0.47600409097644231 -0.16480474823066499 0 0.5 -0.1451564367526573 0 0.46243573534181942 -0.14946992298850881 0 0.47600409097644231 -0.16480474823066499 0 0.48143876179773099 -0.13590062899659289 0 0.47600409097644231 -0.16480474823066499 0 0.5 -0.1451564367526573 0 0.48143876179773099 -0.13590062899659289 0 0.5 -0.1154072496443197 0 0.5 -0.1451564367526573 0 0.48143876179773099 -0.13590062899659289 0 0.47113031965393848 -0.12094760686799939 0 0.45834574360343289 -0.13191037978366241 0 0.48143876179773099 -0.13590062899659289 0 0.46235368848259473 -0.23482679049460251 0 0.44521411545645001 -0.21316614164080619 0 0.46721233625878578 -0.21258183085449539 0 0.46235368848259473 -0.23482679049460251 0 0.47942185192537201 -0.25200238817952059 0 0.45884370385074469 -0.2610231706456817 0 0.43625388796088083 -0.24860264341820151 0 0.46235368848259473 -0.23482679049460251 0 0.45884370385074469 -0.2610231706456817 0 0.4322640497163131 -0.2288920154954332 0 0.43625388796088083 -0.24860264341820151 0 0.46235368848259473 -0.23482679049460251 0 0.43625388796088083 -0.24860264341820151 0 0.46235368848259473 -0.23482679049460251 0 0.4322640497163131 -0.2288920154954332 0 0.46235368848259473 -0.23482679049460251 0 0.44521411545645001 -0.21316614164080619 0 0.43373314022710913 -0.19765272952208429 0 0.45612695051591767 -0.1874885700988656 0 0.44521411545645001 -0.21316614164080619 0 0.43373314022710913 -0.19765272952208429 0 0.4341904257738764 -0.17890544966363231 0 0.45612695051591767 -0.1874885700988656 0 0.45612695051591767 -0.1874885700988656 0 0.46721233625878578 -0.21258183085449539 0 0.478063475257959 -0.19607169053409901 0 0.45612695051591767 -0.1874885700988656 0 0.478063475257959 -0.19607169053409901 0 0.45612695051591767 -0.1874885700988656 0 0.44521411545645001 -0.21316614164080619 0 0.46721233625878578 -0.21258183085449539 0 0.46721233625878578 -0.21258183085449539 0 0.478063475257959 -0.19607169053409901 0 0.48845348900430863 -0.2210509375710035 0 0.478063475257959 -0.19607169053409901 0 0.50000000000000022 -0.20465481096933241 0 0.5 -0.17490562386099481 0 0.478063475257959 -0.19607169053409901 0 0.50000000000000022 -0.20465481096933241 0 0.478063475257959 -0.19607169053409901 0 0.50000000000000022 -0.20465481096933241 0 0.48845348900430863 -0.2210509375710035 0 0.50000000000000022 -0.20465481096933241 0 0.5 -0.223818208341346 0 0.48845348900430863 -0.2210509375710035 0 0.5 -0.223818208341346 0 0.49237436972961418 -0.2301636560327196 0 0.49999999999999939 -0.24298160571335969 0 0.49237436972961418 -0.2301636560327196 0 0.48845348900430863 -0.2210509375710035 0 0.48504583625276648 -0.23685002578792269 0 0.5 -0.223818208341346 0 0.49237436972961418 -0.2301636560327196 0 0.48845348900430863 -0.2210509375710035 0 0.46235368848259473 -0.23482679049460251 0 0.46721233625878578 -0.21258183085449539 0 0.48845348900430863 -0.2210509375710035 0 0.46235368848259473 -0.23482679049460251 0 0.48845348900430863 -0.2210509375710035 0 0.48504583625276648 -0.23685002578792269 0 0.46235368848259473 -0.23482679049460251 0 0.48845348900430863 -0.2210509375710035 0 0.46235368848259473 -0.23482679049460251 0 0.48504583625276648 -0.23685002578792269 0 0.47942185192537201 -0.25200238817952059 0 0.48504583625276648 -0.23685002578792269 0 0.49999999999999939 -0.24298160571335969 0 0.47942185192537201 -0.25200238817952059 0 0.49999999999999939 -0.24298160571335969 0 0.47942185192537201 -0.25200238817952059 0 0.49237436972961418 -0.2301636560327196 0 0.48504583625276648 -0.23685002578792269 0 0.49999999999999939 -0.24298160571335969 0 0.5 -0.26583556637706518 0 0.4828709276741443 -0.26932592039248432 0 0.47942185192537201 -0.25200238817952059 0 0.49999999999999939 -0.24298160571335969 0 0.5 -0.26583556637706518 0 0.47942185192537201 -0.25200238817952059 0 0.5 -0.26583556637706518 0 0.4828709276741443 -0.26932592039248432 0 0.5 -0.28868952704077078 0 0.4828709276741443 -0.26932592039248432 0 0.4728114302354639 -0.28506742894645781 0 0.5 -0.28868952704077078 0 0.4828709276741443 -0.26932592039248432 0 0.45884370385074469 -0.2610231706456817 0 0.4728114302354639 -0.28506742894645781 0 0.47942185192537201 -0.25200238817952059 0 0.45884370385074469 -0.2610231706456817 0 0.4828709276741443 -0.26932592039248432 0 0.47942185192537201 -0.25200238817952059 0 0.45884370385074469 -0.2610231706456817 0 0.45884370385074469 -0.2610231706456817 0 0.45456247855043302 -0.28262988198874239 0 0.4728114302354639 -0.28506742894645781 0 0.45884370385074469 -0.2610231706456817 0 0.44076146214863632 -0.27427562219250518 0 0.45456247855043302 -0.28262988198874239 0 0.43625388796088083 -0.24860264341820151 0 0.45884370385074469 -0.2610231706456817 0 0.44076146214863632 -0.27427562219250518 0 0.44317555221396349 -0.29724147913694832 0 0.44231294364672341 -0.31801350035273213 0 0.43021769691711159 -0.31109599574612867 0 0.45302419211279549 -0.30841875687108711 0 0.44317555221396349 -0.29724147913694832 0 0.44231294364672341 -0.31801350035273213 0 0.45302419211279549 -0.30841875687108711 0 0.44317555221396349 -0.29724147913694832 0 0.45722024430335628 -0.29554170902211918 0 0.44076146214863632 -0.27427562219250518 0 0.44317555221396349 -0.29724147913694832 0 0.45456247855043302 -0.28262988198874239 0 0.44076146214863632 -0.27427562219250518 0 0.44317555221396349 -0.29724147913694832 0 0.42967253682087952 -0.28571445055872607 0 0.44317555221396349 -0.29724147913694832 0 0.45722024430335628 -0.29554170902211918 0 0.45456247855043302 -0.28262988198874239 0 0.45722024430335628 -0.29554170902211918 0 0.46609177362332482 -0.30690061815728331 0 0.4728114302354639 -0.28506742894645781 0 0.45722024430335628 -0.29554170902211918 0 0.45456247855043302 -0.28262988198874239 0 0.4728114302354639 -0.28506742894645781 0 0.45302419211279549 -0.30841875687108711 0 0.45722024430335628 -0.29554170902211918 0 0.46609177362332482 -0.30690061815728331 0 0.46609177362332482 -0.30690061815728331 0 0.48428358536887228 -0.30244212855947122 0 0.48304588681166138 -0.32064903326273292 0 0.46609177362332482 -0.30690061815728331 0 0.48428358536887228 -0.30244212855947122 0 0.4728114302354639 -0.28506742894645781 0 0.48428358536887228 -0.30244212855947122 0 0.4728114302354639 -0.28506742894645781 0 0.5 -0.28868952704077078 0 0.48428358536887228 -0.30244212855947122 0 0.5 -0.31154348770447632 0 0.48304588681166138 -0.32064903326273292 0 0.48428358536887228 -0.30244212855947122 0 0.5 -0.28868952704077078 0 0.5 -0.31154348770447632 0 0.5 -0.31154348770447632 0 0.49999999999999861 -0.33439744836818158 0 0.48304588681166138 -0.32064903326273292 0 0.49999999999999861 -0.33439744836818158 0 0.48304588681166138 -0.32064903326273292 0 0.49999999999999861 -0.33439744836818158 0 0.47774489282156468 -0.33520354216118281 0 0.48304588681166138 -0.32064903326273292 0 0.49999999999999861 -0.33439744836818158 0 0.47774489282156468 -0.33520354216118281 0 0.47885007917113381 -0.35411248790180139 0 0.47774489282156468 -0.33520354216118281 0 0.47885007917113381 -0.35411248790180139 0 0.46228914500663448 -0.3396233363113787 0 0.47774489282156468 -0.33520354216118281 0 0.48304588681166138 -0.32064903326273292 0 0.46187845411540501 -0.32335056936727608 0 0.46609177362332482 -0.30690061815728331 0 0.48304588681166138 -0.32064903326273292 0 0.46609177362332482 -0.30690061815728331 0 0.48304588681166138 -0.32064903326273292 0 0.46187845411540501 -0.32335056936727608 0 0.5 -0.36018545284026621 0 0.47884968612971263 -0.37188208765719272 0 0.5 -0.38597345731235072 0 0.5 -0.36018545284026621 0 0.47885007917113381 -0.35411248790180139 0 0.47884968612971263 -0.37188208765719272 0 0.49999999999999861 -0.33439744836818158 0 0.5 -0.36018545284026621 0 0.47885007917113381 -0.35411248790180139 0 0.47885007917113381 -0.35411248790180139 0 0.47884968612971263 -0.37188208765719272 0 0.46157042759421502 -0.36773649963078281 0 0.47884968612971263 -0.37188208765719272 0 0.46157042759421502 -0.36773649963078281 0 0.46499667456918231 -0.3818869428838258 0 0.46157042759421502 -0.36773649963078281 0 0.45157439943831679 -0.36619258401794491 0 0.44866939715783338 -0.37588099028850741 0 0.46157042759421502 -0.36773649963078281 0 0.45981595208787163 -0.35362587746918939 0 0.45157439943831679 -0.36619258401794491 0 0.47885007917113381 -0.35411248790180139 0 0.45981595208787163 -0.35362587746918939 0 0.46228914500663448 -0.3396233363113787 0 0.47885007917113381 -0.35411248790180139 0 0.46157042759421502 -0.36773649963078281 0 0.45981595208787163 -0.35362587746918939 0 0.45981595208787163 -0.35362587746918939 0 0.44769941202420088 -0.34603115969643228 0 0.46228914500663448 -0.3396233363113787 0 0.44769941202420088 -0.34603115969643228 0 0.43435513289291189 -0.33980003526797958 0 0.43540409461788532 -0.35290764552288628 0 0.44769941202420088 -0.34603115969643228 0 0.44586433406068249 -0.35774518051637078 0 0.43540409461788532 -0.35290764552288628 0 0.45981595208787163 -0.35362587746918939 0 0.44586433406068249 -0.35774518051637078 0 0.45157439943831679 -0.36619258401794491 0 0.45981595208787163 -0.35362587746918939 0 0.44769941202420088 -0.34603115969643228 0 0.44586433406068249 -0.35774518051637078 0 0.44586433406068249 -0.35774518051637078 0 0.4374192325449332 -0.36922006327519791 0 0.43540409461788532 -0.35290764552288628 0 0.44586433406068249 -0.35774518051637078 0 0.45157439943831679 -0.36619258401794491 0 0.4374192325449332 -0.36922006327519791 0 0.45157439943831679 -0.36619258401794491 0 0.4374192325449332 -0.36922006327519791 0 0.44866939715783338 -0.37588099028850741 0 0.45302419211279549 -0.30841875687108711 0 0.46609177362332482 -0.30690061815728331 0 0.46187845411540501 -0.32335056936727608 0 0.47774489282156468 -0.33520354216118281 0 0.46187845411540501 -0.32335056936727608 0 0.46228914500663448 -0.3396233363113787 0 0.46187845411540501 -0.32335056936727608 0 0.46228914500663448 -0.3396233363113787 0 0.44846781347921949 -0.33248488309078972 0 0.44846781347921949 -0.33248488309078972 0 0.43140708363231162 -0.32624518611803688 0 0.43435513289291189 -0.33980003526797958 0 0.44769941202420088 -0.34603115969643228 0 0.46228914500663448 -0.3396233363113787 0 0.44846781347921949 -0.33248488309078972 0 0.44769941202420088 -0.34603115969643228 0 0.44846781347921949 -0.33248488309078972 0 0.43435513289291189 -0.33980003526797958 0 0.44846781347921949 -0.33248488309078972 0 0.44231294364672341 -0.31801350035273213 0 0.43140708363231162 -0.32624518611803688 0 0.45302419211279549 -0.30841875687108711 0 0.46187845411540501 -0.32335056936727608 0 0.44231294364672341 -0.31801350035273213 0 0.46187845411540501 -0.32335056936727608 0 0.44846781347921949 -0.33248488309078972 0 0.44231294364672341 -0.31801350035273213 0 0.44231294364672341 -0.31801350035273213 0 0.43140708363231162 -0.32624518611803688 0 0.43021769691711159 -0.31109599574612867 0 0.43140708363231162 -0.32624518611803688 0 0.41998184762501117 -0.32105037918301149 0 0.43021769691711159 -0.31109599574612867 0 0.41998184762501117 -0.32105037918301149 0 0.43021769691711159 -0.31109599574612867 0 0.4187669742071668 -0.30871935978996079 0 0.43140708363231162 -0.32624518611803688 0 0.4215395133489816 -0.33624956079696461 0 0.41998184762501117 -0.32105037918301149 0 0.43435513289291189 -0.33980003526797958 0 0.4215395133489816 -0.33624956079696461 0 0.42394910183546369 -0.34903880388631148 0 0.43140708363231162 -0.32624518611803688 0 0.43435513289291189 -0.33980003526797958 0 0.4215395133489816 -0.33624956079696461 0 0.4215395133489816 -0.33624956079696461 0 0.40994157620185118 -0.33067223626089931 0 0.41998184762501117 -0.32105037918301149 0 0.4215395133489816 -0.33624956079696461 0 0.40994157620185118 -0.33067223626089931 0 0.40897608720107292 -0.34622857771424959 0 0.40994157620185118 -0.33067223626089931 0 0.41120993184974769 -0.31650919832678293 0 0.41998184762501117 -0.32105037918301149 0 0.41120993184974769 -0.31650919832678293 0 0.41998184762501117 -0.32105037918301149 0 0.4187669742071668 -0.30871935978996079 0 0.4374192325449332 -0.36922006327519791 0 0.42533541351728782 -0.36261974466653268 0 0.43540409461788532 -0.35290764552288628 0 0.42468480122414998 -0.37485272505487621 0 0.4374192325449332 -0.36922006327519791 0 0.42533541351728782 -0.36261974466653268 0 0.42468480122414998 -0.37485272505487621 0 0.42533541351728782 -0.36261974466653268 0 0.41572269348865443 -0.36798703233380042 0 0.42533541351728782 -0.36261974466653268 0 0.43540409461788532 -0.35290764552288628 0 0.42394910183546369 -0.34903880388631148 0 0.43435513289291189 -0.33980003526797958 0 0.43540409461788532 -0.35290764552288628 0 0.42394910183546369 -0.34903880388631148 0 0.40897608720107292 -0.34622857771424959 0 0.41560624643801791 -0.35779345286208758 0 0.40343882231651079 -0.36212368739537931 0 0.4215395133489816 -0.33624956079696461 0 0.42394910183546369 -0.34903880388631148 0 0.40897608720107292 -0.34622857771424959 0 0.42394910183546369 -0.34903880388631148 0 0.40897608720107292 -0.34622857771424959 0 0.41560624643801791 -0.35779345286208758 0 0.42533541351728782 -0.36261974466653268 0 0.42394910183546369 -0.34903880388631148 0 0.41560624643801791 -0.35779345286208758 0 0.42468480122414998 -0.37485272505487621 0 0.41572269348865443 -0.36798703233380042 0 0.40868954005521269 -0.37675384918811189 0 0.42533541351728782 -0.36261974466653268 0 0.41560624643801791 -0.35779345286208758 0 0.41572269348865443 -0.36798703233380042 0 0.41560624643801791 -0.35779345286208758 0 0.41572269348865443 -0.36798703233380042 0 0.40343882231651079 -0.36212368739537931 0 0.41572269348865443 -0.36798703233380042 0 0.40343882231651079 -0.36212368739537931 0 0.40868954005521269 -0.37675384918811189 0 0.39807074615548271 -0.37305540893315392 0 0.39358034108736772 -0.3608767416447764 0 0.38464728602610038 -0.36994253922606579 0 0.39807074615548271 -0.37305540893315392 0 0.40343882231651079 -0.36212368739537931 0 0.40868954005521269 -0.37675384918811189 0 0.39807074615548271 -0.37305540893315392 0 0.40343882231651079 -0.36212368739537931 0 0.39358034108736772 -0.3608767416447764 0 0.40897608720107292 -0.34622857771424959 0 0.40343882231651079 -0.36212368739537931 0 0.39720332934361008 -0.35150813713836088 0 0.40343882231651079 -0.36212368739537931 0 0.39358034108736772 -0.3608767416447764 0 0.39720332934361008 -0.35150813713836088 0 0.39358034108736772 -0.3608767416447764 0 0.39720332934361008 -0.35150813713836088 0 0.38454152159513172 -0.34775393553092188 0 0.40897608720107292 -0.34622857771424959 0 0.39720332934361008 -0.35150813713836088 0 0.39934182626300879 -0.33957789541607719 0 0.39720332934361008 -0.35150813713836088 0 0.38454152159513172 -0.34775393553092188 0 0.39934182626300879 -0.33957789541607719 0 0.38454152159513172 -0.34775393553092188 0 0.37766547380431542 -0.36094041106938862 0 0.37562293708396088 -0.33933457005993672 0 0.38454152159513172 -0.34775393553092188 0 0.38464728602610038 -0.36994253922606579 0 0.38454152159513172 -0.34775393553092188 0 0.37766547380431542 -0.36094041106938862 0 0.38454152159513172 -0.34775393553092188 0 0.37766547380431542 -0.36094041106938862 0 0.38464728602610038 -0.36994253922606579 0 0.39358034108736772 -0.3608767416447764 0 0.38454152159513172 -0.34775393553092188 0 0.38464728602610038 -0.36994253922606579 0 0.37766547380431542 -0.36094041106938862 0 0.38464728602610038 -0.36994253922606579 0 0.37766547380431542 -0.36094041106938862 0 0.38464728602610038 -0.36994253922606579 0 0.37024232928875811 -0.37517607617103549 0 0.41120993184974769 -0.31650919832678293 0 0.39730026093661391 -0.32328598397698832 0 0.41005900027809528 -0.29881803242305421 0 0.39730026093661391 -0.32328598397698832 0 0.38638511729490888 -0.31635545065019482 0 0.3945171018964222 -0.30934548043207571 0 0.40994157620185118 -0.33067223626089931 0 0.41120993184974769 -0.31650919832678293 0 0.39730026093661391 -0.32328598397698832 0 0.40994157620185118 -0.33067223626089931 0 0.39730026093661391 -0.32328598397698832 0 0.39934182626300879 -0.33957789541607719 0 0.38454152159513172 -0.34775393553092188 0 0.39730026093661391 -0.32328598397698832 0 0.38454152159513172 -0.34775393553092188 0 0.39730026093661391 -0.32328598397698832 0 0.39934182626300879 -0.33957789541607719 0 0.40994157620185118 -0.33067223626089931 0 0.40897608720107292 -0.34622857771424959 0 0.39934182626300879 -0.33957789541607719 0 0.37562293708396088 -0.33933457005993672 0 0.3844524073067998 -0.32905840992503588 0 0.37091775300749569 -0.32006391283531438 0 0.38454152159513172 -0.34775393553092188 0 0.39730026093661391 -0.32328598397698832 0 0.3844524073067998 -0.32905840992503588 0 0.38454152159513172 -0.34775393553092188 0 0.37562293708396088 -0.33933457005993672 0 0.3844524073067998 -0.32905840992503588 0 0.38454152159513172 -0.34775393553092188 0 0.3844524073067998 -0.32905840992503588 0 0.3844524073067998 -0.32905840992503588 0 0.38638511729490888 -0.31635545065019482 0 0.37091775300749569 -0.32006391283531438 0 0.39730026093661391 -0.32328598397698832 0 0.3844524073067998 -0.32905840992503588 0 0.38638511729490888 -0.31635545065019482 0 0.38638511729490888 -0.31635545065019482 0 0.38473806332721278 -0.30002346608155961 0 0.37091775300749569 -0.32006391283531438 0 0.38638511729490888 -0.31635545065019482 0 0.38473806332721278 -0.30002346608155961 0 0.3945171018964222 -0.30934548043207571 0 0.38473806332721278 -0.30002346608155961 0 0.41005900027809528 -0.29881803242305421 0 0.38473806332721278 -0.30002346608155961 0 0.3945171018964222 -0.30934548043207571 0 0.41005900027809528 -0.29881803242305421 0 0.39730026093661391 -0.32328598397698832 0 0.3945171018964222 -0.30934548043207571 0 0.41005900027809528 -0.29881803242305421 0 0.39730026093661391 -0.32328598397698832 0 0.41005900027809528 -0.29881803242305421 0 0.38473806332721278 -0.30002346608155961 0 0.40074859475584362 -0.28749635489636027 0 0.41005900027809528 -0.29881803242305421 0 0.38473806332721278 -0.30002346608155961 0 0.40074859475584362 -0.28749635489636027 0 0.38405428691745291 -0.27615434926539972 0 0.38473806332721278 -0.30002346608155961 0 0.38405428691745291 -0.27615434926539972 0 0.36660595774206051 -0.28341580610728229 0 0.38405428691745291 -0.27615434926539972 0 0.38777030597001172 -0.25401306326273237 0 0.36631748837816119 -0.26578822335298902 0 0.40905643678893538 -0.23642421005521799 0 0.38777030597001172 -0.25401306326273237 0 0.41015408743916681 -0.26237849634180072 0 0.38405428691745291 -0.27615434926539972 0 0.38777030597001172 -0.25401306326273237 0 0.41015408743916681 -0.26237849634180072 0 0.40074859475584362 -0.28749635489636027 0 0.38405428691745291 -0.27615434926539972 0 0.40699975958226431 -0.2769784362880629 0 0.38405428691745291 -0.27615434926539972 0 0.41015408743916681 -0.26237849634180072 0 0.38405428691745291 -0.27615434926539972 0 0.40699975958226431 -0.2769784362880629 0 0.41015408743916681 -0.26237849634180072 0 0.40699975958226431 -0.2769784362880629 0 0.41015408743916681 -0.26237849634180072 0 0.4236222662710033 -0.27224285653717017 0 0.40699975958226431 -0.2769784362880629 0 0.4236222662710033 -0.27224285653717017 0 0.41641956252785511 -0.28662012439958351 0 0.43625388796088083 -0.24860264341820151 0 0.41015408743916681 -0.26237849634180072 0 0.43625388796088083 -0.24860264341820151 0 0.44076146214863632 -0.27427562219250518 0 0.4236222662710033 -0.27224285653717017 0 0.43625388796088083 -0.24860264341820151 0 0.41015408743916681 -0.26237849634180072 0 0.4236222662710033 -0.27224285653717017 0 0.44076146214863632 -0.27427562219250518 0 0.4236222662710033 -0.27224285653717017 0 0.42967253682087952 -0.28571445055872607 0 0.44317555221396349 -0.29724147913694832 0 0.42967253682087952 -0.28571445055872607 0 0.42661727624602941 -0.29802975578000079 0 0.4236222662710033 -0.27224285653717017 0 0.42967253682087952 -0.28571445055872607 0 0.41641956252785511 -0.28662012439958351 0 0.42967253682087952 -0.28571445055872607 0 0.42661727624602941 -0.29802975578000079 0 0.41641956252785511 -0.28662012439958351 0 0.44317555221396349 -0.29724147913694832 0 0.43021769691711159 -0.31109599574612867 0 0.42661727624602941 -0.29802975578000079 0 0.44317555221396349 -0.29724147913694832 0 0.42661727624602941 -0.29802975578000079 0 0.43021769691711159 -0.31109599574612867 0 0.42661727624602941 -0.29802975578000079 0 0.4187669742071668 -0.30871935978996079 0 0.41120993184974769 -0.31650919832678293 0 0.4187669742071668 -0.30871935978996079 0 0.41005900027809528 -0.29881803242305421 0 0.42661727624602941 -0.29802975578000079 0 0.4187669742071668 -0.30871935978996079 0 0.41005900027809528 -0.29881803242305421 0 0.42661727624602941 -0.29802975578000079 0 0.41005900027809528 -0.29881803242305421 0 0.40074859475584362 -0.28749635489636027 0 0.41005900027809528 -0.29881803242305421 0 0.41641956252785511 -0.28662012439958351 0 0.41005900027809528 -0.29881803242305421 0 0.41641956252785511 -0.28662012439958351 0 0.40074859475584362 -0.28749635489636027 0 0.40699975958226431 -0.2769784362880629 0 0.41641956252785511 -0.28662012439958351 0 0.42661727624602941 -0.29802975578000079 0 0.41005900027809528 -0.29881803242305421 0 0.41641956252785511 -0.28662012439958351 0 0.47197946182988337 -0.47803337185554762 0 0.44256662575414879 -0.46191616873871871 0 0.40741731029584949 -0.5 0 0.5 -0.5 0 0.47197946182988337 -0.47803337185554762 0 0.40741731029584949 -0.5 0 0.50000000000000311 -0.46965738393251749 0 0.47197946182988337 -0.47803337185554762 0 0.4936336110371653 -0.46317992189188328 0 0.5 -0.5 0 0.50000000000000311 -0.46965738393251749 0 0.47197946182988337 -0.47803337185554762 0 0.4936336110371653 -0.46317992189188328 0 0.46810011839565713 -0.46254804531530219 0 0.4936336110371653 -0.46317992189188328 0 0.47504758967412258 -0.44426963403980041 0 0.47197946182988337 -0.47803337185554762 0 0.4936336110371653 -0.46317992189188328 0 0.46810011839565713 -0.46254804531530219 0 0.4936336110371653 -0.46317992189188328 0 0.47504758967412258 -0.44426963403980041 0 0.46810011839565713 -0.46254804531530219 0 0.50000000000000255 -0.46333747072860448 0 0.4936336110371653 -0.46317992189188328 0 0.5 -0.43754946625651991 0 0.50000000000000255 -0.46333747072860448 0 0.4936336110371653 -0.46317992189188328 0 0.50000000000000311 -0.46965738393251749 0 0.50000000000000255 -0.46333747072860448 0 0.4936336110371653 -0.46317992189188328 0 0.50000000000000311 -0.46965738393251749 0 0.4936336110371653 -0.46317992189188328 0 0.4936336110371653 -0.46317992189188328 0 0.5 -0.43754946625651991 0 0.47504758967412258 -0.44426963403980041 0 0.47504758967412258 -0.44426963403980041 0 0.45693415367107831 -0.44714140361613158 0 0.45646156831107748 -0.42535934618771981 0 0.47504758967412258 -0.44426963403980041 0 0.45693415367107831 -0.44714140361613158 0 0.46810011839565713 -0.46254804531530219 0 0.45693415367107831 -0.44714140361613158 0 0.46810011839565713 -0.46254804531530219 0 0.44256662575414879 -0.46191616873871871 0 0.47197946182988337 -0.47803337185554762 0 0.46810011839565713 -0.46254804531530219 0 0.44256662575414879 -0.46191616873871871 0 0.46810011839565713 -0.46254804531530219 0 0.44256662575414879 -0.46191616873871871 0 0.45693415367107831 -0.44714140361613158 0 0.44256662575414879 -0.46191616873871871 0 0.4430606609737664 -0.44042286090773047 0 0.45693415367107831 -0.44714140361613158 0 0.4430606609737664 -0.44042286090773047 0 0.45646156831107748 -0.42535934618771981 0 0.44256662575414879 -0.46191616873871871 0 0.4430606609737664 -0.44042286090773047 0 0.42753413452101841 -0.44715320462439689 0 0.43946428795091641 -0.42755396234882448 0 0.43944921223552552 -0.4195347596506146 0 0.45646156831107748 -0.42535934618771981 0 0.4430606609737664 -0.44042286090773047 0 0.43946428795091641 -0.42755396234882448 0 0.45646156831107748 -0.42535934618771981 0 0.4430606609737664 -0.44042286090773047 0 0.43946428795091641 -0.42755396234882448 0 0.43119266217885349 -0.43535835640258358 0 0.43787554694803171 -0.40644905833563999 0 0.45646156831107748 -0.42535934618771981 0 0.43944921223552552 -0.4195347596506146 0 0.43787554694803171 -0.40644905833563999 0 0.45646156831107748 -0.42535934618771981 0 0.43787554694803171 -0.40644905833563999 0 0.45646156831107748 -0.42535934618771981 0 0.45787190680846818 -0.40538439008052651 0 0.45646156831107748 -0.42535934618771981 0 0.47456862644002362 -0.40726441583017681 0 0.45787190680846818 -0.40538439008052651 0 0.47504758967412258 -0.44426963403980041 0 0.45646156831107748 -0.42535934618771981 0 0.47504758967412258 -0.44426963403980041 0 0.45646156831107748 -0.42535934618771981 0 0.48121555688504469 -0.42524086481973039 0 0.5 -0.43754946625651991 0 0.47504758967412258 -0.44426963403980041 0 0.48121555688504469 -0.42524086481973039 0 0.5 -0.43754946625651991 0 0.48121555688504469 -0.42524086481973039 0 0.5 -0.41176146178443518 0 0.48121555688504469 -0.42524086481973039 0 0.5 -0.41176146178443518 0 0.47456862644002362 -0.40726441583017681 0 0.45646156831107748 -0.42535934618771981 0 0.48121555688504469 -0.42524086481973039 0 0.47456862644002362 -0.40726441583017681 0 0.47456862644002362 -0.40726441583017681 0 0.48875213276844443 -0.3975945069780033 0 0.4749211333659662 -0.38921197942845659 0 0.47456862644002362 -0.40726441583017681 0 0.4749211333659662 -0.38921197942845659 0 0.46441626569095268 -0.39416810144123948 0 0.48875213276844443 -0.3975945069780033 0 0.5 -0.38597345731235072 0 0.4749211333659662 -0.38921197942845659 0 0.5 -0.41176146178443518 0 0.47456862644002362 -0.40726441583017681 0 0.48875213276844443 -0.3975945069780033 0 0.5 -0.41176146178443518 0 0.48875213276844443 -0.3975945069780033 0 0.5 -0.38597345731235072 0 0.47884968612971263 -0.37188208765719272 0 0.5 -0.38597345731235072 0 0.4749211333659662 -0.38921197942845659 0 0.47884968612971263 -0.37188208765719272 0 0.4749211333659662 -0.38921197942845659 0 0.46499667456918231 -0.3818869428838258 0 0.46157042759421502 -0.36773649963078281 0 0.4497229872711232 -0.38709277898321132 0 0.46157042759421502 -0.36773649963078281 0 0.44866939715783338 -0.37588099028850741 0 0.4497229872711232 -0.38709277898321132 0 0.46157042759421502 -0.36773649963078281 0 0.46499667456918231 -0.3818869428838258 0 0.4497229872711232 -0.38709277898321132 0 0.46499667456918231 -0.3818869428838258 0 0.46441626569095268 -0.39416810144123948 0 0.4497229872711232 -0.38709277898321132 0 0.4749211333659662 -0.38921197942845659 0 0.46499667456918231 -0.3818869428838258 0 0.46441626569095268 -0.39416810144123948 0 0.45787190680846818 -0.40538439008052651 0 0.46441626569095268 -0.39416810144123948 0 0.4497229872711232 -0.38709277898321132 0 0.47456862644002362 -0.40726441583017681 0 0.45787190680846818 -0.40538439008052651 0 0.46441626569095268 -0.39416810144123948 0 0.43787554694803171 -0.40644905833563999 0 0.4497229872711232 -0.38709277898321132 0 0.43787554694803171 -0.40644905833563999 0 0.45787190680846818 -0.40538439008052651 0 0.4497229872711232 -0.38709277898321132 0 0.43787554694803171 -0.40644905833563999 0 0.4497229872711232 -0.38709277898321132 0 0.43004276972474442 -0.39847962426041023 0 0.4374192325449332 -0.36922006327519791 0 0.44866939715783338 -0.37588099028850741 0 0.43198923748665302 -0.38158955234084169 0 0.44866939715783338 -0.37588099028850741 0 0.4497229872711232 -0.38709277898321132 0 0.43004276972474442 -0.39847962426041023 0 0.44866939715783338 -0.37588099028850741 0 0.43004276972474442 -0.39847962426041023 0 0.43198923748665302 -0.38158955234084169 0 0.43004276972474442 -0.39847962426041023 0 0.41936615488997869 -0.38761673672426089 0 0.44866939715783338 -0.37588099028850741 0 0.43198923748665302 -0.38158955234084169 0 0.43004276972474442 -0.39847962426041023 0 0.42468480122414998 -0.37485272505487621 0 0.43198923748665302 -0.38158955234084169 0 0.41936615488997869 -0.38761673672426089 0 0.42468480122414998 -0.37485272505487621 0 0.4374192325449332 -0.36922006327519791 0 0.43198923748665302 -0.38158955234084169 0 0.43787554694803171 -0.40644905833563999 0 0.43004276972474442 -0.39847962426041023 0 0.43787554694803171 -0.40644905833563999 0 0.43004276972474442 -0.39847962426041023 0 0.42777268423263232 -0.40915025159407981 0 0.43004276972474442 -0.39847962426041023 0 0.41805752419547698 -0.41302064505186881 0 0.43004276972474442 -0.39847962426041023 0 0.41720471348024712 -0.39764964954387688 0 0.41936615488997869 -0.38761673672426089 0 0.43004276972474442 -0.39847962426041023 0 0.41936615488997869 -0.38761673672426089 0 0.41720471348024712 -0.39764964954387688 0 0.41936615488997869 -0.38761673672426089 0 0.40135240511078812 -0.39148159213896788 0 0.40135240511078812 -0.39148159213896788 0 0.40393225193371418 -0.40726411356790571 0 0.41805752419547698 -0.41302064505186881 0 0.41720471348024712 -0.39764964954387688 0 0.40135240511078812 -0.39148159213896788 0 0.41805752419547698 -0.41302064505186881 0 0.40135240511078812 -0.39148159213896788 0 0.41805752419547698 -0.41302064505186881 0 0.43004276972474442 -0.39847962426041023 0 0.41720471348024712 -0.39764964954387688 0 0.41805752419547698 -0.41302064505186881 0 0.41936615488997869 -0.38761673672426089 0 0.40868954005521269 -0.37675384918811189 0 0.40135240511078812 -0.39148159213896788 0 0.42468480122414998 -0.37485272505487621 0 0.41936615488997869 -0.38761673672426089 0 0.40868954005521269 -0.37675384918811189 0 0.41936615488997869 -0.38761673672426089 0 0.40868954005521269 -0.37675384918811189 0 0.38464728602610038 -0.36994253922606579 0 0.40135240511078812 -0.39148159213896788 0 0.39807074615548271 -0.37305540893315392 0 0.40868954005521269 -0.37675384918811189 0 0.40135240511078812 -0.39148159213896788 0 0.39807074615548271 -0.37305540893315392 0 0.38464728602610038 -0.36994253922606579 0 0.40135240511078812 -0.39148159213896788 0 0.38464728602610038 -0.36994253922606579 0 0.37024232928875811 -0.37517607617103549 0 0.37422666903795249 -0.38654948934425898 0 0.38464728602610038 -0.36994253922606579 0 0.38476237331040991 -0.39408700933233048 0 0.37422666903795249 -0.38654948934425898 0 0.38464728602610038 -0.36994253922606579 0 0.38476237331040991 -0.39408700933233048 0 0.38464728602610038 -0.36994253922606579 0 0.38476237331040991 -0.39408700933233048 0 0.40135240511078812 -0.39148159213896788 0 0.38476237331040991 -0.39408700933233048 0 0.38487746059471772 -0.41823147943859512 0 0.3686621717912934 -0.40413008071918222 0 0.38476237331040991 -0.39408700933233048 0 0.3686621717912934 -0.40413008071918222 0 0.37422666903795249 -0.38654948934425898 0 0.38476237331040991 -0.39408700933233048 0 0.38487746059471772 -0.41823147943859512 0 0.38476237331040991 -0.39408700933233048 0 0.39478418033934692 -0.40384942120948703 0 0.38487746059471772 -0.41823147943859512 0 0.40135240511078812 -0.39148159213896788 0 0.39478418033934692 -0.40384942120948703 0 0.40393225193371418 -0.40726411356790571 0 0.38476237331040991 -0.39408700933233048 0 0.40135240511078812 -0.39148159213896788 0 0.39478418033934692 -0.40384942120948703 0 0.39973055979601929 -0.41299712208491141 0 0.40393225193371418 -0.40726411356790571 0 0.40610366475139748 -0.41737889261193112 0 0.39478418033934692 -0.40384942120948703 0 0.39973055979601929 -0.41299712208491141 0 0.40393225193371418 -0.40726411356790571 0 0.39973055979601929 -0.41299712208491141 0 0.40610366475139748 -0.41737889261193112 0 0.3977475251120266 -0.42173318177999869 0 0.39973055979601929 -0.41299712208491141 0 0.3977475251120266 -0.42173318177999869 0 0.38487746059471772 -0.41823147943859512 0 0.39478418033934692 -0.40384942120948703 0 0.39973055979601929 -0.41299712208491141 0 0.38487746059471772 -0.41823147943859512 0 0.38487746059471772 -0.41823147943859512 0 0.37946138774624683 -0.43685194171007152 0 0.36670559693944649 -0.425510038830335 0 0.38487746059471772 -0.41823147943859512 0 0.37946138774624683 -0.43685194171007152 0 0.39200301999182002 -0.42999828394736522 0 0.37946138774624683 -0.43685194171007152 0 0.39200301999182002 -0.42999828394736522 0 0.39275432181198089 -0.44371958993793031 0 0.39200301999182002 -0.42999828394736522 0 0.40540592300372891 -0.4283701174948995 0 0.39275432181198089 -0.44371958993793031 0 0.40540592300372891 -0.4283701174948995 0 0.40906131705928472 -0.42993141396834772 0 0.39275432181198089 -0.44371958993793031 0 0.3977475251120266 -0.42173318177999869 0 0.38487746059471772 -0.41823147943859512 0 0.39200301999182002 -0.42999828394736522 0 0.3977475251120266 -0.42173318177999869 0 0.39200301999182002 -0.42999828394736522 0 0.40540592300372891 -0.4283701174948995 0 0.40610366475139748 -0.41737889261193112 0 0.3977475251120266 -0.42173318177999869 0 0.40540592300372891 -0.4283701174948995 0 0.40540592300372891 -0.4283701174948995 0 0.39275432181198089 -0.44371958993793031 0 0.40906131705928472 -0.42993141396834772 0 0.41141472250432082 -0.43857291597068182 0 0.40466073403779268 -0.44344612231386032 0 0.40906131705928472 -0.42993141396834772 0 0.41368754699106242 -0.4323947112415889 0 0.41141472250432082 -0.43857291597068182 0 0.41851043758167178 -0.4277219697705506 0 0.42792659146553258 -0.42270360415586872 0 0.41797763598303378 -0.43895814997609761 0 0.40906131705928472 -0.42993141396834772 0 0.41368754699106242 -0.4323947112415889 0 0.41247041556232761 -0.42793170661982988 0 0.41368754699106242 -0.4323947112415889 0 0.41797763598303378 -0.43895814997609761 0 0.41141472250432082 -0.43857291597068182 0 0.41368754699106242 -0.4323947112415889 0 0.41851043758167178 -0.4277219697705506 0 0.41797763598303378 -0.43895814997609761 0 0.41368754699106242 -0.4323947112415889 0 0.41851043758167178 -0.4277219697705506 0 0.41247041556232761 -0.42793170661982988 0 0.41851043758167178 -0.4277219697705506 0 0.41509691260396009 -0.42376514735746329 0 0.41247041556232761 -0.42793170661982988 0 0.42023698093991041 -0.4220331169427507 0 0.41509691260396009 -0.42376514735746329 0 0.41643417607026678 -0.4199005374990667 0 0.42023698093991041 -0.4220331169427507 0 0.41851043758167178 -0.4277219697705506 0 0.41509691260396009 -0.42376514735746329 0 0.40540592300372891 -0.4283701174948995 0 0.41509691260396009 -0.42376514735746329 0 0.41247041556232761 -0.42793170661982988 0 0.40540592300372891 -0.4283701174948995 0 0.41509691260396009 -0.42376514735746329 0 0.41643417607026678 -0.4199005374990667 0 0.40540592300372891 -0.4283701174948995 0 0.40906131705928472 -0.42993141396834772 0 0.41247041556232761 -0.42793170661982988 0 0.40540592300372891 -0.4283701174948995 0 0.41805752419547698 -0.41302064505186881 0 0.40610366475139748 -0.41737889261193112 0 0.40540592300372891 -0.4283701174948995 0 0.41805752419547698 -0.41302064505186881 0 0.40540592300372891 -0.4283701174948995 0 0.41805752419547698 -0.41302064505186881 0 0.41643417607026678 -0.4199005374990667 0 0.40393225193371418 -0.40726411356790571 0 0.40610366475139748 -0.41737889261193112 0 0.41805752419547698 -0.41302064505186881 0 0.41805752419547698 -0.41302064505186881 0 0.42160670623078678 -0.41759684826649318 0 0.41805752419547698 -0.41302064505186881 0 0.41643417607026678 -0.4199005374990667 0 0.42160670623078678 -0.41759684826649318 0 0.41805752419547698 -0.41302064505186881 0 0.42160670623078678 -0.41759684826649318 0 0.42360689904662868 -0.41362681659717032 0 0.42023698093991041 -0.4220331169427507 0 0.41643417607026678 -0.4199005374990667 0 0.42160670623078678 -0.41759684826649318 0 0.42160670623078678 -0.41759684826649318 0 0.42360689904662868 -0.41362681659717032 0 0.42792659146553258 -0.42270360415586872 0 0.42777268423263232 -0.40915025159407981 0 0.42360689904662868 -0.41362681659717032 0 0.42792659146553258 -0.42270360415586872 0 0.43787554694803171 -0.40644905833563999 0 0.42792659146553258 -0.42270360415586872 0 0.42023698093991041 -0.4220331169427507 0 0.42160670623078678 -0.41759684826649318 0 0.42792659146553258 -0.42270360415586872 0 0.43787554694803171 -0.40644905833563999 0 0.42777268423263232 -0.40915025159407981 0 0.42792659146553258 -0.42270360415586872 0 0.43944921223552552 -0.4195347596506146 0 0.43787554694803171 -0.40644905833563999 0 0.42792659146553258 -0.42270360415586872 0 0.43004276972474442 -0.39847962426041023 0 0.41805752419547698 -0.41302064505186881 0 0.42777268423263232 -0.40915025159407981 0 0.41805752419547698 -0.41302064505186881 0 0.42777268423263232 -0.40915025159407981 0 0.42360689904662868 -0.41362681659717032 0 0.42792659146553258 -0.42270360415586872 0 0.41797763598303378 -0.43895814997609761 0 0.43946428795091641 -0.42755396234882448 0 0.43944921223552552 -0.4195347596506146 0 0.42792659146553258 -0.42270360415586872 0 0.43119266217885349 -0.43535835640258358 0 0.42792659146553258 -0.42270360415586872 0 0.41797763598303378 -0.43895814997609761 0 0.43946428795091641 -0.42755396234882448 0 0.43119266217885349 -0.43535835640258358 0 0.42792659146553258 -0.42270360415586872 0 0.42023698093991041 -0.4220331169427507 0 0.41851043758167178 -0.4277219697705506 0 0.42792659146553258 -0.42270360415586872 0 0.43119266217885349 -0.43535835640258358 0 0.42753413452101841 -0.44715320462439689 0 0.41797763598303378 -0.43895814997609761 0 0.4430606609737664 -0.44042286090773047 0 0.43119266217885349 -0.43535835640258358 0 0.42753413452101841 -0.44715320462439689 0 0.44256662575414879 -0.46191616873871871 0 0.42753413452101841 -0.44715320462439689 0 0.4170331331126409 -0.46128429216213518 0 0.44256662575414879 -0.46191616873871871 0 0.4170331331126409 -0.46128429216213518 0 0.4170331331126409 -0.46128429216213518 0 0.40462908037267159 -0.45699682520996149 0 0.39859984026769912 -0.47260150678788088 0 0.4170331331126409 -0.46128429216213518 0 0.41168637845043071 -0.44813418235351482 0 0.40462908037267159 -0.45699682520996149 0 0.42753413452101841 -0.44715320462439689 0 0.4170331331126409 -0.46128429216213518 0 0.41168637845043071 -0.44813418235351482 0 0.41168637845043071 -0.44813418235351482 0 0.40350011362657862 -0.45006984723775523 0 0.40462908037267159 -0.45699682520996149 0 0.41168637845043071 -0.44813418235351482 0 0.40466073403779268 -0.44344612231386032 0 0.40350011362657862 -0.45006984723775523 0 0.42753413452101841 -0.44715320462439689 0 0.41168637845043071 -0.44813418235351482 0 0.41797763598303378 -0.43895814997609761 0 0.41168637845043071 -0.44813418235351482 0 0.41797763598303378 -0.43895814997609761 0 0.41141472250432082 -0.43857291597068182 0 0.41168637845043071 -0.44813418235351482 0 0.41141472250432082 -0.43857291597068182 0 0.40466073403779268 -0.44344612231386032 0 0.40906131705928472 -0.42993141396834772 0 0.40466073403779268 -0.44344612231386032 0 0.39302426164541931 -0.45170225907368389 0 0.40906131705928472 -0.42993141396834772 0 0.39302426164541931 -0.45170225907368389 0 0.40906131705928472 -0.42993141396834772 0 0.39302426164541931 -0.45170225907368389 0 0.39275432181198089 -0.44371958993793031 0 0.40466073403779268 -0.44344612231386032 0 0.40350011362657862 -0.45006984723775523 0 0.39302426164541931 -0.45170225907368389 0 0.40350011362657862 -0.45006984723775523 0 0.39302426164541931 -0.45170225907368389 0 0.40462908037267159 -0.45699682520996149 0 0.37946138774624683 -0.43685194171007152 0 0.39275432181198089 -0.44371958993793031 0 0.38349687284399492 -0.44802853606482163 0 0.39302426164541931 -0.45170225907368389 0 0.39275432181198089 -0.44371958993793031 0 0.38349687284399492 -0.44802853606482163 0 0.37946138774624683 -0.43685194171007152 0 0.38349687284399492 -0.44802853606482163 0 0.37116860014104458 -0.45185296140547437 0 0.39302426164541931 -0.45170225907368389 0 0.38349687284399492 -0.44802853606482163 0 0.3769872062315538 -0.47347310417902028 0 0.39302426164541931 -0.45170225907368389 0 0.3769872062315538 -0.47347310417902028 0 0.39302426164541931 -0.45170225907368389 0 0.39859984026769912 -0.47260150678788088 0 0.3769872062315538 -0.47347310417902028 0 0.38349687284399492 -0.44802853606482163 0 0.3769872062315538 -0.47347310417902028 0 0.37116860014104458 -0.45185296140547437 0 0.39302426164541931 -0.45170225907368389 0 0.40462908037267159 -0.45699682520996149 0 0.39859984026769912 -0.47260150678788088 0 0.39859984026769912 -0.47260150678788088 0 0.3769872062315538 -0.47347310417902028 0 0.40741731029584949 -0.5 0 0.3769872062315538 -0.47347310417902028 0 0.40741731029584949 -0.5 0 0.36095015081768828 -0.49524394928435678 0 0.4170331331126409 -0.46128429216213518 0 0.39859984026769912 -0.47260150678788088 0 0.40741731029584949 -0.5 0 0.44256662575414879 -0.46191616873871871 0 0.4170331331126409 -0.46128429216213518 0 0.40741731029584949 -0.5 0 0.40741731029584949 -0.5 0 0.34088008737547382 -0.5 0 0.36095015081768828 -0.49524394928435678 0 0.32111551825746493 -0.47955780457056341 0 0.34088008737547382 -0.5 0 0.28041278140079529 -0.48629152799819908 0 0.32111551825746493 -0.47955780457056341 0 0.31525905832393158 -0.46357112402257228 0 0.30213735353817328 -0.47258305599639872 0 0.32111551825746493 -0.47955780457056341 0 0.34236659961965882 -0.4800459560794379 0 0.33170398870053341 -0.4618607994141628 0 0.32111551825746493 -0.47955780457056341 0 0.34236659961965882 -0.4800459560794379 0 0.34088008737547382 -0.5 0 0.34236659961965882 -0.4800459560794379 0 0.36095015081768828 -0.49524394928435678 0 0.35718325294713382 -0.46356722712810627 0 0.34236659961965882 -0.4800459560794379 0 0.34088008737547382 -0.5 0 0.36095015081768828 -0.49524394928435678 0 0.3769872062315538 -0.47347310417902028 0 0.36095015081768828 -0.49524394928435678 0 0.35718325294713382 -0.46356722712810627 0 0.3769872062315538 -0.47347310417902028 0 0.36095015081768828 -0.49524394928435678 0 0.34236659961965882 -0.4800459560794379 0 0.35718325294713382 -0.46356722712810627 0 0.33170398870053341 -0.4618607994141628 0 0.3769872062315538 -0.47347310417902028 0 0.35718325294713382 -0.46356722712810627 0 0.37116860014104458 -0.45185296140547437 0 0.35718325294713382 -0.46356722712810627 0 0.37116860014104458 -0.45185296140547437 0 0.36199830004382572 -0.44930403304852101 0 0.37946138774624683 -0.43685194171007152 0 0.37116860014104458 -0.45185296140547437 0 0.36603486423613751 -0.43899506449548192 0 0.37116860014104458 -0.45185296140547437 0 0.36199830004382572 -0.44930403304852101 0 0.36603486423613751 -0.43899506449548192 0 0.36199830004382572 -0.44930403304852101 0 0.36603486423613751 -0.43899506449548192 0 0.352483584315195 -0.44247521061540668 0 0.35718325294713382 -0.46356722712810627 0 0.352483584315195 -0.44247521061540668 0 0.3362391745415434 -0.44585056085985492 0 0.35718325294713382 -0.46356722712810627 0 0.36199830004382572 -0.44930403304852101 0 0.352483584315195 -0.44247521061540668 0 0.352483584315195 -0.44247521061540668 0 0.3362391745415434 -0.44585056085985492 0 0.33897415732088648 -0.42819523536994109 0 0.3362391745415434 -0.44585056085985492 0 0.33170398870053341 -0.4618607994141628 0 0.31828936619360632 -0.4483922417726296 0 0.35718325294713382 -0.46356722712810627 0 0.3362391745415434 -0.44585056085985492 0 0.33170398870053341 -0.4618607994141628 0 0.32111551825746493 -0.47955780457056341 0 0.33170398870053341 -0.4618607994141628 0 0.31525905832393158 -0.46357112402257228 0 0.33170398870053341 -0.4618607994141628 0 0.31525905832393158 -0.46357112402257228 0 0.31828936619360632 -0.4483922417726296 0 0.31828936619360632 -0.4483922417726296 0 0.3174272251806976 -0.43164697566253679 0 0.30339369959654788 -0.43837212419448413 0 0.3362391745415434 -0.44585056085985492 0 0.31828936619360632 -0.4483922417726296 0 0.3174272251806976 -0.43164697566253679 0 0.3174272251806976 -0.43164697566253679 0 0.32532543912791079 -0.41395287430969963 0 0.33897415732088648 -0.42819523536994109 0 0.3174272251806976 -0.43164697566253679 0 0.32532543912791079 -0.41395287430969963 0 0.29931766234908502 -0.40925200728900057 0 0.32532543912791079 -0.41395287430969963 0 0.34031962080191169 -0.41053836744137312 0 0.33897415732088648 -0.42819523536994109 0 0.32532543912791079 -0.41395287430969963 0 0.34031962080191169 -0.41053836744137312 0 0.33674408154541119 -0.39851388401181909 0 0.3362391745415434 -0.44585056085985492 0 0.3174272251806976 -0.43164697566253679 0 0.33897415732088648 -0.42819523536994109 0 0.352483584315195 -0.44247521061540668 0 0.33897415732088648 -0.42819523536994109 0 0.35309404743637551 -0.42860658065335328 0 0.33897415732088648 -0.42819523536994109 0 0.35309404743637551 -0.42860658065335328 0 0.35247088790288211 -0.41451358457308152 0 0.35309404743637551 -0.42860658065335328 0 0.36670559693944649 -0.425510038830335 0 0.35247088790288211 -0.41451358457308152 0 0.36603486423613751 -0.43899506449548192 0 0.352483584315195 -0.44247521061540668 0 0.35309404743637551 -0.42860658065335328 0 0.36603486423613751 -0.43899506449548192 0 0.35309404743637551 -0.42860658065335328 0 0.36670559693944649 -0.425510038830335 0 0.37946138774624683 -0.43685194171007152 0 0.36603486423613751 -0.43899506449548192 0 0.36670559693944649 -0.425510038830335 0 0.38487746059471772 -0.41823147943859512 0 0.36670559693944649 -0.425510038830335 0 0.3686621717912934 -0.40413008071918222 0 0.36670559693944649 -0.425510038830335 0 0.35247088790288211 -0.41451358457308152 0 0.3686621717912934 -0.40413008071918222 0 0.34031962080191169 -0.41053836744137312 0 0.33897415732088648 -0.42819523536994109 0 0.35247088790288211 -0.41451358457308152 0 0.34031962080191169 -0.41053836744137312 0 0.35247088790288211 -0.41451358457308152 0 0.35072662014371009 -0.39980095037739438 0 0.35247088790288211 -0.41451358457308152 0 0.35072662014371009 -0.39980095037739438 0 0.3686621717912934 -0.40413008071918222 0 0.35072662014371009 -0.39980095037739438 0 0.36281918477319902 -0.3894117412726813 0 0.34466531506318449 -0.38284038996376468 0 0.35072662014371009 -0.39980095037739438 0 0.34466531506318449 -0.38284038996376468 0 0.33674408154541119 -0.39851388401181909 0 0.35072662014371009 -0.39980095037739438 0 0.3686621717912934 -0.40413008071918222 0 0.36281918477319902 -0.3894117412726813 0 0.3686621717912934 -0.40413008071918222 0 0.37422666903795249 -0.38654948934425898 0 0.36281918477319902 -0.3894117412726813 0 0.37024232928875811 -0.37517607617103549 0 0.37422666903795249 -0.38654948934425898 0 0.36281918477319902 -0.3894117412726813 0 0.37024232928875811 -0.37517607617103549 0 0.36281918477319902 -0.3894117412726813 0 0.35757291093288868 -0.37415361711892531 0 0.37024232928875811 -0.37517607617103549 0 0.36281918477319902 -0.3894117412726813 0 0.36281918477319902 -0.3894117412726813 0 0.34466531506318449 -0.38284038996376468 0 0.35757291093288868 -0.37415361711892531 0 0.34466531506318449 -0.38284038996376468 0 0.32060987334256891 -0.38586997507461429 0 0.33066063332789419 -0.37050263529397331 0 0.34466531506318449 -0.38284038996376468 0 0.33674408154541119 -0.39851388401181909 0 0.32060987334256891 -0.38586997507461429 0 0.34031962080191169 -0.41053836744137312 0 0.35072662014371009 -0.39980095037739438 0 0.33674408154541119 -0.39851388401181909 0 0.32532543912791079 -0.41395287430969963 0 0.31259137958953359 -0.40113251313025028 0 0.32060987334256891 -0.38586997507461429 0 0.32532543912791079 -0.41395287430969963 0 0.33674408154541119 -0.39851388401181909 0 0.32060987334256891 -0.38586997507461429 0 0.32532543912791079 -0.41395287430969963 0 0.32060987334256891 -0.38586997507461429 0 0.32060987334256891 -0.38586997507461429 0 0.30180392243334592 -0.37710560816458599 0 0.29912751194868331 -0.39409566435018528 0 0.31259137958953359 -0.40113251313025028 0 0.32060987334256891 -0.38586997507461429 0 0.29912751194868331 -0.39409566435018528 0 0.31259137958953359 -0.40113251313025028 0 0.29912751194868331 -0.39409566435018528 0 0.29931766234908502 -0.40925200728900057 0 0.28120809951747239 -0.38685703891546452 0 0.29931766234908502 -0.40925200728900057 0 0.28673416302223592 -0.40588664669204422 0 0.28120809951747239 -0.38685703891546452 0 0.27950528975733208 -0.39966062021469528 0 0.28673416302223592 -0.40588664669204422 0 0.28120809951747239 -0.38685703891546452 0 0.29931766234908502 -0.40925200728900057 0 0.29912751194868331 -0.39409566435018528 0 0.28120809951747239 -0.38685703891546452 0 0.29931766234908502 -0.40925200728900057 0 0.30180392243334592 -0.37710560816458599 0 0.28469432168289799 -0.37886252148985372 0 0.28854843935423391 -0.37001696093824221 0 0.29912751194868331 -0.39409566435018528 0 0.28469432168289799 -0.37886252148985372 0 0.28120809951747239 -0.38685703891546452 0 0.30180392243334592 -0.37710560816458599 0 0.29912751194868331 -0.39409566435018528 0 0.28469432168289799 -0.37886252148985372 0 0.29912751194868331 -0.39409566435018528 0 0.28469432168289799 -0.37886252148985372 0 0.27181439966326798 -0.38928365222176581 0 0.27280118778532658 -0.38218370171857541 0 0.25818591758230391 -0.36615085596454061 0 0.28120809951747239 -0.38685703891546452 0 0.27280118778532658 -0.38218370171857541 0 0.26309853668586047 -0.3644620705419277 0 0.28469432168289799 -0.37886252148985372 0 0.28120809951747239 -0.38685703891546452 0 0.27026113141711461 -0.36362937862952049 0 0.28120809951747239 -0.38685703891546452 0 0.26309853668586047 -0.3644620705419277 0 0.28120809951747239 -0.38685703891546452 0 0.27181439966326798 -0.38928365222176581 0 0.27533626257079907 -0.39383620710168171 0 0.28120809951747239 -0.38685703891546452 0 0.27181439966326798 -0.38928365222176581 0 0.27280118778532658 -0.38218370171857541 0 0.27181439966326798 -0.38928365222176581 0 0.2630441773758983 -0.38329892059535697 0 0.25818591758230391 -0.36615085596454061 0 0.25828394686639011 -0.38089690481256328 0 0.2630441773758983 -0.38329892059535697 0 0.25818591758230391 -0.36615085596454061 0 0.27181439966326798 -0.38928365222176581 0 0.25818591758230391 -0.36615085596454061 0 0.25828394686639011 -0.38089690481256328 0 0.2630441773758983 -0.38329892059535697 0 0.26083814410965511 -0.39243146020513597 0 0.27181439966326798 -0.38928365222176581 0 0.2630441773758983 -0.38329892059535697 0 0.26083814410965511 -0.39243146020513597 0 0.25828394686639011 -0.38089690481256328 0 0.26083814410965511 -0.39243146020513597 0 0.2457115146091404 -0.38858360770929579 0 0.25828394686639011 -0.38089690481256328 0 0.25585754277712308 -0.37187791454345343 0 0.24969560672286889 -0.37532361052935398 0 0.25828394686639011 -0.38089690481256328 0 0.24969560672286889 -0.37532361052935398 0 0.2457115146091404 -0.38858360770929579 0 0.25489594942760452 -0.40353155530938561 0 0.26083814410965511 -0.39243146020513597 0 0.2457115146091404 -0.38858360770929579 0 0.25489594942760452 -0.40353155530938561 0 0.26083814410965511 -0.39243146020513597 0 0.26881726134512418 -0.39954351705480118 0 0.27181439966326798 -0.38928365222176581 0 0.26881726134512418 -0.39954351705480118 0 0.27533626257079907 -0.39383620710168171 0 0.27181439966326798 -0.38928365222176581 0 0.26083814410965511 -0.39243146020513597 0 0.26881726134512418 -0.39954351705480118 0 0.28120809951747239 -0.38685703891546452 0 0.27533626257079907 -0.39383620710168171 0 0.27950528975733208 -0.39966062021469528 0 0.26881726134512418 -0.39954351705480118 0 0.27533626257079907 -0.39383620710168171 0 0.27950528975733208 -0.39966062021469528 0 0.28673416302223592 -0.40588664669204422 0 0.27950528975733208 -0.39966062021469528 0 0.27749315649034562 -0.41131065273901052 0 0.26881726134512418 -0.39954351705480118 0 0.27950528975733208 -0.39966062021469528 0 0.27749315649034562 -0.41131065273901052 0 0.26881726134512418 -0.39954351705480118 0 0.27749315649034562 -0.41131065273901052 0 0.26332034973727347 -0.41640303173190119 0 0.27749315649034562 -0.41131065273901052 0 0.27517480328310251 -0.42533159992270531 0 0.28869025368298462 -0.41807489147163068 0 0.27749315649034562 -0.41131065273901052 0 0.26332034973727347 -0.41640303173190119 0 0.27517480328310251 -0.42533159992270531 0 0.25489594942760452 -0.40353155530938561 0 0.26881726134512418 -0.39954351705480118 0 0.26332034973727347 -0.41640303173190119 0 0.25489594942760452 -0.40353155530938561 0 0.26332034973727347 -0.41640303173190119 0 0.24658089742358119 -0.41976761720160211 0 0.26332034973727347 -0.41640303173190119 0 0.25969557113907887 -0.43281243736916308 0 0.24658089742358119 -0.41976761720160211 0 0.25969557113907887 -0.43281243736916308 0 0.27517480328310251 -0.42533159992270531 0 0.2737106565150339 -0.44089842436177212 0 0.26332034973727347 -0.41640303173190119 0 0.25969557113907887 -0.43281243736916308 0 0.27517480328310251 -0.42533159992270531 0 0.27517480328310251 -0.42533159992270531 0 0.28895352059819712 -0.43179422384025629 0 0.2737106565150339 -0.44089842436177212 0 0.28895352059819712 -0.43179422384025629 0 0.28869025368298462 -0.41807489147163068 0 0.2995564722815024 -0.42582804449158168 0 0.27517480328310251 -0.42533159992270531 0 0.28895352059819712 -0.43179422384025629 0 0.28869025368298462 -0.41807489147163068 0 0.28869025368298462 -0.41807489147163068 0 0.29931766234908502 -0.40925200728900057 0 0.2995564722815024 -0.42582804449158168 0 0.28673416302223592 -0.40588664669204422 0 0.27749315649034562 -0.41131065273901052 0 0.28869025368298462 -0.41807489147163068 0 0.28673416302223592 -0.40588664669204422 0 0.28869025368298462 -0.41807489147163068 0 0.29931766234908502 -0.40925200728900057 0 0.3174272251806976 -0.43164697566253679 0 0.29931766234908502 -0.40925200728900057 0 0.32532543912791079 -0.41395287430969963 0 0.31259137958953359 -0.40113251313025028 0 0.29931766234908502 -0.40925200728900057 0 0.3174272251806976 -0.43164697566253679 0 0.2995564722815024 -0.42582804449158168 0 0.30339369959654788 -0.43837212419448413 0 0.3174272251806976 -0.43164697566253679 0 0.29931766234908502 -0.40925200728900057 0 0.2995564722815024 -0.42582804449158168 0 0.28895352059819712 -0.43179422384025629 0 0.2995564722815024 -0.42582804449158168 0 0.30339369959654788 -0.43837212419448413 0 0.34088008737547382 -0.5 0 0.2586882092634174 -0.49999999999999978 0 0.28041278140079529 -0.48629152799819908 0 0.30339369959654788 -0.43837212419448413 0 0.30304906492987999 -0.45546171835910731 0 0.28907464577358921 -0.44738868805249599 0 0.31828936619360632 -0.4483922417726296 0 0.30339369959654788 -0.43837212419448413 0 0.30304906492987999 -0.45546171835910731 0 0.31525905832393158 -0.46357112402257228 0 0.31828936619360632 -0.4483922417726296 0 0.30304906492987999 -0.45546171835910731 0 0.31525905832393158 -0.46357112402257228 0 0.30304906492987999 -0.45546171835910731 0 0.30213735353817328 -0.47258305599639872 0 0.30304906492987999 -0.45546171835910731 0 0.28771328070485369 -0.46300500303106767 0 0.30213735353817328 -0.47258305599639872 0 0.30304906492987999 -0.45546171835910731 0 0.28771328070485369 -0.46300500303106767 0 0.28907464577358921 -0.44738868805249599 0 0.28771328070485369 -0.46300500303106767 0 0.28907464577358921 -0.44738868805249599 0 0.27762765229702208 -0.45480063452828873 0 0.28895352059819712 -0.43179422384025629 0 0.30339369959654788 -0.43837212419448413 0 0.28907464577358921 -0.44738868805249599 0 0.28895352059819712 -0.43179422384025629 0 0.28907464577358921 -0.44738868805249599 0 0.2737106565150339 -0.44089842436177212 0 0.2737106565150339 -0.44089842436177212 0 0.25914728930860981 -0.45331873837737813 0 0.27762765229702208 -0.45480063452828873 0 0.28907464577358921 -0.44738868805249599 0 0.2737106565150339 -0.44089842436177212 0 0.27762765229702208 -0.45480063452828873 0 0.25969557113907887 -0.43281243736916308 0 0.2737106565150339 -0.44089842436177212 0 0.25914728930860981 -0.45331873837737813 0 0.25969557113907887 -0.43281243736916308 0 0.25914728930860981 -0.45331873837737813 0 0.2412474156639268 -0.43909562916186801 0 0.25914728930860981 -0.45331873837737813 0 0.27223243957398918 -0.46711276006274272 0 0.25670700010458491 -0.47332469990915188 0 0.25914728930860981 -0.45331873837737813 0 0.27223243957398918 -0.46711276006274272 0 0.27762765229702208 -0.45480063452828873 0 0.28771328070485369 -0.46300500303106767 0 0.27223243957398918 -0.46711276006274272 0 0.27762765229702208 -0.45480063452828873 0 0.28013513353258662 -0.48263141121590158 0 0.25670700010458491 -0.47332469990915188 0 0.28041278140079529 -0.48629152799819908 0 0.27223243957398918 -0.46711276006274272 0 0.28013513353258662 -0.48263141121590158 0 0.25670700010458491 -0.47332469990915188 0 0.28013513353258662 -0.48263141121590158 0 0.25670700010458491 -0.47332469990915188 0 0.28771328070485369 -0.46300500303106767 0 0.27223243957398918 -0.46711276006274272 0 0.28013513353258662 -0.48263141121590158 0 0.25670700010458491 -0.47332469990915188 0 0.2586882092634174 -0.49999999999999978 0 0.2493683405524893 -0.48885981934930589 0 0.25670700010458491 -0.47332469990915188 0 0.2586882092634174 -0.49999999999999978 0 0.28041278140079529 -0.48629152799819908 0 0.25668590839932798 -0.49999999999999978 0 0.2586882092634174 -0.49999999999999978 0 0.2493683405524893 -0.48885981934930589 0 0.2586882092634174 -0.49999999999999978 0 0.28041278140079529 -0.48629152799819908 0 0.32111551825746493 -0.47955780457056341 0 0.28041278140079529 -0.48629152799819908 0 0.30213735353817328 -0.47258305599639872 0 0.28013513353258662 -0.48263141121590158 0 0.28041278140079529 -0.48629152799819908 0 0.30213735353817328 -0.47258305599639872 0 0.28771328070485369 -0.46300500303106767 0 0.28013513353258662 -0.48263141121590158 0 0.30213735353817328 -0.47258305599639872 0 0.28041278140079529 -0.48629152799819908 0 0.30213735353817328 -0.47258305599639872 0 0.33031743756867471 -0.28595614659070462 0 0.33409618942544822 -0.30243433339857229 0 0.34598724055771041 -0.2778912498936113 0 0.33409618942544822 -0.30243433339857229 0 0.32311390878057039 -0.30726604381727518 0 0.3272403445161064 -0.31993749274126171 0 0.33409618942544822 -0.30243433339857229 0 0.32311390878057039 -0.30726604381727518 0 0.31972668661973841 -0.29686457015913681 0 0.32311390878057039 -0.30726604381727518 0 0.3272403445161064 -0.31993749274126171 0 0.31139241456098898 -0.30982777897013009 0 0.32311390878057039 -0.30726604381727518 0 0.31972668661973841 -0.29686457015913681 0 0.31139241456098898 -0.30982777897013009 0 0.32201889899196662 -0.27321676011012391 0 0.30615844029372941 -0.28955652219381678 0 0.31972668661973841 -0.29686457015913681 0 0.32201889899196662 -0.27321676011012391 0 0.30615844029372941 -0.28955652219381678 0 0.33031743756867471 -0.28595614659070462 0 0.31972668661973841 -0.29686457015913681 0 0.32201889899196662 -0.27321676011012391 0 0.33031743756867471 -0.28595614659070462 0 0.33409618942544822 -0.30243433339857229 0 0.31972668661973841 -0.29686457015913681 0 0.31787223586978269 -0.24958911259301181 0 0.32201889899196662 -0.27321676011012391 0 0.29976540383506711 -0.2647962010656611 0 0.31787223586978269 -0.24958911259301181 0 0.32201889899196662 -0.27321676011012391 0 0.33787935769020339 -0.2568769980264306 0 0.32201889899196662 -0.27321676011012391 0 0.33787935769020339 -0.2568769980264306 0 0.33031743756867471 -0.28595614659070462 0 0.32201889899196662 -0.27321676011012391 0 0.34598724055771041 -0.2778912498936113 0 0.32201889899196662 -0.27321676011012391 0 0.33787935769020339 -0.2568769980264306 0 0.34598724055771041 -0.2778912498936113 0 0.34598724055771041 -0.2778912498936113 0 0.35320831412282649 -0.25605139805805488 0 0.36631748837816119 -0.26578822335298902 0 0.35373981638844021 -0.24053723594273729 0 0.33787935769020339 -0.2568769980264306 0 0.35320831412282649 -0.25605139805805488 0 0.33787935769020339 -0.2568769980264306 0 0.34598724055771041 -0.2778912498936113 0 0.35320831412282649 -0.25605139805805488 0 0.36901080839784067 -0.24663463147801831 0 0.35320831412282649 -0.25605139805805488 0 0.36631748837816119 -0.26578822335298902 0 0.36901080839784067 -0.24663463147801831 0 0.38777030597001172 -0.25401306326273237 0 0.36631748837816119 -0.26578822335298902 0 0.38405428691745291 -0.27615434926539972 0 0.36631748837816119 -0.26578822335298902 0 0.36660595774206051 -0.28341580610728229 0 0.34598724055771041 -0.2778912498936113 0 0.36631748837816119 -0.26578822335298902 0 0.36660595774206051 -0.28341580610728229 0 0.38473806332721278 -0.30002346608155961 0 0.36660595774206051 -0.28341580610728229 0 0.3594171263763305 -0.30122889974006589 0 0.33409618942544822 -0.30243433339857229 0 0.34598724055771041 -0.2778912498936113 0 0.3594171263763305 -0.30122889974006589 0 0.34598724055771041 -0.2778912498936113 0 0.36660595774206051 -0.28341580610728229 0 0.3594171263763305 -0.30122889974006589 0 0.33409618942544822 -0.30243433339857229 0 0.3594171263763305 -0.30122889974006589 0 0.33409618942544822 -0.30243433339857229 0 0.3594171263763305 -0.30122889974006589 0 0.34739240667584359 -0.31895046700847179 0 0.38473806332721278 -0.30002346608155961 0 0.3594171263763305 -0.30122889974006589 0 0.38473806332721278 -0.30002346608155961 0 0.3594171263763305 -0.30122889974006589 0 0.37091775300749569 -0.32006391283531438 0 0.37091775300749569 -0.32006391283531438 0 0.36053752970606179 -0.3388561809390217 0 0.34739240667584359 -0.31895046700847179 0 0.37562293708396088 -0.33933457005993672 0 0.37091775300749569 -0.32006391283531438 0 0.36053752970606179 -0.3388561809390217 0 0.36053752970606179 -0.3388561809390217 0 0.34648756911789907 -0.35223871586194361 0 0.33457523864070682 -0.33912543771583609 0 0.36053752970606179 -0.3388561809390217 0 0.34739240667584359 -0.31895046700847179 0 0.33457523864070682 -0.33912543771583609 0 0.3594171263763305 -0.30122889974006589 0 0.37091775300749569 -0.32006391283531438 0 0.34739240667584359 -0.31895046700847179 0 0.37766547380431542 -0.36094041106938862 0 0.36611026003185859 -0.36749372266220248 0 0.35896032610147321 -0.35970478628946051 0 0.37024232928875811 -0.37517607617103549 0 0.36611026003185859 -0.36749372266220248 0 0.35757291093288868 -0.37415361711892531 0 0.37766547380431542 -0.36094041106938862 0 0.37024232928875811 -0.37517607617103549 0 0.37766547380431542 -0.36094041106938862 0 0.37024232928875811 -0.37517607617103549 0 0.36611026003185859 -0.36749372266220248 0 0.36611026003185859 -0.36749372266220248 0 0.35896032610147321 -0.35970478628946051 0 0.35757291093288868 -0.37415361711892531 0 0.37766547380431542 -0.36094041106938862 0 0.36053752970606179 -0.3388561809390217 0 0.37766547380431542 -0.36094041106938862 0 0.37562293708396088 -0.33933457005993672 0 0.36053752970606179 -0.3388561809390217 0 0.37766547380431542 -0.36094041106938862 0 0.36053752970606179 -0.3388561809390217 0 0.35896032610147321 -0.35970478628946051 0 0.36053752970606179 -0.3388561809390217 0 0.34648756911789907 -0.35223871586194361 0 0.35896032610147321 -0.35970478628946051 0 0.34466531506318449 -0.38284038996376468 0 0.34447592919569681 -0.36645162239192253 0 0.35757291093288868 -0.37415361711892531 0 0.35896032610147321 -0.35970478628946051 0 0.34447592919569681 -0.36645162239192253 0 0.35757291093288868 -0.37415361711892531 0 0.34648756911789907 -0.35223871586194361 0 0.35896032610147321 -0.35970478628946051 0 0.34447592919569681 -0.36645162239192253 0 0.34466531506318449 -0.38284038996376468 0 0.34447592919569681 -0.36645162239192253 0 0.33066063332789419 -0.37050263529397331 0 0.34447592919569681 -0.36645162239192253 0 0.33066063332789419 -0.37050263529397331 0 0.33388882194555691 -0.35705555197347733 0 0.34648756911789907 -0.35223871586194361 0 0.33388882194555691 -0.35705555197347733 0 0.33457523864070682 -0.33912543771583609 0 0.34648756911789907 -0.35223871586194361 0 0.34447592919569681 -0.36645162239192253 0 0.33388882194555691 -0.35705555197347733 0 0.33388882194555691 -0.35705555197347733 0 0.31589430755722692 -0.35778707583952912 0 0.33457523864070682 -0.33912543771583609 0 0.33066063332789419 -0.37050263529397331 0 0.33388882194555691 -0.35705555197347733 0 0.31589430755722692 -0.35778707583952912 0 0.32060987334256891 -0.38586997507461429 0 0.31589430755722692 -0.35778707583952912 0 0.32060987334256891 -0.38586997507461429 0 0.30180392243334592 -0.37710560816458599 0 0.31589430755722692 -0.35778707583952912 0 0.32060987334256891 -0.38586997507461429 0 0.33066063332789419 -0.37050263529397331 0 0.31589430755722692 -0.35778707583952912 0 0.33409618942544822 -0.30243433339857229 0 0.34739240667584359 -0.31895046700847179 0 0.3272403445161064 -0.31993749274126171 0 0.34739240667584359 -0.31895046700847179 0 0.33457523864070682 -0.33912543771583609 0 0.3272403445161064 -0.31993749274126171 0 0.31589430755722692 -0.35778707583952912 0 0.33457523864070682 -0.33912543771583609 0 0.31117874177188493 -0.32970417660444379 0 0.31589430755722692 -0.35778707583952912 0 0.31117874177188493 -0.32970417660444379 0 0.33457523864070682 -0.33912543771583609 0 0.3272403445161064 -0.31993749274126171 0 0.31117874177188493 -0.32970417660444379 0 0.3272403445161064 -0.31993749274126171 0 0.31117874177188493 -0.32970417660444379 0 0.31139241456098898 -0.30982777897013009 0 0.31117874177188493 -0.32970417660444379 0 0.30646317598654299 -0.30162127736935851 0 0.31117874177188493 -0.32970417660444379 0 0.30646317598654299 -0.30162127736935851 0 0.29815586355063939 -0.3122497751093638 0 0.31117874177188493 -0.32970417660444379 0 0.30646317598654299 -0.30162127736935851 0 0.31139241456098898 -0.30982777897013009 0 0.31117874177188493 -0.32970417660444379 0 0.29364400889524173 -0.32169238080646329 0 0.29815586355063939 -0.3122497751093638 0 0.31117874177188493 -0.32970417660444379 0 0.29461385336766271 -0.33472179546812952 0 0.30155309689210552 -0.34608208569106469 0 0.31117874177188493 -0.32970417660444379 0 0.29461385336766271 -0.33472179546812952 0 0.29364400889524173 -0.32169238080646329 0 0.29461385336766271 -0.33472179546812952 0 0.28205536020111621 -0.34663213871638843 0 0.28093062655269568 -0.32702932285164388 0 0.29461385336766271 -0.33472179546812952 0 0.30155309689210552 -0.34608208569106469 0 0.28205536020111621 -0.34663213871638843 0 0.29364400889524173 -0.32169238080646329 0 0.28093062655269568 -0.32702932285164388 0 0.28264229500077331 -0.30908590624629328 0 0.29364400889524173 -0.32169238080646329 0 0.28264229500077331 -0.30908590624629328 0 0.29815586355063939 -0.3122497751093638 0 0.29461385336766271 -0.33472179546812952 0 0.29364400889524173 -0.32169238080646329 0 0.28093062655269568 -0.32702932285164388 0 0.30180392243334592 -0.37710560816458599 0 0.31589430755722692 -0.35778707583952912 0 0.29743438188357763 -0.36047033546901031 0 0.31589430755722692 -0.35778707583952912 0 0.31117874177188493 -0.32970417660444379 0 0.30155309689210552 -0.34608208569106469 0 0.31589430755722692 -0.35778707583952912 0 0.29743438188357763 -0.36047033546901031 0 0.30155309689210552 -0.34608208569106469 0 0.29743438188357763 -0.36047033546901031 0 0.28205536020111621 -0.34663213871638843 0 0.27026113141711461 -0.36362937862952049 0 0.29743438188357763 -0.36047033546901031 0 0.30155309689210552 -0.34608208569106469 0 0.28205536020111621 -0.34663213871638843 0 0.29743438188357763 -0.36047033546901031 0 0.28854843935423391 -0.37001696093824221 0 0.27026113141711461 -0.36362937862952049 0 0.30180392243334592 -0.37710560816458599 0 0.29743438188357763 -0.36047033546901031 0 0.28854843935423391 -0.37001696093824221 0 0.29743438188357763 -0.36047033546901031 0 0.27026113141711461 -0.36362937862952049 0 0.28120809951747239 -0.38685703891546452 0 0.27026113141711461 -0.36362937862952049 0 0.26309853668586047 -0.3644620705419277 0 0.28469432168289799 -0.37886252148985372 0 0.28854843935423391 -0.37001696093824221 0 0.27026113141711461 -0.36362937862952049 0 0.28469432168289799 -0.37886252148985372 0 0.27026113141711461 -0.36362937862952049 0 0.27026113141711461 -0.36362937862952049 0 0.26309853668586047 -0.3644620705419277 0 0.28205536020111621 -0.34663213871638843 0 0.27026113141711461 -0.36362937862952049 0 0.26798293426546688 -0.34801362503692401 0 0.28205536020111621 -0.34663213871638843 0 0.26798293426546688 -0.34801362503692401 0 0.26728180447257222 -0.33708492819636948 0 0.25818591758230391 -0.36615085596454061 0 0.2459877065429098 -0.34544578191442848 0 0.27026113141711461 -0.36362937862952049 0 0.26798293426546688 -0.34801362503692401 0 0.25233344097106492 -0.34470805460541892 0 0.25233344097106492 -0.34470805460541892 0 0.26309853668586047 -0.3644620705419277 0 0.25818591758230391 -0.36615085596454061 0 0.27026113141711461 -0.36362937862952049 0 0.25233344097106492 -0.34470805460541892 0 0.26309853668586047 -0.3644620705419277 0 0.25233344097106492 -0.34470805460541892 0 0.25818591758230391 -0.36615085596454061 0 0.2459877065429098 -0.34544578191442848 0 0.27026113141711461 -0.36362937862952049 0 0.25233344097106492 -0.34470805460541892 0 0.27280118778532658 -0.38218370171857541 0 0.26309853668586047 -0.3644620705419277 0 0.25818591758230391 -0.36615085596454061 0 0.27280118778532658 -0.38218370171857541 0 0.25818591758230391 -0.36615085596454061 0 0.26309853668586047 -0.3644620705419277 0 0.25818591758230391 -0.36615085596454061 0 0.25828394686639011 -0.38089690481256328 0 0.25818591758230391 -0.36615085596454061 0 0.25585754277712308 -0.37187791454345343 0 0.25818591758230391 -0.36615085596454061 0 0.25585754277712308 -0.37187791454345343 0 0.24969560672286889 -0.37532361052935398 0 0.28093062655269568 -0.32702932285164388 0 0.26728180447257222 -0.33708492819636948 0 0.26437634590958031 -0.31836799638651908 0 0.28093062655269568 -0.32702932285164388 0 0.26437634590958031 -0.31836799638651908 0 0.28264229500077331 -0.30908590624629328 0 0.28205536020111621 -0.34663213871638843 0 0.28093062655269568 -0.32702932285164388 0 0.26728180447257222 -0.33708492819636948 0 0.25233344097106492 -0.34470805460541892 0 0.26728180447257222 -0.33708492819636948 0 0.25173470697804651 -0.32756000922594491 0 0.26798293426546688 -0.34801362503692401 0 0.25233344097106492 -0.34470805460541892 0 0.26728180447257222 -0.33708492819636948 0 0.26728180447257222 -0.33708492819636948 0 0.25173470697804651 -0.32756000922594491 0 0.26437634590958031 -0.31836799638651908 0 0.25173470697804651 -0.32756000922594491 0 0.26437634590958031 -0.31836799638651908 0 0.24292778124351189 -0.31253148428183092 0 0.26187365544069691 -0.29661972320977409 0 0.24292778124351189 -0.31253148428183092 0 0.26437634590958031 -0.31836799638651908 0 0.26187365544069691 -0.29661972320977409 0 0.24292778124351189 -0.31253148428183092 0 0.26187365544069691 -0.29661972320977409 0 0.25645580146128 -0.27419314556145952 0 0.23620541610177109 -0.28433094028285738 0 0.26187365544069691 -0.29661972320977409 0 0.2808195296378817 -0.28070796213771743 0 0.26187365544069691 -0.29661972320977409 0 0.2808195296378817 -0.28070796213771743 0 0.25645580146128 -0.27419314556145952 0 0.26187365544069691 -0.29661972320977409 0 0.28366002418940922 -0.29493529496353549 0 0.2808195296378817 -0.28070796213771743 0 0.26437634590958031 -0.31836799638651908 0 0.26187365544069691 -0.29661972320977409 0 0.28264229500077331 -0.30908590624629328 0 0.26187365544069691 -0.29661972320977409 0 0.28264229500077331 -0.30908590624629328 0 0.28366002418940922 -0.29493529496353549 0 0.28264229500077331 -0.30908590624629328 0 0.29685109609875382 -0.29914513452026009 0 0.29815586355063939 -0.3122497751093638 0 0.28264229500077331 -0.30908590624629328 0 0.29685109609875382 -0.29914513452026009 0 0.28366002418940922 -0.29493529496353549 0 0.28366002418940922 -0.29493529496353549 0 0.29261857887278281 -0.2886842236353655 0 0.2808195296378817 -0.28070796213771743 0 0.29261857887278281 -0.2886842236353655 0 0.29560380414413989 -0.27907620436149783 0 0.2808195296378817 -0.28070796213771743 0 0.29685109609875382 -0.29914513452026009 0 0.28366002418940922 -0.29493529496353549 0 0.29261857887278281 -0.2886842236353655 0 0.29685109609875382 -0.29914513452026009 0 0.30615844029372941 -0.28955652219381678 0 0.29685109609875382 -0.29914513452026009 0 0.30615844029372941 -0.28955652219381678 0 0.30646317598654299 -0.30162127736935851 0 0.29685109609875382 -0.29914513452026009 0 0.29261857887278281 -0.2886842236353655 0 0.30615844029372941 -0.28955652219381678 0 0.29261857887278281 -0.2886842236353655 0 0.30615844029372941 -0.28955652219381678 0 0.29560380414413989 -0.27907620436149783 0 0.30615844029372941 -0.28955652219381678 0 0.30646317598654299 -0.30162127736935851 0 0.31139241456098898 -0.30982777897013009 0 0.31972668661973841 -0.29686457015913681 0 0.30615844029372941 -0.28955652219381678 0 0.31139241456098898 -0.30982777897013009 0 0.30615844029372941 -0.28955652219381678 0 0.31139241456098898 -0.30982777897013009 0 0.29685109609875382 -0.29914513452026009 0 0.30646317598654299 -0.30162127736935851 0 0.29815586355063939 -0.3122497751093638 0 0.31787223586978269 -0.24958911259301181 0 0.29976540383506711 -0.2647962010656611 0 0.29695657218029931 -0.25391755611866729 0 0.31787223586978269 -0.24958911259301181 0 0.29976540383506711 -0.2647962010656611 0 0.29976540383506711 -0.2647962010656611 0 0.29695657218029931 -0.25391755611866729 0 0.32201889899196662 -0.27321676011012391 0 0.30615844029372941 -0.28955652219381678 0 0.29976540383506711 -0.2647962010656611 0 0.30615844029372941 -0.28955652219381678 0 0.29976540383506711 -0.2647962010656611 0 0.30615844029372941 -0.28955652219381678 0 0.29976540383506711 -0.2647962010656611 0 0.29560380414413989 -0.27907620436149783 0 0.29976540383506711 -0.2647962010656611 0 0.2808195296378817 -0.28070796213771743 0 0.29976540383506711 -0.2647962010656611 0 0.29560380414413989 -0.27907620436149783 0 0.2808195296378817 -0.28070796213771743 0 0.29976540383506711 -0.2647962010656611 0 0.27670618682078879 -0.26405535084006171 0 0.2808195296378817 -0.28070796213771743 0 0.27368796748947521 -0.242914588277232 0 0.29695657218029931 -0.25391755611866729 0 0.27670618682078879 -0.26405535084006171 0 0.29976540383506711 -0.2647962010656611 0 0.29695657218029931 -0.25391755611866729 0 0.27670618682078879 -0.26405535084006171 0 0.29695657218029931 -0.25391755611866729 0 0.27670618682078879 -0.26405535084006171 0 0.27368796748947521 -0.242914588277232 0 0.27670618682078879 -0.26405535084006171 0 0.25824086010337621 -0.25532614280128291 0 0.27670618682078879 -0.26405535084006171 0 0.25645580146128 -0.27419314556145952 0 0.27670618682078879 -0.26405535084006171 0 0.2808195296378817 -0.28070796213771743 0 0.25645580146128 -0.27419314556145952 0 0.25645580146128 -0.27419314556145952 0 0.25824086010337621 -0.25532614280128291 0 0.24069773935524841 -0.26677368055363959 0 0.27670618682078879 -0.26405535084006171 0 0.25645580146128 -0.27419314556145952 0 0.25824086010337621 -0.25532614280128291 0 0.24060480681938509 -0.25027410992644472 0 0.24069773935524841 -0.26677368055363959 0 0.22550017303918971 -0.25846126094229499 0 0.25824086010337621 -0.25532614280128291 0 0.24060480681938509 -0.25027410992644472 0 0.24069773935524841 -0.26677368055363959 0 0.25645580146128 -0.27419314556145952 0 0.24069773935524841 -0.26677368055363959 0 0.23620541610177109 -0.28433094028285738 0 0.25645580146128 -0.27419314556145952 0 0.23620541610177109 -0.28433094028285738 0 0.24069773935524841 -0.26677368055363959 0 0.22562784164081739 -0.27180508050706598 0 0.23620541610177109 -0.28433094028285738 0 0.22562784164081739 -0.27180508050706598 0 0.22093987167114171 -0.28282494968917971 0 0.23620541610177109 -0.28433094028285738 0 0.24069773935524841 -0.26677368055363959 0 0.22562784164081739 -0.27180508050706598 0 0.22550017303918971 -0.25846126094229499 0 0.22562784164081739 -0.27180508050706598 0 0.2160951664090951 -0.26515906614541618 0 0.2173928245547864 -0.27315241433235699 0 0.22562784164081739 -0.27180508050706598 0 0.2173928245547864 -0.27315241433235699 0 0.22093987167114171 -0.28282494968917971 0 0.24060480681938509 -0.25027410992644472 0 0.22550017303918971 -0.25846126094229499 0 0.22393662304699799 -0.2430299400256471 0 0.22562784164081739 -0.27180508050706598 0 0.22550017303918971 -0.25846126094229499 0 0.2160951664090951 -0.26515906614541618 0 0.22550017303918971 -0.25846126094229499 0 0.2104931124150449 -0.25346063695062487 0 0.22393662304699799 -0.2430299400256471 0 0.2104931124150449 -0.25346063695062487 0 0.20823768882371449 -0.26430041806013321 0 0.20227539232925029 -0.26173860499894941 0 0.2104931124150449 -0.25346063695062487 0 0.20046151801442619 -0.25941234193315271 0 0.20227539232925029 -0.26173860499894941 0 0.20823768882371449 -0.26430041806013321 0 0.20279205083554699 -0.26678580463582469 0 0.20227539232925029 -0.26173860499894941 0 0.22550017303918971 -0.25846126094229499 0 0.2104931124150449 -0.25346063695062487 0 0.2160951664090951 -0.26515906614541618 0 0.2104931124150449 -0.25346063695062487 0 0.20823768882371449 -0.26430041806013321 0 0.2160951664090951 -0.26515906614541618 0 0.2160951664090951 -0.26515906614541618 0 0.2173928245547864 -0.27315241433235699 0 0.21138340006913039 -0.27028269477609113 0 0.20823768882371449 -0.26430041806013321 0 0.2160951664090951 -0.26515906614541618 0 0.21138340006913039 -0.27028269477609113 0 0.2173928245547864 -0.27315241433235699 0 0.21138340006913039 -0.27028269477609113 0 0.2118584321886858 -0.27570032611224571 0 0.2173928245547864 -0.27315241433235699 0 0.21480671196587109 -0.27961582449719258 0 0.22093987167114171 -0.28282494968917971 0 0.2173928245547864 -0.27315241433235699 0 0.2118584321886858 -0.27570032611224571 0 0.21480671196587109 -0.27961582449719258 0 0.2118584321886858 -0.27570032611224571 0 0.21480671196587109 -0.27961582449719258 0 0.20805842703615271 -0.28143326848500538 0 0.2118584321886858 -0.27570032611224571 0 0.20659060133351331 -0.27467063544806058 0 0.20805842703615271 -0.28143326848500538 0 0.21138340006913039 -0.27028269477609113 0 0.2118584321886858 -0.27570032611224571 0 0.20659060133351331 -0.27467063544806058 0 0.20659060133351331 -0.27467063544806058 0 0.20203837674980821 -0.27134887972759991 0 0.20207749559634131 -0.27776758317225753 0 0.20659060133351331 -0.27467063544806058 0 0.20207749559634131 -0.27776758317225753 0 0.20805842703615271 -0.28143326848500538 0 0.20823768882371449 -0.26430041806013321 0 0.21138340006913039 -0.27028269477609113 0 0.205830344167689 -0.2691758490857567 0 0.21138340006913039 -0.27028269477609113 0 0.20659060133351331 -0.27467063544806058 0 0.205830344167689 -0.2691758490857567 0 0.20659060133351331 -0.27467063544806058 0 0.205830344167689 -0.2691758490857567 0 0.20203837674980821 -0.27134887972759991 0 0.20823768882371449 -0.26430041806013321 0 0.205830344167689 -0.2691758490857567 0 0.20279205083554699 -0.26678580463582469 0 0.205830344167689 -0.2691758490857567 0 0.20279205083554699 -0.26678580463582469 0 0.20203837674980821 -0.27134887972759991 0 0.20279205083554699 -0.26678580463582469 0 0.19573320876047251 -0.26998855565608021 0 0.20227539232925029 -0.26173860499894941 0 0.19573320876047251 -0.26998855565608021 0 0.19843872778947669 -0.2878262529944518 0 0.1804600823258381 -0.28088617659428872 0 0.19573320876047251 -0.26998855565608021 0 0.20207749559634131 -0.27776758317225753 0 0.19843872778947669 -0.2878262529944518 0 0.20279205083554699 -0.26678580463582469 0 0.20203837674980821 -0.27134887972759991 0 0.19573320876047251 -0.26998855565608021 0 0.20203837674980821 -0.27134887972759991 0 0.19573320876047251 -0.26998855565608021 0 0.20207749559634131 -0.27776758317225753 0 0.19573320876047251 -0.26998855565608021 0 0.18759573748485789 -0.26647486492918099 0 0.1804600823258381 -0.28088617659428872 0 0.18759573748485789 -0.26647486492918099 0 0.19473139264387221 -0.25206355326407059 0 0.19573320876047251 -0.26998855565608021 0 0.18759573748485789 -0.26647486492918099 0 0.20046151801442619 -0.25941234193315271 0 0.18759573748485789 -0.26647486492918099 0 0.19473139264387221 -0.25206355326407059 0 0.20046151801442619 -0.25941234193315271 0 0.19473139264387221 -0.25206355326407059 0 0.20046151801442619 -0.25941234193315271 0 0.2012926349075338 -0.23881233735400539 0 0.18759573748485789 -0.26647486492918099 0 0.19473139264387221 -0.25206355326407059 0 0.1860585672958435 -0.25415058743821228 0 0.19473139264387221 -0.25206355326407059 0 0.1860585672958435 -0.25415058743821228 0 0.18978939181727089 -0.24572552096486031 0 0.19473139264387221 -0.25206355326407059 0 0.20046151801442619 -0.25941234193315271 0 0.19573320876047251 -0.26998855565608021 0 0.20046151801442619 -0.25941234193315271 0 0.19573320876047251 -0.26998855565608021 0 0.20046151801442619 -0.25941234193315271 0 0.20227539232925029 -0.26173860499894941 0 0.20046151801442619 -0.25941234193315271 0 0.20227539232925029 -0.26173860499894941 0 0.1961284374824932 -0.30439436994521252 0 0.20008440978619771 -0.30241392194747357 0 0.198582279745634 -0.32320379937746763 0 0.1961284374824932 -0.30439436994521252 0 0.20008440978619771 -0.30241392194747357 0 0.1961284374824932 -0.30439436994521252 0 0.1879082712539959 -0.30479546878834812 0 0.189516971638129 -0.3147328657536525 0 0.1961284374824932 -0.30439436994521252 0 0.20008440978619771 -0.30241392194747357 0 0.1864271584152116 -0.29669989482074788 0 0.1961284374824932 -0.30439436994521252 0 0.1879082712539959 -0.30479546878834812 0 0.1864271584152116 -0.29669989482074788 0 0.20008440978619771 -0.30241392194747357 0 0.1804600823258381 -0.28088617659428872 0 0.20008440978619771 -0.30241392194747357 0 0.19843872778947669 -0.2878262529944518 0 0.1804600823258381 -0.28088617659428872 0 0.20008440978619771 -0.30241392194747357 0 0.1804600823258381 -0.28088617659428872 0 0.1864271584152116 -0.29669989482074788 0 0.20207749559634131 -0.27776758317225753 0 0.19843872778947669 -0.2878262529944518 0 0.20805842703615271 -0.28143326848500538 0 0.20008440978619771 -0.30241392194747357 0 0.19843872778947669 -0.2878262529944518 0 0.2083430146024792 -0.29827948011705829 0 0.20856521620096299 -0.28887075811524748 0 0.21488194602276561 -0.29264729590081279 0 0.2083430146024792 -0.29827948011705829 0 0.19843872778947669 -0.2878262529944518 0 0.2083430146024792 -0.29827948011705829 0 0.19843872778947669 -0.2878262529944518 0 0.20856521620096299 -0.28887075811524748 0 0.2083430146024792 -0.29827948011705829 0 0.19843872778947669 -0.2878262529944518 0 0.20856521620096299 -0.28887075811524748 0 0.20805842703615271 -0.28143326848500538 0 0.20856521620096299 -0.28887075811524748 0 0.20805842703615271 -0.28143326848500538 0 0.21316469622633441 -0.2850112576906913 0 0.21316469622633441 -0.2850112576906913 0 0.21488194602276561 -0.29264729590081279 0 0.22093987167114171 -0.28282494968917971 0 0.21480671196587109 -0.27961582449719258 0 0.20805842703615271 -0.28143326848500538 0 0.21316469622633441 -0.2850112576906913 0 0.20856521620096299 -0.28887075811524748 0 0.21316469622633441 -0.2850112576906913 0 0.21488194602276561 -0.29264729590081279 0 0.21480671196587109 -0.27961582449719258 0 0.21316469622633441 -0.2850112576906913 0 0.22093987167114171 -0.28282494968917971 0 0.21488194602276561 -0.29264729590081279 0 0.21595503074226219 -0.29446873500425541 0 0.22093987167114171 -0.28282494968917971 0 0.21595503074226219 -0.29446873500425541 0 0.2083430146024792 -0.29827948011705829 0 0.21488194602276561 -0.29264729590081279 0 0.21595503074226219 -0.29446873500425541 0 0.2083430146024792 -0.29827948011705829 0 0.21488194602276561 -0.29264729590081279 0 0.21595503074226219 -0.29446873500425541 0 0.21595503074226219 -0.29446873500425541 0 0.2083430146024792 -0.29827948011705829 0 0.221374382563746 -0.31203310534918899 0 0.20008440978619771 -0.30241392194747357 0 0.2083430146024792 -0.29827948011705829 0 0.221374382563746 -0.31203310534918899 0 0.20008440978619771 -0.30241392194747357 0 0.2083430146024792 -0.29827948011705829 0 0.2083430146024792 -0.29827948011705829 0 0.221374382563746 -0.31203310534918899 0 0.21595503074226219 -0.29446873500425541 0 0.221374382563746 -0.31203310534918899 0 0.2251803906336392 -0.31012773279278583 0 0.21595503074226219 -0.29446873500425541 0 0.2251803906336392 -0.31012773279278583 0 0.21595503074226219 -0.29446873500425541 0 0.2251803906336392 -0.31012773279278583 0 0.23642845483237609 -0.29961572311430079 0 0.21595503074226219 -0.29446873500425541 0 0.23620541610177109 -0.28433094028285738 0 0.21595503074226219 -0.29446873500425541 0 0.23620541610177109 -0.28433094028285738 0 0.23642845483237609 -0.29961572311430079 0 0.21595503074226219 -0.29446873500425541 0 0.22093987167114171 -0.28282494968917971 0 0.23620541610177109 -0.28433094028285738 0 0.26187365544069691 -0.29661972320977409 0 0.23620541610177109 -0.28433094028285738 0 0.23642845483237609 -0.29961572311430079 0 0.2251803906336392 -0.31012773279278583 0 0.23642845483237609 -0.29961572311430079 0 0.24292778124351189 -0.31253148428183092 0 0.26187365544069691 -0.29661972320977409 0 0.23642845483237609 -0.29961572311430079 0 0.24292778124351189 -0.31253148428183092 0 0.25173470697804651 -0.32756000922594491 0 0.24292778124351189 -0.31253148428183092 0 0.234405750525017 -0.32578673058131591 0 0.234405750525017 -0.32578673058131591 0 0.23820460322001891 -0.34423149856072832 0 0.2459877065429098 -0.34544578191442848 0 0.234405750525017 -0.32578673058131591 0 0.2459877065429098 -0.34544578191442848 0 0.25233344097106492 -0.34470805460541892 0 0.234405750525017 -0.32578673058131591 0 0.2459877065429098 -0.34544578191442848 0 0.25233344097106492 -0.34470805460541892 0 0.25173470697804651 -0.32756000922594491 0 0.234405750525017 -0.32578673058131591 0 0.25233344097106492 -0.34470805460541892 0 0.234405750525017 -0.32578673058131591 0 0.21914450650310921 -0.32332271025410031 0 0.23820460322001891 -0.34423149856072832 0 0.21914450650310921 -0.32332271025410031 0 0.23820460322001891 -0.34423149856072832 0 0.20828667684644411 -0.34675145305689919 0 0.234405750525017 -0.32578673058131591 0 0.21914450650310921 -0.32332271025410031 0 0.23820460322001891 -0.34423149856072832 0 0.221374382563746 -0.31203310534918899 0 0.2251803906336392 -0.31012773279278583 0 0.234405750525017 -0.32578673058131591 0 0.221374382563746 -0.31203310534918899 0 0.234405750525017 -0.32578673058131591 0 0.21914450650310921 -0.32332271025410031 0 0.2251803906336392 -0.31012773279278583 0 0.24292778124351189 -0.31253148428183092 0 0.234405750525017 -0.32578673058131591 0 0.2251803906336392 -0.31012773279278583 0 0.234405750525017 -0.32578673058131591 0 0.221374382563746 -0.31203310534918899 0 0.234405750525017 -0.32578673058131591 0 0.25818591758230391 -0.36615085596454061 0 0.23112242569066629 -0.36817947324513739 0 0.24969560672286889 -0.37532361052935398 0 0.25818591758230391 -0.36615085596454061 0 0.23820460322001891 -0.34423149856072832 0 0.23112242569066629 -0.36817947324513739 0 0.25818591758230391 -0.36615085596454061 0 0.23112242569066629 -0.36817947324513739 0 0.25818591758230391 -0.36615085596454061 0 0.23820460322001891 -0.34423149856072832 0 0.25818591758230391 -0.36615085596454061 0 0.23820460322001891 -0.34423149856072832 0 0.2459877065429098 -0.34544578191442848 0 0.23820460322001891 -0.34423149856072832 0 0.23112242569066629 -0.36817947324513739 0 0.20828667684644411 -0.34675145305689919 0 0.23112242569066629 -0.36817947324513739 0 0.20498015144440329 -0.37121865962292211 0 0.20828667684644411 -0.34675145305689919 0 0.23112242569066629 -0.36817947324513739 0 0.20498015144440329 -0.37121865962292211 0 0.20828667684644411 -0.34675145305689919 0 0.18817213028954929 -0.36230952311139869 0 0.18426311945593499 -0.34105531421697538 0 0.20498015144440329 -0.37121865962292211 0 0.18817213028954929 -0.36230952311139869 0 0.18953897034558201 -0.38219231814297761 0 0.20498015144440329 -0.37121865962292211 0 0.20828667684644411 -0.34675145305689919 0 0.18817213028954929 -0.36230952311139869 0 0.20008440978619771 -0.30241392194747357 0 0.21914450650310921 -0.32332271025410031 0 0.20008440978619771 -0.30241392194747357 0 0.221374382563746 -0.31203310534918899 0 0.21914450650310921 -0.32332271025410031 0 0.20008440978619771 -0.30241392194747357 0 0.21914450650310921 -0.32332271025410031 0 0.198582279745634 -0.32320379937746763 0 0.21914450650310921 -0.32332271025410031 0 0.20828667684644411 -0.34675145305689919 0 0.198582279745634 -0.32320379937746763 0 0.198582279745634 -0.32320379937746763 0 0.18002929671283269 -0.32364695123024229 0 0.18426311945593499 -0.34105531421697538 0 0.20828667684644411 -0.34675145305689919 0 0.198582279745634 -0.32320379937746763 0 0.18426311945593499 -0.34105531421697538 0 0.1961284374824932 -0.30439436994521252 0 0.198582279745634 -0.32320379937746763 0 0.189516971638129 -0.3147328657536525 0 0.198582279745634 -0.32320379937746763 0 0.189516971638129 -0.3147328657536525 0 0.18002929671283269 -0.32364695123024229 0 0.189516971638129 -0.3147328657536525 0 0.18002929671283269 -0.32364695123024229 0 0.18007856087884369 -0.30733074955136608 0 0.18002929671283269 -0.32364695123024229 0 0.18007856087884369 -0.30733074955136608 0 0.17152851340112299 -0.31123812929938921 0 0.18002929671283269 -0.32364695123024229 0 0.18426311945593499 -0.34105531421697538 0 0.17057889637811849 -0.33259274377101972 0 0.18426311945593499 -0.34105531421697538 0 0.17057889637811849 -0.33259274377101972 0 0.16607833646484441 -0.34248219638650063 0 0.17057889637811849 -0.33259274377101972 0 0.16179193072498041 -0.33470583755701278 0 0.1541627122910631 -0.32638976332654063 0 0.17057889637811849 -0.33259274377101972 0 0.16607833646484441 -0.34248219638650063 0 0.16179193072498041 -0.33470583755701278 0 0.16607833646484441 -0.34248219638650063 0 0.15753976629694491 -0.35029420613380241 0 0.15497921813236701 -0.33846621838194341 0 0.16607833646484441 -0.34248219638650063 0 0.16179193072498041 -0.33470583755701278 0 0.15497921813236701 -0.33846621838194341 0 0.16179193072498041 -0.33470583755701278 0 0.1541627122910631 -0.32638976332654063 0 0.15497921813236701 -0.33846621838194341 0 0.18002929671283269 -0.32364695123024229 0 0.1633783467572755 -0.3169376235615205 0 0.17152851340112299 -0.31123812929938921 0 0.18002929671283269 -0.32364695123024229 0 0.17057889637811849 -0.33259274377101972 0 0.1541627122910631 -0.32638976332654063 0 0.18002929671283269 -0.32364695123024229 0 0.1633783467572755 -0.3169376235615205 0 0.1541627122910631 -0.32638976332654063 0 0.18002929671283269 -0.32364695123024229 0 0.1541627122910631 -0.32638976332654063 0 0.1633783467572755 -0.3169376235615205 0 0.152991171251187 -0.31263966503788487 0 0.1541627122910631 -0.32638976332654063 0 0.18817213028954929 -0.36230952311139869 0 0.16876999770116161 -0.36280583562006408 0 0.17181996553124351 -0.380815921413381 0 0.18426311945593499 -0.34105531421697538 0 0.16876999770116161 -0.36280583562006408 0 0.18817213028954929 -0.36230952311139869 0 0.18426311945593499 -0.34105531421697538 0 0.16876999770116161 -0.36280583562006408 0 0.18426311945593499 -0.34105531421697538 0 0.16607833646484441 -0.34248219638650063 0 0.16876999770116161 -0.36280583562006408 0 0.16607833646484441 -0.34248219638650063 0 0.15753976629694491 -0.35029420613380241 0 0.16876999770116161 -0.36280583562006408 0 0.15753976629694491 -0.35029420613380241 0 0.16876999770116161 -0.36280583562006408 0 0.15006743914673179 -0.36213754592113528 0 0.16876999770116161 -0.36280583562006408 0 0.15006743914673179 -0.36213754592113528 0 0.1532768759463882 -0.38455635702315277 0 0.16876999770116161 -0.36280583562006408 0 0.1532768759463882 -0.38455635702315277 0 0.14207298982413699 -0.37432339359786038 0 0.15006743914673179 -0.36213754592113528 0 0.1532768759463882 -0.38455635702315277 0 0.15006743914673179 -0.36213754592113528 0 0.14160288323582829 -0.35363801350348578 0 0.13729527250378909 -0.36284889165691719 0 0.14207298982413699 -0.37432339359786038 0 0.15006743914673179 -0.36213754592113528 0 0.13729527250378909 -0.36284889165691719 0 0.15006743914673179 -0.36213754592113528 0 0.14160288323582829 -0.35363801350348578 0 0.14780384003961969 -0.34557923435936821 0 0.15753976629694491 -0.35029420613380241 0 0.15006743914673179 -0.36213754592113528 0 0.14780384003961969 -0.34557923435936821 0 0.15753976629694491 -0.35029420613380241 0 0.14780384003961969 -0.34557923435936821 0 0.15497921813236701 -0.33846621838194341 0 0.14160288323582829 -0.35363801350348578 0 0.14780384003961969 -0.34557923435936821 0 0.1381297487890783 -0.34232841997057589 0 0.14160288323582829 -0.35363801350348578 0 0.13202742677730531 -0.35207268315013018 0 0.1381297487890783 -0.34232841997057589 0 0.12902300050688531 -0.34451802042237373 0 0.13202742677730531 -0.35207268315013018 0 0.1381297487890783 -0.34232841997057589 0 0.12902300050688531 -0.34451802042237373 0 0.13202742677730531 -0.35207268315013018 0 0.12227611303341331 -0.34962209539382899 0 0.13202742677730531 -0.35207268315013018 0 0.12433535888943099 -0.36111905437287539 0 0.12227611303341331 -0.34962209539382899 0 0.13202742677730531 -0.35207268315013018 0 0.13729527250378909 -0.36284889165691719 0 0.12433535888943099 -0.36111905437287539 0 0.14160288323582829 -0.35363801350348578 0 0.13202742677730531 -0.35207268315013018 0 0.13729527250378909 -0.36284889165691719 0 0.13729527250378909 -0.36284889165691719 0 0.13106656207536591 -0.37095359749455942 0 0.12433535888943099 -0.36111905437287539 0 0.14207298982413699 -0.37432339359786038 0 0.13729527250378909 -0.36284889165691719 0 0.13106656207536591 -0.37095359749455942 0 0.1444868019720596 -0.32459833987034697 0 0.1541627122910631 -0.32638976332654063 0 0.12829612786929351 -0.32913257542283841 0 0.1541627122910631 -0.32638976332654063 0 0.12829612786929351 -0.32913257542283841 0 0.1444868019720596 -0.32459833987034697 0 0.152991171251187 -0.31263966503788487 0 0.1541627122910631 -0.32638976332654063 0 0.1541627122910631 -0.32638976332654063 0 0.1424368269813874 -0.33315243648588111 0 0.12829612786929351 -0.32913257542283841 0 0.1541627122910631 -0.32638976332654063 0 0.15497921813236701 -0.33846621838194341 0 0.1424368269813874 -0.33315243648588111 0 0.14780384003961969 -0.34557923435936821 0 0.1424368269813874 -0.33315243648588111 0 0.1381297487890783 -0.34232841997057589 0 0.14780384003961969 -0.34557923435936821 0 0.15497921813236701 -0.33846621838194341 0 0.1424368269813874 -0.33315243648588111 0 0.1424368269813874 -0.33315243648588111 0 0.13458431119172151 -0.33541644401371867 0 0.12829612786929351 -0.32913257542283841 0 0.13458431119172151 -0.33541644401371867 0 0.1381297487890783 -0.34232841997057589 0 0.12947454112712661 -0.3370523441755795 0 0.1424368269813874 -0.33315243648588111 0 0.13458431119172151 -0.33541644401371867 0 0.1381297487890783 -0.34232841997057589 0 0.12902300050688531 -0.34451802042237373 0 0.1381297487890783 -0.34232841997057589 0 0.12947454112712661 -0.3370523441755795 0 0.12902300050688531 -0.34451802042237373 0 0.12947454112712661 -0.3370523441755795 0 0.123207172807503 -0.34151455942175402 0 0.12947454112712661 -0.3370523441755795 0 0.12829612786929351 -0.32913257542283841 0 0.13458431119172151 -0.33541644401371867 0 0.12947454112712661 -0.3370523441755795 0 0.12829612786929351 -0.32913257542283841 0 0.12947454112712661 -0.3370523441755795 0 0.12829612786929351 -0.32913257542283841 0 0.1197794979178342 -0.33444735271148718 0 0.12829612786929351 -0.32913257542283841 0 0.12518988192899111 -0.30825641048425573 0 0.12829612786929351 -0.32913257542283841 0 0.12729418767227779 -0.31271920613553511 0 0.12518988192899111 -0.30825641048425573 0 0.12829612786929351 -0.32913257542283841 0 0.13457508842984711 -0.32015745855919181 0 0.12729418767227779 -0.31271920613553511 0 0.1444868019720596 -0.32459833987034697 0 0.12829612786929351 -0.32913257542283841 0 0.13457508842984711 -0.32015745855919181 0 0.1444868019720596 -0.32459833987034697 0 0.13457508842984711 -0.32015745855919181 0 0.13537153542514241 -0.31100403517978231 0 0.13457508842984711 -0.32015745855919181 0 0.12729418767227779 -0.31271920613553511 0 0.13537153542514241 -0.31100403517978231 0 0.12729418767227779 -0.31271920613553511 0 0.12843564103688601 -0.29731546409586768 0 0.12518988192899111 -0.30825641048425573 0 0.12843564103688601 -0.29731546409586768 0 0.1220286850842833 -0.28644814184410511 0 0.12729418767227779 -0.31271920613553511 0 0.12518988192899111 -0.30825641048425573 0 0.12843564103688601 -0.29731546409586768 0 0.12729418767227779 -0.31271920613553511 0 0.12843564103688601 -0.29731546409586768 0 0.13537153542514241 -0.31100403517978231 0 0.12843564103688601 -0.29731546409586768 0 0.13537153542514241 -0.31100403517978231 0 0.14206595801464181 -0.3002297072379696 0 0.1444868019720596 -0.32459833987034697 0 0.13537153542514241 -0.31100403517978231 0 0.14206595801464181 -0.3002297072379696 0 0.1444868019720596 -0.32459833987034697 0 0.152991171251187 -0.31263966503788487 0 0.14206595801464181 -0.3002297072379696 0 0.1444868019720596 -0.32459833987034697 0 0.14206595801464181 -0.3002297072379696 0 0.152991171251187 -0.31263966503788487 0 0.14206595801464181 -0.3002297072379696 0 0.15411666948259681 -0.29883413987632818 0 0.14206595801464181 -0.3002297072379696 0 0.1476912661260405 -0.28942701850514679 0 0.13964511405722441 -0.27586107460559228 0 0.14206595801464181 -0.3002297072379696 0 0.13964511405722441 -0.27586107460559228 0 0.15031064679371689 -0.28167110519205352 0 0.15619521486529761 -0.28704180748234481 0 0.1476912661260405 -0.28942701850514679 0 0.15031064679371689 -0.28167110519205352 0 0.15619521486529761 -0.28704180748234481 0 0.15678086161096011 -0.27554104528334072 0 0.15411666948259681 -0.29883413987632818 0 0.15619521486529761 -0.28704180748234481 0 0.1476912661260405 -0.28942701850514679 0 0.14206595801464181 -0.3002297072379696 0 0.15411666948259681 -0.29883413987632818 0 0.1476912661260405 -0.28942701850514679 0 0.15031064679371689 -0.28167110519205352 0 0.1476912661260405 -0.28942701850514679 0 0.13964511405722441 -0.27586107460559228 0 0.12843564103688601 -0.29731546409586768 0 0.14206595801464181 -0.3002297072379696 0 0.12957709440149309 -0.28191172205620019 0 0.14206595801464181 -0.3002297072379696 0 0.12957709440149309 -0.28191172205620019 0 0.13964511405722441 -0.27586107460559228 0 0.12843564103688601 -0.29731546409586768 0 0.12957709440149309 -0.28191172205620019 0 0.12843564103688601 -0.29731546409586768 0 0.12957709440149309 -0.28191172205620019 0 0.1220286850842833 -0.28644814184410511 0 0.12957709440149309 -0.28191172205620019 0 0.1220286850842833 -0.28644814184410511 0 0.12957709440149309 -0.28191172205620019 0 0.1300972727638518 -0.27489199303631368 0 0.1220286850842833 -0.28644814184410511 0 0.1300972727638518 -0.27489199303631368 0 0.1220286850842833 -0.28644814184410511 0 0.12957709440149309 -0.28191172205620019 0 0.1300972727638518 -0.27489199303631368 0 0.13964511405722441 -0.27586107460559228 0 0.13828177495032279 -0.26213746811388627 0 0.1300972727638518 -0.27489199303631368 0 0.13828177495032279 -0.26213746811388627 0 0.1300972727638518 -0.27489199303631368 0 0.13964511405722441 -0.27586107460559228 0 0.13828177495032279 -0.26213746811388627 0 0.12957709440149309 -0.28191172205620019 0 0.13964511405722441 -0.27586107460559228 0 0.12957709440149309 -0.28191172205620019 0 0.1300972727638518 -0.27489199303631368 0 0.13964511405722441 -0.27586107460559228 0 0.1300972727638518 -0.27489199303631368 0 0.13178497783693821 -0.25211666607955069 0 0.13828177495032279 -0.26213746811388627 0 0.1300972727638518 -0.27489199303631368 0 0.13178497783693821 -0.25211666607955069 0 0.1245559079791172 -0.26229341046795501 0 0.13178497783693821 -0.25211666607955069 0 0.13828177495032279 -0.26213746811388627 0 0.13606532708945779 -0.23982632182759039 0 0.13828177495032279 -0.26213746811388627 0 0.13606532708945779 -0.23982632182759039 0 0.1300972727638518 -0.27489199303631368 0 0.13178497783693821 -0.25211666607955069 0 0.13828177495032279 -0.26213746811388627 0 0.14864590921915391 -0.24598625869157201 0 0.13828177495032279 -0.26213746811388627 0 0.1630546150266477 -0.26179250479703192 0 0.14864590921915391 -0.24598625869157201 0 0.1630546150266477 -0.26179250479703192 0 0.14864590921915391 -0.24598625869157201 0 0.1630546150266477 -0.26179250479703192 0 0.15646532013200559 -0.247488146640962 0 0.14864590921915391 -0.24598625869157201 0 0.15031064679371689 -0.28167110519205352 0 0.13964511405722441 -0.27586107460559228 0 0.15678086161096011 -0.27554104528334072 0 0.13964511405722441 -0.27586107460559228 0 0.15678086161096011 -0.27554104528334072 0 0.1630546150266477 -0.26179250479703192 0 0.13964511405722441 -0.27586107460559228 0 0.13828177495032279 -0.26213746811388627 0 0.1630546150266477 -0.26179250479703192 0 0.13964511405722441 -0.27586107460559228 0 0.1630546150266477 -0.26179250479703192 0 0.15678086161096011 -0.27554104528334072 0 0.1630546150266477 -0.26179250479703192 0 0.16658797921810359 -0.2816852332832796 0 0.1630546150266477 -0.26179250479703192 0 0.1804600823258381 -0.28088617659428872 0 0.1630546150266477 -0.26179250479703192 0 0.1804600823258381 -0.28088617659428872 0 0.16658797921810359 -0.2816852332832796 0 0.1630546150266477 -0.26179250479703192 0 0.16528334120954741 -0.25128856355010659 0 0.15646532013200559 -0.247488146640962 0 0.1630546150266477 -0.26179250479703192 0 0.16528334120954741 -0.25128856355010659 0 0.17642200342196049 -0.2537590128809481 0 0.1630546150266477 -0.26179250479703192 0 0.17642200342196049 -0.2537590128809481 0 0.18759573748485789 -0.26647486492918099 0 0.1630546150266477 -0.26179250479703192 0 0.17642200342196049 -0.2537590128809481 0 0.18759573748485789 -0.26647486492918099 0 0.17642200342196049 -0.2537590128809481 0 0.1860585672958435 -0.25415058743821228 0 0.17642200342196049 -0.2537590128809481 0 0.1860585672958435 -0.25415058743821228 0 0.18978939181727089 -0.24572552096486031 0 0.18759573748485789 -0.26647486492918099 0 0.1630546150266477 -0.26179250479703192 0 0.1804600823258381 -0.28088617659428872 0 0.18759573748485789 -0.26647486492918099 0 0.1804600823258381 -0.28088617659428872 0 0.1804600823258381 -0.28088617659428872 0 0.1750522411188242 -0.2918079606958206 0 0.1864271584152116 -0.29669989482074788 0 0.1804600823258381 -0.28088617659428872 0 0.1750522411188242 -0.2918079606958206 0 0.16658797921810359 -0.2816852332832796 0 0.1804600823258381 -0.28088617659428872 0 0.1750522411188242 -0.2918079606958206 0 0.1750522411188242 -0.2918079606958206 0 0.1864271584152116 -0.29669989482074788 0 0.17199657560804599 -0.30137255539657892 0 0.1879082712539959 -0.30479546878834812 0 0.1864271584152116 -0.29669989482074788 0 0.18007856087884369 -0.30733074955136608 0 0.1879082712539959 -0.30479546878834812 0 0.189516971638129 -0.3147328657536525 0 0.18007856087884369 -0.30733074955136608 0 0.18007856087884369 -0.30733074955136608 0 0.17199657560804599 -0.30137255539657892 0 0.17152851340112299 -0.31123812929938921 0 0.1864271584152116 -0.29669989482074788 0 0.18007856087884369 -0.30733074955136608 0 0.17199657560804599 -0.30137255539657892 0 0.17199657560804599 -0.30137255539657892 0 0.1621597870486168 -0.30690276675723821 0 0.16423536245415329 -0.29491566058422108 0 0.1633783467572755 -0.3169376235615205 0 0.17152851340112299 -0.31123812929938921 0 0.1621597870486168 -0.30690276675723821 0 0.17199657560804599 -0.30137255539657892 0 0.17152851340112299 -0.31123812929938921 0 0.1621597870486168 -0.30690276675723821 0 0.1633783467572755 -0.3169376235615205 0 0.152991171251187 -0.31263966503788487 0 0.1621597870486168 -0.30690276675723821 0 0.152991171251187 -0.31263966503788487 0 0.15411666948259681 -0.29883413987632818 0 0.1621597870486168 -0.30690276675723821 0 0.15411666948259681 -0.29883413987632818 0 0.1621597870486168 -0.30690276675723821 0 0.16423536245415329 -0.29491566058422108 0 0.15411666948259681 -0.29883413987632818 0 0.15619521486529761 -0.28704180748234481 0 0.16423536245415329 -0.29491566058422108 0 0.15619521486529761 -0.28704180748234481 0 0.15678086161096011 -0.27554104528334072 0 0.16658797921810359 -0.2816852332832796 0 0.15619521486529761 -0.28704180748234481 0 0.16658797921810359 -0.2816852332832796 0 0.16423536245415329 -0.29491566058422108 0 0.1750522411188242 -0.2918079606958206 0 0.16658797921810359 -0.2816852332832796 0 0.16423536245415329 -0.29491566058422108 0 0.1750522411188242 -0.2918079606958206 0 0.17199657560804599 -0.30137255539657892 0 0.16423536245415329 -0.29491566058422108 0 0.19682402676423319 -0.4887197780729241 0 0.18817844034567971 -0.47700643212117561 0 0.17928867253241501 -0.5 0 0.19682402676423319 -0.4887197780729241 0 0.20508775115471919 -0.5 0 0.17928867253241501 -0.5 0 0.19682402676423319 -0.4887197780729241 0 0.18817844034567971 -0.47700643212117561 0 0.21101426303022919 -0.48467095474745031 0 0.18817844034567971 -0.47700643212117561 0 0.21101426303022919 -0.48467095474745031 0 0.18817844034567971 -0.47700643212117561 0 0.2032441799716399 -0.46997028532441248 0 0.21101426303022919 -0.48467095474745031 0 0.18817844034567971 -0.47700643212117561 0 0.2032441799716399 -0.46997028532441248 0 0.19114622386174471 -0.46214004554360238 0 0.2032441799716399 -0.46997028532441248 0 0.21101426303022919 -0.48467095474745031 0 0.22215933310320141 -0.47404250447496038 0 0.21101426303022919 -0.48467095474745031 0 0.20508775115471919 -0.5 0 0.2308868297770236 -0.5 0 0.19682402676423319 -0.4887197780729241 0 0.21101426303022919 -0.48467095474745031 0 0.20508775115471919 -0.5 0 0.21101426303022919 -0.48467095474745031 0 0.23385008571477861 -0.49233547737372502 0 0.21101426303022919 -0.48467095474745031 0 0.2308868297770236 -0.5 0 0.23385008571477861 -0.49233547737372502 0 0.25668590839932798 -0.49999999999999978 0 0.23385008571477861 -0.49233547737372502 0 0.2493683405524893 -0.48885981934930589 0 0.25668590839932798 -0.49999999999999978 0 0.23385008571477861 -0.49233547737372502 0 0.25668590839932798 -0.49999999999999978 0 0.2308868297770236 -0.5 0 0.23385008571477861 -0.49233547737372502 0 0.23385008571477861 -0.49233547737372502 0 0.2493683405524893 -0.48885981934930589 0 0.24091049928033759 -0.47863891946365272 0 0.25670700010458491 -0.47332469990915188 0 0.2493683405524893 -0.48885981934930589 0 0.24091049928033759 -0.47863891946365272 0 0.25670700010458491 -0.47332469990915188 0 0.24091049928033759 -0.47863891946365272 0 0.23327886667658301 -0.46401798860240218 0 0.24091049928033759 -0.47863891946365272 0 0.22215933310320141 -0.47404250447496038 0 0.23327886667658301 -0.46401798860240218 0 0.21101426303022919 -0.48467095474745031 0 0.23385008571477861 -0.49233547737372502 0 0.22215933310320141 -0.47404250447496038 0 0.23385008571477861 -0.49233547737372502 0 0.24091049928033759 -0.47863891946365272 0 0.22215933310320141 -0.47404250447496038 0 0.22215933310320141 -0.47404250447496038 0 0.23327886667658301 -0.46401798860240218 0 0.20985073324858131 -0.45471127729565242 0 0.23327886667658301 -0.46401798860240218 0 0.22304144808347359 -0.44243793756842481 0 0.20985073324858131 -0.45471127729565242 0 0.23327886667658301 -0.46401798860240218 0 0.20985073324858131 -0.45471127729565242 0 0.25914728930860981 -0.45331873837737813 0 0.25670700010458491 -0.47332469990915188 0 0.23327886667658301 -0.46401798860240218 0 0.25670700010458491 -0.47332469990915188 0 0.23327886667658301 -0.46401798860240218 0 0.25914728930860981 -0.45331873837737813 0 0.23327886667658301 -0.46401798860240218 0 0.2412474156639268 -0.43909562916186801 0 0.23327886667658301 -0.46401798860240218 0 0.2412474156639268 -0.43909562916186801 0 0.22304144808347359 -0.44243793756842481 0 0.22304144808347359 -0.44243793756842481 0 0.20985073324858131 -0.45471127729565242 0 0.20535520939585811 -0.43124570489688779 0 0.2032441799716399 -0.46997028532441248 0 0.22215933310320141 -0.47404250447496038 0 0.20985073324858131 -0.45471127729565242 0 0.20985073324858131 -0.45471127729565242 0 0.19114622386174471 -0.46214004554360238 0 0.18642259982057971 -0.44540456598890271 0 0.2032441799716399 -0.46997028532441248 0 0.20985073324858131 -0.45471127729565242 0 0.19114622386174471 -0.46214004554360238 0 0.20985073324858131 -0.45471127729565242 0 0.18642259982057971 -0.44540456598890271 0 0.20985073324858131 -0.45471127729565242 0 0.20535520939585811 -0.43124570489688779 0 0.18642259982057971 -0.44540456598890271 0 0.20535520939585811 -0.43124570489688779 0 0.18588975849690409 -0.42839386543509211 0 0.18642259982057971 -0.44540456598890271 0 0.19422747314896491 -0.41355707442124939 0 0.20535520939585811 -0.43124570489688779 0 0.18588975849690409 -0.42839386543509211 0 0.19422747314896491 -0.41355707442124939 0 0.21455598558127681 -0.41020458312976849 0 0.20247600651605871 -0.39525967880800927 0 0.19422747314896491 -0.41355707442124939 0 0.21455598558127681 -0.41020458312976849 0 0.20535520939585811 -0.43124570489688779 0 0.22304144808347359 -0.44243793756842481 0 0.20535520939585811 -0.43124570489688779 0 0.22712029009175341 -0.42471176635502211 0 0.21455598558127681 -0.41020458312976849 0 0.20535520939585811 -0.43124570489688779 0 0.22712029009175341 -0.42471176635502211 0 0.2412474156639268 -0.43909562916186801 0 0.22304144808347359 -0.44243793756842481 0 0.22712029009175341 -0.42471176635502211 0 0.25969557113907887 -0.43281243736916308 0 0.2412474156639268 -0.43909562916186801 0 0.24658089742358119 -0.41976761720160211 0 0.2412474156639268 -0.43909562916186801 0 0.22712029009175341 -0.42471176635502211 0 0.24658089742358119 -0.41976761720160211 0 0.25489594942760452 -0.40353155530938561 0 0.24658089742358119 -0.41976761720160211 0 0.23492626218552989 -0.40551573653960171 0 0.22712029009175341 -0.42471176635502211 0 0.24658089742358119 -0.41976761720160211 0 0.23492626218552989 -0.40551573653960171 0 0.21455598558127681 -0.41020458312976849 0 0.22712029009175341 -0.42471176635502211 0 0.23492626218552989 -0.40551573653960171 0 0.23492626218552989 -0.40551573653960171 0 0.2457115146091404 -0.38858360770929579 0 0.2221113101171005 -0.38978577744546389 0 0.21455598558127681 -0.41020458312976849 0 0.23492626218552989 -0.40551573653960171 0 0.2221113101171005 -0.38978577744546389 0 0.25489594942760452 -0.40353155530938561 0 0.23492626218552989 -0.40551573653960171 0 0.2457115146091404 -0.38858360770929579 0 0.23112242569066629 -0.36817947324513739 0 0.24969560672286889 -0.37532361052935398 0 0.2457115146091404 -0.38858360770929579 0 0.23112242569066629 -0.36817947324513739 0 0.20498015144440329 -0.37121865962292211 0 0.2221113101171005 -0.38978577744546389 0 0.23112242569066629 -0.36817947324513739 0 0.2457115146091404 -0.38858360770929579 0 0.2221113101171005 -0.38978577744546389 0 0.20498015144440329 -0.37121865962292211 0 0.2221113101171005 -0.38978577744546389 0 0.20247600651605871 -0.39525967880800927 0 0.21455598558127681 -0.41020458312976849 0 0.2221113101171005 -0.38978577744546389 0 0.20247600651605871 -0.39525967880800927 0 0.19422747314896491 -0.41355707442124939 0 0.20247600651605871 -0.39525967880800927 0 0.18299462315243031 -0.39796552068638319 0 0.20247600651605871 -0.39525967880800927 0 0.18953897034558201 -0.38219231814297761 0 0.18299462315243031 -0.39796552068638319 0 0.20498015144440329 -0.37121865962292211 0 0.20247600651605871 -0.39525967880800927 0 0.18953897034558201 -0.38219231814297761 0 0.18953897034558201 -0.38219231814297761 0 0.18299462315243031 -0.39796552068638319 0 0.17181996553124351 -0.380815921413381 0 0.18817213028954929 -0.36230952311139869 0 0.18953897034558201 -0.38219231814297761 0 0.17181996553124351 -0.380815921413381 0 0.18299462315243031 -0.39796552068638319 0 0.1657362515832656 -0.39732657656942361 0 0.1730497097570719 -0.41748979445088169 0 0.18299462315243031 -0.39796552068638319 0 0.1657362515832656 -0.39732657656942361 0 0.17181996553124351 -0.380815921413381 0 0.16876999770116161 -0.36280583562006408 0 0.17181996553124351 -0.380815921413381 0 0.1532768759463882 -0.38455635702315277 0 0.1657362515832656 -0.39732657656942361 0 0.17181996553124351 -0.380815921413381 0 0.1532768759463882 -0.38455635702315277 0 0.14207298982413699 -0.37432339359786038 0 0.1532768759463882 -0.38455635702315277 0 0.13204692344314131 -0.38344963322127262 0 0.14207298982413699 -0.37432339359786038 0 0.13106656207536591 -0.37095359749455942 0 0.13204692344314131 -0.38344963322127262 0 0.13106656207536591 -0.37095359749455942 0 0.13204692344314131 -0.38344963322127262 0 0.119582265716331 -0.37302701462387139 0 0.12744968212790561 -0.39686932553801568 0 0.13778375419161479 -0.40630687842624158 0 0.1172574352070818 -0.40544799072893017 0 0.13204692344314131 -0.38344963322127262 0 0.12744968212790561 -0.39686932553801568 0 0.13778375419161479 -0.40630687842624158 0 0.13204692344314131 -0.38344963322127262 0 0.12744968212790561 -0.39686932553801568 0 0.1175098680062359 -0.39491139176728601 0 0.1657362515832656 -0.39732657656942361 0 0.13778375419161479 -0.40630687842624158 0 0.1657362515832656 -0.39732657656942361 0 0.1532768759463882 -0.38455635702315277 0 0.13778375419161479 -0.40630687842624158 0 0.1532768759463882 -0.38455635702315277 0 0.13204692344314131 -0.38344963322127262 0 0.13778375419161479 -0.40630687842624158 0 0.1532768759463882 -0.38455635702315277 0 0.13778375419161479 -0.40630687842624158 0 0.1657362515832656 -0.39732657656942361 0 0.15517467005663221 -0.41579547899376268 0 0.13778375419161479 -0.40630687842624158 0 0.15517467005663221 -0.41579547899376268 0 0.13778375419161479 -0.40630687842624158 0 0.14178847466077629 -0.42476290402593547 0 0.13778375419161479 -0.40630687842624158 0 0.1285885469984879 -0.41921586823640178 0 0.11170319400730611 -0.41468578281422303 0 0.13778375419161479 -0.40630687842624158 0 0.1285885469984879 -0.41921586823640178 0 0.13778375419161479 -0.40630687842624158 0 0.1285885469984879 -0.41921586823640178 0 0.14178847466077629 -0.42476290402593547 0 0.1285885469984879 -0.41921586823640178 0 0.12661094379887999 -0.43243102823908852 0 0.14178847466077629 -0.42476290402593547 0 0.12661094379887999 -0.43243102823908852 0 0.14178847466077629 -0.42476290402593547 0 0.13764047935429721 -0.43997428441553399 0 0.15595690515885399 -0.43272093806182371 0 0.14178847466077629 -0.42476290402593547 0 0.13764047935429721 -0.43997428441553399 0 0.15517467005663221 -0.41579547899376268 0 0.15595690515885399 -0.43272093806182371 0 0.14178847466077629 -0.42476290402593547 0 0.15595690515885399 -0.43272093806182371 0 0.1730497097570719 -0.41748979445088169 0 0.17251697296928131 -0.43465896764991452 0 0.15517467005663221 -0.41579547899376268 0 0.15595690515885399 -0.43272093806182371 0 0.1730497097570719 -0.41748979445088169 0 0.1657362515832656 -0.39732657656942361 0 0.15517467005663221 -0.41579547899376268 0 0.1730497097570719 -0.41748979445088169 0 0.19422747314896491 -0.41355707442124939 0 0.1730497097570719 -0.41748979445088169 0 0.18588975849690409 -0.42839386543509211 0 0.19422747314896491 -0.41355707442124939 0 0.18299462315243031 -0.39796552068638319 0 0.1730497097570719 -0.41748979445088169 0 0.17251697296928131 -0.43465896764991452 0 0.18588975849690409 -0.42839386543509211 0 0.18642259982057971 -0.44540456598890271 0 0.1730497097570719 -0.41748979445088169 0 0.17251697296928131 -0.43465896764991452 0 0.18588975849690409 -0.42839386543509211 0 0.17251697296928131 -0.43465896764991452 0 0.18642259982057971 -0.44540456598890271 0 0.16126589161299659 -0.44928567431287197 0 0.19114622386174471 -0.46214004554360238 0 0.18642259982057971 -0.44540456598890271 0 0.170513192941428 -0.46576642212555108 0 0.18817844034567971 -0.47700643212117561 0 0.19114622386174471 -0.46214004554360238 0 0.170513192941428 -0.46576642212555108 0 0.18642259982057971 -0.44540456598890271 0 0.170513192941428 -0.46576642212555108 0 0.16126589161299659 -0.44928567431287197 0 0.170513192941428 -0.46576642212555108 0 0.14708508594303291 -0.46177696651482858 0 0.15695115873575069 -0.47384522377682348 0 0.170513192941428 -0.46576642212555108 0 0.16126589161299659 -0.44928567431287197 0 0.14708508594303291 -0.46177696651482858 0 0.170513192941428 -0.46576642212555108 0 0.14708508594303291 -0.46177696651482858 0 0.15595690515885399 -0.43272093806182371 0 0.17251697296928131 -0.43465896764991452 0 0.16126589161299659 -0.44928567431287197 0 0.15595690515885399 -0.43272093806182371 0 0.16126589161299659 -0.44928567431287197 0 0.14824546723691079 -0.44769427393097261 0 0.15595690515885399 -0.43272093806182371 0 0.14824546723691079 -0.44769427393097261 0 0.13764047935429721 -0.43997428441553399 0 0.16126589161299659 -0.44928567431287197 0 0.14824546723691079 -0.44769427393097261 0 0.14708508594303291 -0.46177696651482858 0 0.14824546723691079 -0.44769427393097261 0 0.13764047935429721 -0.43997428441553399 0 0.1366686124520502 -0.45060519398664978 0 0.13764047935429721 -0.43997428441553399 0 0.1366686124520502 -0.45060519398664978 0 0.12736542642524359 -0.44361592400677952 0 0.1366686124520502 -0.45060519398664978 0 0.12736542642524359 -0.44361592400677952 0 0.12365697894463749 -0.45778751090410702 0 0.12661094379887999 -0.43243102823908852 0 0.13764047935429721 -0.43997428441553399 0 0.12736542642524359 -0.44361592400677952 0 0.1366686124520502 -0.45060519398664978 0 0.14708508594303291 -0.46177696651482858 0 0.12365697894463749 -0.45778751090410702 0 0.12709215113675251 -0.46396285783688979 0 0.14708508594303291 -0.46177696651482858 0 0.12365697894463749 -0.45778751090410702 0 0.14708508594303291 -0.46177696651482858 0 0.12365697894463749 -0.45778751090410702 0 0.12709215113675251 -0.46396285783688979 0 0.13127797056712029 -0.47148762973619812 0 0.12709215113675251 -0.46396285783688979 0 0.12365697894463749 -0.45778751090410702 0 0.14824546723691079 -0.44769427393097261 0 0.1366686124520502 -0.45060519398664978 0 0.14708508594303291 -0.46177696651482858 0 0.14708508594303291 -0.46177696651482858 0 0.1452593483709757 -0.48405383074308961 0 0.15695115873575069 -0.47384522377682348 0 0.1452593483709757 -0.48405383074308961 0 0.16494700768756651 -0.4837836757238248 0 0.15695115873575069 -0.47384522377682348 0 0.1452593483709757 -0.48405383074308961 0 0.1273630713850305 -0.48406220795834182 0 0.13127797056712029 -0.47148762973619812 0 0.12709215113675251 -0.46396285783688979 0 0.1452593483709757 -0.48405383074308961 0 0.12709215113675251 -0.46396285783688979 0 0.14708508594303291 -0.46177696651482858 0 0.1452593483709757 -0.48405383074308961 0 0.12709215113675251 -0.46396285783688979 0 0.1452593483709757 -0.48405383074308961 0 0.13127797056712029 -0.47148762973619812 0 0.12709215113675251 -0.46396285783688979 0 0.13127797056712029 -0.47148762973619812 0 0.1199954232846145 -0.47269168911093212 0 0.1273630713850305 -0.48406220795834182 0 0.13127797056712029 -0.47148762973619812 0 0.1199954232846145 -0.47269168911093212 0 0.1452593483709757 -0.48405383074308961 0 0.1273630713850305 -0.48406220795834182 0 0.12769051528780639 -0.5 0 0.1452593483709757 -0.48405383074308961 0 0.15348959391011061 -0.5 0 0.16494700768756651 -0.4837836757238248 0 0.1452593483709757 -0.48405383074308961 0 0.12769051528780639 -0.5 0 0.15348959391011061 -0.5 0 0.15348959391011061 -0.5 0 0.16494700768756651 -0.4837836757238248 0 0.17928867253241501 -0.5 0 0.170513192941428 -0.46576642212555108 0 0.16494700768756651 -0.4837836757238248 0 0.15695115873575069 -0.47384522377682348 0 0.18817844034567971 -0.47700643212117561 0 0.170513192941428 -0.46576642212555108 0 0.16494700768756651 -0.4837836757238248 0 0.18817844034567971 -0.47700643212117561 0 0.16494700768756651 -0.4837836757238248 0 0.17928867253241501 -0.5 0 0.069151809442979176 -0.48538637577355309 0 0.078700559369064282 -0.5 0 0.05550968207262641 -0.5 0 0.069151809442979176 -0.48538637577355309 0 0.084406116512107596 -0.46923166739216909 0 0.065046145507563519 -0.46841934415832548 0 0.084406116512107596 -0.46923166739216909 0 0.087684012721420221 -0.4857526816277975 0 0.1021225758156362 -0.47707994211209642 0 0.069151809442979176 -0.48538637577355309 0 0.084406116512107596 -0.46923166739216909 0 0.087684012721420221 -0.4857526816277975 0 0.069151809442979176 -0.48538637577355309 0 0.078700559369064282 -0.5 0 0.087684012721420221 -0.4857526816277975 0 0.078700559369064282 -0.5 0 0.087684012721420221 -0.4857526816277975 0 0.1018914366655021 -0.499999999999996 0 0.087684012721420221 -0.4857526816277975 0 0.1018914366655021 -0.499999999999996 0 0.1021225758156362 -0.47707994211209642 0 0.1018914366655021 -0.499999999999996 0 0.1021225758156362 -0.47707994211209642 0 0.1018914366655021 -0.499999999999996 0 0.1144401060594786 -0.48467334356102759 0 0.1021225758156362 -0.47707994211209642 0 0.12769051528780639 -0.5 0 0.1018914366655021 -0.499999999999996 0 0.1144401060594786 -0.48467334356102759 0 0.1273630713850305 -0.48406220795834182 0 0.12769051528780639 -0.5 0 0.1144401060594786 -0.48467334356102759 0 0.1273630713850305 -0.48406220795834182 0 0.1144401060594786 -0.48467334356102759 0 0.1199954232846145 -0.47269168911093212 0 0.1199954232846145 -0.47269168911093212 0 0.11032918011863301 -0.47197329641717423 0 0.1128846835206819 -0.46349831440389799 0 0.1144401060594786 -0.48467334356102759 0 0.1199954232846145 -0.47269168911093212 0 0.11032918011863301 -0.47197329641717423 0 0.1144401060594786 -0.48467334356102759 0 0.11032918011863301 -0.47197329641717423 0 0.1021225758156362 -0.47707994211209642 0 0.11032918011863301 -0.47197329641717423 0 0.1023537149657706 -0.45415988422419679 0 0.1128846835206819 -0.46349831440389799 0 0.1021225758156362 -0.47707994211209642 0 0.1023537149657706 -0.45415988422419679 0 0.084406116512107596 -0.46923166739216909 0 0.1021225758156362 -0.47707994211209642 0 0.1023537149657706 -0.45415988422419679 0 0.11032918011863301 -0.47197329641717423 0 0.1021225758156362 -0.47707994211209642 0 0.1023537149657706 -0.45415988422419679 0 0.1023537149657706 -0.45415988422419679 0 0.1128846835206819 -0.46349831440389799 0 0.1127012997287118 -0.4559219228768594 0 0.1023537149657706 -0.45415988422419679 0 0.1127012997287118 -0.4559219228768594 0 0.1128846835206819 -0.46349831440389799 0 0.1127012997287118 -0.4559219228768594 0 0.12111701007272629 -0.45735499226024767 0 0.1128846835206819 -0.46349831440389799 0 0.1127012997287118 -0.4559219228768594 0 0.1127012997287118 -0.4559219228768594 0 0.12111701007272629 -0.45735499226024767 0 0.1125054753976763 -0.44783155792931462 0 0.1127012997287118 -0.4559219228768594 0 0.12111701007272629 -0.45735499226024767 0 0.12111701007272629 -0.45735499226024767 0 0.12365697894463749 -0.45778751090410702 0 0.1125054753976763 -0.44783155792931462 0 0.12709215113675251 -0.46396285783688979 0 0.12111701007272629 -0.45735499226024767 0 0.12709215113675251 -0.46396285783688979 0 0.12111701007272629 -0.45735499226024767 0 0.12365697894463749 -0.45778751090410702 0 0.12111701007272629 -0.45735499226024767 0 0.12365697894463749 -0.45778751090410702 0 0.12709215113675251 -0.46396285783688979 0 0.12111701007272629 -0.45735499226024767 0 0.12007795209891491 -0.46439209230023198 0 0.1128846835206819 -0.46349831440389799 0 0.12111701007272629 -0.45735499226024767 0 0.12007795209891491 -0.46439209230023198 0 0.1199954232846145 -0.47269168911093212 0 0.1128846835206819 -0.46349831440389799 0 0.12007795209891491 -0.46439209230023198 0 0.12709215113675251 -0.46396285783688979 0 0.1199954232846145 -0.47269168911093212 0 0.12007795209891491 -0.46439209230023198 0 0.12736542642524359 -0.44361592400677952 0 0.12365697894463749 -0.45778751090410702 0 0.1122501175763547 -0.43728160248851738 0 0.12365697894463749 -0.45778751090410702 0 0.1122501175763547 -0.43728160248851738 0 0.12365697894463749 -0.45778751090410702 0 0.1125054753976763 -0.44783155792931462 0 0.1122501175763547 -0.43728160248851738 0 0.12661094379887999 -0.43243102823908852 0 0.12736542642524359 -0.44361592400677952 0 0.1122501175763547 -0.43728160248851738 0 0.1127012997287118 -0.4559219228768594 0 0.1125054753976763 -0.44783155792931462 0 0.12111701007272629 -0.45735499226024767 0 0.1125054753976763 -0.44783155792931462 0 0.1125054753976763 -0.44783155792931462 0 0.1122501175763547 -0.43728160248851738 0 0.1023537149657706 -0.45415988422419679 0 0.080022024872095268 -0.45035713198530342 0 0.1025287980141482 -0.43679842208440173 0 0.1125054753976763 -0.44783155792931462 0 0.1025287980141482 -0.43679842208440173 0 0.1023537149657706 -0.45415988422419679 0 0.1025287980141482 -0.43679842208440173 0 0.1023537149657706 -0.45415988422419679 0 0.1125054753976763 -0.44783155792931462 0 0.1025287980141482 -0.43679842208440173 0 0.1125054753976763 -0.44783155792931462 0 0.1025287980141482 -0.43679842208440173 0 0.1122501175763547 -0.43728160248851738 0 0.1023537149657706 -0.45415988422419679 0 0.1127012997287118 -0.4559219228768594 0 0.1125054753976763 -0.44783155792931462 0 0.080022024872095268 -0.45035713198530342 0 0.079427393847134153 -0.43557344697729578 0 0.096652269540595678 -0.43029961146312778 0 0.080022024872095268 -0.45035713198530342 0 0.096652269540595678 -0.43029961146312778 0 0.1025287980141482 -0.43679842208440173 0 0.080022024872095268 -0.45035713198530342 0 0.096652269540595678 -0.43029961146312778 0 0.1023537149657706 -0.45415988422419679 0 0.080022024872095268 -0.45035713198530342 0 0.084406116512107596 -0.46923166739216909 0 0.1023537149657706 -0.45415988422419679 0 0.080022024872095268 -0.45035713198530342 0 0.080022024872095268 -0.45035713198530342 0 0.065046145507563519 -0.46841934415832548 0 0.061361619701567269 -0.44717954456387821 0 0.084406116512107596 -0.46923166739216909 0 0.080022024872095268 -0.45035713198530342 0 0.065046145507563519 -0.46841934415832548 0 0.080022024872095268 -0.45035713198530342 0 0.065046145507563519 -0.46841934415832548 0 0.080022024872095268 -0.45035713198530342 0 0.061361619701567269 -0.44717954456387821 0 0.080022024872095268 -0.45035713198530342 0 0.079427393847134153 -0.43557344697729578 0 0.061361619701567269 -0.44717954456387821 0 0.070001123396492948 -0.42808341154457558 0 0.079427393847134153 -0.43557344697729578 0 0.061361619701567269 -0.44717954456387821 0 0.070001123396492948 -0.42808341154457558 0 0.073678952508959158 -0.41786901312235869 0 0.089099931724918285 -0.42194753532959028 0 0.073168797759687709 -0.40432940872844358 0 0.053191226226239972 -0.4067611749188203 0 0.06203555641387775 -0.41927434824400173 0 0.070001123396492948 -0.42808341154457558 0 0.073678952508959158 -0.41786901312235869 0 0.06203555641387775 -0.41927434824400173 0 0.073168797759687709 -0.40432940872844358 0 0.06203555641387775 -0.41927434824400173 0 0.073678952508959158 -0.41786901312235869 0 0.073168797759687709 -0.40432940872844358 0 0.06203555641387775 -0.41927434824400173 0 0.089099931724918285 -0.42194753532959028 0 0.073168797759687709 -0.40432940872844358 0 0.089099931724918285 -0.42194753532959028 0 0.093276119504923191 -0.40317238925548182 0 0.073168797759687709 -0.40432940872844358 0 0.073678952508959158 -0.41786901312235869 0 0.089099931724918285 -0.42194753532959028 0 0.073168797759687709 -0.40432940872844358 0 0.079427393847134153 -0.43557344697729578 0 0.089099931724918285 -0.42194753532959028 0 0.096652269540595678 -0.43029961146312778 0 0.070001123396492948 -0.42808341154457558 0 0.079427393847134153 -0.43557344697729578 0 0.089099931724918285 -0.42194753532959028 0 0.070001123396492948 -0.42808341154457558 0 0.089099931724918285 -0.42194753532959028 0 0.089099931724918285 -0.42194753532959028 0 0.096652269540595678 -0.43029961146312778 0 0.1026674982908946 -0.4230447227642703 0 0.1122501175763547 -0.43728160248851738 0 0.11170319400730611 -0.41468578281422303 0 0.096652269540595678 -0.43029961146312778 0 0.1026674982908946 -0.4230447227642703 0 0.1025287980141482 -0.43679842208440173 0 0.096652269540595678 -0.43029961146312778 0 0.1025287980141482 -0.43679842208440173 0 0.089099931724918285 -0.42194753532959028 0 0.096652269540595678 -0.43029961146312778 0 0.097747049444693229 -0.42290199668428041 0 0.096652269540595678 -0.43029961146312778 0 0.1026674982908946 -0.4230447227642703 0 0.096652269540595678 -0.43029961146312778 0 0.097747049444693229 -0.42290199668428041 0 0.1026674982908946 -0.4230447227642703 0 0.097747049444693229 -0.42290199668428041 0 0.1026674982908946 -0.4230447227642703 0 0.10269711053263721 -0.42010833446961438 0 0.1026674982908946 -0.4230447227642703 0 0.1122501175763547 -0.43728160248851738 0 0.1026674982908946 -0.4230447227642703 0 0.1025287980141482 -0.43679842208440173 0 0.1122501175763547 -0.43728160248851738 0 0.1026674982908946 -0.4230447227642703 0 0.1025287980141482 -0.43679842208440173 0 0.1122501175763547 -0.43728160248851738 0 0.11170319400730611 -0.41468578281422303 0 0.1285885469984879 -0.41921586823640178 0 0.12661094379887999 -0.43243102823908852 0 0.11170319400730611 -0.41468578281422303 0 0.12661094379887999 -0.43243102823908852 0 0.1122501175763547 -0.43728160248851738 0 0.11170319400730611 -0.41468578281422303 0 0.13778375419161479 -0.40630687842624158 0 0.11170319400730611 -0.41468578281422303 0 0.1172574352070818 -0.40544799072893017 0 0.13778375419161479 -0.40630687842624158 0 0.11170319400730611 -0.41468578281422303 0 0.11170319400730611 -0.41468578281422303 0 0.1088337927774117 -0.41560763565734371 0 0.11170319400730611 -0.41468578281422303 0 0.1116434840989398 -0.41221890371347308 0 0.1088337927774117 -0.41560763565734371 0 0.11170319400730611 -0.41468578281422303 0 0.1116434840989398 -0.41221890371347308 0 0.1172574352070818 -0.40544799072893017 0 0.1116434840989398 -0.41221890371347308 0 0.1088337927774117 -0.41560763565734371 0 0.11170319400730611 -0.41468578281422303 0 0.1116434840989398 -0.41221890371347308 0 0.1116434840989398 -0.41221890371347308 0 0.1172574352070818 -0.40544799072893017 0 0.1088337927774117 -0.41560763565734371 0 0.10272269901461969 -0.41757094741072381 0 0.1028416967353924 -0.40577097909286008 0 0.1116434840989398 -0.41221890371347308 0 0.1088337927774117 -0.41560763565734371 0 0.1028416967353924 -0.40577097909286008 0 0.089099931724918285 -0.42194753532959028 0 0.10272269901461969 -0.41757094741072381 0 0.093276119504923191 -0.40317238925548182 0 0.10272269901461969 -0.41757094741072381 0 0.1028416967353924 -0.40577097909286008 0 0.1026674982908946 -0.4230447227642703 0 0.11170319400730611 -0.41468578281422303 0 0.1088337927774117 -0.41560763565734371 0 0.1026674982908946 -0.4230447227642703 0 0.1088337927774117 -0.41560763565734371 0 0.1088337927774117 -0.41560763565734371 0 0.10272269901461969 -0.41757094741072381 0 0.1088337927774117 -0.41560763565734371 0 0.10272269901461969 -0.41757094741072381 0 0.10269711053263721 -0.42010833446961438 0 0.1026674982908946 -0.4230447227642703 0 0.1088337927774117 -0.41560763565734371 0 0.10269711053263721 -0.42010833446961438 0 0.10272269901461969 -0.41757094741072381 0 0.10269711053263721 -0.42010833446961438 0 0.1026674982908946 -0.4230447227642703 0 0.10269711053263721 -0.42010833446961438 0 0.089099931724918285 -0.42194753532959028 0 0.097747049444693229 -0.42290199668428041 0 0.10272269901461969 -0.41757094741072381 0 0.089099931724918285 -0.42194753532959028 0 0.10272269901461969 -0.41757094741072381 0 0.097747049444693229 -0.42290199668428041 0 0.10272269901461969 -0.41757094741072381 0 0.10269711053263721 -0.42010833446961438 0 0.10272269901461969 -0.41757094741072381 0 0.093276119504923191 -0.40317238925548182 0 0.10272269901461969 -0.41757094741072381 0 0.1028416967353924 -0.40577097909286008 0 0.093276119504923191 -0.40317238925548182 0 0.098334292032125403 -0.39248518042337333 0 0.1028416967353924 -0.40577097909286008 0 0.093276119504923191 -0.40317238925548182 0 0.098334292032125403 -0.39248518042337333 0 0.1028416967353924 -0.40577097909286008 0 0.1110234879715324 -0.38660413505751701 0 0.1116434840989398 -0.41221890371347308 0 0.1028416967353924 -0.40577097909286008 0 0.1110234879715324 -0.38660413505751701 0 0.1116434840989398 -0.41221890371347308 0 0.1175098680062359 -0.39491139176728601 0 0.1110234879715324 -0.38660413505751701 0 0.1116434840989398 -0.41221890371347308 0 0.1175098680062359 -0.39491139176728601 0 0.1172574352070818 -0.40544799072893017 0 0.1116434840989398 -0.41221890371347308 0 0.1110234879715324 -0.38660413505751701 0 0.12744968212790561 -0.39686932553801568 0 0.1175098680062359 -0.39491139176728601 0 0.1172574352070818 -0.40544799072893017 0 0.13204692344314131 -0.38344963322127262 0 0.1175098680062359 -0.39491139176728601 0 0.1110234879715324 -0.38660413505751701 0 0.13204692344314131 -0.38344963322127262 0 0.1110234879715324 -0.38660413505751701 0 0.119582265716331 -0.37302701462387139 0 0.098334292032125403 -0.39248518042337333 0 0.1110234879715324 -0.38660413505751701 0 0.094154772316698554 -0.37615844659011932 0 0.1110234879715324 -0.38660413505751701 0 0.094154772316698554 -0.37615844659011932 0 0.10054314439618781 -0.36671436217058201 0 0.094154772316698554 -0.37615844659011932 0 0.085048721448740705 -0.38838214454296199 0 0.078022103423724093 -0.37575052037919288 0 0.098334292032125403 -0.39248518042337333 0 0.094154772316698554 -0.37615844659011932 0 0.085048721448740705 -0.38838214454296199 0 0.094154772316698554 -0.37615844659011932 0 0.085048721448740705 -0.38838214454296199 0 0.085048721448740705 -0.38838214454296199 0 0.078022103423724093 -0.37575052037919288 0 0.085048721448740705 -0.38838214454296199 0 0.078022103423724093 -0.37575052037919288 0 0.072134721397829546 -0.38601044780748739 0 0.085048721448740705 -0.38838214454296199 0 0.093276119504923191 -0.40317238925548182 0 0.085048721448740705 -0.38838214454296199 0 0.073168797759687709 -0.40432940872844358 0 0.098334292032125403 -0.39248518042337333 0 0.085048721448740705 -0.38838214454296199 0 0.093276119504923191 -0.40317238925548182 0 0.085048721448740705 -0.38838214454296199 0 0.093276119504923191 -0.40317238925548182 0 0.073168797759687709 -0.40432940872844358 0 0.085048721448740705 -0.38838214454296199 0 0.073168797759687709 -0.40432940872844358 0 0.072134721397829546 -0.38601044780748739 0 0.073168797759687709 -0.40432940872844358 0 0.072134721397829546 -0.38601044780748739 0 0.058079896350598612 -0.38764270106044479 0 0.073168797759687709 -0.40432940872844358 0 0.058079896350598612 -0.38764270106044479 0 0.072134721397829546 -0.38601044780748739 0 0.058079896350598612 -0.38764270106044479 0 0.066354088006399234 -0.37394746432639558 0 0.078022103423724093 -0.37575052037919288 0 0.072134721397829546 -0.38601044780748739 0 0.066354088006399234 -0.37394746432639558 0 0.058079896350598612 -0.38764270106044479 0 0.052427616756956438 -0.37426299146947267 0 0.0429909949415095 -0.370955993392446 0 0.058079896350598612 -0.38764270106044479 0 0.0429909949415095 -0.370955993392446 0 0.058079896350598612 -0.38764270106044479 0 0.040402719644603832 -0.37302143510374791 0 0.0429909949415095 -0.370955993392446 0 0.058079896350598612 -0.38764270106044479 0 0.066354088006399234 -0.37394746432639558 0 0.052427616756956438 -0.37426299146947267 0 0.058079896350598612 -0.38764270106044479 0 0.039085611475461163 -0.39370998858967932 0 0.053191226226239972 -0.4067611749188203 0 0.073168797759687709 -0.40432940872844358 0 0.058079896350598612 -0.38764270106044479 0 0.053191226226239972 -0.4067611749188203 0 0.039085611475461163 -0.39370998858967932 0 0.03776850330631816 -0.41439854207561072 0 0.053191226226239972 -0.4067611749188203 0 0.039085611475461163 -0.39370998858967932 0 0.03776850330631816 -0.41439854207561072 0 0.039085611475461163 -0.39370998858967932 0 0.017057706108475231 -0.39165073808637157 0 0.040402719644603832 -0.37302143510374791 0 0.058079896350598612 -0.38764270106044479 0 0.039085611475461163 -0.39370998858967932 0 0.040402719644603832 -0.37302143510374791 0 0.039085611475461163 -0.39370998858967932 0 0.040402719644603832 -0.37302143510374791 0 0.017057706108475231 -0.39165073808637157 0 0.040402719644603832 -0.37302143510374791 0 0.017057706108475231 -0.39165073808637157 0 0.017291991239199941 -0.37036434765491738 0 0.029160590758392189 -0.3703268771144585 0 0.017057706108475231 -0.39165073808637157 0 0.040402719644603832 -0.37302143510374791 0 0.029160590758392189 -0.3703268771144585 0 0.0013770767683104789 -0.38011590404628531 0 0.017057706108475231 -0.39165073808637157 0 0.017291991239199941 -0.37036434765491738 0 -0.0062873074276530438 -0.41028004106899568 0 0.0013770767683104789 -0.38011590404628531 0 0.017057706108475231 -0.39165073808637157 0 -0.0062873074276530438 -0.41028004106899568 0 0.017057706108475231 -0.39165073808637157 0 -0.0062873074276530438 -0.41028004106899568 0 0.017057706108475231 -0.39165073808637157 0 0.018427834740568739 -0.4112053024490539 0 0.039085611475461163 -0.39370998858967932 0 0.017057706108475231 -0.39165073808637157 0 0.018427834740568739 -0.4112053024490539 0 0.018427834740568739 -0.4112053024490539 0 0.020900937351974 -0.43065117613362358 0 0.03776850330631816 -0.41439854207561072 0 0.018427834740568739 -0.4112053024490539 0 0.0064316810639237169 -0.42250890551817522 0 0.020900937351974 -0.43065117613362358 0 -0.0062873074276530438 -0.41028004106899568 0 0.018427834740568739 -0.4112053024490539 0 0.0064316810639237169 -0.42250890551817522 0 -0.003725153265320566 -0.43628033310049702 0 0.020900937351974 -0.43065117613362358 0 -0.003725153265320566 -0.43628033310049702 0 0.020900937351974 -0.43065117613362358 0 0.008411736686542659 -0.44069629426707729 0 -0.003725153265320566 -0.43628033310049702 0 0.0064316810639237169 -0.42250890551817522 0 0.020900937351974 -0.43065117613362358 0 0.020900937351974 -0.43065117613362358 0 0.036451395137174873 -0.43508709556154213 0 0.030966791039211169 -0.44062397571801049 0 0.04037664240263858 -0.43112443512057141 0 0.03776850330631816 -0.41439854207561072 0 0.049008992051497488 -0.42121206081474277 0 0.020900937351974 -0.43065117613362358 0 0.036451395137174873 -0.43508709556154213 0 0.03776850330631816 -0.41439854207561072 0 0.036451395137174873 -0.43508709556154213 0 0.04037664240263858 -0.43112443512057141 0 0.036206057162624719 -0.43894075612452599 0 0.036451395137174873 -0.43508709556154213 0 0.04037664240263858 -0.43112443512057141 0 0.03776850330631816 -0.41439854207561072 0 0.036451395137174873 -0.43508709556154213 0 0.03776850330631816 -0.41439854207561072 0 0.036451395137174873 -0.43508709556154213 0 0.04037664240263858 -0.43112443512057141 0 0.036451395137174873 -0.43508709556154213 0 0.036206057162624719 -0.43894075612452599 0 0.050902315068067083 -0.43421928775955942 0 0.036206057162624719 -0.43894075612452599 0 0.04037664240263858 -0.43112443512057141 0 0.050902315068067083 -0.43421928775955942 0 0.036206057162624719 -0.43894075612452599 0 0.04037664240263858 -0.43112443512057141 0 0.049008992051497488 -0.42121206081474277 0 0.050902315068067083 -0.43421928775955942 0 0.039085611475461163 -0.39370998858967932 0 0.018427834740568739 -0.4112053024490539 0 0.03776850330631816 -0.41439854207561072 0 0.03776850330631816 -0.41439854207561072 0 0.049008992051497488 -0.42121206081474277 0 0.053191226226239972 -0.4067611749188203 0 0.049008992051497488 -0.42121206081474277 0 0.053191226226239972 -0.4067611749188203 0 0.06203555641387775 -0.41927434824400173 0 0.06203555641387775 -0.41927434824400173 0 0.050902315068067083 -0.43421928775955942 0 0.070001123396492948 -0.42808341154457558 0 0.050902315068067083 -0.43421928775955942 0 0.070001123396492948 -0.42808341154457558 0 0.06203555641387775 -0.41927434824400173 0 0.050902315068067083 -0.43421928775955942 0 0.070001123396492948 -0.42808341154457558 0 0.050902315068067083 -0.43421928775955942 0 0.061361619701567269 -0.44717954456387821 0 0.050902315068067083 -0.43421928775955942 0 0.046357372097180487 -0.44032028707250198 0 0.049008992051497488 -0.42121206081474277 0 0.06203555641387775 -0.41927434824400173 0 0.050902315068067083 -0.43421928775955942 0 0.061361619701567269 -0.44717954456387821 0 0.050026500118105437 -0.45736464046117048 0 0.04270121453103938 -0.4440019571424525 0 0.061361619701567269 -0.44717954456387821 0 0.04270121453103938 -0.4440019571424525 0 0.046357372097180487 -0.44032028707250198 0 0.061361619701567269 -0.44717954456387821 0 0.04270121453103938 -0.4440019571424525 0 0.050902315068067083 -0.43421928775955942 0 0.061361619701567269 -0.44717954456387821 0 0.046357372097180487 -0.44032028707250198 0 0.065046145507563519 -0.46841934415832548 0 0.050026500118105437 -0.45736464046117048 0 0.04396915325698314 -0.47008834312344322 0 0.065046145507563519 -0.46841934415832548 0 0.061361619701567269 -0.44717954456387821 0 0.050026500118105437 -0.45736464046117048 0 0.050026500118105437 -0.45736464046117048 0 0.034910306367146419 -0.45929383741635349 0 0.04270121453103938 -0.4440019571424525 0 0.050026500118105437 -0.45736464046117048 0 0.034910306367146419 -0.45929383741635349 0 0.04396915325698314 -0.47008834312344322 0 0.034910306367146419 -0.45929383741635349 0 0.036206057162624719 -0.43894075612452599 0 0.030966791039211169 -0.44062397571801049 0 0.034910306367146419 -0.45929383741635349 0 0.036206057162624719 -0.43894075612452599 0 0.034910306367146419 -0.45929383741635349 0 0.04270121453103938 -0.4440019571424525 0 0.036206057162624719 -0.43894075612452599 0 0.04270121453103938 -0.4440019571424525 0 0.046357372097180487 -0.44032028707250198 0 0.036206057162624719 -0.43894075612452599 0 0.050902315068067083 -0.43421928775955942 0 0.046357372097180487 -0.44032028707250198 0 0.036206057162624719 -0.43894075612452599 0 0.036451395137174873 -0.43508709556154213 0 0.036206057162624719 -0.43894075612452599 0 0.030966791039211169 -0.44062397571801049 0 0.036206057162624719 -0.43894075612452599 0 0.030966791039211169 -0.44062397571801049 0 0.036451395137174873 -0.43508709556154213 0 0.030966791039211169 -0.44062397571801049 0 0.030966791039211169 -0.44062397571801049 0 0.01176664512382259 -0.46000712626477741 0 0.030966791039211169 -0.44062397571801049 0 0.015812651232909369 -0.44549254785073289 0 0.01176664512382259 -0.46000712626477741 0 0.030966791039211169 -0.44062397571801049 0 0.015812651232909369 -0.44549254785073289 0 0.020900937351974 -0.43065117613362358 0 0.030966791039211169 -0.44062397571801049 0 0.015812651232909369 -0.44549254785073289 0 0.020900937351974 -0.43065117613362358 0 0.015812651232909369 -0.44549254785073289 0 0.008411736686542659 -0.44069629426707729 0 0.015812651232909369 -0.44549254785073289 0 0.00065851142660783291 -0.45036111998345613 0 0.015812651232909369 -0.44549254785073289 0 0.008411736686542659 -0.44069629426707729 0 0.00065851142660783291 -0.45036111998345613 0 0.015812651232909369 -0.44549254785073289 0 0.00065851142660783291 -0.45036111998345613 0 0.01176664512382259 -0.46000712626477741 0 -0.003725153265320566 -0.43628033310049702 0 0.008411736686542659 -0.44069629426707729 0 0.00065851142660783291 -0.45036111998345613 0 -0.0074335007915662908 -0.47939027681154361 0 0.00065851142660783291 -0.45036111998345613 0 0.01176664512382259 -0.46000712626477741 0 0.034910306367146419 -0.45929383741635349 0 0.01176664512382259 -0.46000712626477741 0 0.02334395374525508 -0.46986531016436511 0 0.034910306367146419 -0.45929383741635349 0 0.030966791039211169 -0.44062397571801049 0 0.01176664512382259 -0.46000712626477741 0 0.034910306367146419 -0.45929383741635349 0 0.02334395374525508 -0.46986531016436511 0 0.033614555571667808 -0.47964691870818088 0 0.01176664512382259 -0.46000712626477741 0 0.02334395374525508 -0.46986531016436511 0 0.013084307918383531 -0.48051335826814873 0 0.02334395374525508 -0.46986531016436511 0 0.013084307918383531 -0.48051335826814873 0 0.033614555571667808 -0.47964691870818088 0 -0.0074335007915662908 -0.47939027681154361 0 0.01176664512382259 -0.46000712626477741 0 -0.0074335007915662908 -0.47939027681154361 0 0.01176664512382259 -0.46000712626477741 0 0.013084307918383531 -0.48051335826814873 0 -0.0074335007915662908 -0.47939027681154361 0 0.013084307918383531 -0.48051335826814873 0 0.0035709991458796608 -0.5 0 0.013084307918383531 -0.48051335826814873 0 0.032318804776188662 -0.50000000000000822 0 0.033614555571667808 -0.47964691870818088 0 0.013084307918383531 -0.48051335826814873 0 0.0035709991458796608 -0.5 0 0.032318804776188662 -0.50000000000000822 0 0.032318804776188662 -0.50000000000000822 0 0.033614555571667808 -0.47964691870818088 0 0.032318804776188662 -0.50000000000000822 0 0.052081345522201193 -0.48173454065787091 0 0.05550968207262641 -0.5 0 0.032318804776188662 -0.50000000000000822 0 0.033614555571667808 -0.47964691870818088 0 0.052081345522201193 -0.48173454065787091 0 0.034910306367146419 -0.45929383741635349 0 0.033614555571667808 -0.47964691870818088 0 0.033614555571667808 -0.47964691870818088 0 0.04396915325698314 -0.47008834312344322 0 0.052081345522201193 -0.48173454065787091 0 0.034910306367146419 -0.45929383741635349 0 0.033614555571667808 -0.47964691870818088 0 0.04396915325698314 -0.47008834312344322 0 0.069151809442979176 -0.48538637577355309 0 0.065046145507563519 -0.46841934415832548 0 0.052081345522201193 -0.48173454065787091 0 0.065046145507563519 -0.46841934415832548 0 0.04396915325698314 -0.47008834312344322 0 0.052081345522201193 -0.48173454065787091 0 0.069151809442979176 -0.48538637577355309 0 0.052081345522201193 -0.48173454065787091 0 0.05550968207262641 -0.5 0 0.084127347773265776 -0.29099747135839998 0 0.080940341873086671 -0.30107134698573679 0 0.073618600546553239 -0.29038072252166819 0 0.084127347773265776 -0.29099747135839998 0 0.073618600546553239 -0.29038072252166819 0 0.0794540196410181 -0.27915097684298951 0 0.084127347773265776 -0.29099747135839998 0 0.0909171258313307 -0.28331991825120079 0 0.0794540196410181 -0.27915097684298951 0 0.084127347773265776 -0.29099747135839998 0 0.0909171258313307 -0.28331991825120079 0 0.093891688084064853 -0.29292483999505048 0 0.084127347773265776 -0.29099747135839998 0 0.088996444132247943 -0.29894600856738118 0 0.093891688084064853 -0.29292483999505048 0 0.088996444132247943 -0.29894600856738118 0 0.089850521534749386 -0.30671882694714209 0 0.080940341873086671 -0.30107134698573679 0 0.088996444132247943 -0.29894600856738118 0 0.093891688084064853 -0.29292483999505048 0 0.09622035778187682 -0.30123321182390678 0 0.088996444132247943 -0.29894600856738118 0 0.089850521534749386 -0.30671882694714209 0 0.09622035778187682 -0.30123321182390678 0 0.092839007913925492 -0.31217539774118469 0 0.089850521534749386 -0.30671882694714209 0 0.088297910998574772 -0.31490231034925681 0 0.089850521534749386 -0.30671882694714209 0 0.081904451380931415 -0.30939837131668591 0 0.088297910998574772 -0.31490231034925681 0 0.092839007913925492 -0.31217539774118469 0 0.089850521534749386 -0.30671882694714209 0 0.09717837653543418 -0.30834009048248462 0 0.089850521534749386 -0.30671882694714209 0 0.081904451380931415 -0.30939837131668591 0 0.080940341873086671 -0.30107134698573679 0 0.081904451380931415 -0.30939837131668591 0 0.080940341873086671 -0.30107134698573679 0 0.071667379146659577 -0.30638132417260838 0 0.084127347773265776 -0.29099747135839998 0 0.088996444132247943 -0.29894600856738118 0 0.080940341873086671 -0.30107134698573679 0 0.080940341873086671 -0.30107134698573679 0 0.071667379146659577 -0.30638132417260838 0 0.073618600546553239 -0.29038072252166819 0 0.071667379146659577 -0.30638132417260838 0 0.0604497761061666 -0.28891903179048739 0 0.058246256145304959 -0.3123612386210125 0 0.081904451380931415 -0.30939837131668591 0 0.071667379146659577 -0.30638132417260838 0 0.07876610335158668 -0.31791804812868518 0 0.071667379146659577 -0.30638132417260838 0 0.073618600546553239 -0.29038072252166819 0 0.0604497761061666 -0.28891903179048739 0 0.073618600546553239 -0.29038072252166819 0 0.065072738739122699 -0.2757641839797873 0 0.0794540196410181 -0.27915097684298951 0 0.073618600546553239 -0.29038072252166819 0 0.065072738739122699 -0.2757641839797873 0 0.0604497761061666 -0.28891903179048739 0 0.065072738739122699 -0.2757641839797873 0 0.07656802668249528 -0.26797682560984037 0 0.065417397625243512 -0.25720793824732741 0 0.065072738739122699 -0.2757641839797873 0 0.07656802668249528 -0.26797682560984037 0 0.0794540196410181 -0.27915097684298951 0 0.065417397625243512 -0.25720793824732741 0 0.083475338330781412 -0.2428431169585703 0 0.065417397625243512 -0.25720793824732741 0 0.083737467346043579 -0.2593614898620622 0 0.083475338330781412 -0.2428431169585703 0 0.07656802668249528 -0.26797682560984037 0 0.065417397625243512 -0.25720793824732741 0 0.083737467346043579 -0.2593614898620622 0 0.083737467346043579 -0.2593614898620622 0 0.095320304620945956 -0.25735786714235681 0 0.083475338330781412 -0.2428431169585703 0 0.083737467346043579 -0.2593614898620622 0 0.091811875055319694 -0.27117132631794938 0 0.095320304620945956 -0.25735786714235681 0 0.07656802668249528 -0.26797682560984037 0 0.083737467346043579 -0.2593614898620622 0 0.091811875055319694 -0.27117132631794938 0 0.07656802668249528 -0.26797682560984037 0 0.0794540196410181 -0.27915097684298951 0 0.091811875055319694 -0.27117132631794938 0 0.0909171258313307 -0.28331991825120079 0 0.0794540196410181 -0.27915097684298951 0 0.091811875055319694 -0.27117132631794938 0 0.091811875055319694 -0.27117132631794938 0 0.10509560830532209 -0.27548043891127089 0 0.099349837319805831 -0.28128194567290499 0 0.0909171258313307 -0.28331991825120079 0 0.091811875055319694 -0.27117132631794938 0 0.099349837319805831 -0.28128194567290499 0 0.091811875055319694 -0.27117132631794938 0 0.1052141467761708 -0.26722129147714951 0 0.10509560830532209 -0.27548043891127089 0 0.1052141467761708 -0.26722129147714951 0 0.10509560830532209 -0.27548043891127089 0 0.1117314812410732 -0.27455534650338081 0 0.10509560830532209 -0.27548043891127089 0 0.1118999559271185 -0.28049002191563011 0 0.1082177614997647 -0.28517746380475573 0 0.10509560830532209 -0.27548043891127089 0 0.1082177614997647 -0.28517746380475573 0 0.099349837319805831 -0.28128194567290499 0 0.095320304620945956 -0.25735786714235681 0 0.1064980367032896 -0.25640161499131658 0 0.10075602246568729 -0.247130741130379 0 0.091811875055319694 -0.27117132631794938 0 0.1052141467761708 -0.26722129147714951 0 0.095320304620945956 -0.25735786714235681 0 0.1052141467761708 -0.26722129147714951 0 0.095320304620945956 -0.25735786714235681 0 0.1064980367032896 -0.25640161499131658 0 0.1064980367032896 -0.25640161499131658 0 0.1169120013868776 -0.25262321116256281 0 0.1194293799288003 -0.26954177159339288 0 0.1169120013868776 -0.25262321116256281 0 0.1194293799288003 -0.26954177159339288 0 0.1169120013868776 -0.25262321116256281 0 0.1245559079791172 -0.26229341046795501 0 0.1194293799288003 -0.26954177159339288 0 0.1064980367032896 -0.25640161499131658 0 0.1169120013868776 -0.25262321116256281 0 0.11396559985234039 -0.2421801808683213 0 0.1052141467761708 -0.26722129147714951 0 0.1064980367032896 -0.25640161499131658 0 0.1194293799288003 -0.26954177159339288 0 0.13178497783693821 -0.25211666607955069 0 0.1169120013868776 -0.25262321116256281 0 0.1224890003745731 -0.24541254930308659 0 0.13178497783693821 -0.25211666607955069 0 0.1169120013868776 -0.25262321116256281 0 0.1245559079791172 -0.26229341046795501 0 0.1300972727638518 -0.27489199303631368 0 0.1194293799288003 -0.26954177159339288 0 0.1220286850842833 -0.28644814184410511 0 0.1170183152679541 -0.28004320861946058 0 0.1194293799288003 -0.26954177159339288 0 0.1220286850842833 -0.28644814184410511 0 0.1194293799288003 -0.26954177159339288 0 0.1220286850842833 -0.28644814184410511 0 0.1170183152679541 -0.28004320861946058 0 0.1117314812410732 -0.27455534650338081 0 0.1194293799288003 -0.26954177159339288 0 0.1170183152679541 -0.28004320861946058 0 0.1118999559271185 -0.28049002191563011 0 0.1117314812410732 -0.27455534650338081 0 0.10509560830532209 -0.27548043891127089 0 0.1118999559271185 -0.28049002191563011 0 0.1117314812410732 -0.27455534650338081 0 0.1052141467761708 -0.26722129147714951 0 0.1117314812410732 -0.27455534650338081 0 0.1194293799288003 -0.26954177159339288 0 0.1300972727638518 -0.27489199303631368 0 0.1245559079791172 -0.26229341046795501 0 0.1194293799288003 -0.26954177159339288 0 0.1220286850842833 -0.28644814184410511 0 0.11032956770273029 -0.30569749361740051 0 0.1220286850842833 -0.28644814184410511 0 0.11032956770273029 -0.30569749361740051 0 0.1097043962824044 -0.29705743914382682 0 0.1220286850842833 -0.28644814184410511 0 0.1182817621157625 -0.28524128077802591 0 0.11473556980055349 -0.28685675087343743 0 0.1170183152679541 -0.28004320861946058 0 0.1220286850842833 -0.28644814184410511 0 0.1182817621157625 -0.28524128077802591 0 0.1220286850842833 -0.28644814184410511 0 0.10987408613482121 -0.29173783963339001 0 0.1097043962824044 -0.29705743914382682 0 0.1220286850842833 -0.28644814184410511 0 0.10987408613482121 -0.29173783963339001 0 0.11473556980055349 -0.28685675087343743 0 0.1170183152679541 -0.28004320861946058 0 0.1182817621157625 -0.28524128077802591 0 0.11403067292223069 -0.28356174519826188 0 0.1170183152679541 -0.28004320861946058 0 0.1118999559271185 -0.28049002191563011 0 0.11403067292223069 -0.28356174519826188 0 0.1182817621157625 -0.28524128077802591 0 0.11403067292223069 -0.28356174519826188 0 0.11473556980055349 -0.28685675087343743 0 0.10987408613482121 -0.29173783963339001 0 0.11473556980055349 -0.28685675087343743 0 0.1082177614997647 -0.28517746380475573 0 0.11403067292223069 -0.28356174519826188 0 0.11473556980055349 -0.28685675087343743 0 0.1082177614997647 -0.28517746380475573 0 0.1118999559271185 -0.28049002191563011 0 0.11403067292223069 -0.28356174519826188 0 0.1082177614997647 -0.28517746380475573 0 0.1082177614997647 -0.28517746380475573 0 0.10102327566138131 -0.28870854343304547 0 0.099349837319805831 -0.28128194567290499 0 0.10987408613482121 -0.29173783963339001 0 0.1082177614997647 -0.28517746380475573 0 0.10102327566138131 -0.28870854343304547 0 0.10987408613482121 -0.29173783963339001 0 0.1023314820757991 -0.29637988123535769 0 0.10102327566138131 -0.28870854343304547 0 0.10987408613482121 -0.29173783963339001 0 0.1023314820757991 -0.29637988123535769 0 0.1097043962824044 -0.29705743914382682 0 0.1023314820757991 -0.29637988123535769 0 0.093891688084064853 -0.29292483999505048 0 0.10102327566138131 -0.28870854343304547 0 0.1023314820757991 -0.29637988123535769 0 0.093891688084064853 -0.29292483999505048 0 0.09622035778187682 -0.30123321182390678 0 0.0909171258313307 -0.28331991825120079 0 0.10102327566138131 -0.28870854343304547 0 0.099349837319805831 -0.28128194567290499 0 0.0909171258313307 -0.28331991825120079 0 0.093891688084064853 -0.29292483999505048 0 0.10102327566138131 -0.28870854343304547 0 0.1039032095099828 -0.30409173568731301 0 0.096029222586943672 -0.31874036318585552 0 0.09717837653543418 -0.30834009048248462 0 0.1039032095099828 -0.30409173568731301 0 0.096029222586943672 -0.31874036318585552 0 0.089850521534749386 -0.30671882694714209 0 0.09717837653543418 -0.30834009048248462 0 0.09622035778187682 -0.30123321182390678 0 0.1023314820757991 -0.29637988123535769 0 0.09622035778187682 -0.30123321182390678 0 0.1039032095099828 -0.30409173568731301 0 0.09717837653543418 -0.30834009048248462 0 0.09622035778187682 -0.30123321182390678 0 0.1039032095099828 -0.30409173568731301 0 0.1039032095099828 -0.30409173568731301 0 0.11032956770273029 -0.30569749361740051 0 0.1097043962824044 -0.29705743914382682 0 0.1023314820757991 -0.29637988123535769 0 0.1039032095099828 -0.30409173568731301 0 0.1097043962824044 -0.29705743914382682 0 0.1039032095099828 -0.30409173568731301 0 0.11032956770273029 -0.30569749361740051 0 0.096029222586943672 -0.31874036318585552 0 0.12518988192899111 -0.30825641048425573 0 0.1220286850842833 -0.28644814184410511 0 0.1220286850842833 -0.28644814184410511 0 0.11032956770273029 -0.30569749361740051 0 0.1186165612921392 -0.30337942396333628 0 0.12518988192899111 -0.30825641048425573 0 0.1220286850842833 -0.28644814184410511 0 0.1186165612921392 -0.30337942396333628 0 0.11032956770273029 -0.30569749361740051 0 0.1168631595481468 -0.31218354620601613 0 0.1186165612921392 -0.30337942396333628 0 0.11032956770273029 -0.30569749361740051 0 0.1168631595481468 -0.31218354620601613 0 0.1108331378268393 -0.31908776989346671 0 0.12518988192899111 -0.30825641048425573 0 0.1168631595481468 -0.31218354620601613 0 0.1186165612921392 -0.30337942396333628 0 0.12829612786929351 -0.32913257542283841 0 0.12518988192899111 -0.30825641048425573 0 0.11900332003057509 -0.32110980128426758 0 0.12518988192899111 -0.30825641048425573 0 0.1168631595481468 -0.31218354620601613 0 0.11900332003057509 -0.32110980128426758 0 0.12829612786929351 -0.32913257542283841 0 0.11900332003057509 -0.32110980128426758 0 0.1082256817665976 -0.33126078305361689 0 0.1168631595481468 -0.31218354620601613 0 0.1108331378268393 -0.31908776989346671 0 0.11900332003057509 -0.32110980128426758 0 0.1108331378268393 -0.31908776989346671 0 0.11900332003057509 -0.32110980128426758 0 0.1082256817665976 -0.33126078305361689 0 0.12829612786929351 -0.32913257542283841 0 0.1082256817665976 -0.33126078305361689 0 0.12829612786929351 -0.32913257542283841 0 0.1197794979178342 -0.33444735271148718 0 0.1082256817665976 -0.33126078305361689 0 0.1197794979178342 -0.33444735271148718 0 0.123207172807503 -0.34151455942175402 0 0.1166989088476188 -0.3429535589264901 0 0.12947454112712661 -0.3370523441755795 0 0.1197794979178342 -0.33444735271148718 0 0.123207172807503 -0.34151455942175402 0 0.1197794979178342 -0.33444735271148718 0 0.1166989088476188 -0.3429535589264901 0 0.11423046423108971 -0.33590891529115641 0 0.1166989088476188 -0.3429535589264901 0 0.11423046423108971 -0.33590891529115641 0 0.10978349571671669 -0.33537459774560491 0 0.1197794979178342 -0.33444735271148718 0 0.11423046423108971 -0.33590891529115641 0 0.1082256817665976 -0.33126078305361689 0 0.11423046423108971 -0.33590891529115641 0 0.10978349571671669 -0.33537459774560491 0 0.1082256817665976 -0.33126078305361689 0 0.1082256817665976 -0.33126078305361689 0 0.088155235663901987 -0.33338899068439659 0 0.1082256817665976 -0.33126078305361689 0 0.098964463831707275 -0.33711967172757812 0 0.088155235663901987 -0.33338899068439659 0 0.1082256817665976 -0.33126078305361689 0 0.098575499416770129 -0.32401474168912747 0 0.088155235663901987 -0.33338899068439659 0 0.10978349571671669 -0.33537459774560491 0 0.1082256817665976 -0.33126078305361689 0 0.098964463831707275 -0.33711967172757812 0 0.098964463831707275 -0.33711967172757812 0 0.10397175872352039 -0.34686768342216601 0 0.083455842320170018 -0.34213165983463972 0 0.10978349571671669 -0.33537459774560491 0 0.098964463831707275 -0.33711967172757812 0 0.10397175872352039 -0.34686768342216601 0 0.11032956770273029 -0.30569749361740051 0 0.098575499416770129 -0.32401474168912747 0 0.11032956770273029 -0.30569749361740051 0 0.098575499416770129 -0.32401474168912747 0 0.096029222586943672 -0.31874036318585552 0 0.098575499416770129 -0.32401474168912747 0 0.096029222586943672 -0.31874036318585552 0 0.088155235663901987 -0.33338899068439659 0 0.11032956770273029 -0.30569749361740051 0 0.1108331378268393 -0.31908776989346671 0 0.098575499416770129 -0.32401474168912747 0 0.092839007913925492 -0.31217539774118469 0 0.09717837653543418 -0.30834009048248462 0 0.096029222586943672 -0.31874036318585552 0 0.1108331378268393 -0.31908776989346671 0 0.1082256817665976 -0.33126078305361689 0 0.098575499416770129 -0.32401474168912747 0 0.1110234879715324 -0.38660413505751701 0 0.1104034918441245 -0.36098936640156087 0 0.1110234879715324 -0.38660413505751701 0 0.119582265716331 -0.37302701462387139 0 0.1104034918441245 -0.36098936640156087 0 0.13106656207536591 -0.37095359749455942 0 0.119582265716331 -0.37302701462387139 0 0.12433535888943099 -0.36111905437287539 0 0.119582265716331 -0.37302701462387139 0 0.12433535888943099 -0.36111905437287539 0 0.1104034918441245 -0.36098936640156087 0 0.1166989088476188 -0.3429535589264901 0 0.10978349571671669 -0.33537459774560491 0 0.1104034918441245 -0.36098936640156087 0 0.10978349571671669 -0.33537459774560491 0 0.1104034918441245 -0.36098936640156087 0 0.1166989088476188 -0.3429535589264901 0 0.1104034918441245 -0.36098936640156087 0 0.12227611303341331 -0.34962209539382899 0 0.12433535888943099 -0.36111905437287539 0 0.1104034918441245 -0.36098936640156087 0 0.12227611303341331 -0.34962209539382899 0 0.12902300050688531 -0.34451802042237373 0 0.123207172807503 -0.34151455942175402 0 0.12227611303341331 -0.34962209539382899 0 0.123207172807503 -0.34151455942175402 0 0.1166989088476188 -0.3429535589264901 0 0.12227611303341331 -0.34962209539382899 0 0.10978349571671669 -0.33537459774560491 0 0.1104034918441245 -0.36098936640156087 0 0.10397175872352039 -0.34686768342216601 0 0.10397175872352039 -0.34686768342216601 0 0.10173261200093429 -0.3584303045223361 0 0.092012053039904368 -0.35914980609503572 0 0.1104034918441245 -0.36098936640156087 0 0.10397175872352039 -0.34686768342216601 0 0.10173261200093429 -0.3584303045223361 0 0.1110234879715324 -0.38660413505751701 0 0.1104034918441245 -0.36098936640156087 0 0.10054314439618781 -0.36671436217058201 0 0.094154772316698554 -0.37615844659011932 0 0.10054314439618781 -0.36671436217058201 0 0.092012053039904368 -0.35914980609503572 0 0.1104034918441245 -0.36098936640156087 0 0.10173261200093429 -0.3584303045223361 0 0.10054314439618781 -0.36671436217058201 0 0.10173261200093429 -0.3584303045223361 0 0.10054314439618781 -0.36671436217058201 0 0.092012053039904368 -0.35914980609503572 0 0.078022103423724093 -0.37575052037919288 0 0.083409334081811753 -0.36537934009079892 0 0.074904965163285583 -0.35803956208051813 0 0.094154772316698554 -0.37615844659011932 0 0.083409334081811753 -0.36537934009079892 0 0.092012053039904368 -0.35914980609503572 0 0.094154772316698554 -0.37615844659011932 0 0.078022103423724093 -0.37575052037919288 0 0.083409334081811753 -0.36537934009079892 0 0.083847918209139116 -0.35259451139095749 0 0.074904965163285583 -0.35803956208051813 0 0.083455842320170018 -0.34213165983463972 0 0.074904965163285583 -0.35803956208051813 0 0.083455842320170018 -0.34213165983463972 0 0.10397175872352039 -0.34686768342216601 0 0.083847918209139116 -0.35259451139095749 0 0.092012053039904368 -0.35914980609503572 0 0.10397175872352039 -0.34686768342216601 0 0.083847918209139116 -0.35259451139095749 0 0.083455842320170018 -0.34213165983463972 0 0.10397175872352039 -0.34686768342216601 0 0.083455842320170018 -0.34213165983463972 0 0.083409334081811753 -0.36537934009079892 0 0.083847918209139116 -0.35259451139095749 0 0.074904965163285583 -0.35803956208051813 0 0.083409334081811753 -0.36537934009079892 0 0.083847918209139116 -0.35259451139095749 0 0.092012053039904368 -0.35914980609503572 0 0.068884991594531861 -0.35029260382817101 0 0.074904965163285583 -0.35803956208051813 0 0.083455842320170018 -0.34213165983463972 0 0.068884991594531861 -0.35029260382817101 0 0.074904965163285583 -0.35803956208051813 0 0.064589615452809224 -0.36276462421719419 0 0.074904965163285583 -0.35803956208051813 0 0.066354088006399234 -0.37394746432639558 0 0.074904965163285583 -0.35803956208051813 0 0.064589615452809224 -0.36276462421719419 0 0.066354088006399234 -0.37394746432639558 0 0.078022103423724093 -0.37575052037919288 0 0.074904965163285583 -0.35803956208051813 0 0.066354088006399234 -0.37394746432639558 0 0.064589615452809224 -0.36276462421719419 0 0.066354088006399234 -0.37394746432639558 0 0.059225060303720913 -0.36838045411385789 0 0.079243332690702994 -0.3266985097719815 0 0.07876610335158668 -0.31791804812868518 0 0.086075555048243532 -0.32236261846607661 0 0.079243332690702994 -0.3266985097719815 0 0.086075555048243532 -0.32236261846607661 0 0.088155235663901987 -0.33338899068439659 0 0.07876610335158668 -0.31791804812868518 0 0.088297910998574772 -0.31490231034925681 0 0.086075555048243532 -0.32236261846607661 0 0.081904451380931415 -0.30939837131668591 0 0.07876610335158668 -0.31791804812868518 0 0.088297910998574772 -0.31490231034925681 0 0.096029222586943672 -0.31874036318585552 0 0.088297910998574772 -0.31490231034925681 0 0.086075555048243532 -0.32236261846607661 0 0.092839007913925492 -0.31217539774118469 0 0.096029222586943672 -0.31874036318585552 0 0.088297910998574772 -0.31490231034925681 0 0.096029222586943672 -0.31874036318585552 0 0.088155235663901987 -0.33338899068439659 0 0.096029222586943672 -0.31874036318585552 0 0.086075555048243532 -0.32236261846607661 0 0.088155235663901987 -0.33338899068439659 0 0.098964463831707275 -0.33711967172757812 0 0.088155235663901987 -0.33338899068439659 0 0.083455842320170018 -0.34213165983463972 0 0.088155235663901987 -0.33338899068439659 0 0.083455842320170018 -0.34213165983463972 0 0.075207964516588038 -0.3347618790154504 0 0.088155235663901987 -0.33338899068439659 0 0.083455842320170018 -0.34213165983463972 0 0.088155235663901987 -0.33338899068439659 0 0.075207964516588038 -0.3347618790154504 0 0.079243332690702994 -0.3266985097719815 0 0.088155235663901987 -0.33338899068439659 0 0.075207964516588038 -0.3347618790154504 0 0.083455842320170018 -0.34213165983463972 0 0.056042736184441437 -0.33580344545153751 0 0.068884991594531861 -0.35029260382817101 0 0.083455842320170018 -0.34213165983463972 0 0.056042736184441437 -0.33580344545153751 0 0.075207964516588038 -0.3347618790154504 0 0.069631943830624821 -0.3227185366186896 0 0.056042736184441437 -0.33580344545153751 0 0.083455842320170018 -0.34213165983463972 0 0.075207964516588038 -0.3347618790154504 0 0.056042736184441437 -0.33580344545153751 0 0.071667379146659577 -0.30638132417260838 0 0.07876610335158668 -0.31791804812868518 0 0.069631943830624821 -0.3227185366186896 0 0.071667379146659577 -0.30638132417260838 0 0.069631943830624821 -0.3227185366186896 0 0.058246256145304959 -0.3123612386210125 0 0.079243332690702994 -0.3266985097719815 0 0.075207964516588038 -0.3347618790154504 0 0.069631943830624821 -0.3227185366186896 0 0.079243332690702994 -0.3266985097719815 0 0.07876610335158668 -0.31791804812868518 0 0.069631943830624821 -0.3227185366186896 0 0.056042736184441437 -0.33580344545153751 0 0.042964358057919323 -0.33278435012690671 0 0.058246256145304959 -0.3123612386210125 0 0.069631943830624821 -0.3227185366186896 0 0.056042736184441437 -0.33580344545153751 0 0.058246256145304959 -0.3123612386210125 0 0.056042736184441437 -0.33580344545153751 0 0.058246256145304959 -0.3123612386210125 0 0.042964358057919323 -0.33278435012690671 0 0.044636086250040848 -0.30652558192023938 0 0.058246256145304959 -0.3123612386210125 0 0.056042736184441437 -0.33580344545153751 0 0.042964358057919323 -0.33278435012690671 0 0.041830082136885431 -0.35060105539826969 0 0.056042736184441437 -0.33580344545153751 0 0.042964358057919323 -0.33278435012690671 0 0.042964358057919323 -0.33278435012690671 0 0.02587311066137209 -0.32883889874083011 0 0.042964358057919323 -0.33278435012690671 0 0.041830082136885431 -0.35060105539826969 0 0.042964358057919323 -0.33278435012690671 0 0.041830082136885431 -0.35060105539826969 0 0.031145960370832278 -0.3394586112870982 0 0.042964358057919323 -0.33278435012690671 0 0.02587311066137209 -0.32883889874083011 0 0.031145960370832278 -0.3394586112870982 0 0.042964358057919323 -0.33278435012690671 0 0.044636086250040848 -0.30652558192023938 0 0.042964358057919323 -0.33278435012690671 0 0.032807261991248199 -0.31838967571115873 0 0.02587311066137209 -0.32883889874083011 0 0.042964358057919323 -0.33278435012690671 0 0.032807261991248199 -0.31838967571115873 0 0.044636086250040848 -0.30652558192023938 0 0.052427616756956438 -0.37426299146947267 0 0.053528920998719573 -0.36254673644237012 0 0.052427616756956438 -0.37426299146947267 0 0.053528920998719573 -0.36254673644237012 0 0.0429909949415095 -0.370955993392446 0 0.052427616756956438 -0.37426299146947267 0 0.059225060303720913 -0.36838045411385789 0 0.053528920998719573 -0.36254673644237012 0 0.066354088006399234 -0.37394746432639558 0 0.052427616756956438 -0.37426299146947267 0 0.059225060303720913 -0.36838045411385789 0 0.064589615452809224 -0.36276462421719419 0 0.059225060303720913 -0.36838045411385789 0 0.053528920998719573 -0.36254673644237012 0 0.053528920998719573 -0.36254673644237012 0 0.0429909949415095 -0.370955993392446 0 0.056042736184441437 -0.33580344545153751 0 0.053528920998719573 -0.36254673644237012 0 0.068884991594531861 -0.35029260382817101 0 0.056042736184441437 -0.33580344545153751 0 0.053528920998719573 -0.36254673644237012 0 0.056042736184441437 -0.33580344545153751 0 0.053528920998719573 -0.36254673644237012 0 0.041830082136885431 -0.35060105539826969 0 0.068884991594531861 -0.35029260382817101 0 0.053528920998719573 -0.36254673644237012 0 0.068884991594531861 -0.35029260382817101 0 0.064589615452809224 -0.36276462421719419 0 0.053528920998719573 -0.36254673644237012 0 0.040695806215852851 -0.36841776066963272 0 0.02344033640085592 -0.3493350605664004 0 0.041830082136885431 -0.35060105539826969 0 0.040695806215852851 -0.36841776066963272 0 0.02344033640085592 -0.3493350605664004 0 0.041830082136885431 -0.35060105539826969 0 0.02344033640085592 -0.3493350605664004 0 0.031145960370832278 -0.3394586112870982 0 0.053528920998719573 -0.36254673644237012 0 0.041830082136885431 -0.35060105539826969 0 0.040695806215852851 -0.36841776066963272 0 0.041830082136885431 -0.35060105539826969 0 0.040695806215852851 -0.36841776066963272 0 0.040402719644603832 -0.37302143510374791 0 0.040695806215852851 -0.36841776066963272 0 0.029160590758392189 -0.3703268771144585 0 0.053528920998719573 -0.36254673644237012 0 0.040695806215852851 -0.36841776066963272 0 0.0429909949415095 -0.370955993392446 0 0.040402719644603832 -0.37302143510374791 0 0.0429909949415095 -0.370955993392446 0 0.040402719644603832 -0.37302143510374791 0 0.040695806215852851 -0.36841776066963272 0 0.040402719644603832 -0.37302143510374791 0 0.040695806215852851 -0.36841776066963272 0 0.0429909949415095 -0.370955993392446 0 0.040695806215852851 -0.36841776066963272 0 0.0429909949415095 -0.370955993392446 0 0.040695806215852851 -0.36841776066963272 0 0.029160590758392189 -0.3703268771144585 0 0.02344033640085592 -0.3493350605664004 0 0.017291991239199941 -0.37036434765491738 0 0.029160590758392189 -0.3703268771144585 0 0.02344033640085592 -0.3493350605664004 0 0.017291991239199941 -0.37036434765491738 0 0.02344033640085592 -0.3493350605664004 0 0.0071201472627590362 -0.36181985524754839 0 0.02344033640085592 -0.3493350605664004 0 0.0093373323126390018 -0.34673691453689298 0 0.0071201472627590362 -0.36181985524754839 0 0.0093373323126390018 -0.34673691453689298 0 0.001354150165678658 -0.35122785741203172 0 0.002015693098996661 -0.33936484937157779 0 0.0093373323126390018 -0.34673691453689298 0 0.001354150165678658 -0.35122785741203172 0 0.0071201472627590362 -0.36181985524754839 0 0.0013770767683104789 -0.38011590404628531 0 0.017291991239199941 -0.37036434765491738 0 0.0071201472627590362 -0.36181985524754839 0 0.018946268347426621 -0.32026228959590669 0 0.02587311066137209 -0.32883889874083011 0 0.0087818632648256761 -0.32489344735475012 0 0.02587311066137209 -0.32883889874083011 0 0.0087818632648256761 -0.32489344735475012 0 0.018946268347426621 -0.32026228959590669 0 0.0085301070851182565 -0.30819581362179171 0 0.021918076496668219 -0.31078427366218991 0 0.032807261991248199 -0.31838967571115873 0 0.018946268347426621 -0.32026228959590669 0 0.021918076496668219 -0.31078427366218991 0 0.032807261991248199 -0.31838967571115873 0 0.018946268347426621 -0.32026228959590669 0 0.02587311066137209 -0.32883889874083011 0 0.02344033640085592 -0.3493350605664004 0 0.019315835378601268 -0.33466276803887107 0 0.0061848665858570042 -0.33025236046317002 0 0.02587311066137209 -0.32883889874083011 0 0.031145960370832278 -0.3394586112870982 0 0.019315835378601268 -0.33466276803887107 0 0.02587311066137209 -0.32883889874083011 0 0.019315835378601268 -0.33466276803887107 0 0.0087818632648256761 -0.32489344735475012 0 0.02344033640085592 -0.3493350605664004 0 0.031145960370832278 -0.3394586112870982 0 0.019315835378601268 -0.33466276803887107 0 0.019315835378601268 -0.33466276803887107 0 0.0061848665858570042 -0.33025236046317002 0 0.0087818632648256761 -0.32489344735475012 0 0.02344033640085592 -0.3493350605664004 0 0.0061848665858570042 -0.33025236046317002 0 0.02344033640085592 -0.3493350605664004 0 0.0093373323126390018 -0.34673691453689298 0 0.0061848665858570042 -0.33025236046317002 0 0.0093373323126390018 -0.34673691453689298 0 0.002015693098996661 -0.33936484937157779 0 0.0061848665858570042 -0.33025236046317002 0 -0.0050082009084007157 -0.32890289478594992 0 0.002015693098996661 -0.33936484937157779 0 0.0061848665858570042 -0.33025236046317002 0 -0.01107060322914191 -0.31116966035993948 0 0.0087818632648256761 -0.32489344735475012 0 0.0085301070851182565 -0.30819581362179171 0 0.018946268347426621 -0.32026228959590669 0 0.0087818632648256761 -0.32489344735475012 0 0.0085301070851182565 -0.30819581362179171 0 -0.01107060322914191 -0.31116966035993948 0 0.0061848665858570042 -0.33025236046317002 0 0.0087818632648256761 -0.32489344735475012 0 -0.01107060322914191 -0.31116966035993948 0 0.0085301070851182565 -0.30819581362179171 0 0.0026659282157936669 -0.28817997861608108 0 0.0026659282157936669 -0.28817997861608108 0 0.021191810999659281 -0.29355296221285698 0 0.020793405929845139 -0.26948437704067169 0 0.0085301070851182565 -0.30819581362179171 0 0.0026659282157936669 -0.28817997861608108 0 0.021191810999659281 -0.29355296221285698 0 0.021191810999659281 -0.29355296221285698 0 0.030786242692006239 -0.30437574905367099 0 0.033377977722414631 -0.29262625176191032 0 0.021191810999659281 -0.29355296221285698 0 0.033377977722414631 -0.29262625176191032 0 0.032877747681330519 -0.27915993676137302 0 0.0085301070851182565 -0.30819581362179171 0 0.021191810999659281 -0.29355296221285698 0 0.021918076496668219 -0.31078427366218991 0 0.021191810999659281 -0.29355296221285698 0 0.021918076496668219 -0.31078427366218991 0 0.030786242692006239 -0.30437574905367099 0 0.032807261991248199 -0.31838967571115873 0 0.021918076496668219 -0.31078427366218991 0 0.030786242692006239 -0.30437574905367099 0 0.032807261991248199 -0.31838967571115873 0 0.030786242692006239 -0.30437574905367099 0 0.044636086250040848 -0.30652558192023938 0 0.030786242692006239 -0.30437574905367099 0 0.044636086250040848 -0.30652558192023938 0 0.033377977722414631 -0.29262625176191032 0 0.044636086250040848 -0.30652558192023938 0 0.033377977722414631 -0.29262625176191032 0 0.046307814442161817 -0.28026681371357198 0 0.044636086250040848 -0.30652558192023938 0 0.046307814442161817 -0.28026681371357198 0 0.033377977722414631 -0.29262625176191032 0 0.046307814442161817 -0.28026681371357198 0 0.032877747681330519 -0.27915993676137302 0 0.065072738739122699 -0.2757641839797873 0 0.0604497761061666 -0.28891903179048739 0 0.046307814442161817 -0.28026681371357198 0 0.044636086250040848 -0.30652558192023938 0 0.0604497761061666 -0.28891903179048739 0 0.046307814442161817 -0.28026681371357198 0 0.044636086250040848 -0.30652558192023938 0 0.0604497761061666 -0.28891903179048739 0 0.058246256145304959 -0.3123612386210125 0 0.0604497761061666 -0.28891903179048739 0 0.058246256145304959 -0.3123612386210125 0 0.065417397625243512 -0.25720793824732741 0 0.047979542634282779 -0.2540080455069047 0 0.0561943733602027 -0.26681174536189778 0 0.065417397625243512 -0.25720793824732741 0 0.047979542634282779 -0.2540080455069047 0 0.061715516844357943 -0.2393351082148876 0 0.047979542634282779 -0.2540080455069047 0 0.046307814442161817 -0.28026681371357198 0 0.065072738739122699 -0.2757641839797873 0 0.065417397625243512 -0.25720793824732741 0 0.0561943733602027 -0.26681174536189778 0 0.065072738739122699 -0.2757641839797873 0 0.0561943733602027 -0.26681174536189778 0 0.046307814442161817 -0.28026681371357198 0 0.047979542634282779 -0.2540080455069047 0 0.0561943733602027 -0.26681174536189778 0 0.046307814442161817 -0.28026681371357198 0 0.047979542634282779 -0.2540080455069047 0 0.046307814442161817 -0.28026681371357198 0 0.036110944131899393 -0.26705118582227011 0 0.046307814442161817 -0.28026681371357198 0 0.032877747681330519 -0.27915993676137302 0 0.036110944131899393 -0.26705118582227011 0 0.047979542634282779 -0.2540080455069047 0 0.036110944131899393 -0.26705118582227011 0 0.033312130867552379 -0.25382992555832651 0 0.033312130867552379 -0.25382992555832651 0 0.020793405929845139 -0.26948437704067169 0 0.0208249146239088 -0.24229301485599519 0 0.036110944131899393 -0.26705118582227011 0 0.033312130867552379 -0.25382992555832651 0 0.020793405929845139 -0.26948437704067169 0 -0.00095796240604086101 -0.26761911539816108 0 -0.01241213471794524 -0.25308273483886817 0 0.0208249146239088 -0.24229301485599519 0 0.021191810999659281 -0.29355296221285698 0 0.032877747681330519 -0.27915993676137302 0 0.020793405929845139 -0.26948437704067169 0 0.032877747681330519 -0.27915993676137302 0 0.036110944131899393 -0.26705118582227011 0 0.020793405929845139 -0.26948437704067169 0 -0.00095796240604086101 -0.26761911539816108 0 0.0026659282157936669 -0.28817997861608108 0 0.020793405929845139 -0.26948437704067169 0 -0.00095796240604086101 -0.26761911539816108 0 0.020793405929845139 -0.26948437704067169 0 0.0208249146239088 -0.24229301485599519 0 -0.01241213471794524 -0.25308273483886817 0 -0.0069288431661283859 -0.23594006882876251 0 0.0208249146239088 -0.24229301485599519 0 -0.0069288431661283859 -0.23594006882876251 0 0.0208249146239088 -0.24229301485599519 0 -0.0069288431661283859 -0.23594006882876251 0 0.01296312114467158 -0.22080618424832479 0 0.0208249146239088 -0.24229301485599519 0 -0.0069288431661283859 -0.23594006882876251 0 -0.0024249296216109759 -0.21380289379123299 0 0.01296312114467158 -0.22080618424832479 0 0.01296312114467158 -0.22080618424832479 0 0.0208249146239088 -0.24229301485599519 0 0.032727956174185717 -0.21787083996028661 0 -0.0021130367834329982 -0.1985169928401376 0 0.024965898565201931 -0.1982277433032659 0 0.0016748753455320599 -0.189865468091719 0 0.01954911075851953 -0.19130774796652619 0 0.0076531498080647997 -0.1862927838280429 0 -0.0057221473242836281 -0.19855554433926489 0 -0.0021130367834329982 -0.1985169928401376 0 0.01954911075851953 -0.19130774796652619 0 -0.0057221473242836281 -0.19855554433926489 0 0.0016748753455320599 -0.189865468091719 0 0.01954911075851953 -0.19130774796652619 0 -0.0057221473242836281 -0.19855554433926489 0 0.01954911075851953 -0.19130774796652619 0 -0.0021130367834329982 -0.1985169928401376 0 0.024965898565201931 -0.1982277433032659 0 0.01954911075851953 -0.19130774796652619 0 -0.0021130367834329982 -0.1985169928401376 0 0.01366456327972689 -0.20423282720052249 0 0.024965898565201931 -0.1982277433032659 0 -0.0021130367834329982 -0.1985169928401376 0 0.0097898615723803657 -0.20943782367121719 0 0.01366456327972689 -0.20423282720052249 0 0.0097898615723803657 -0.20943782367121719 0 0.01366456327972689 -0.20423282720052249 0 0.022015529764758259 -0.21074874898746929 0 -0.0024249296216109759 -0.21380289379123299 0 -0.0021130367834329982 -0.1985169928401376 0 0.0097898615723803657 -0.20943782367121719 0 -0.0024249296216109759 -0.21380289379123299 0 0.01296312114467158 -0.22080618424832479 0 0.0097898615723803657 -0.20943782367121719 0 0.01296312114467158 -0.22080618424832479 0 0.0097898615723803657 -0.20943782367121719 0 0.022015529764758259 -0.21074874898746929 0 0.01296312114467158 -0.22080618424832479 0 0.022015529764758259 -0.21074874898746929 0 0.032727956174185717 -0.21787083996028661 0 0.03057613031893516 -0.2073659893427332 0 0.022015529764758259 -0.21074874898746929 0 0.032727956174185717 -0.21787083996028661 0 0.03057613031893516 -0.2073659893427332 0 0.022015529764758259 -0.21074874898746929 0 0.024965898565201931 -0.1982277433032659 0 0.01366456327972689 -0.20423282720052249 0 0.022015529764758259 -0.21074874898746929 0 0.024965898565201931 -0.1982277433032659 0 0.024965898565201931 -0.1982277433032659 0 0.01954911075851953 -0.19130774796652619 0 0.044825996192190902 -0.18458677238663121 0 0.024965898565201931 -0.1982277433032659 0 0.042595136771594752 -0.20261662511991099 0 0.044825996192190902 -0.18458677238663121 0 0.01954911075851953 -0.19130774796652619 0 0.044825996192190902 -0.18458677238663121 0 0.03057613031893516 -0.2073659893427332 0 0.024965898565201931 -0.1982277433032659 0 0.042595136771594752 -0.20261662511991099 0 0.042595136771594752 -0.20261662511991099 0 0.032727956174185717 -0.21787083996028661 0 0.056454391881878521 -0.2189540776041384 0 0.03057613031893516 -0.2073659893427332 0 0.042595136771594752 -0.20261662511991099 0 0.032727956174185717 -0.21787083996028661 0 0.042595136771594752 -0.20261662511991099 0 0.056454391881878521 -0.2189540776041384 0 0.062978956521350243 -0.19758933557429809 0 0.042595136771594752 -0.20261662511991099 0 0.062978956521350243 -0.19758933557429809 0 0.044825996192190902 -0.18458677238663121 0 0.033312130867552379 -0.25382992555832651 0 0.0208249146239088 -0.24229301485599519 0 0.040851847017825793 -0.23631300456579099 0 0.047979542634282779 -0.2540080455069047 0 0.033312130867552379 -0.25382992555832651 0 0.040851847017825793 -0.23631300456579099 0 0.032727956174185717 -0.21787083996028661 0 0.040851847017825793 -0.23631300456579099 0 0.056454391881878521 -0.2189540776041384 0 0.0208249146239088 -0.24229301485599519 0 0.032727956174185717 -0.21787083996028661 0 0.040851847017825793 -0.23631300456579099 0 0.040851847017825793 -0.23631300456579099 0 0.056454391881878521 -0.2189540776041384 0 0.061715516844357943 -0.2393351082148876 0 0.047979542634282779 -0.2540080455069047 0 0.040851847017825793 -0.23631300456579099 0 0.061715516844357943 -0.2393351082148876 0 0.065417397625243512 -0.25720793824732741 0 0.061715516844357943 -0.2393351082148876 0 0.083475338330781412 -0.2428431169585703 0 0.061715516844357943 -0.2393351082148876 0 0.083475338330781412 -0.2428431169585703 0 0.073975356208138762 -0.22653465904908801 0 0.083475338330781412 -0.2428431169585703 0 0.1015332790363194 -0.22847829566981309 0 0.095320304620945956 -0.25735786714235681 0 0.083475338330781412 -0.2428431169585703 0 0.10075602246568729 -0.247130741130379 0 0.083475338330781412 -0.2428431169585703 0 0.089521109585271333 -0.22125589581954541 0 0.1015332790363194 -0.22847829566981309 0 0.083475338330781412 -0.2428431169585703 0 0.089521109585271333 -0.22125589581954541 0 0.073975356208138762 -0.22653465904908801 0 0.089521109585271333 -0.22125589581954541 0 0.073975356208138762 -0.22653465904908801 0 0.078710424398404671 -0.210285096648298 0 0.056454391881878521 -0.2189540776041384 0 0.061715516844357943 -0.2393351082148876 0 0.073975356208138762 -0.22653465904908801 0 0.056454391881878521 -0.2189540776041384 0 0.073975356208138762 -0.22653465904908801 0 0.078710424398404671 -0.210285096648298 0 0.056454391881878521 -0.2189540776041384 0 0.062978956521350243 -0.19758933557429809 0 0.078710424398404671 -0.210285096648298 0 0.062978956521350243 -0.19758933557429809 0 0.085184908258170322 -0.1912276448800736 0 0.070102881625862243 -0.17786579680673609 0 0.062978956521350243 -0.19758933557429809 0 0.085184908258170322 -0.1912276448800736 0 0.078710424398404671 -0.210285096648298 0 0.085184908258170322 -0.1912276448800736 0 0.078710424398404671 -0.210285096648298 0 0.093698942701008897 -0.20356044407052509 0 0.085184908258170322 -0.1912276448800736 0 0.093698942701008897 -0.20356044407052509 0 0.1002791976193327 -0.18627395487489151 0 0.089521109585271333 -0.22125589581954541 0 0.078710424398404671 -0.210285096648298 0 0.093698942701008897 -0.20356044407052509 0 0.089521109585271333 -0.22125589581954541 0 0.093698942701008897 -0.20356044407052509 0 0.10257837308077419 -0.21320421837898221 0 0.10257837308077419 -0.21320421837898221 0 0.1195912197418572 -0.21411347438105599 0 0.1015332790363194 -0.22847829566981309 0 0.10257837308077419 -0.21320421837898221 0 0.10591964326410019 -0.19911585382135999 0 0.1195912197418572 -0.21411347438105599 0 0.093698942701008897 -0.20356044407052509 0 0.10257837308077419 -0.21320421837898221 0 0.10591964326410019 -0.19911585382135999 0 0.093698942701008897 -0.20356044407052509 0 0.10591964326410019 -0.19911585382135999 0 0.1002791976193327 -0.18627395487489151 0 0.10591964326410019 -0.19911585382135999 0 0.12354903960564891 -0.20989968896969949 0 0.1221028460494281 -0.1871617673083229 0 0.10591964326410019 -0.19911585382135999 0 0.1221028460494281 -0.1871617673083229 0 0.1002791976193327 -0.18627395487489151 0 0.12354903960564891 -0.20989968896969949 0 0.1221028460494281 -0.1871617673083229 0 0.10591964326410019 -0.19911585382135999 0 0.12354903960564891 -0.20989968896969949 0 0.1195912197418572 -0.21411347438105599 0 0.10591964326410019 -0.19911585382135999 0 0.1195912197418572 -0.21411347438105599 0 0.12354903960564891 -0.20989968896969949 0 0.1225527060400716 -0.21175765639955729 0 0.1195912197418572 -0.21411347438105599 0 0.1241340057898697 -0.2190968778343966 0 0.12067305353636219 -0.22215267652027559 0 0.12354903960564891 -0.20989968896969949 0 0.1225527060400716 -0.21175765639955729 0 0.1195912197418572 -0.21411347438105599 0 0.1225527060400716 -0.21175765639955729 0 0.1195912197418572 -0.21411347438105599 0 0.1225527060400716 -0.21175765639955729 0 0.1241340057898697 -0.2190968778343966 0 0.1195912197418572 -0.21411347438105599 0 0.1241340057898697 -0.2190968778343966 0 0.1225527060400716 -0.21175765639955729 0 0.1195912197418572 -0.21411347438105599 0 0.1241340057898697 -0.2190968778343966 0 0.124603106919671 -0.2264723668861042 0 0.12067305353636219 -0.22215267652027559 0 0.1147682382250718 -0.22627416789606999 0 0.1195912197418572 -0.21411347438105599 0 0.1147682382250718 -0.22627416789606999 0 0.1015332790363194 -0.22847829566981309 0 0.11151193568457531 -0.2316105216552245 0 0.1309996578686356 -0.2266284485307126 0 0.1195912197418572 -0.21411347438105599 0 0.1015332790363194 -0.22847829566981309 0 0.124603106919671 -0.2264723668861042 0 0.11151193568457531 -0.2316105216552245 0 0.1309996578686356 -0.2266284485307126 0 0.11151193568457531 -0.2316105216552245 0 0.1237886589078623 -0.23659236418800161 0 0.1309996578686356 -0.2266284485307126 0 0.1195912197418572 -0.21411347438105599 0 0.12067305353636219 -0.22215267652027559 0 0.1147682382250718 -0.22627416789606999 0 0.1241340057898697 -0.2190968778343966 0 0.124603106919671 -0.2264723668861042 0 0.12067305353636219 -0.22215267652027559 0 0.1241340057898697 -0.2190968778343966 0 0.124603106919671 -0.2264723668861042 0 0.1195912197418572 -0.21411347438105599 0 0.1147682382250718 -0.22627416789606999 0 0.124603106919671 -0.2264723668861042 0 0.1147682382250718 -0.22627416789606999 0 0.11151193568457531 -0.2316105216552245 0 0.1237886589078623 -0.23659236418800161 0 0.1179387987048378 -0.23894890400365851 0 0.1224890003745731 -0.24541254930308659 0 0.1179387987048378 -0.23894890400365851 0 0.1224890003745731 -0.24541254930308659 0 0.11396559985234039 -0.2421801808683213 0 0.11151193568457531 -0.2316105216552245 0 0.1237886589078623 -0.23659236418800161 0 0.1179387987048378 -0.23894890400365851 0 0.1169120013868776 -0.25262321116256281 0 0.1224890003745731 -0.24541254930308659 0 0.11396559985234039 -0.2421801808683213 0 0.11151193568457531 -0.2316105216552245 0 0.1179387987048378 -0.23894890400365851 0 0.11396559985234039 -0.2421801808683213 0 0.083475338330781412 -0.2428431169585703 0 0.1022484350739408 -0.23844857125646171 0 0.10075602246568729 -0.247130741130379 0 0.11151193568457531 -0.2316105216552245 0 0.11396559985234039 -0.2421801808683213 0 0.1022484350739408 -0.23844857125646171 0 0.083475338330781412 -0.2428431169585703 0 0.1022484350739408 -0.23844857125646171 0 0.1015332790363194 -0.22847829566981309 0 0.11396559985234039 -0.2421801808683213 0 0.1022484350739408 -0.23844857125646171 0 0.10075602246568729 -0.247130741130379 0 0.1064980367032896 -0.25640161499131658 0 0.11396559985234039 -0.2421801808683213 0 0.10075602246568729 -0.247130741130379 0 0.089521109585271333 -0.22125589581954541 0 0.10257837308077419 -0.21320421837898221 0 0.1015332790363194 -0.22847829566981309 0 0.1147682382250718 -0.22627416789606999 0 0.11151193568457531 -0.2316105216552245 0 0.1015332790363194 -0.22847829566981309 0 0.11151193568457531 -0.2316105216552245 0 0.1022484350739408 -0.23844857125646171 0 0.1015332790363194 -0.22847829566981309 0 0.1080879202808319 -0.15451501108285251 0 0.094015080548003463 -0.13780940324308391 0 0.1080879202808319 -0.15451501108285251 0 0.094015080548003463 -0.13780940324308391 0 0.093585871072164956 -0.15490046132849439 0 0.1080879202808319 -0.15451501108285251 0 0.094015080548003463 -0.13780940324308391 0 0.10806115137265811 -0.13413525827336439 0 0.094015080548003463 -0.13780940324308391 0 0.10806115137265811 -0.13413525827336439 0 0.1073873758641825 -0.1201666012699093 0 0.10806115137265811 -0.13413525827336439 0 0.1232538410946369 -0.1262028882071527 0 0.1191486978954456 -0.14071487988278389 0 0.10806115137265811 -0.13413525827336439 0 0.1232538410946369 -0.1262028882071527 0 0.1073873758641825 -0.1201666012699093 0 0.1191486978954456 -0.14071487988278389 0 0.12065665249320499 -0.1644238456469464 0 0.1080879202808319 -0.15451501108285251 0 0.10806115137265811 -0.13413525827336439 0 0.1191486978954456 -0.14071487988278389 0 0.1080879202808319 -0.15451501108285251 0 0.1191486978954456 -0.14071487988278389 0 0.12065665249320499 -0.1644238456469464 0 0.1191486978954456 -0.14071487988278389 0 0.12065665249320499 -0.1644238456469464 0 0.1257480778739504 -0.15175212419531919 0 0.1244356971050361 -0.16050450208418279 0 0.12065665249320499 -0.1644238456469464 0 0.1257480778739504 -0.15175212419531919 0 0.12065665249320499 -0.1644238456469464 0 0.12652377143427199 -0.16458843509899229 0 0.1251443743524793 -0.16227674077552151 0 0.1244356971050361 -0.16050450208418279 0 0.12065665249320499 -0.1644238456469464 0 0.1251443743524793 -0.16227674077552151 0 0.12065665249320499 -0.1644238456469464 0 0.12754889835118269 -0.1739817632498703 0 0.12652377143427199 -0.16458843509899229 0 0.12065665249320499 -0.1644238456469464 0 0.1221028460494281 -0.1871617673083229 0 0.1103344100226237 -0.1764953200444262 0 0.1221028460494281 -0.1871617673083229 0 0.1103344100226237 -0.1764953200444262 0 0.1002791976193327 -0.18627395487489151 0 0.12065665249320499 -0.1644238456469464 0 0.1221028460494281 -0.1871617673083229 0 0.12065665249320499 -0.1644238456469464 0 0.1221028460494281 -0.1871617673083229 0 0.12754889835118269 -0.1739817632498703 0 0.1103344100226237 -0.1764953200444262 0 0.1002791976193327 -0.18627395487489151 0 0.095379767059533618 -0.1711448212268411 0 0.1080879202808319 -0.15451501108285251 0 0.095379767059533618 -0.1711448212268411 0 0.093585871072164956 -0.15490046132849439 0 0.12065665249320499 -0.1644238456469464 0 0.1103344100226237 -0.1764953200444262 0 0.095379767059533618 -0.1711448212268411 0 0.12065665249320499 -0.1644238456469464 0 0.095379767059533618 -0.1711448212268411 0 0.1080879202808319 -0.15451501108285251 0 0.12065665249320499 -0.1644238456469464 0 0.095379767059533618 -0.1711448212268411 0 0.095379767059533618 -0.1711448212268411 0 0.076860716400290838 -0.1561326097612 0 0.093585871072164956 -0.15490046132849439 0 0.095379767059533618 -0.1711448212268411 0 0.070102881625862243 -0.17786579680673609 0 0.076860716400290838 -0.1561326097612 0 0.095379767059533618 -0.1711448212268411 0 0.070102881625862243 -0.17786579680673609 0 0.085184908258170322 -0.1912276448800736 0 0.1002791976193327 -0.18627395487489151 0 0.095379767059533618 -0.1711448212268411 0 0.085184908258170322 -0.1912276448800736 0 0.095379767059533618 -0.1711448212268411 0 0.070102881625862243 -0.17786579680673609 0 0.070102881625862243 -0.17786579680673609 0 0.076860716400290838 -0.1561326097612 0 0.055960245666729719 -0.16615932535980041 0 0.076860716400290838 -0.1561326097612 0 0.056261504397484008 -0.14679121687849991 0 0.055960245666729719 -0.16615932535980041 0 0.076860716400290838 -0.1561326097612 0 0.072978630111665027 -0.13805942034879101 0 0.056261504397484008 -0.14679121687849991 0 0.094015080548003463 -0.13780940324308391 0 0.076860716400290838 -0.1561326097612 0 0.072978630111665027 -0.13805942034879101 0 0.094015080548003463 -0.13780940324308391 0 0.076860716400290838 -0.1561326097612 0 0.093585871072164956 -0.15490046132849439 0 0.094015080548003463 -0.13780940324308391 0 0.072978630111665027 -0.13805942034879101 0 0.079942240815175022 -0.1211037954033153 0 0.094015080548003463 -0.13780940324308391 0 0.079942240815175022 -0.1211037954033153 0 0.072978630111665027 -0.13805942034879101 0 0.062365147829615497 -0.12512687266881559 0 0.079942240815175022 -0.1211037954033153 0 0.072978630111665027 -0.13805942034879101 0 0.062365147829615497 -0.12512687266881559 0 0.056261504397484008 -0.14679121687849991 0 0.062365147829615497 -0.12512687266881559 0 0.047761340978324067 -0.1315767501119299 0 0.056261504397484008 -0.14679121687849991 0 0.047761340978324067 -0.1315767501119299 0 0.056261504397484008 -0.14679121687849991 0 0.042096778161915857 -0.1447357415901242 0 0.042096778161915857 -0.1447357415901242 0 0.036933605675691289 -0.1659067594696122 0 0.030817289205484492 -0.14667560313625999 0 0.056261504397484008 -0.14679121687849991 0 0.042096778161915857 -0.1447357415901242 0 0.036933605675691289 -0.1659067594696122 0 0.042096778161915857 -0.1447357415901242 0 0.036287292412039929 -0.1346393002747853 0 0.030817289205484492 -0.14667560313625999 0 0.036287292412039929 -0.1346393002747853 0 0.040750025083554922 -0.12635310201696329 0 0.03067784426845489 -0.1246648425995763 0 0.047761340978324067 -0.1315767501119299 0 0.036287292412039929 -0.1346393002747853 0 0.040750025083554922 -0.12635310201696329 0 0.047761340978324067 -0.1315767501119299 0 0.042096778161915857 -0.1447357415901242 0 0.036287292412039929 -0.1346393002747853 0 0.070102881625862243 -0.17786579680673609 0 0.055960245666729719 -0.16615932535980041 0 0.044825996192190902 -0.18458677238663121 0 0.070102881625862243 -0.17786579680673609 0 0.044825996192190902 -0.18458677238663121 0 0.062978956521350243 -0.19758933557429809 0 0.070102881625862243 -0.17786579680673609 0 0.044825996192190902 -0.18458677238663121 0 0.056261504397484008 -0.14679121687849991 0 0.055960245666729719 -0.16615932535980041 0 0.036933605675691289 -0.1659067594696122 0 0.036933605675691289 -0.1659067594696122 0 0.044825996192190902 -0.18458677238663121 0 0.026840007063644072 -0.17957506028966519 0 0.055960245666729719 -0.16615932535980041 0 0.036933605675691289 -0.1659067594696122 0 0.044825996192190902 -0.18458677238663121 0 0.036933605675691289 -0.1659067594696122 0 0.026840007063644072 -0.17957506028966519 0 0.018377492282233919 -0.17372157028852669 0 0.01954911075851953 -0.19130774796652619 0 0.044825996192190902 -0.18458677238663121 0 0.026840007063644072 -0.17957506028966519 0 0.01954911075851953 -0.19130774796652619 0 0.026840007063644072 -0.17957506028966519 0 0.014513830409584689 -0.18235245133702949 0 0.026840007063644072 -0.17957506028966519 0 0.018377492282233919 -0.17372157028852669 0 0.014513830409584689 -0.18235245133702949 0 0.036933605675691289 -0.1659067594696122 0 0.018377492282233919 -0.17372157028852669 0 0.013757196106897761 -0.15896731427277511 0 0.036933605675691289 -0.1659067594696122 0 0.013757196106897761 -0.15896731427277511 0 0.030817289205484492 -0.14667560313625999 0 -0.0011051753364124341 -0.16441906961975289 0 0.013757196106897761 -0.15896731427277511 0 0.0033703655294495928 -0.1776326111285679 0 0.018377492282233919 -0.17372157028852669 0 0.013757196106897761 -0.15896731427277511 0 0.0033703655294495928 -0.1776326111285679 0 -0.0011051753364124341 -0.16441906961975289 0 0.013757196106897761 -0.15896731427277511 0 0.001367190774887289 -0.15601023548811599 0 0.018377492282233919 -0.17372157028852669 0 0.0033703655294495928 -0.1776326111285679 0 0.014513830409584689 -0.18235245133702949 0 0.0033703655294495928 -0.1776326111285679 0 0.0016888367019596579 -0.18480537576534531 0 0.0076531498080647997 -0.1862927838280429 0 0.0016748753455320599 -0.189865468091719 0 0.0016888367019596579 -0.18480537576534531 0 0.0076531498080647997 -0.1862927838280429 0 0.01954911075851953 -0.19130774796652619 0 0.0076531498080647997 -0.1862927838280429 0 0.014513830409584689 -0.18235245133702949 0 0.0033703655294495928 -0.1776326111285679 0 0.0076531498080647997 -0.1862927838280429 0 0.014513830409584689 -0.18235245133702949 0 0.013082065861509029 -0.1347981701175909 0 0.03067784426845489 -0.1246648425995763 0 0.025747614617175601 -0.13690189572689801 0 0.013082065861509029 -0.1347981701175909 0 0.03067784426845489 -0.1246648425995763 0 0.025747614617175601 -0.13690189572689801 0 0.01812020142219609 -0.14429365824021459 0 0.013082065861509029 -0.1347981701175909 0 0.036287292412039929 -0.1346393002747853 0 0.025747614617175601 -0.13690189572689801 0 0.03067784426845489 -0.1246648425995763 0 0.036287292412039929 -0.1346393002747853 0 0.025747614617175601 -0.13690189572689801 0 0.030817289205484492 -0.14667560313625999 0 0.025747614617175601 -0.13690189572689801 0 0.030817289205484492 -0.14667560313625999 0 0.01812020142219609 -0.14429365824021459 0 0.013757196106897761 -0.15896731427277511 0 0.030817289205484492 -0.14667560313625999 0 0.01812020142219609 -0.14429365824021459 0 0.013757196106897761 -0.15896731427277511 0 0.0069442268935788268 -0.14057363645318521 0 0.013757196106897761 -0.15896731427277511 0 0.01812020142219609 -0.14429365824021459 0 0.0069442268935788268 -0.14057363645318521 0 0.013757196106897761 -0.15896731427277511 0 0.001367190774887289 -0.15601023548811599 0 0.0069442268935788268 -0.14057363645318521 0 0.013082065861509029 -0.1347981701175909 0 0.0094927730995079326 -0.1253614416200243 0 0.01711266554057447 -0.11781433887577129 0 0.0069442268935788268 -0.14057363645318521 0 0.00050623466739229545 -0.1231923227989264 0 0.0069442268935788268 -0.14057363645318521 0 0.0094927730995079326 -0.1253614416200243 0 0.00050623466739229545 -0.1231923227989264 0 0.0069442268935788268 -0.14057363645318521 0 0.013082065861509029 -0.1347981701175909 0 0.0094927730995079326 -0.1253614416200243 0 0.0069442268935788268 -0.14057363645318521 0 0.013082065861509029 -0.1347981701175909 0 0.01812020142219609 -0.14429365824021459 0 0.0069442268935788268 -0.14057363645318521 0 0.013082065861509029 -0.1347981701175909 0 0.0094927730995079326 -0.1253614416200243 0 0.00050623466739229545 -0.1231923227989264 0 0.0058398971807694074 -0.1113337840242233 0 -0.0059317575587944328 -0.1058110091446678 0 0.00050623466739229545 -0.1231923227989264 0 0.0058398971807694074 -0.1113337840242233 0 0.0058398971807694074 -0.1113337840242233 0 0.01711266554057447 -0.11781433887577129 0 0.016081806941150401 -0.1070089998044486 0 0.0094927730995079326 -0.1253614416200243 0 0.0058398971807694074 -0.1113337840242233 0 0.01711266554057447 -0.11781433887577129 0 0.01711266554057447 -0.11781433887577129 0 0.026576955823325529 -0.1033682280352034 0 0.034369039206499023 -0.1151849234796269 0 0.013082065861509029 -0.1347981701175909 0 0.03067784426845489 -0.1246648425995763 0 0.034369039206499023 -0.1151849234796269 0 0.013082065861509029 -0.1347981701175909 0 0.01711266554057447 -0.11781433887577129 0 0.034369039206499023 -0.1151849234796269 0 0.013082065861509029 -0.1347981701175909 0 0.034369039206499023 -0.1151849234796269 0 0.01711266554057447 -0.11781433887577129 0 0.026576955823325529 -0.1033682280352034 0 0.016081806941150401 -0.1070089998044486 0 0.026576955823325529 -0.1033682280352034 0 0.0147977092199322 -0.095519648282596362 0 0.035527175998659108 -0.085228287420525572 0 0.026576955823325529 -0.1033682280352034 0 0.016081806941150401 -0.1070089998044486 0 0.0147977092199322 -0.095519648282596362 0 -0.0059317575587944328 -0.1058110091446678 0 0.0147977092199322 -0.095519648282596362 0 -0.0059317575587944328 -0.1058110091446678 0 0.0147977092199322 -0.095519648282596362 0 0.0052922863549169771 -0.088257816050998153 0 -0.0059317575587944328 -0.1058110091446678 0 0.0058398971807694074 -0.1113337840242233 0 0.0147977092199322 -0.095519648282596362 0 0.0058398971807694074 -0.1113337840242233 0 0.016081806941150401 -0.1070089998044486 0 0.0147977092199322 -0.095519648282596362 0 0.0147977092199322 -0.095519648282596362 0 0.0052922863549169771 -0.088257816050998153 0 0.014206435396414859 -0.077702190472260665 0 -0.0028374965336953402 -0.080678514719808053 0 0.0052922863549169771 -0.088257816050998153 0 0.014206435396414859 -0.077702190472260665 0 -0.0028374965336953402 -0.080678514719808053 0 0.014206435396414859 -0.077702190472260665 0 0.0045214092930832986 -0.064584551569048368 0 -0.0028374965336953402 -0.080678514719808053 0 0.0045214092930832986 -0.064584551569048368 0 0.014206435396414859 -0.077702190472260665 0 0.0045214092930832986 -0.064584551569048368 0 0.01672881944034036 -0.059492645665836563 0 0.014206435396414859 -0.077702190472260665 0 0.02690509164668263 -0.0676350622810135 0 0.01672881944034036 -0.059492645665836563 0 0.014206435396414859 -0.077702190472260665 0 0.02690509164668263 -0.0676350622810135 0 0.035527175998659108 -0.085228287420525572 0 0.0147977092199322 -0.095519648282596362 0 0.014206435396414859 -0.077702190472260665 0 0.035527175998659108 -0.085228287420525572 0 0.0147977092199322 -0.095519648282596362 0 0.035527175998659108 -0.085228287420525572 0 0.035527175998659108 -0.085228287420525572 0 0.052067885081150268 -0.085937536753875804 0 0.047725742430089833 -0.092661988980746748 0 0.035527175998659108 -0.085228287420525572 0 0.056256642777386019 -0.074936926558454769 0 0.035527175998659108 -0.085228287420525572 0 0.047725742430089833 -0.092661988980746748 0 0.03801451192170327 -0.098404329165990137 0 0.02690509164668263 -0.0676350622810135 0 0.035527175998659108 -0.085228287420525572 0 0.040424373085031592 -0.066118399915209652 0 0.035527175998659108 -0.085228287420525572 0 0.040424373085031592 -0.066118399915209652 0 0.056256642777386019 -0.074936926558454769 0 0.040424373085031592 -0.066118399915209652 0 0.056256642777386019 -0.074936926558454769 0 0.051261525392810418 -0.061404917927085259 0 0.056256642777386019 -0.074936926558454769 0 0.051261525392810418 -0.061404917927085259 0 0.062087838556348252 -0.060290579237654032 0 0.035527175998659108 -0.085228287420525572 0 0.056256642777386019 -0.074936926558454769 0 0.052067885081150268 -0.085937536753875804 0 0.052067885081150268 -0.085937536753875804 0 0.047725742430089833 -0.092661988980746748 0 0.056490132814748607 -0.093264231625928298 0 0.056256642777386019 -0.074936926558454769 0 0.052067885081150268 -0.085937536753875804 0 0.061245248491016591 -0.085077997778888234 0 0.052067885081150268 -0.085937536753875804 0 0.061245248491016591 -0.085077997778888234 0 0.056490132814748607 -0.093264231625928298 0 0.061245248491016591 -0.085077997778888234 0 0.056490132814748607 -0.093264231625928298 0 0.068505901214343731 -0.090931965975797058 0 0.056490132814748607 -0.093264231625928298 0 0.06586940108234654 -0.1043981875635467 0 0.056490132814748607 -0.093264231625928298 0 0.05560949168457905 -0.095521425139461047 0 0.06586940108234654 -0.1043981875635467 0 0.05560949168457905 -0.095521425139461047 0 0.048273622675400772 -0.11453151508156161 0 0.06586940108234654 -0.1043981875635467 0 0.047725742430089833 -0.092661988980746748 0 0.05560949168457905 -0.095521425139461047 0 0.043929696310717789 -0.1004431666914562 0 0.047725742430089833 -0.092661988980746748 0 0.056490132814748607 -0.093264231625928298 0 0.05560949168457905 -0.095521425139461047 0 0.062365147829615497 -0.12512687266881559 0 0.047761340978324067 -0.1315767501119299 0 0.048273622675400772 -0.11453151508156161 0 0.048273622675400772 -0.11453151508156161 0 0.06586940108234654 -0.1043981875635467 0 0.062365147829615497 -0.12512687266881559 0 0.048273622675400772 -0.11453151508156161 0 0.06586940108234654 -0.1043981875635467 0 0.03067784426845489 -0.1246648425995763 0 0.048273622675400772 -0.11453151508156161 0 0.034369039206499023 -0.1151849234796269 0 0.047761340978324067 -0.1315767501119299 0 0.040750025083554922 -0.12635310201696329 0 0.048273622675400772 -0.11453151508156161 0 0.03067784426845489 -0.1246648425995763 0 0.048273622675400772 -0.11453151508156161 0 0.040750025083554922 -0.12635310201696329 0 0.03067784426845489 -0.1246648425995763 0 0.048273622675400772 -0.11453151508156161 0 0.026576955823325529 -0.1033682280352034 0 0.034369039206499023 -0.1151849234796269 0 0.03801451192170327 -0.098404329165990137 0 0.05560949168457905 -0.095521425139461047 0 0.034369039206499023 -0.1151849234796269 0 0.043929696310717789 -0.1004431666914562 0 0.05560949168457905 -0.095521425139461047 0 0.048273622675400772 -0.11453151508156161 0 0.034369039206499023 -0.1151849234796269 0 0.034369039206499023 -0.1151849234796269 0 0.03801451192170327 -0.098404329165990137 0 0.043929696310717789 -0.1004431666914562 0 0.05560949168457905 -0.095521425139461047 0 0.034369039206499023 -0.1151849234796269 0 0.026576955823325529 -0.1033682280352034 0 0.035527175998659108 -0.085228287420525572 0 0.03801451192170327 -0.098404329165990137 0 0.047725742430089833 -0.092661988980746748 0 0.03801451192170327 -0.098404329165990137 0 0.043929696310717789 -0.1004431666914562 0 0.024527229792345461 -0.0066640793824556278 0 0.02769011368757196 -0.01409698789253337 0 0.033112655901409799 -0.00063324611952645087 0 0.018624474460967239 0.00024362624283911019 0 0.024527229792345461 -0.0066640793824556278 0 0.033112655901409799 -0.00063324611952645087 0 0.02769011368757196 -0.01409698789253337 0 0.029619442959373431 -0.01581465261299133 0 0.033112655901409799 -0.00063324611952645087 0 0.02769011368757196 -0.01409698789253337 0 0.02241517784992493 -0.013257884254654609 0 0.020464780813194489 -0.019017433357974581 0 0.024527229792345461 -0.0066640793824556278 0 0.02769011368757196 -0.01409698789253337 0 0.02241517784992493 -0.013257884254654609 0 0.024527229792345461 -0.0066640793824556278 0 0.02241517784992493 -0.013257884254654609 0 0.016978587106587818 -0.013253036385654841 0 0.02241517784992493 -0.013257884254654609 0 0.016978587106587818 -0.013253036385654841 0 0.020464780813194489 -0.019017433357974581 0 0.018624474460967239 0.00024362624283911019 0 0.024527229792345461 -0.0066640793824556278 0 0.016978587106587818 -0.013253036385654841 0 0.018624474460967239 0.00024362624283911019 0 0.0015075461902561359 -0.0206127781360903 0 -0.00071596282873132163 -0.008595039857743892 0 0.018624474460967239 0.00024362624283911019 0 0.0015075461902561359 -0.0206127781360903 0 -0.00071596282873132163 -0.008595039857743892 0 0.0044529143093724691 0.001599530544337085 0 0.018624474460967239 0.00024362624283911019 0 0.018624474460967239 0.00024362624283911019 0 0.016978587106587818 -0.013253036385654841 0 0.0015075461902561359 -0.0206127781360903 0 0.01579671925926639 -0.023909679764942949 0 0.01127674673547514 -0.03133261316807813 0 9.3668589405805289e-05 -0.032689431139981337 0 0.016978587106587818 -0.013253036385654841 0 0.0015075461902561359 -0.0206127781360903 0 0.01579671925926639 -0.023909679764942949 0 0.01579671925926639 -0.023909679764942949 0 9.3668589405805289e-05 -0.032689431139981337 0 0.0015075461902561359 -0.0206127781360903 0 0.01579671925926639 -0.023909679764942949 0 9.3668589405805289e-05 -0.032689431139981337 0 0.01579671925926639 -0.023909679764942949 0 0.019796201442581741 -0.031298830099151111 0 0.01127674673547514 -0.03133261316807813 0 0.02769011368757196 -0.01409698789253337 0 0.019796201442581741 -0.031298830099151111 0 0.01579671925926639 -0.023909679764942949 0 0.020464780813194489 -0.019017433357974581 0 0.019796201442581741 -0.031298830099151111 0 0.02769011368757196 -0.01409698789253337 0 0.027336230431006352 -0.025224217001540521 0 0.019796201442581741 -0.031298830099151111 0 0.02769011368757196 -0.01409698789253337 0 0.020464780813194489 -0.019017433357974581 0 0.019796201442581741 -0.031298830099151111 0 0.016978587106587818 -0.013253036385654841 0 0.01579671925926639 -0.023909679764942949 0 0.020464780813194489 -0.019017433357974581 0 0.02769011368757196 -0.01409698789253337 0 0.030075091473621269 -0.02090700557786894 0 0.027336230431006352 -0.025224217001540521 0 0.02769011368757196 -0.01409698789253337 0 0.029619442959373431 -0.01581465261299133 0 0.030075091473621269 -0.02090700557786894 0 0.027336230431006352 -0.025224217001540521 0 0.02780493988834257 -0.033522780679820743 0 0.032559099895504928 -0.026276020616535441 0 0.027336230431006352 -0.025224217001540521 0 0.02780493988834257 -0.033522780679820743 0 0.019796201442581741 -0.031298830099151111 0 0.030075091473621269 -0.02090700557786894 0 0.027336230431006352 -0.025224217001540521 0 0.032559099895504928 -0.026276020616535441 0 0.022468505947011361 -0.043612645198230847 0 0.019796201442581741 -0.031298830099151111 0 0.01190228919759056 -0.048500672305768391 0 0.019796201442581741 -0.031298830099151111 0 0.01190228919759056 -0.048500672305768391 0 0.02780493988834257 -0.033522780679820743 0 0.030302067309816012 -0.044599550339117389 0 0.034180205804708437 -0.037929314957609907 0 0.02780493988834257 -0.033522780679820743 0 0.030302067309816012 -0.044599550339117389 0 0.022468505947011361 -0.043612645198230847 0 0.022468505947011361 -0.043612645198230847 0 0.01190228919759056 -0.048500672305768391 0 0.02780493988834257 -0.033522780679820743 0 0.022468505947011361 -0.043612645198230847 0 0.019796201442581741 -0.031298830099151111 0 0.019796201442581741 -0.031298830099151111 0 0.0094203976506466343 -0.037432511668237141 0 0.01127674673547514 -0.03133261316807813 0 0.019796201442581741 -0.031298830099151111 0 0.0094203976506466343 -0.037432511668237141 0 0.01190228919759056 -0.048500672305768391 0 -0.001359163330916917 -0.044638420598685717 0 0.0094203976506466343 -0.037432511668237141 0 9.3668589405805289e-05 -0.032689431139981337 0 0.0094203976506466343 -0.037432511668237141 0 0.01127674673547514 -0.03133261316807813 0 9.3668589405805289e-05 -0.032689431139981337 0 -0.001359163330916917 -0.044638420598685717 0 0.0094203976506466343 -0.037432511668237141 0 0.01190228919759056 -0.048500672305768391 0 0.0045214092930832986 -0.064584551569048368 0 0.01190228919759056 -0.048500672305768391 0 -0.0047714937038859373 -0.056214114566174041 0 0.0045214092930832986 -0.064584551569048368 0 0.01190228919759056 -0.048500672305768391 0 0.0045214092930832986 -0.064584551569048368 0 0.01190228919759056 -0.048500672305768391 0 0.01672881944034036 -0.059492645665836563 0 -0.0047714937038859373 -0.056214114566174041 0 0.01190228919759056 -0.048500672305768391 0 -0.001359163330916917 -0.044638420598685717 0 -0.0047714937038859373 -0.056214114566174041 0 0.01190228919759056 -0.048500672305768391 0 0.022468505947011361 -0.043612645198230847 0 0.01190228919759056 -0.048500672305768391 0 0.01672881944034036 -0.059492645665836563 0 0.022468505947011361 -0.043612645198230847 0 0.01672881944034036 -0.059492645665836563 0 0.029495238935608011 -0.053588322327083063 0 0.030302067309816012 -0.044599550339117389 0 0.022468505947011361 -0.043612645198230847 0 0.029495238935608011 -0.053588322327083063 0 0.02690509164668263 -0.0676350622810135 0 0.01672881944034036 -0.059492645665836563 0 0.029495238935608011 -0.053588322327083063 0 0.02690509164668263 -0.0676350622810135 0 0.040424373085031592 -0.066118399915209652 0 0.029495238935608011 -0.053588322327083063 0 0.040424373085031592 -0.066118399915209652 0 0.029495238935608011 -0.053588322327083063 0 0.043276013715277367 -0.053981853630414411 0 0.030302067309816012 -0.044599550339117389 0 0.029495238935608011 -0.053588322327083063 0 0.037813949662529753 -0.045509897544414708 0 0.029495238935608011 -0.053588322327083063 0 0.043276013715277367 -0.053981853630414411 0 0.037813949662529753 -0.045509897544414708 0 0.043276013715277367 -0.053981853630414411 0 0.046946450230687317 -0.04440366142903069 0 0.037813949662529753 -0.045509897544414708 0 0.040424373085031592 -0.066118399915209652 0 0.043276013715277367 -0.053981853630414411 0 0.051261525392810418 -0.061404917927085259 0 0.043276013715277367 -0.053981853630414411 0 0.051261525392810418 -0.061404917927085259 0 0.053714544984997087 -0.052865922639663138 0 0.051261525392810418 -0.061404917927085259 0 0.062087838556348252 -0.060290579237654032 0 0.053714544984997087 -0.052865922639663138 0 0.062087838556348252 -0.060290579237654032 0 0.061751219914910331 -0.050924584166970689 0 0.053714544984997087 -0.052865922639663138 0 0.061751219914910331 -0.050924584166970689 0 0.053714544984997087 -0.052865922639663138 0 0.056271903052456967 -0.043343950072687577 0 0.043276013715277367 -0.053981853630414411 0 0.053714544984997087 -0.052865922639663138 0 0.046946450230687317 -0.04440366142903069 0 0.053714544984997087 -0.052865922639663138 0 0.046946450230687317 -0.04440366142903069 0 0.056271903052456967 -0.043343950072687577 0 0.046946450230687317 -0.04440366142903069 0 0.056271903052456967 -0.043343950072687577 0 0.04922783105997814 -0.034902257756998643 0 0.056271903052456967 -0.043343950072687577 0 0.060973294691642567 -0.033847017704080093 0 0.065378576843365288 -0.042497674993408917 0 0.061751219914910331 -0.050924584166970689 0 0.056271903052456967 -0.043343950072687577 0 0.065378576843365288 -0.042497674993408917 0 0.056271903052456967 -0.043343950072687577 0 0.060973294691642567 -0.033847017704080093 0 0.04922783105997814 -0.034902257756998643 0 0.060973294691642567 -0.033847017704080093 0 0.04922783105997814 -0.034902257756998643 0 0.054405941602567259 -0.02719961616040038 0 0.04922783105997814 -0.034902257756998643 0 0.041273067948390488 -0.037462501092398952 0 0.042331576399887397 -0.03102865424841764 0 0.046946450230687317 -0.04440366142903069 0 0.04922783105997814 -0.034902257756998643 0 0.041273067948390488 -0.037462501092398952 0 0.041273067948390488 -0.037462501092398952 0 0.035916238876610759 -0.031551583936675849 0 0.042331576399887397 -0.03102865424841764 0 0.046946450230687317 -0.04440366142903069 0 0.041273067948390488 -0.037462501092398952 0 0.037813949662529753 -0.045509897544414708 0 0.041273067948390488 -0.037462501092398952 0 0.037813949662529753 -0.045509897544414708 0 0.034180205804708437 -0.037929314957609907 0 0.030302067309816012 -0.044599550339117389 0 0.037813949662529753 -0.045509897544414708 0 0.034180205804708437 -0.037929314957609907 0 0.02780493988834257 -0.033522780679820743 0 0.034180205804708437 -0.037929314957609907 0 0.035916238876610759 -0.031551583936675849 0 0.041273067948390488 -0.037462501092398952 0 0.034180205804708437 -0.037929314957609907 0 0.035916238876610759 -0.031551583936675849 0 0.02780493988834257 -0.033522780679820743 0 0.035916238876610759 -0.031551583936675849 0 0.032559099895504928 -0.026276020616535441 0 0.032559099895504928 -0.026276020616535441 0 0.035047079538689761 -0.02040875577662642 0 0.039175019164758837 -0.026041780726680189 0 0.035916238876610759 -0.031551583936675849 0 0.032559099895504928 -0.026276020616535441 0 0.039175019164758837 -0.026041780726680189 0 0.035047079538689761 -0.02040875577662642 0 0.042445774802912312 -0.016315126131898051 0 0.039175019164758837 -0.026041780726680189 0 0.029619442959373431 -0.01581465261299133 0 0.035047079538689761 -0.02040875577662642 0 0.042445774802912312 -0.016315126131898051 0 0.030075091473621269 -0.02090700557786894 0 0.032559099895504928 -0.026276020616535441 0 0.035047079538689761 -0.02040875577662642 0 0.029619442959373431 -0.01581465261299133 0 0.030075091473621269 -0.02090700557786894 0 0.035047079538689761 -0.02040875577662642 0 0.042445774802912312 -0.016315126131898051 0 0.046764471385294173 -0.025233846934283571 0 0.039175019164758837 -0.026041780726680189 0 0.04922783105997814 -0.034902257756998643 0 0.046764471385294173 -0.025233846934283571 0 0.042331576399887397 -0.03102865424841764 0 0.035916238876610759 -0.031551583936675849 0 0.039175019164758837 -0.026041780726680189 0 0.042331576399887397 -0.03102865424841764 0 0.046764471385294173 -0.025233846934283571 0 0.039175019164758837 -0.026041780726680189 0 0.042331576399887397 -0.03102865424841764 0 0.04922783105997814 -0.034902257756998643 0 0.046764471385294173 -0.025233846934283571 0 0.054405941602567259 -0.02719961616040038 0 0.060973294691642567 -0.033847017704080093 0 0.054405941602567259 -0.02719961616040038 0 0.062498093270746791 -0.023733181302404451 0 0.054405941602567259 -0.02719961616040038 0 0.062498093270746791 -0.023733181302404451 0 0.053497723039192653 -0.016452305585805831 0 0.042445774802912312 -0.016315126131898051 0 0.046764471385294173 -0.025233846934283571 0 0.053497723039192653 -0.016452305585805831 0 0.046764471385294173 -0.025233846934283571 0 0.054405941602567259 -0.02719961616040038 0 0.053497723039192653 -0.016452305585805831 0 0.042445774802912312 -0.016315126131898051 0 0.053497723039192653 -0.016452305585805831 0 0.047625854666841223 -0.00042499582266109989 0 0.053497723039192653 -0.016452305585805831 0 0.047625854666841223 -0.00042499582266109989 0 0.067246202506794167 -0.00580706716318748 0 0.062498093270746791 -0.023733181302404451 0 0.053497723039192653 -0.016452305585805831 0 0.067246202506794167 -0.00580706716318748 0 0.029619442959373431 -0.01581465261299133 0 0.047625854666841223 -0.00042499582266109989 0 0.033112655901409799 -0.00063324611952645087 0 0.029619442959373431 -0.01581465261299133 0 0.042445774802912312 -0.016315126131898051 0 0.047625854666841223 -0.00042499582266109989 0 0.029619442959373431 -0.01581465261299133 0 0.047625854666841223 -0.00042499582266109989 0 0.086474162963314449 -0.0049404096715552834 0 0.067246202506794167 -0.00580706716318748 0 0.078888699550349273 -0.03028260178149747 0 0.062498093270746791 -0.023733181302404451 0 0.067246202506794167 -0.00580706716318748 0 0.078888699550349273 -0.03028260178149747 0 0.060973294691642567 -0.033847017704080093 0 0.062498093270746791 -0.023733181302404451 0 0.078888699550349273 -0.03028260178149747 0 0.086474162963314449 -0.0049404096715552834 0 0.078888699550349273 -0.03028260178149747 0 0.078888699550349273 -0.03028260178149747 0 0.095568109227554196 -0.034714674530584293 0 0.096889902256702728 -0.021789167287949759 0 0.086474162963314449 -0.0049404096715552834 0 0.078888699550349273 -0.03028260178149747 0 0.096889902256702728 -0.021789167287949759 0 0.078888699550349273 -0.03028260178149747 0 0.086939098218991387 -0.045734952924526583 0 0.071303236137384068 -0.05562479389143974 0 0.078888699550349273 -0.03028260178149747 0 0.086939098218991387 -0.045734952924526583 0 0.095568109227554196 -0.034714674530584293 0 0.086939098218991387 -0.045734952924526583 0 0.092714568979586257 -0.047939025797645612 0 0.096620373240606766 -0.042630396851778642 0 0.086939098218991387 -0.045734952924526583 0 0.096620373240606766 -0.042630396851778642 0 0.095568109227554196 -0.034714674530584293 0 0.078888699550349273 -0.03028260178149747 0 0.071303236137384068 -0.05562479389143974 0 0.060973294691642567 -0.033847017704080093 0 0.078888699550349273 -0.03028260178149747 0 0.065378576843365288 -0.042497674993408917 0 0.078888699550349273 -0.03028260178149747 0 0.065378576843365288 -0.042497674993408917 0 0.071303236137384068 -0.05562479389143974 0 0.061751219914910331 -0.050924584166970689 0 0.065378576843365288 -0.042497674993408917 0 0.071303236137384068 -0.05562479389143974 0 0.062087838556348252 -0.060290579237654032 0 0.071303236137384068 -0.05562479389143974 0 0.076986109556112903 -0.064645565696383994 0 0.062087838556348252 -0.060290579237654032 0 0.061751219914910331 -0.050924584166970689 0 0.071303236137384068 -0.05562479389143974 0 0.071303236137384068 -0.05562479389143974 0 0.08471694216096172 -0.056442288923182787 0 0.076986109556112903 -0.064645565696383994 0 0.08471694216096172 -0.056442288923182787 0 0.076986109556112903 -0.064645565696383994 0 0.08491741187960937 -0.064682025645731347 0 0.086939098218991387 -0.045734952924526583 0 0.071303236137384068 -0.05562479389143974 0 0.08471694216096172 -0.056442288923182787 0 0.086939098218991387 -0.045734952924526583 0 0.08471694216096172 -0.056442288923182787 0 0.089345773585306154 -0.051583738617714578 0 0.089345773585306154 -0.051583738617714578 0 0.092714568979586257 -0.047939025797645612 0 0.093012484981685309 -0.056218686825503343 0 0.086939098218991387 -0.045734952924526583 0 0.089345773585306154 -0.051583738617714578 0 0.092714568979586257 -0.047939025797645612 0 0.08471694216096172 -0.056442288923182787 0 0.08491741187960937 -0.064682025645731347 0 0.092906325173949422 -0.064187837867481307 0 0.08471694216096172 -0.056442288923182787 0 0.093012484981685309 -0.056218686825503343 0 0.092906325173949422 -0.064187837867481307 0 0.08471694216096172 -0.056442288923182787 0 0.089345773585306154 -0.051583738617714578 0 0.093012484981685309 -0.056218686825503343 0 0.10540541081100981 -0.055528552984275177 0 0.1084590367521501 -0.046700099628400153 0 0.1088225070008305 -0.063606515119414703 0 0.093012484981685309 -0.056218686825503343 0 0.097604106350264563 -0.059801278735140379 0 0.092906325173949422 -0.064187837867481307 0 0.093012484981685309 -0.056218686825503343 0 0.1010129291273293 -0.055630906790865679 0 0.097604106350264563 -0.059801278735140379 0 0.1010129291273293 -0.055630906790865679 0 0.097604106350264563 -0.059801278735140379 0 0.102781022784479 -0.060036952855810607 0 0.097604106350264563 -0.059801278735140379 0 0.102781022784479 -0.060036952855810607 0 0.101060160632961 -0.065617510649357086 0 0.093012484981685309 -0.056218686825503343 0 0.1010129291273293 -0.055630906790865679 0 0.098941163707847835 -0.049368373869400399 0 0.092714568979586257 -0.047939025797645612 0 0.093012484981685309 -0.056218686825503343 0 0.098941163707847835 -0.049368373869400399 0 0.1010129291273293 -0.055630906790865679 0 0.098941163707847835 -0.049368373869400399 0 0.10388528328074061 -0.050690793598339848 0 0.10388528328074061 -0.050690793598339848 0 0.10540541081100981 -0.055528552984275177 0 0.1084590367521501 -0.046700099628400153 0 0.1010129291273293 -0.055630906790865679 0 0.10388528328074061 -0.050690793598339848 0 0.10540541081100981 -0.055528552984275177 0 0.10388528328074061 -0.050690793598339848 0 0.1084590367521501 -0.046700099628400153 0 0.1035360403338005 -0.044690386083755237 0 0.098941163707847835 -0.049368373869400399 0 0.10388528328074061 -0.050690793598339848 0 0.1035360403338005 -0.044690386083755237 0 0.10540541081100981 -0.055528552984275177 0 0.102781022784479 -0.060036952855810607 0 0.1088225070008305 -0.063606515119414703 0 0.1010129291273293 -0.055630906790865679 0 0.10540541081100981 -0.055528552984275177 0 0.102781022784479 -0.060036952855810607 0 0.1125864481803034 -0.058497836344225423 0 0.1112180588535724 -0.035968238894941537 0 0.1088225070008305 -0.063606515119414703 0 0.1112180588535724 -0.035968238894941537 0 0.1088225070008305 -0.063606515119414703 0 0.1112180588535724 -0.035968238894941537 0 0.1084590367521501 -0.046700099628400153 0 0.1088225070008305 -0.063606515119414703 0 0.1125864481803034 -0.058497836344225423 0 0.1239275529706365 -0.060038457070599141 0 0.1186823459305789 -0.066930060893678284 0 0.1125864481803034 -0.058497836344225423 0 0.1239275529706365 -0.060038457070599141 0 0.12355870438743941 -0.048491440851528449 0 0.1125864481803034 -0.058497836344225423 0 0.12285869982271171 -0.031848542554521769 0 0.12355870438743941 -0.048491440851528449 0 0.12285869982271171 -0.031848542554521769 0 0.12794012008094391 -0.041981424138082722 0 0.1125864481803034 -0.058497836344225423 0 0.1132825410878851 -0.037624804170177183 0 0.12285869982271171 -0.031848542554521769 0 0.1125864481803034 -0.058497836344225423 0 0.12355870438743941 -0.048491440851528449 0 0.12285869982271171 -0.031848542554521769 0 0.1125864481803034 -0.058497836344225423 0 0.1132825410878851 -0.037624804170177183 0 0.1112180588535724 -0.035968238894941537 0 0.1132825410878851 -0.037624804170177183 0 0.1112180588535724 -0.035968238894941537 0 0.1230630385710916 -0.02187651922450019 0 0.1112180588535724 -0.035968238894941537 0 0.1058134681203677 -0.03371398884809159 0 0.1058044590480324 -0.027527367245648051 0 0.1058134681203677 -0.03371398884809159 0 0.10281470609978299 -0.036252597985207947 0 0.10139842039803711 -0.031153433879001938 0 0.1058134681203677 -0.03371398884809159 0 0.10281470609978299 -0.036252597985207947 0 0.1064878905882697 -0.037628463835883391 0 0.10281470609978299 -0.036252597985207947 0 0.1064878905882697 -0.037628463835883391 0 0.10467482631844161 -0.040761914173163993 0 0.10281470609978299 -0.036252597985207947 0 0.10467482631844161 -0.040761914173163993 0 0.1004893586401823 -0.039991837056468887 0 0.1112180588535724 -0.035968238894941537 0 0.1064878905882697 -0.037628463835883391 0 0.10779844163460379 -0.041091077130750893 0 0.1112180588535724 -0.035968238894941537 0 0.1058134681203677 -0.03371398884809159 0 0.1064878905882697 -0.037628463835883391 0 0.1112180588535724 -0.035968238894941537 0 0.10779844163460379 -0.041091077130750893 0 0.1084590367521501 -0.046700099628400153 0 0.10779844163460379 -0.041091077130750893 0 0.106117086259749 -0.043310869254017573 0 0.10467482631844161 -0.040761914173163993 0 0.1064878905882697 -0.037628463835883391 0 0.10779844163460379 -0.041091077130750893 0 0.10467482631844161 -0.040761914173163993 0 0.10779844163460379 -0.041091077130750893 0 0.1084590367521501 -0.046700099628400153 0 0.106117086259749 -0.043310869254017573 0 0.1084590367521501 -0.046700099628400153 0 0.106117086259749 -0.043310869254017573 0 0.1035360403338005 -0.044690386083755237 0 0.1035360403338005 -0.044690386083755237 0 0.10467482631844161 -0.040761914173163993 0 0.1004893586401823 -0.039991837056468887 0 0.106117086259749 -0.043310869254017573 0 0.1035360403338005 -0.044690386083755237 0 0.10467482631844161 -0.040761914173163993 0 0.1004893586401823 -0.039991837056468887 0 0.096620373240606766 -0.042630396851778642 0 0.095568109227554196 -0.034714674530584293 0 0.1035360403338005 -0.044690386083755237 0 0.1004893586401823 -0.039991837056468887 0 0.096620373240606766 -0.042630396851778642 0 0.098941163707847835 -0.049368373869400399 0 0.1035360403338005 -0.044690386083755237 0 0.096620373240606766 -0.042630396851778642 0 0.092714568979586257 -0.047939025797645612 0 0.098941163707847835 -0.049368373869400399 0 0.096620373240606766 -0.042630396851778642 0 0.10281470609978299 -0.036252597985207947 0 0.095568109227554196 -0.034714674530584293 0 0.10139842039803711 -0.031153433879001938 0 0.10281470609978299 -0.036252597985207947 0 0.1004893586401823 -0.039991837056468887 0 0.095568109227554196 -0.034714674530584293 0 0.1112180588535724 -0.035968238894941537 0 0.1068222402808051 -0.018665612336189411 0 0.1058044590480324 -0.027527367245648051 0 0.095568109227554196 -0.034714674530584293 0 0.10139842039803711 -0.031153433879001938 0 0.096889902256702728 -0.021789167287949759 0 0.10139842039803711 -0.031153433879001938 0 0.096889902256702728 -0.021789167287949759 0 0.1058044590480324 -0.027527367245648051 0 0.096889902256702728 -0.021789167287949759 0 0.1068222402808051 -0.018665612336189411 0 0.1058044590480324 -0.027527367245648051 0 0.1058134681203677 -0.03371398884809159 0 0.10139842039803711 -0.031153433879001938 0 0.1058044590480324 -0.027527367245648051 0 0.1112180588535724 -0.035968238894941537 0 0.1136136107063144 -0.0083299626704685381 0 0.1132825410878851 -0.037624804170177183 0 0.12285869982271171 -0.031848542554521769 0 0.1230630385710916 -0.02187651922450019 0 0.1112180588535724 -0.035968238894941537 0 0.1068222402808051 -0.018665612336189411 0 0.1136136107063144 -0.0083299626704685381 0 0.1112180588535724 -0.035968238894941537 0 0.1230630385710916 -0.02187651922450019 0 0.1136136107063144 -0.0083299626704685381 0 0.1132825410878851 -0.037624804170177183 0 0.1230630385710916 -0.02187651922450019 0 0.1230630385710916 -0.02187651922450019 0 0.1195207288501979 -0.001194353383229735 0 0.1136136107063144 -0.0083299626704685381 0 0.1230630385710916 -0.02187651922450019 0 0.1195207288501979 -0.001194353383229735 0 0.10220168048510241 0.0069554238602353618 0 0.086474162963314449 -0.0049404096715552834 0 0.10039190820330959 -0.0063679837567867754 0 0.086474162963314449 -0.0049404096715552834 0 0.096889902256702728 -0.021789167287949759 0 0.10039190820330959 -0.0063679837567867754 0 0.10805409048844559 0.002891447746746191 0 0.1136136107063144 -0.0083299626704685381 0 0.10039190820330959 -0.0063679837567867754 0 0.1068222402808051 -0.018665612336189411 0 0.1136136107063144 -0.0083299626704685381 0 0.10039190820330959 -0.0063679837567867754 0 0.096889902256702728 -0.021789167287949759 0 0.1068222402808051 -0.018665612336189411 0 0.10039190820330959 -0.0063679837567867754 0 0.081225209343131044 -0.107245690121906 0 0.093464652965053047 -0.1125437677457209 0 0.08682701721610972 -0.092328793225390449 0 0.094015080548003463 -0.13780940324308391 0 0.093464652965053047 -0.1125437677457209 0 0.079942240815175022 -0.1211037954033153 0 0.081225209343131044 -0.107245690121906 0 0.093464652965053047 -0.1125437677457209 0 0.079942240815175022 -0.1211037954033153 0 0.079942240815175022 -0.1211037954033153 0 0.06586940108234654 -0.1043981875635467 0 0.081225209343131044 -0.107245690121906 0 0.079942240815175022 -0.1211037954033153 0 0.06586940108234654 -0.1043981875635467 0 0.062365147829615497 -0.12512687266881559 0 0.079942240815175022 -0.1211037954033153 0 0.06586940108234654 -0.1043981875635467 0 0.06586940108234654 -0.1043981875635467 0 0.08682701721610972 -0.092328793225390449 0 0.081225209343131044 -0.107245690121906 0 0.06586940108234654 -0.1043981875635467 0 0.08682701721610972 -0.092328793225390449 0 0.06586940108234654 -0.1043981875635467 0 0.068505901214343731 -0.090931965975797058 0 0.08682701721610972 -0.092328793225390449 0 0.056490132814748607 -0.093264231625928298 0 0.06586940108234654 -0.1043981875635467 0 0.068505901214343731 -0.090931965975797058 0 0.068505901214343731 -0.090931965975797058 0 0.072260996631235336 -0.080628025604377845 0 0.08682701721610972 -0.092328793225390449 0 0.056256642777386019 -0.074936926558454769 0 0.061245248491016591 -0.085077997778888234 0 0.072260996631235336 -0.080628025604377845 0 0.061245248491016591 -0.085077997778888234 0 0.068505901214343731 -0.090931965975797058 0 0.072260996631235336 -0.080628025604377845 0 0.056256642777386019 -0.074936926558454769 0 0.062087838556348252 -0.060290579237654032 0 0.076986109556112903 -0.064645565696383994 0 0.056256642777386019 -0.074936926558454769 0 0.076986109556112903 -0.064645565696383994 0 0.072260996631235336 -0.080628025604377845 0 0.076986109556112903 -0.064645565696383994 0 0.085060270627413476 -0.073452410095877302 0 0.056256642777386019 -0.074936926558454769 0 0.072260996631235336 -0.080628025604377845 0 0.076986109556112903 -0.064645565696383994 0 0.076986109556112903 -0.064645565696383994 0 0.08491741187960937 -0.064682025645731347 0 0.085060270627413476 -0.073452410095877302 0 0.085060270627413476 -0.073452410095877302 0 0.092906325173949422 -0.064187837867481307 0 0.096435368742760652 -0.074521828618838437 0 0.08491741187960937 -0.064682025645731347 0 0.085060270627413476 -0.073452410095877302 0 0.092906325173949422 -0.064187837867481307 0 0.085060270627413476 -0.073452410095877302 0 0.08682701721610972 -0.092328793225390449 0 0.096435368742760652 -0.074521828618838437 0 0.072260996631235336 -0.080628025604377845 0 0.085060270627413476 -0.073452410095877302 0 0.08682701721610972 -0.092328793225390449 0 0.08682701721610972 -0.092328793225390449 0 0.1077846333498728 -0.080259398887233949 0 0.096435368742760652 -0.074521828618838437 0 0.08682701721610972 -0.092328793225390449 0 0.1077846333498728 -0.080259398887233949 0 0.1065731131521947 -0.1007201651840629 0 0.08682701721610972 -0.092328793225390449 0 0.1077846333498728 -0.080259398887233949 0 0.092906325173949422 -0.064187837867481307 0 0.101060160632961 -0.065617510649357086 0 0.096435368742760652 -0.074521828618838437 0 0.101060160632961 -0.065617510649357086 0 0.096435368742760652 -0.074521828618838437 0 0.10503098302135901 -0.070760683409192587 0 0.097604106350264563 -0.059801278735140379 0 0.092906325173949422 -0.064187837867481307 0 0.101060160632961 -0.065617510649357086 0 0.1077846333498728 -0.080259398887233949 0 0.096435368742760652 -0.074521828618838437 0 0.10503098302135901 -0.070760683409192587 0 0.1077846333498728 -0.080259398887233949 0 0.10503098302135901 -0.070760683409192587 0 0.11309735250795 -0.071104613545411421 0 0.10503098302135901 -0.070760683409192587 0 0.1088225070008305 -0.063606515119414703 0 0.11309735250795 -0.071104613545411421 0 0.101060160632961 -0.065617510649357086 0 0.10503098302135901 -0.070760683409192587 0 0.1088225070008305 -0.063606515119414703 0 0.102781022784479 -0.060036952855810607 0 0.101060160632961 -0.065617510649357086 0 0.1088225070008305 -0.063606515119414703 0 0.1077846333498728 -0.080259398887233949 0 0.11309735250795 -0.071104613545411421 0 0.12516629323710879 -0.073966409417537612 0 0.1088225070008305 -0.063606515119414703 0 0.11309735250795 -0.071104613545411421 0 0.1186823459305789 -0.066930060893678284 0 0.1125864481803034 -0.058497836344225423 0 0.1088225070008305 -0.063606515119414703 0 0.1186823459305789 -0.066930060893678284 0 0.11309735250795 -0.071104613545411421 0 0.1186823459305789 -0.066930060893678284 0 0.12516629323710879 -0.073966409417537612 0 0.1239275529706365 -0.060038457070599141 0 0.1186823459305789 -0.066930060893678284 0 0.12516629323710879 -0.073966409417537612 0 0.1077846333498728 -0.080259398887233949 0 0.1172090002113676 -0.090528718087967947 0 0.1065731131521947 -0.1007201651840629 0 0.1172090002113676 -0.090528718087967947 0 0.13040143991463379 -0.088185077234152059 0 0.12516629323710879 -0.073966409417537612 0 0.1077846333498728 -0.080259398887233949 0 0.1172090002113676 -0.090528718087967947 0 0.12516629323710879 -0.073966409417537612 0 0.1172090002113676 -0.090528718087967947 0 0.12372937608558281 -0.1010128564370152 0 0.13040143991463379 -0.088185077234152059 0 0.12372937608558281 -0.1010128564370152 0 0.1065731131521947 -0.1007201651840629 0 0.11918908738559961 -0.1130177117198384 0 0.1172090002113676 -0.090528718087967947 0 0.12372937608558281 -0.1010128564370152 0 0.1065731131521947 -0.1007201651840629 0 0.093464652965053047 -0.1125437677457209 0 0.08682701721610972 -0.092328793225390449 0 0.1065731131521947 -0.1007201651840629 0 0.093464652965053047 -0.1125437677457209 0 0.1065731131521947 -0.1007201651840629 0 0.1073873758641825 -0.1201666012699093 0 0.094015080548003463 -0.13780940324308391 0 0.093464652965053047 -0.1125437677457209 0 0.1073873758641825 -0.1201666012699093 0 0.1065731131521947 -0.1007201651840629 0 0.1073873758641825 -0.1201666012699093 0 0.11918908738559961 -0.1130177117198384 0 0.1232538410946369 -0.1262028882071527 0 0.1073873758641825 -0.1201666012699093 0 0.11918908738559961 -0.1130177117198384 0 0.1232538410946369 -0.1262028882071527 0 0.11918908738559961 -0.1130177117198384 0 0.13491226590654251 -0.1121691464028081 0 0.1232538410946369 -0.1262028882071527 0 0.13491226590654251 -0.1121691464028081 0 0.14117768062442221 -0.12536355002619509 0 0.13491226590654251 -0.1121691464028081 0 0.14990907633014949 -0.11509919930156901 0 0.14117768062442221 -0.12536355002619509 0 0.14990907633014949 -0.11509919930156901 0 0.14935145079833981 -0.12347072094141889 0 0.14117768062442221 -0.12536355002619509 0 0.13491226590654251 -0.1121691464028081 0 0.14990907633014949 -0.11509919930156901 0 0.144328727269811 -0.1060130021044625 0 0.14990907633014949 -0.11509919930156901 0 0.15396644344151569 -0.1068801376705822 0 0.15768459853676881 -0.1224950316621085 0 0.14990907633014949 -0.11509919930156901 0 0.15768459853676881 -0.1224950316621085 0 0.14990907633014949 -0.11509919930156901 0 0.14935145079833981 -0.12347072094141889 0 0.15768459853676881 -0.1224950316621085 0 0.15396644344151569 -0.1068801376705822 0 0.14693736564738111 -0.095157825460230952 0 0.1643218810964783 -0.10255844224174721 0 0.14990907633014949 -0.11509919930156901 0 0.15396644344151569 -0.1068801376705822 0 0.144328727269811 -0.1060130021044625 0 0.15396644344151569 -0.1068801376705822 0 0.144328727269811 -0.1060130021044625 0 0.14693736564738111 -0.095157825460230952 0 0.144328727269811 -0.1060130021044625 0 0.14693736564738111 -0.095157825460230952 0 0.1356180652691151 -0.10101942838452491 0 0.12372937608558281 -0.1010128564370152 0 0.11918908738559961 -0.1130177117198384 0 0.13491226590654251 -0.1121691464028081 0 0.14693736564738111 -0.095157825460230952 0 0.1356180652691151 -0.10101942838452491 0 0.13040143991463379 -0.088185077234152059 0 0.13491226590654251 -0.1121691464028081 0 0.144328727269811 -0.1060130021044625 0 0.1356180652691151 -0.10101942838452491 0 0.12372937608558281 -0.1010128564370152 0 0.13491226590654251 -0.1121691464028081 0 0.1356180652691151 -0.10101942838452491 0 0.12372937608558281 -0.1010128564370152 0 0.1356180652691151 -0.10101942838452491 0 0.13040143991463379 -0.088185077234152059 0 0.14693736564738111 -0.095157825460230952 0 0.13040143991463379 -0.088185077234152059 0 0.1405761051995856 -0.07613947036937084 0 0.13040143991463379 -0.088185077234152059 0 0.12516629323710879 -0.073966409417537612 0 0.1405761051995856 -0.07613947036937084 0 0.1239275529706365 -0.060038457070599141 0 0.12516629323710879 -0.073966409417537612 0 0.13382238634581189 -0.063470212395642475 0 0.12516629323710879 -0.073966409417537612 0 0.1405761051995856 -0.07613947036937084 0 0.13382238634581189 -0.063470212395642475 0 0.15664158026780239 -0.079837111606119407 0 0.14896127943912699 -0.057115780970491623 0 0.1405761051995856 -0.07613947036937084 0 0.13382238634581189 -0.063470212395642475 0 0.14896127943912699 -0.057115780970491623 0 0.1405761051995856 -0.07613947036937084 0 0.15664158026780239 -0.079837111606119407 0 0.14896127943912699 -0.057115780970491623 0 0.14693736564738111 -0.095157825460230952 0 0.1405761051995856 -0.07613947036937084 0 0.15664158026780239 -0.079837111606119407 0 0.14693736564738111 -0.095157825460230952 0 0.15664158026780239 -0.079837111606119407 0 0.1643218810964783 -0.10255844224174721 0 0.15664158026780239 -0.079837111606119407 0 0.17234351998299 -0.078463623387796361 0 0.1643218810964783 -0.10255844224174721 0 0.15664158026780239 -0.079837111606119407 0 0.1643218810964783 -0.10255844224174721 0 0.17234351998299 -0.078463623387796361 0 0.1643218810964783 -0.10255844224174721 0 0.15664158026780239 -0.079837111606119407 0 0.163672416289282 -0.065304505981310532 0 0.14896127943912699 -0.057115780970491623 0 0.15664158026780239 -0.079837111606119407 0 0.163672416289282 -0.065304505981310532 0 0.17234351998299 -0.078463623387796361 0 0.163672416289282 -0.065304505981310532 0 0.17234351998299 -0.078463623387796361 0 0.1742129568646956 -0.053876359851595432 0 0.18527250641886359 -0.069771380970675256 0 0.17234351998299 -0.078463623387796361 0 0.1803651588694993 -0.054368804533844697 0 0.17234351998299 -0.078463623387796361 0 0.1803651588694993 -0.054368804533844697 0 0.17234351998299 -0.078463623387796361 0 0.1832231835567821 -0.1026134226748763 0 0.1882415137259946 -0.087468354533236398 0 0.18527250641886359 -0.069771380970675256 0 0.17234351998299 -0.078463623387796361 0 0.1882415137259946 -0.087468354533236398 0 0.1832231835567821 -0.1026134226748763 0 0.17086070993130231 -0.1219028527329503 0 0.1643218810964783 -0.10255844224174721 0 0.17234351998299 -0.078463623387796361 0 0.1832231835567821 -0.1026134226748763 0 0.1643218810964783 -0.10255844224174721 0 0.1832231835567821 -0.1026134226748763 0 0.17086070993130231 -0.1219028527329503 0 0.19059246394201981 -0.1200190529176364 0 0.17086070993130231 -0.1219028527329503 0 0.15768459853676881 -0.1224950316621085 0 0.1643218810964783 -0.10255844224174721 0 0.15768459853676881 -0.1224950316621085 0 0.1643218810964783 -0.10255844224174721 0 0.17086070993130231 -0.1219028527329503 0 0.1643218810964783 -0.10255844224174721 0 0.15396644344151569 -0.1068801376705822 0 0.15768459853676881 -0.1224950316621085 0 0.1643218810964783 -0.10255844224174721 0 0.15442804697685361 0.0026242170640909351 0 0.1508932242351686 -0.010456701863164089 0 0.13313095146512011 -0.0051992487648181377 0 0.1508932242351686 -0.010456701863164089 0 0.13313095146512011 -0.0051992487648181377 0 0.14396455399932129 -0.022824666290821499 0 0.1230630385710916 -0.02187651922450019 0 0.13313095146512011 -0.0051992487648181377 0 0.1230630385710916 -0.02187651922450019 0 0.1195207288501979 -0.001194353383229735 0 0.13313095146512011 -0.0051992487648181377 0 0.12285869982271171 -0.031848542554521769 0 0.1230630385710916 -0.02187651922450019 0 0.13313095146512011 -0.0051992487648181377 0 0.12285869982271171 -0.031848542554521769 0 0.13313095146512011 -0.0051992487648181377 0 0.12285869982271171 -0.031848542554521769 0 0.13313095146512011 -0.0051992487648181377 0 0.13426860700096241 -0.024421948341877601 0 0.13313095146512011 -0.0051992487648181377 0 0.13426860700096241 -0.024421948341877601 0 0.14396455399932129 -0.022824666290821499 0 0.13426860700096241 -0.024421948341877601 0 0.14396455399932129 -0.022824666290821499 0 0.13712022271669649 -0.037815335757348967 0 0.14396455399932129 -0.022824666290821499 0 0.15665611460449419 -0.037263331669159003 0 0.1588365760783981 -0.020875367891168829 0 0.1508932242351686 -0.010456701863164089 0 0.14396455399932129 -0.022824666290821499 0 0.1588365760783981 -0.020875367891168829 0 0.13712022271669649 -0.037815335757348967 0 0.14896127943912699 -0.057115780970491623 0 0.15665611460449419 -0.037263331669159003 0 0.14396455399932129 -0.022824666290821499 0 0.13712022271669649 -0.037815335757348967 0 0.15665611460449419 -0.037263331669159003 0 0.12285869982271171 -0.031848542554521769 0 0.13426860700096241 -0.024421948341877601 0 0.13712022271669649 -0.037815335757348967 0 0.12285869982271171 -0.031848542554521769 0 0.13712022271669649 -0.037815335757348967 0 0.12794012008094391 -0.041981424138082722 0 0.12355870438743941 -0.048491440851528449 0 0.12794012008094391 -0.041981424138082722 0 0.13048070088260161 -0.050090944150213208 0 0.13712022271669649 -0.037815335757348967 0 0.12794012008094391 -0.041981424138082722 0 0.13048070088260161 -0.050090944150213208 0 0.13382238634581189 -0.063470212395642475 0 0.13048070088260161 -0.050090944150213208 0 0.14896127943912699 -0.057115780970491623 0 0.13712022271669649 -0.037815335757348967 0 0.13048070088260161 -0.050090944150213208 0 0.14896127943912699 -0.057115780970491623 0 0.1239275529706365 -0.060038457070599141 0 0.12355870438743941 -0.048491440851528449 0 0.13048070088260161 -0.050090944150213208 0 0.1239275529706365 -0.060038457070599141 0 0.13382238634581189 -0.063470212395642475 0 0.13048070088260161 -0.050090944150213208 0 0.14896127943912699 -0.057115780970491623 0 0.1620684744382524 -0.049593170218978411 0 0.15665611460449419 -0.037263331669159003 0 0.163672416289282 -0.065304505981310532 0 0.14896127943912699 -0.057115780970491623 0 0.1647545075980793 -0.05695370662883123 0 0.14896127943912699 -0.057115780970491623 0 0.1620684744382524 -0.049593170218978411 0 0.1647545075980793 -0.05695370662883123 0 0.1620684744382524 -0.049593170218978411 0 0.1742129568646956 -0.053876359851595432 0 0.17193076245573199 -0.041312503464699217 0 0.1620684744382524 -0.049593170218978411 0 0.1647545075980793 -0.05695370662883123 0 0.1742129568646956 -0.053876359851595432 0 0.163672416289282 -0.065304505981310532 0 0.1647545075980793 -0.05695370662883123 0 0.1742129568646956 -0.053876359851595432 0 0.17234351998299 -0.078463623387796361 0 0.1803651588694993 -0.054368804533844697 0 0.1742129568646956 -0.053876359851595432 0 0.18527250641886359 -0.069771380970675256 0 0.1803651588694993 -0.054368804533844697 0 0.19004426646347269 -0.055143555600187702 0 0.1803651588694993 -0.054368804533844697 0 0.19004426646347269 -0.055143555600187702 0 0.18470016593416011 -0.041347623771242098 0 0.19004426646347269 -0.055143555600187702 0 0.1803651588694993 -0.054368804533844697 0 0.18470016593416011 -0.041347623771242098 0 0.19004426646347269 -0.055143555600187702 0 0.1803651588694993 -0.054368804533844697 0 0.18470016593416011 -0.041347623771242098 0 0.1803651588694993 -0.054368804533844697 0 0.1778815261240288 -0.046720767269230412 0 0.18470016593416011 -0.041347623771242098 0 0.1742129568646956 -0.053876359851595432 0 0.17193076245573199 -0.041312503464699217 0 0.1778815261240288 -0.046720767269230412 0 0.1803651588694993 -0.054368804533844697 0 0.1742129568646956 -0.053876359851595432 0 0.1803651588694993 -0.054368804533844697 0 0.1742129568646956 -0.053876359851595432 0 0.1778815261240288 -0.046720767269230412 0 0.18470016593416011 -0.041347623771242098 0 0.1813443183901251 -0.032684417738368672 0 0.19156535553142781 -0.020726463671114331 0 0.17193076245573199 -0.041312503464699217 0 0.1778815261240288 -0.046720767269230412 0 0.18470016593416011 -0.041347623771242098 0 0.18470016593416011 -0.041347623771242098 0 0.1813443183901251 -0.032684417738368672 0 0.17193076245573199 -0.041312503464699217 0 0.18470016593416011 -0.041347623771242098 0 0.1813443183901251 -0.032684417738368672 0 0.17193076245573199 -0.041312503464699217 0 0.1813443183901251 -0.032684417738368672 0 0.1701864333848252 -0.02946295010639411 0 0.17193076245573199 -0.041312503464699217 0 0.15665611460449419 -0.037263331669159003 0 0.1701864333848252 -0.02946295010639411 0 0.1620684744382524 -0.049593170218978411 0 0.17193076245573199 -0.041312503464699217 0 0.15665611460449419 -0.037263331669159003 0 0.15665611460449419 -0.037263331669159003 0 0.1588365760783981 -0.020875367891168829 0 0.1701864333848252 -0.02946295010639411 0 0.1588365760783981 -0.020875367891168829 0 0.1710099233348529 -0.018126130746514282 0 0.1701864333848252 -0.02946295010639411 0 0.1813443183901251 -0.032684417738368672 0 0.1701864333848252 -0.02946295010639411 0 0.17951936230073781 -0.02217674305070988 0 0.1813443183901251 -0.032684417738368672 0 0.17951936230073781 -0.02217674305070988 0 0.19156535553142781 -0.020726463671114331 0 0.17951936230073781 -0.02217674305070988 0 0.18020218697840479 -0.0098716046664614754 0 0.19156535553142781 -0.020726463671114331 0 0.1710099233348529 -0.018126130746514282 0 0.1701864333848252 -0.02946295010639411 0 0.17951936230073781 -0.02217674305070988 0 0.1710099233348529 -0.018126130746514282 0 0.17951936230073781 -0.02217674305070988 0 0.18020218697840479 -0.0098716046664614754 0 0.18020218697840479 -0.0098716046664614754 0 0.18615534909213211 -0.001758144403956826 0 0.19156535553142781 -0.020726463671114331 0 0.1710099233348529 -0.018126130746514282 0 0.18020218697840479 -0.0098716046664614754 0 0.16596048227959651 -0.0062121719888348784 0 0.18122158466829291 0.0053566078110054913 0 0.18020218697840479 -0.0098716046664614754 0 0.18615534909213211 -0.001758144403956826 0 0.18122158466829291 0.0053566078110054913 0 0.18020218697840479 -0.0098716046664614754 0 0.16596048227959651 -0.0062121719888348784 0 0.1588365760783981 -0.020875367891168829 0 0.1710099233348529 -0.018126130746514282 0 0.16596048227959651 -0.0062121719888348784 0 0.1508932242351686 -0.010456701863164089 0 0.1588365760783981 -0.020875367891168829 0 0.16596048227959651 -0.0062121719888348784 0 0.15442804697685361 0.0026242170640909351 0 0.1508932242351686 -0.010456701863164089 0 0.16596048227959651 -0.0062121719888348784 0 0.20742706641989289 -0.0051724740842133878 0 0.1989071208745074 -0.014237188809931399 0 0.21913323028029039 -0.0085348936011971424 0 0.1989071208745074 -0.014237188809931399 0 0.21913323028029039 -0.0085348936011971424 0 0.22540120711002931 -0.009367858496485134 0 0.1989071208745074 -0.014237188809931399 0 0.22540120711002931 -0.009367858496485134 0 0.1989071208745074 -0.014237188809931399 0 0.21325331666021219 -0.017783026863289388 0 0.22540120711002931 -0.009367858496485134 0 0.2132373693960779 0.002187489645264109 0 0.20742706641989289 -0.0051724740842133878 0 0.21913323028029039 -0.0085348936011971424 0 0.2132373693960779 0.002187489645264109 0 0.21913323028029039 -0.0085348936011971424 0 0.2132373693960779 0.002187489645264109 0 0.20742706641989289 -0.0051724740842133878 0 0.19843054512869701 -0.0001053035709871271 0 0.18615534909213211 -0.001758144403956826 0 0.19481376673693221 -0.00066535107419350009 0 0.19156535553142781 -0.020726463671114331 0 0.20742706641989289 -0.0051724740842133878 0 0.19843054512869701 -0.0001053035709871271 0 0.1989071208745074 -0.014237188809931399 0 0.19843054512869701 -0.0001053035709871271 0 0.19156535553142781 -0.020726463671114331 0 0.19843054512869701 -0.0001053035709871271 0 0.1989071208745074 -0.014237188809931399 0 0.19156535553142781 -0.020726463671114331 0 0.19843054512869701 -0.0001053035709871271 0 0.19481376673693221 -0.00066535107419350009 0 0.19156535553142781 -0.020726463671114331 0 0.19843054512869701 -0.0001053035709871271 0 0.19481376673693221 -0.00066535107419350009 0 0.20178801628416629 -0.019873614297162601 0 0.19156535553142781 -0.020726463671114331 0 0.20342627207051761 -0.026747777844315271 0 0.18470016593416011 -0.041347623771242098 0 0.19156535553142781 -0.020726463671114331 0 0.1989071208745074 -0.014237188809931399 0 0.20178801628416629 -0.019873614297162601 0 0.19156535553142781 -0.020726463671114331 0 0.19156535553142781 -0.020726463671114331 0 0.20342627207051761 -0.026747777844315271 0 0.1949428569659214 -0.035491595293360947 0 0.21325331666021219 -0.017783026863289388 0 0.21502190165863341 -0.03426019879499223 0 0.22383863900270659 -0.02438903546542957 0 0.20342627207051761 -0.026747777844315271 0 0.21325331666021219 -0.017783026863289388 0 0.21502190165863341 -0.03426019879499223 0 0.1989071208745074 -0.014237188809931399 0 0.20178801628416629 -0.019873614297162601 0 0.21325331666021219 -0.017783026863289388 0 0.20178801628416629 -0.019873614297162601 0 0.20342627207051761 -0.026747777844315271 0 0.21325331666021219 -0.017783026863289388 0 0.20342627207051761 -0.026747777844315271 0 0.21502190165863341 -0.03426019879499223 0 0.20197691791958691 -0.042588197697689213 0 0.21502190165863341 -0.03426019879499223 0 0.20197691791958691 -0.042588197697689213 0 0.214681209931881 -0.057115586393128533 0 0.18470016593416011 -0.041347623771242098 0 0.19156535553142781 -0.020726463671114331 0 0.1949428569659214 -0.035491595293360947 0 0.20342627207051761 -0.026747777844315271 0 0.1949428569659214 -0.035491595293360947 0 0.20197691791958691 -0.042588197697689213 0 0.18470016593416011 -0.041347623771242098 0 0.1949428569659214 -0.035491595293360947 0 0.1929160518207847 -0.04364274309062019 0 0.18470016593416011 -0.041347623771242098 0 0.1929160518207847 -0.04364274309062019 0 0.19004426646347269 -0.055143555600187702 0 0.1949428569659214 -0.035491595293360947 0 0.1929160518207847 -0.04364274309062019 0 0.20197691791958691 -0.042588197697689213 0 0.19004426646347269 -0.055143555600187702 0 0.214681209931881 -0.057115586393128533 0 0.19004426646347269 -0.055143555600187702 0 0.214681209931881 -0.057115586393128533 0 0.19777274892509861 -0.075094830206079516 0 0.20197691791958691 -0.042588197697689213 0 0.19004426646347269 -0.055143555600187702 0 0.214681209931881 -0.057115586393128533 0 0.1929160518207847 -0.04364274309062019 0 0.20197691791958691 -0.042588197697689213 0 0.19004426646347269 -0.055143555600187702 0 0.214681209931881 -0.057115586393128533 0 0.23931815340028911 -0.059087617186071993 0 0.23162628563853449 -0.03863321691413598 0 0.214681209931881 -0.057115586393128533 0 0.23931815340028911 -0.059087617186071993 0 0.214681209931881 -0.057115586393128533 0 0.23931815340028911 -0.059087617186071993 0 0.22657701888052811 -0.070191217685032226 0 0.25250520716786889 -0.041593981443998583 0 0.23162628563853449 -0.03863321691413598 0 0.242664754692583 -0.02754164054495338 0 0.25250520716786889 -0.041593981443998583 0 0.23931815340028911 -0.059087617186071993 0 0.23162628563853449 -0.03863321691413598 0 0.21502190165863341 -0.03426019879499223 0 0.214681209931881 -0.057115586393128533 0 0.23162628563853449 -0.03863321691413598 0 0.21502190165863341 -0.03426019879499223 0 0.23162628563853449 -0.03863321691413598 0 0.22383863900270659 -0.02438903546542957 0 0.21325331666021219 -0.017783026863289388 0 0.22383863900270659 -0.02438903546542957 0 0.22270981553146771 -0.017369872625889751 0 0.22383863900270659 -0.02438903546542957 0 0.22270981553146771 -0.017369872625889751 0 0.2283460993529226 -0.017939569678354899 0 0.22383863900270659 -0.02438903546542957 0 0.2283460993529226 -0.017939569678354899 0 0.2337147445640301 -0.024395795910847781 0 0.2283460993529226 -0.017939569678354899 0 0.2337147445640301 -0.024395795910847781 0 0.23738593148010609 -0.01606958961852361 0 0.23162628563853449 -0.03863321691413598 0 0.22383863900270659 -0.02438903546542957 0 0.2337147445640301 -0.024395795910847781 0 0.23162628563853449 -0.03863321691413598 0 0.2337147445640301 -0.024395795910847781 0 0.242664754692583 -0.02754164054495338 0 0.25528276100525488 -0.02749201401586461 0 0.242664754692583 -0.02754164054495338 0 0.24991569469175129 -0.018573843336592691 0 0.242664754692583 -0.02754164054495338 0 0.24991569469175129 -0.018573843336592691 0 0.23738593148010609 -0.01606958961852361 0 0.2337147445640301 -0.024395795910847781 0 0.242664754692583 -0.02754164054495338 0 0.23738593148010609 -0.01606958961852361 0 0.23740048780557829 0.0059290775085717564 0 0.25189529334555122 -0.0044985281830388643 0 0.22540120711002931 -0.009367858496485134 0 0.25189529334555122 -0.0044985281830388643 0 0.22540120711002931 -0.009367858496485134 0 0.25189529334555122 -0.0044985281830388643 0 0.23738593148010609 -0.01606958961852361 0 0.22540120711002931 -0.009367858496485134 0 0.25189529334555122 -0.0044985281830388643 0 0.24991569469175129 -0.018573843336592691 0 0.23738593148010609 -0.01606958961852361 0 0.23740048780557829 0.0059290775085717564 0 0.2132373693960779 0.002187489645264109 0 0.22540120711002931 -0.009367858496485134 0 0.2283460993529226 -0.017939569678354899 0 0.23738593148010609 -0.01606958961852361 0 0.22540120711002931 -0.009367858496485134 0 0.22270981553146771 -0.017369872625889751 0 0.2283460993529226 -0.017939569678354899 0 0.22540120711002931 -0.009367858496485134 0 0.21325331666021219 -0.017783026863289388 0 0.22270981553146771 -0.017369872625889751 0 0.22540120711002931 -0.009367858496485134 0 0.2132373693960779 0.002187489645264109 0 0.21913323028029039 -0.0085348936011971424 0 0.22540120711002931 -0.009367858496485134 0 0.21011331425335561 -0.1069523143730509 0 0.19837101765896889 -0.10940668801622069 0 0.20206404566862171 -0.10234847517828689 0 0.21011331425335561 -0.1069523143730509 0 0.2055012313867243 -0.095046104811971344 0 0.20206404566862171 -0.10234847517828689 0 0.21011331425335561 -0.1069523143730509 0 0.2055012313867243 -0.095046104811971344 0 0.21011331425335561 -0.1069523143730509 0 0.2055012313867243 -0.095046104811971344 0 0.21439152299768061 -0.1015590367314865 0 0.2055012313867243 -0.095046104811971344 0 0.2011369350956079 -0.096583516925268717 0 0.2055012313867243 -0.095046104811971344 0 0.21439152299768061 -0.1015590367314865 0 0.2194912212406758 -0.096936795579006446 0 0.21011331425335561 -0.1069523143730509 0 0.21439152299768061 -0.1015590367314865 0 0.22246032510996691 -0.1073009321619172 0 0.21011331425335561 -0.1069523143730509 0 0.21669723448997871 -0.12477450118155831 0 0.19837101765896889 -0.10940668801622069 0 0.21669723448997871 -0.12477450118155831 0 0.19059246394201981 -0.1200190529176364 0 0.21011331425335561 -0.1069523143730509 0 0.21669723448997871 -0.12477450118155831 0 0.22246032510996691 -0.1073009321619172 0 0.21669723448997871 -0.12477450118155831 0 0.19059246394201981 -0.1200190529176364 0 0.19837101765896889 -0.10940668801622069 0 0.1832231835567821 -0.1026134226748763 0 0.19059246394201981 -0.1200190529176364 0 0.19837101765896889 -0.10940668801622069 0 0.1832231835567821 -0.1026134226748763 0 0.19837101765896889 -0.10940668801622069 0 0.19314261298887561 -0.1005282790394172 0 0.19837101765896889 -0.10940668801622069 0 0.20206404566862171 -0.10234847517828689 0 0.19314261298887561 -0.1005282790394172 0 0.20206404566862171 -0.10234847517828689 0 0.2011369350956079 -0.096583516925268717 0 0.19314261298887561 -0.1005282790394172 0 0.2055012313867243 -0.095046104811971344 0 0.20206404566862171 -0.10234847517828689 0 0.2011369350956079 -0.096583516925268717 0 0.2011369350956079 -0.096583516925268717 0 0.19314261298887561 -0.1005282790394172 0 0.1882415137259946 -0.087468354533236398 0 0.1832231835567821 -0.1026134226748763 0 0.19314261298887561 -0.1005282790394172 0 0.1882415137259946 -0.087468354533236398 0 0.2055012313867243 -0.095046104811971344 0 0.2011369350956079 -0.096583516925268717 0 0.19777274892509861 -0.075094830206079516 0 0.2055012313867243 -0.095046104811971344 0 0.19777274892509861 -0.075094830206079516 0 0.2011369350956079 -0.096583516925268717 0 0.1882415137259946 -0.087468354533236398 0 0.19777274892509861 -0.075094830206079516 0 0.19004426646347269 -0.055143555600187702 0 0.19777274892509861 -0.075094830206079516 0 0.18527250641886359 -0.069771380970675256 0 0.19004426646347269 -0.055143555600187702 0 0.19777274892509861 -0.075094830206079516 0 0.18527250641886359 -0.069771380970675256 0 0.1882415137259946 -0.087468354533236398 0 0.19777274892509861 -0.075094830206079516 0 0.214681209931881 -0.057115586393128533 0 0.19777274892509861 -0.075094830206079516 0 0.2145753998263536 -0.076889347175411515 0 0.214681209931881 -0.057115586393128533 0 0.2145753998263536 -0.076889347175411515 0 0.22657701888052811 -0.070191217685032226 0 0.2055012313867243 -0.095046104811971344 0 0.22834479000753599 -0.08699899678084598 0 0.2194912212406758 -0.096936795579006446 0 0.2055012313867243 -0.095046104811971344 0 0.2145753998263536 -0.076889347175411515 0 0.22834479000753599 -0.08699899678084598 0 0.2055012313867243 -0.095046104811971344 0 0.22834479000753599 -0.08699899678084598 0 0.2055012313867243 -0.095046104811971344 0 0.19777274892509861 -0.075094830206079516 0 0.2145753998263536 -0.076889347175411515 0 0.22834479000753599 -0.08699899678084598 0 0.2417799326195369 -0.090582501281898209 0 0.2312232955392797 -0.098595729079221289 0 0.2145753998263536 -0.076889347175411515 0 0.22834479000753599 -0.08699899678084598 0 0.22657701888052811 -0.070191217685032226 0 0.25118834862834771 -0.078951888749720561 0 0.23931815340028911 -0.059087617186071993 0 0.22657701888052811 -0.070191217685032226 0 0.25118834862834771 -0.078951888749720561 0 0.22834479000753599 -0.08699899678084598 0 0.25118834862834771 -0.078951888749720561 0 0.22834479000753599 -0.08699899678084598 0 0.2417799326195369 -0.090582501281898209 0 0.25118834862834771 -0.078951888749720561 0 0.22834479000753599 -0.08699899678084598 0 0.22657701888052811 -0.070191217685032226 0 0.25495894843157302 -0.10106082422818551 0 0.25118834862834771 -0.078951888749720561 0 0.2417799326195369 -0.090582501281898209 0 0.25495894843157302 -0.10106082422818551 0 0.2312232955392797 -0.098595729079221289 0 0.2378586723298369 -0.1122774061848711 0 0.25495894843157302 -0.10106082422818551 0 0.2312232955392797 -0.098595729079221289 0 0.25495894843157302 -0.10106082422818551 0 0.2417799326195369 -0.090582501281898209 0 0.2312232955392797 -0.098595729079221289 0 0.2312232955392797 -0.098595729079221289 0 0.22246032510996691 -0.1073009321619172 0 0.2378586723298369 -0.1122774061848711 0 0.21439152299768061 -0.1015590367314865 0 0.22246032510996691 -0.1073009321619172 0 0.2194912212406758 -0.096936795579006446 0 0.2312232955392797 -0.098595729079221289 0 0.22246032510996691 -0.1073009321619172 0 0.2194912212406758 -0.096936795579006446 0 0.22834479000753599 -0.08699899678084598 0 0.2312232955392797 -0.098595729079221289 0 0.2194912212406758 -0.096936795579006446 0 0.21669723448997871 -0.12477450118155831 0 0.22246032510996691 -0.1073009321619172 0 0.22995455924193001 -0.1184706972434566 0 0.21669723448997871 -0.12477450118155831 0 0.22995455924193001 -0.1184706972434566 0 0.2428020050379375 -0.12952994944547999 0 0.22246032510996691 -0.1073009321619172 0 0.22995455924193001 -0.1184706972434566 0 0.2378586723298369 -0.1122774061848711 0 0.22995455924193001 -0.1184706972434566 0 0.2378586723298369 -0.1122774061848711 0 0.2428020050379375 -0.12952994944547999 0 0.2378586723298369 -0.1122774061848711 0 0.24901380175728391 -0.118792673427335 0 0.2428020050379375 -0.12952994944547999 0 0.25495894843157302 -0.10106082422818551 0 0.2378586723298369 -0.1122774061848711 0 0.24901380175728391 -0.118792673427335 0 0.2428020050379375 -0.12952994944547999 0 0.2422359183358995 -0.146058929475468 0 0.22327588748647281 -0.1399195681658926 0 0.25572641310432631 -0.14303418802101711 0 0.2428020050379375 -0.12952994944547999 0 0.2422359183358995 -0.146058929475468 0 0.25444385987449458 -0.15284299340302471 0 0.2422359183358995 -0.146058929475468 0 0.2441769992076103 -0.16218247220547569 0 0.2422359183358995 -0.146058929475468 0 0.22935425904918411 -0.1545216236417796 0 0.2441769992076103 -0.16218247220547569 0 0.2422359183358995 -0.146058929475468 0 0.22935425904918411 -0.1545216236417796 0 0.22327588748647281 -0.1399195681658926 0 0.22935425904918411 -0.1545216236417796 0 0.21939347746833079 -0.1498650212133556 0 0.22327588748647281 -0.1399195681658926 0 0.22935425904918411 -0.1545216236417796 0 0.21939347746833079 -0.1498650212133556 0 0.21925109219149341 -0.16001888873405959 0 0.21669723448997871 -0.12477450118155831 0 0.2428020050379375 -0.12952994944547999 0 0.22327588748647281 -0.1399195681658926 0 0.21669723448997871 -0.12477450118155831 0 0.2428020050379375 -0.12952994944547999 0 0.21669723448997871 -0.12477450118155831 0 0.19059246394201981 -0.1200190529176364 0 0.20759325099426221 -0.14008422230860371 0 0.21669723448997871 -0.12477450118155831 0 0.22327588748647281 -0.1399195681658926 0 0.20759325099426221 -0.14008422230860371 0 0.21939347746833079 -0.1498650212133556 0 0.22327588748647281 -0.1399195681658926 0 0.20759325099426221 -0.14008422230860371 0 0.21939347746833079 -0.1498650212133556 0 0.20759325099426221 -0.14008422230860371 0 0.21031213899832241 -0.15459892342398929 0 0.21939347746833079 -0.1498650212133556 0 0.21031213899832241 -0.15459892342398929 0 0.21925109219149341 -0.16001888873405959 0 0.21031213899832241 -0.15459892342398929 0 0.20121783567754081 -0.15044571849858071 0 0.20355708181521839 -0.16158011927749241 0 0.20759325099426221 -0.14008422230860371 0 0.21031213899832241 -0.15459892342398929 0 0.20121783567754081 -0.15044571849858071 0 0.20759325099426221 -0.14008422230860371 0 0.20121783567754081 -0.15044571849858071 0 0.19257259575238239 -0.14077909586510759 0 0.20121783567754081 -0.15044571849858071 0 0.19205411082751869 -0.15518623161771031 0 0.20355708181521839 -0.16158011927749241 0 0.20121783567754081 -0.15044571849858071 0 0.19205411082751869 -0.15518623161771031 0 0.19257259575238239 -0.14077909586510759 0 0.19059246394201981 -0.1200190529176364 0 0.20759325099426221 -0.14008422230860371 0 0.19257259575238239 -0.14077909586510759 0 0.1984173861077953 -0.17921001381168089 0 0.21336400833492089 -0.18505836116510149 0 0.19579642821571591 -0.19127815309787749 0 0.1984173861077953 -0.17921001381168089 0 0.18789029283289971 -0.17228301261540671 0 0.20670868288890981 -0.16912520001126821 0 0.1984173861077953 -0.17921001381168089 0 0.19579642821571591 -0.19127815309787749 0 0.1855597922335028 -0.18595809190382279 0 0.1984173861077953 -0.17921001381168089 0 0.18789029283289971 -0.17228301261540671 0 0.1855597922335028 -0.18595809190382279 0 0.19205411082751869 -0.15518623161771031 0 0.18789029283289971 -0.17228301261540671 0 0.20670868288890981 -0.16912520001126821 0 0.19205411082751869 -0.15518623161771031 0 0.18789029283289971 -0.17228301261540671 0 0.1826449157995132 -0.15676513791978 0 0.19205411082751869 -0.15518623161771031 0 0.20670868288890981 -0.16912520001126821 0 0.20355708181521839 -0.16158011927749241 0 0.19205411082751869 -0.15518623161771031 0 0.20670868288890981 -0.16912520001126821 0 0.20670868288890981 -0.16912520001126821 0 0.20355708181521839 -0.16158011927749241 0 0.20670868288890981 -0.16912520001126821 0 0.20355708181521839 -0.16158011927749241 0 0.21133972178936611 -0.1627336485993644 0 0.21031213899832241 -0.15459892342398929 0 0.20355708181521839 -0.16158011927749241 0 0.21133972178936611 -0.1627336485993644 0 0.21133972178936611 -0.1627336485993644 0 0.2168696130528858 -0.16834511155001289 0 0.21925109219149341 -0.16001888873405959 0 0.21031213899832241 -0.15459892342398929 0 0.21133972178936611 -0.1627336485993644 0 0.21925109219149341 -0.16001888873405959 0 0.20670868288890981 -0.16912520001126821 0 0.21133972178936611 -0.1627336485993644 0 0.2168696130528858 -0.16834511155001289 0 0.1984173861077953 -0.17921001381168089 0 0.20670868288890981 -0.16912520001126821 0 0.21336400833492089 -0.18505836116510149 0 0.20670868288890981 -0.16912520001126821 0 0.21867773442634281 -0.18050978568065601 0 0.20670868288890981 -0.16912520001126821 0 0.2168696130528858 -0.16834511155001289 0 0.21867773442634281 -0.18050978568065601 0 0.20670868288890981 -0.16912520001126821 0 0.21336400833492089 -0.18505836116510149 0 0.20670868288890981 -0.16912520001126821 0 0.21867773442634281 -0.18050978568065601 0 0.21336400833492089 -0.18505836116510149 0 0.21867773442634281 -0.18050978568065601 0 0.2289094657595365 -0.1690866496778341 0 0.23443295505786541 -0.18342552310438459 0 0.21867773442634281 -0.18050978568065601 0 0.21336400833492089 -0.18505836116510149 0 0.22500776907672301 -0.19091677877166499 0 0.21867773442634281 -0.18050978568065601 0 0.23443295505786541 -0.18342552310438459 0 0.23064678596377511 -0.19189437135004489 0 0.21867773442634281 -0.18050978568065601 0 0.23064678596377511 -0.19189437135004489 0 0.2168696130528858 -0.16834511155001289 0 0.21867773442634281 -0.18050978568065601 0 0.2289094657595365 -0.1690866496778341 0 0.22935425904918411 -0.1545216236417796 0 0.21925109219149341 -0.16001888873405959 0 0.2289094657595365 -0.1690866496778341 0 0.2168696130528858 -0.16834511155001289 0 0.21925109219149341 -0.16001888873405959 0 0.2289094657595365 -0.1690866496778341 0 0.22935425904918411 -0.1545216236417796 0 0.2289094657595365 -0.1690866496778341 0 0.2441769992076103 -0.16218247220547569 0 0.2289094657595365 -0.1690866496778341 0 0.2441769992076103 -0.16218247220547569 0 0.24077345857564789 -0.17392640167679871 0 0.25343691440229738 -0.17421686930019101 0 0.2441769992076103 -0.16218247220547569 0 0.24077345857564789 -0.17392640167679871 0 0.23443295505786541 -0.18342552310438459 0 0.24077345857564789 -0.17392640167679871 0 0.24543424042144971 -0.18264145256778069 0 0.23443295505786541 -0.18342552310438459 0 0.24543424042144971 -0.18264145256778069 0 0.24595680253086361 -0.1936582567822154 0 0.2289094657595365 -0.1690866496778341 0 0.23443295505786541 -0.18342552310438459 0 0.24077345857564789 -0.17392640167679871 0 0.25343691440229738 -0.17421686930019101 0 0.24077345857564789 -0.17392640167679871 0 0.24543424042144971 -0.18264145256778069 0 0.24877535007611021 -0.2091376918048363 0 0.23064678596377511 -0.19189437135004489 0 0.24595680253086361 -0.1936582567822154 0 0.24877535007611021 -0.2091376918048363 0 0.23064678596377511 -0.19189437135004489 0 0.23443295505786541 -0.18342552310438459 0 0.24595680253086361 -0.1936582567822154 0 0.23064678596377511 -0.19189437135004489 0 0.24877535007611021 -0.2091376918048363 0 0.23583556595231289 -0.2155377411288929 0 0.24419823581765451 -0.2254123580974994 0 0.24877535007611021 -0.2091376918048363 0 0.23583556595231289 -0.2155377411288929 0 0.23064678596377511 -0.19189437135004489 0 0.23583556595231289 -0.2155377411288929 0 0.22318813346585331 -0.20857777733435701 0 0.23189647014261949 -0.2294259436304007 0 0.23583556595231289 -0.2155377411288929 0 0.22318813346585331 -0.20857777733435701 0 0.23064678596377511 -0.19189437135004489 0 0.22318813346585331 -0.20857777733435701 0 0.22001933378093311 -0.2009915223189343 0 0.22318813346585331 -0.20857777733435701 0 0.22001933378093311 -0.2009915223189343 0 0.23064678596377511 -0.19189437135004489 0 0.21336400833492089 -0.18505836116510149 0 0.22001933378093311 -0.2009915223189343 0 0.22500776907672301 -0.19091677877166499 0 0.22318813346585331 -0.20857777733435701 0 0.23064678596377511 -0.19189437135004489 0 0.22001933378093311 -0.2009915223189343 0 0.22500776907672301 -0.19091677877166499 0 0.22001933378093311 -0.2009915223189343 0 0.22500776907672301 -0.19091677877166499 0 0.23064678596377511 -0.19189437135004489 0 0.21867773442634281 -0.18050978568065601 0 0.22500776907672301 -0.19091677877166499 0 0.23064678596377511 -0.19189437135004489 0 0.23443295505786541 -0.18342552310438459 0 0.23064678596377511 -0.19189437135004489 0 0.25650844091435548 -0.23419565614391979 0 0.24060480681938509 -0.25027410992644472 0 0.24419823581765451 -0.2254123580974994 0 0.24060480681938509 -0.25027410992644472 0 0.23189647014261949 -0.2294259436304007 0 0.24060480681938509 -0.25027410992644472 0 0.24419823581765451 -0.2254123580974994 0 0.23189647014261949 -0.2294259436304007 0 0.25650844091435548 -0.23419565614391979 0 0.24877535007611021 -0.2091376918048363 0 0.24419823581765451 -0.2254123580974994 0 0.23583556595231289 -0.2155377411288929 0 0.24419823581765451 -0.2254123580974994 0 0.23189647014261949 -0.2294259436304007 0 0.22318813346585331 -0.20857777733435701 0 0.22725663460170109 -0.22320857276782849 0 0.23189647014261949 -0.2294259436304007 0 0.22318813346585331 -0.20857777733435701 0 0.22725663460170109 -0.22320857276782849 0 0.21274933847708699 -0.23192712292099441 0 0.22318813346585331 -0.20857777733435701 0 0.23189647014261949 -0.2294259436304007 0 0.22725663460170109 -0.22320857276782849 0 0.21274933847708699 -0.23192712292099441 0 0.22725663460170109 -0.22320857276782849 0 0.22298737516268111 -0.23281933686029371 0 0.21274933847708699 -0.23192712292099441 0 0.22725663460170109 -0.22320857276782849 0 0.22298737516268111 -0.23281933686029371 0 0.23189647014261949 -0.2294259436304007 0 0.24060480681938509 -0.25027410992644472 0 0.23189647014261949 -0.2294259436304007 0 0.22393662304699799 -0.2430299400256471 0 0.22298737516268111 -0.23281933686029371 0 0.23189647014261949 -0.2294259436304007 0 0.22393662304699799 -0.2430299400256471 0 0.22298737516268111 -0.23281933686029371 0 0.22393662304699799 -0.2430299400256471 0 0.21274933847708699 -0.23192712292099441 0 0.20046151801442619 -0.25941234193315271 0 0.21274933847708699 -0.23192712292099441 0 0.2012926349075338 -0.23881233735400539 0 0.20046151801442619 -0.25941234193315271 0 0.21274933847708699 -0.23192712292099441 0 0.2104931124150449 -0.25346063695062487 0 0.22393662304699799 -0.2430299400256471 0 0.21274933847708699 -0.23192712292099441 0 0.2104931124150449 -0.25346063695062487 0 0.20046151801442619 -0.25941234193315271 0 0.21274933847708699 -0.23192712292099441 0 0.21274933847708699 -0.23192712292099441 0 0.2012926349075338 -0.23881233735400539 0 0.21065598434423449 -0.21990192983647039 0 0.2012926349075338 -0.23881233735400539 0 0.22318813346585331 -0.20857777733435701 0 0.21274933847708699 -0.23192712292099441 0 0.21065598434423449 -0.21990192983647039 0 0.21274933847708699 -0.23192712292099441 0 0.2012926349075338 -0.23881233735400539 0 0.22318813346585331 -0.20857777733435701 0 0.21065598434423449 -0.21990192983647039 0 0.21274933847708699 -0.23192712292099441 0 0.21065598434423449 -0.21990192983647039 0 0.19371163448828019 -0.22474860740774399 0 0.2012926349075338 -0.23881233735400539 0 0.19371163448828019 -0.22474860740774399 0 0.1913315023588143 -0.23526448213601489 0 0.17869583352963439 -0.23149822048328861 0 0.19371163448828019 -0.22474860740774399 0 0.2012926349075338 -0.23881233735400539 0 0.1913315023588143 -0.23526448213601489 0 0.2012926349075338 -0.23881233735400539 0 0.1913315023588143 -0.23526448213601489 0 0.18978939181727089 -0.24572552096486031 0 0.19473139264387221 -0.25206355326407059 0 0.2012926349075338 -0.23881233735400539 0 0.18978939181727089 -0.24572552096486031 0 0.19473139264387221 -0.25206355326407059 0 0.18978939181727089 -0.24572552096486031 0 0.19473139264387221 -0.25206355326407059 0 0.2012926349075338 -0.23881233735400539 0 0.2012926349075338 -0.23881233735400539 0 0.18978939181727089 -0.24572552096486031 0 0.21336400833492089 -0.18505836116510149 0 0.22001933378093311 -0.2009915223189343 0 0.20632505111950461 -0.19874511051499749 0 0.21336400833492089 -0.18505836116510149 0 0.20632505111950461 -0.19874511051499749 0 0.19579642821571591 -0.19127815309787749 0 0.21336400833492089 -0.18505836116510149 0 0.22001933378093311 -0.2009915223189343 0 0.22318813346585331 -0.20857777733435701 0 0.22001933378093311 -0.2009915223189343 0 0.21065598434423449 -0.21990192983647039 0 0.21065598434423449 -0.21990192983647039 0 0.20632505111950461 -0.19874511051499749 0 0.1976618094456441 -0.20958614309055179 0 0.22001933378093311 -0.2009915223189343 0 0.21065598434423449 -0.21990192983647039 0 0.20632505111950461 -0.19874511051499749 0 0.22001933378093311 -0.2009915223189343 0 0.21065598434423449 -0.21990192983647039 0 0.21065598434423449 -0.21990192983647039 0 0.19371163448828019 -0.22474860740774399 0 0.1976618094456441 -0.20958614309055179 0 0.1976618094456441 -0.20958614309055179 0 0.18263204234382099 -0.21342853154613431 0 0.19371163448828019 -0.22474860740774399 0 0.1976618094456441 -0.20958614309055179 0 0.18263204234382099 -0.21342853154613431 0 0.1976618094456441 -0.20958614309055179 0 0.18601974456397749 -0.20048820908665441 0 0.18263204234382099 -0.21342853154613431 0 0.20632505111950461 -0.19874511051499749 0 0.1976618094456441 -0.20958614309055179 0 0.19579642821571591 -0.19127815309787749 0 0.1976618094456441 -0.20958614309055179 0 0.19579642821571591 -0.19127815309787749 0 0.18601974456397749 -0.20048820908665441 0 0.19579642821571591 -0.19127815309787749 0 0.18601974456397749 -0.20048820908665441 0 0.1855597922335028 -0.18595809190382279 0 0.17494145834575131 -0.19169605205019419 0 0.18601974456397749 -0.20048820908665441 0 0.1855597922335028 -0.18595809190382279 0 0.17494145834575131 -0.19169605205019419 0 0.18601974456397749 -0.20048820908665441 0 0.1723858820801375 -0.20466614878577599 0 0.18601974456397749 -0.20048820908665441 0 0.18263204234382099 -0.21342853154613431 0 0.1723858820801375 -0.20466614878577599 0 0.18263204234382099 -0.21342853154613431 0 0.16760227524199811 -0.21727092000171691 0 0.18263204234382099 -0.21342853154613431 0 0.1723858820801375 -0.20466614878577599 0 0.16760227524199811 -0.21727092000171691 0 0.1723858820801375 -0.20466614878577599 0 0.16760227524199811 -0.21727092000171691 0 0.15338020252001189 -0.199031352782607 0 0.16760227524199811 -0.21727092000171691 0 0.15338020252001189 -0.199031352782607 0 0.1723858820801375 -0.20466614878577599 0 0.16631714292815211 -0.1947609966332722 0 0.15338020252001189 -0.199031352782607 0 0.16631714292815211 -0.1947609966332722 0 0.15338020252001189 -0.199031352782607 0 0.1645610287667077 -0.18365043291451141 0 0.17494145834575131 -0.19169605205019419 0 0.16631714292815211 -0.1947609966332722 0 0.1645610287667077 -0.18365043291451141 0 0.17494145834575131 -0.19169605205019419 0 0.1723858820801375 -0.20466614878577599 0 0.16631714292815211 -0.1947609966332722 0 0.17642200342196049 -0.2537590128809481 0 0.17695294132678499 -0.24256671910626509 0 0.16519142625757341 -0.24211458988148071 0 0.17642200342196049 -0.2537590128809481 0 0.18978939181727089 -0.24572552096486031 0 0.17695294132678499 -0.24256671910626509 0 0.17642200342196049 -0.2537590128809481 0 0.18978939181727089 -0.24572552096486031 0 0.1913315023588143 -0.23526448213601489 0 0.18978939181727089 -0.24572552096486031 0 0.17869583352963439 -0.23149822048328861 0 0.18978939181727089 -0.24572552096486031 0 0.17869583352963439 -0.23149822048328861 0 0.18978939181727089 -0.24572552096486031 0 0.17695294132678499 -0.24256671910626509 0 0.17869583352963439 -0.23149822048328861 0 0.17695294132678499 -0.24256671910626509 0 0.17869583352963439 -0.23149822048328861 0 0.16722598211680889 -0.22994037969918321 0 0.18263204234382099 -0.21342853154613431 0 0.16760227524199811 -0.21727092000171691 0 0.17869583352963439 -0.23149822048328861 0 0.19371163448828019 -0.22474860740774399 0 0.18263204234382099 -0.21342853154613431 0 0.17869583352963439 -0.23149822048328861 0 0.16760227524199811 -0.21727092000171691 0 0.17869583352963439 -0.23149822048328861 0 0.16760227524199811 -0.21727092000171691 0 0.15066381316678301 -0.22160126994607701 0 0.16760227524199811 -0.21727092000171691 0 0.16722598211680889 -0.22994037969918321 0 0.15066381316678301 -0.22160126994607701 0 0.16722598211680889 -0.22994037969918321 0 0.15610272573562259 -0.23314311709386901 0 0.15066381316678301 -0.22160126994607701 0 0.16760227524199811 -0.21727092000171691 0 0.17869583352963439 -0.23149822048328861 0 0.16722598211680889 -0.22994037969918321 0 0.17695294132678499 -0.24256671910626509 0 0.16722598211680889 -0.22994037969918321 0 0.16519142625757341 -0.24211458988148071 0 0.16722598211680889 -0.22994037969918321 0 0.16519142625757341 -0.24211458988148071 0 0.15610272573562259 -0.23314311709386901 0 0.16519142625757341 -0.24211458988148071 0 0.15728563120878539 -0.241111179410125 0 0.15610272573562259 -0.23314311709386901 0 0.16528334120954741 -0.25128856355010659 0 0.16519142625757341 -0.24211458988148071 0 0.15646532013200559 -0.247488146640962 0 0.16519142625757341 -0.24211458988148071 0 0.15728563120878539 -0.241111179410125 0 0.15646532013200559 -0.247488146640962 0 0.16528334120954741 -0.25128856355010659 0 0.17642200342196049 -0.2537590128809481 0 0.16519142625757341 -0.24211458988148071 0 0.13828177495032279 -0.26213746811388627 0 0.14864590921915391 -0.24598625869157201 0 0.13606532708945779 -0.23982632182759039 0 0.14864590921915391 -0.24598625869157201 0 0.13347268291002379 -0.2293413391227879 0 0.14864590921915391 -0.24598625869157201 0 0.14436043561370759 -0.23378554054237161 0 0.13347268291002379 -0.2293413391227879 0 0.15646532013200559 -0.247488146640962 0 0.14977691076445809 -0.24422373397493949 0 0.14864590921915391 -0.24598625869157201 0 0.15728563120878539 -0.241111179410125 0 0.15646532013200559 -0.247488146640962 0 0.15385345184775859 -0.24272620996792471 0 0.15646532013200559 -0.247488146640962 0 0.15385345184775859 -0.24272620996792471 0 0.14977691076445809 -0.24422373397493949 0 0.14977691076445809 -0.24422373397493949 0 0.14864590921915391 -0.24598625869157201 0 0.14977691076445809 -0.24422373397493949 0 0.15188594528578531 -0.23808177984567219 0 0.14436043561370759 -0.23378554054237161 0 0.15728563120878539 -0.241111179410125 0 0.15188594528578531 -0.23808177984567219 0 0.15610272573562259 -0.23314311709386901 0 0.15188594528578531 -0.23808177984567219 0 0.14436043561370759 -0.23378554054237161 0 0.15610272573562259 -0.23314311709386901 0 0.15385345184775859 -0.24272620996792471 0 0.14977691076445809 -0.24422373397493949 0 0.15188594528578531 -0.23808177984567219 0 0.15728563120878539 -0.241111179410125 0 0.15385345184775859 -0.24272620996792471 0 0.15188594528578531 -0.23808177984567219 0 0.14977691076445809 -0.24422373397493949 0 0.14864590921915391 -0.24598625869157201 0 0.14436043561370759 -0.23378554054237161 0 0.15066381316678301 -0.22160126994607701 0 0.13372535109156791 -0.22593161989043711 0 0.1466330190946728 -0.20948439781705661 0 0.15066381316678301 -0.22160126994607701 0 0.13372535109156791 -0.22593161989043711 0 0.14436043561370759 -0.23378554054237161 0 0.15066381316678301 -0.22160126994607701 0 0.13372535109156791 -0.22593161989043711 0 0.14436043561370759 -0.23378554054237161 0 0.15610272573562259 -0.23314311709386901 0 0.15066381316678301 -0.22160126994607701 0 0.1225527060400716 -0.21175765639955729 0 0.1241340057898697 -0.2190968778343966 0 0.13372535109156791 -0.22593161989043711 0 0.1241340057898697 -0.2190968778343966 0 0.13372535109156791 -0.22593161989043711 0 0.1309996578686356 -0.2266284485307126 0 0.1241340057898697 -0.2190968778343966 0 0.124603106919671 -0.2264723668861042 0 0.1309996578686356 -0.2266284485307126 0 0.1241340057898697 -0.2190968778343966 0 0.1309996578686356 -0.2266284485307126 0 0.13372535109156791 -0.22593161989043711 0 0.1309996578686356 -0.2266284485307126 0 0.1237886589078623 -0.23659236418800161 0 0.1309996578686356 -0.2266284485307126 0 0.13347268291002379 -0.2293413391227879 0 0.1309996578686356 -0.2266284485307126 0 0.13347268291002379 -0.2293413391227879 0 0.13372535109156791 -0.22593161989043711 0 0.1309996578686356 -0.2266284485307126 0 0.13347268291002379 -0.2293413391227879 0 0.14436043561370759 -0.23378554054237161 0 0.13372535109156791 -0.22593161989043711 0 0.13347268291002379 -0.2293413391227879 0 0.13372535109156791 -0.22593161989043711 0 0.13347268291002379 -0.2293413391227879 0 0.13178497783693821 -0.25211666607955069 0 0.13347268291002379 -0.2293413391227879 0 0.13606532708945779 -0.23982632182759039 0 0.13178497783693821 -0.25211666607955069 0 0.1237886589078623 -0.23659236418800161 0 0.13347268291002379 -0.2293413391227879 0 0.13178497783693821 -0.25211666607955069 0 0.13347268291002379 -0.2293413391227879 0 0.14864590921915391 -0.24598625869157201 0 0.13347268291002379 -0.2293413391227879 0 0.13606532708945779 -0.23982632182759039 0 0.13178497783693821 -0.25211666607955069 0 0.1237886589078623 -0.23659236418800161 0 0.1224890003745731 -0.24541254930308659 0 0.14176530540822119 -0.1964743214436879 0 0.15338020252001189 -0.199031352782607 0 0.13915812979802519 -0.18079178556349759 0 0.15338020252001189 -0.199031352782607 0 0.13915812979802519 -0.18079178556349759 0 0.14176530540822119 -0.1964743214436879 0 0.1466330190946728 -0.20948439781705661 0 0.1355413186704115 -0.20142540964638489 0 0.14176530540822119 -0.1964743214436879 0 0.15338020252001189 -0.199031352782607 0 0.1466330190946728 -0.20948439781705661 0 0.16760227524199811 -0.21727092000171691 0 0.15066381316678301 -0.22160126994607701 0 0.1466330190946728 -0.20948439781705661 0 0.16760227524199811 -0.21727092000171691 0 0.15338020252001189 -0.199031352782607 0 0.1466330190946728 -0.20948439781705661 0 0.13372535109156791 -0.22593161989043711 0 0.1466330190946728 -0.20948439781705661 0 0.1355413186704115 -0.20142540964638489 0 0.1225527060400716 -0.21175765639955729 0 0.13372535109156791 -0.22593161989043711 0 0.1355413186704115 -0.20142540964638489 0 0.13372535109156791 -0.22593161989043711 0 0.1355413186704115 -0.20142540964638489 0 0.12354903960564891 -0.20989968896969949 0 0.1225527060400716 -0.21175765639955729 0 0.1355413186704115 -0.20142540964638489 0 0.1225527060400716 -0.21175765639955729 0 0.1355413186704115 -0.20142540964638489 0 0.12354903960564891 -0.20989968896969949 0 0.1355413186704115 -0.20142540964638489 0 0.13673555114645999 -0.18530942140994891 0 0.1355413186704115 -0.20142540964638489 0 0.13673555114645999 -0.18530942140994891 0 0.12354903960564891 -0.20989968896969949 0 0.13673555114645999 -0.18530942140994891 0 0.14176530540822119 -0.1964743214436879 0 0.1355413186704115 -0.20142540964638489 0 0.13673555114645999 -0.18530942140994891 0 0.14176530540822119 -0.1964743214436879 0 0.13915812979802519 -0.18079178556349759 0 0.13673555114645999 -0.18530942140994891 0 0.12354903960564891 -0.20989968896969949 0 0.1221028460494281 -0.1871617673083229 0 0.13673555114645999 -0.18530942140994891 0 0.14176530540822119 -0.1964743214436879 0 0.1355413186704115 -0.20142540964638489 0 0.1221028460494281 -0.1871617673083229 0 0.12754889835118269 -0.1739817632498703 0 0.13673555114645999 -0.18530942140994891 0 0.1372515137924043 -0.1783465828511136 0 0.13915812979802519 -0.18079178556349759 0 0.14492171137996601 -0.16083126923740221 0 0.12754889835118269 -0.1739817632498703 0 0.1372515137924043 -0.1783465828511136 0 0.12652377143427199 -0.16458843509899229 0 0.12754889835118269 -0.1739817632498703 0 0.1372515137924043 -0.1783465828511136 0 0.13673555114645999 -0.18530942140994891 0 0.1372515137924043 -0.1783465828511136 0 0.13915812979802519 -0.18079178556349759 0 0.1372515137924043 -0.1783465828511136 0 0.13673555114645999 -0.18530942140994891 0 0.1372515137924043 -0.1783465828511136 0 0.13915812979802519 -0.18079178556349759 0 0.13673555114645999 -0.18530942140994891 0 0.13915812979802519 -0.18079178556349759 0 0.13673555114645999 -0.18530942140994891 0 0.15338020252001189 -0.199031352782607 0 0.13915812979802519 -0.18079178556349759 0 0.1536955843793939 -0.17876042994451979 0 0.13915812979802519 -0.18079178556349759 0 0.1536955843793939 -0.17876042994451979 0 0.15285904114842691 -0.17064997139051541 0 0.1536955843793939 -0.17876042994451979 0 0.15285904114842691 -0.17064997139051541 0 0.1599591872774683 -0.17331378406274781 0 0.13915812979802519 -0.18079178556349759 0 0.15044143212716671 -0.15975063132248121 0 0.15285904114842691 -0.17064997139051541 0 0.13915812979802519 -0.18079178556349759 0 0.14492171137996601 -0.16083126923740221 0 0.15044143212716671 -0.15975063132248121 0 0.13915812979802519 -0.18079178556349759 0 0.14492171137996601 -0.16083126923740221 0 0.13915812979802519 -0.18079178556349759 0 0.15044143212716671 -0.15975063132248121 0 0.15044143212716671 -0.15975063132248121 0 0.15285904114842691 -0.17064997139051541 0 0.16100489956071731 -0.16303745961465041 0 0.1372515137924043 -0.1783465828511136 0 0.14492171137996601 -0.16083126923740221 0 0.13921459720841181 -0.15185506643865429 0 0.1372515137924043 -0.1783465828511136 0 0.13436949899525261 -0.16622245997841409 0 0.13921459720841181 -0.15185506643865429 0 0.1372515137924043 -0.1783465828511136 0 0.13921459720841181 -0.15185506643865429 0 0.13341216738729081 -0.15866243074363209 0 0.13436949899525261 -0.16622245997841409 0 0.13921459720841181 -0.15185506643865429 0 0.13341216738729081 -0.15866243074363209 0 0.13436949899525261 -0.16622245997841409 0 0.13086866983612999 -0.1625152796426125 0 0.1372515137924043 -0.1783465828511136 0 0.12652377143427199 -0.16458843509899229 0 0.13436949899525261 -0.16622245997841409 0 0.12652377143427199 -0.16458843509899229 0 0.13086866983612999 -0.1625152796426125 0 0.1372515137924043 -0.1783465828511136 0 0.13436949899525261 -0.16622245997841409 0 0.12652377143427199 -0.16458843509899229 0 0.13341216738729081 -0.15866243074363209 0 0.12759497367927811 -0.15995349873501299 0 0.1257480778739504 -0.15175212419531919 0 0.1244356971050361 -0.16050450208418279 0 0.12759497367927811 -0.15995349873501299 0 0.1257480778739504 -0.15175212419531919 0 0.13341216738729081 -0.15866243074363209 0 0.13086866983612999 -0.1625152796426125 0 0.12759497367927811 -0.15995349873501299 0 0.12652377143427199 -0.16458843509899229 0 0.1251443743524793 -0.16227674077552151 0 0.12759497367927811 -0.15995349873501299 0 0.12652377143427199 -0.16458843509899229 0 0.13086866983612999 -0.1625152796426125 0 0.12759497367927811 -0.15995349873501299 0 0.1244356971050361 -0.16050450208418279 0 0.1251443743524793 -0.16227674077552151 0 0.12759497367927811 -0.15995349873501299 0 0.13341216738729081 -0.15866243074363209 0 0.1257480778739504 -0.15175212419531919 0 0.1316421604270743 -0.14717397658266909 0 0.1191486978954456 -0.14071487988278389 0 0.1316421604270743 -0.14717397658266909 0 0.13302092718644101 -0.13813206400399461 0 0.1191486978954456 -0.14071487988278389 0 0.1257480778739504 -0.15175212419531919 0 0.1316421604270743 -0.14717397658266909 0 0.1316421604270743 -0.14717397658266909 0 0.13921459720841181 -0.15185506643865429 0 0.13302092718644101 -0.13813206400399461 0 0.13341216738729081 -0.15866243074363209 0 0.1316421604270743 -0.14717397658266909 0 0.13921459720841181 -0.15185506643865429 0 0.13921459720841181 -0.15185506643865429 0 0.13302092718644101 -0.13813206400399461 0 0.14117768062442221 -0.12536355002619509 0 0.1232538410946369 -0.1262028882071527 0 0.13302092718644101 -0.13813206400399461 0 0.14117768062442221 -0.12536355002619509 0 0.13921459720841181 -0.15185506643865429 0 0.14117768062442221 -0.12536355002619509 0 0.1232538410946369 -0.1262028882071527 0 0.1191486978954456 -0.14071487988278389 0 0.13302092718644101 -0.13813206400399461 0 0.15768459853676881 -0.1224950316621085 0 0.15130315495836599 -0.14166315044975489 0 0.13921459720841181 -0.15185506643865429 0 0.14117768062442221 -0.12536355002619509 0 0.15130315495836599 -0.14166315044975489 0 0.14935145079833981 -0.12347072094141889 0 0.14117768062442221 -0.12536355002619509 0 0.15130315495836599 -0.14166315044975489 0 0.14935145079833981 -0.12347072094141889 0 0.15768459853676881 -0.1224950316621085 0 0.15130315495836599 -0.14166315044975489 0 0.14492171137996601 -0.16083126923740221 0 0.15130315495836599 -0.14166315044975489 0 0.14492171137996601 -0.16083126923740221 0 0.13921459720841181 -0.15185506643865429 0 0.15130315495836599 -0.14166315044975489 0 0.15044143212716671 -0.15975063132248121 0 0.16172473445631011 -0.1387094770814658 0 0.15044143212716671 -0.15975063132248121 0 0.15130315495836599 -0.14166315044975489 0 0.16172473445631011 -0.1387094770814658 0 0.14492171137996601 -0.16083126923740221 0 0.15044143212716671 -0.15975063132248121 0 0.15130315495836599 -0.14166315044975489 0 0.15044143212716671 -0.15975063132248121 0 0.16171592018880229 -0.15249368021587001 0 0.16172473445631011 -0.1387094770814658 0 0.168436487893904 -0.14676436103547391 0 0.16172473445631011 -0.1387094770814658 0 0.1773995387661271 -0.14124726322415321 0 0.16171592018880229 -0.15249368021587001 0 0.168436487893904 -0.14676436103547391 0 0.16172473445631011 -0.1387094770814658 0 0.16171592018880229 -0.15249368021587001 0 0.168436487893904 -0.14676436103547391 0 0.16684393348443191 -0.15565011769669121 0 0.168436487893904 -0.14676436103547391 0 0.16684393348443191 -0.15565011769669121 0 0.17388336815073591 -0.15265076618197049 0 0.15768459853676881 -0.1224950316621085 0 0.16172473445631011 -0.1387094770814658 0 0.1773995387661271 -0.14124726322415321 0 0.15768459853676881 -0.1224950316621085 0 0.15130315495836599 -0.14166315044975489 0 0.16172473445631011 -0.1387094770814658 0 0.17086070993130231 -0.1219028527329503 0 0.15768459853676881 -0.1224950316621085 0 0.1773995387661271 -0.14124726322415321 0 0.15768459853676881 -0.1224950316621085 0 0.1773995387661271 -0.14124726322415321 0 0.17086070993130231 -0.1219028527329503 0 0.19059246394201981 -0.1200190529176364 0 0.1773995387661271 -0.14124726322415321 0 0.19059246394201981 -0.1200190529176364 0 0.19257259575238239 -0.14077909586510759 0 0.1773995387661271 -0.14124726322415321 0 0.17086070993130231 -0.1219028527329503 0 0.1773995387661271 -0.14124726322415321 0 0.17388336815073591 -0.15265076618197049 0 0.1773995387661271 -0.14124726322415321 0 0.1826449157995132 -0.15676513791978 0 0.168436487893904 -0.14676436103547391 0 0.17388336815073591 -0.15265076618197049 0 0.1773995387661271 -0.14124726322415321 0 0.19205411082751869 -0.15518623161771031 0 0.19257259575238239 -0.14077909586510759 0 0.1773995387661271 -0.14124726322415321 0 0.19205411082751869 -0.15518623161771031 0 0.1773995387661271 -0.14124726322415321 0 0.1773995387661271 -0.14124726322415321 0 0.1826449157995132 -0.15676513791978 0 0.19205411082751869 -0.15518623161771031 0 0.1773995387661271 -0.14124726322415321 0 0.1826449157995132 -0.15676513791978 0 0.17388336815073591 -0.15265076618197049 0 0.1826449157995132 -0.15676513791978 0 0.17396385138822151 -0.1642705967051673 0 0.17396385138822151 -0.1642705967051673 0 0.1757123292371113 -0.1780813110345735 0 0.16767538253209571 -0.17047062644954239 0 0.18789029283289971 -0.17228301261540671 0 0.17396385138822151 -0.1642705967051673 0 0.1757123292371113 -0.1780813110345735 0 0.18789029283289971 -0.17228301261540671 0 0.1826449157995132 -0.15676513791978 0 0.18789029283289971 -0.17228301261540671 0 0.1826449157995132 -0.15676513791978 0 0.17396385138822151 -0.1642705967051673 0 0.18789029283289971 -0.17228301261540671 0 0.1855597922335028 -0.18595809190382279 0 0.1757123292371113 -0.1780813110345735 0 0.17494145834575131 -0.19169605205019419 0 0.1855597922335028 -0.18595809190382279 0 0.1757123292371113 -0.1780813110345735 0 0.15338020252001189 -0.199031352782607 0 0.1536955843793939 -0.17876042994451979 0 0.1645610287667077 -0.18365043291451141 0 0.1757123292371113 -0.1780813110345735 0 0.1645610287667077 -0.18365043291451141 0 0.16767538253209571 -0.17047062644954239 0 0.1645610287667077 -0.18365043291451141 0 0.1599591872774683 -0.17331378406274781 0 0.16767538253209571 -0.17047062644954239 0 0.17494145834575131 -0.19169605205019419 0 0.1757123292371113 -0.1780813110345735 0 0.1645610287667077 -0.18365043291451141 0 0.1536955843793939 -0.17876042994451979 0 0.1645610287667077 -0.18365043291451141 0 0.1599591872774683 -0.17331378406274781 0 0.15285904114842691 -0.17064997139051541 0 0.1599591872774683 -0.17331378406274781 0 0.16100489956071731 -0.16303745961465041 0 0.1599591872774683 -0.17331378406274781 0 0.16100489956071731 -0.16303745961465041 0 0.16767538253209571 -0.17047062644954239 0 0.15044143212716671 -0.15975063132248121 0 0.16171592018880229 -0.15249368021587001 0 0.16100489956071731 -0.16303745961465041 0 0.16171592018880229 -0.15249368021587001 0 0.16684393348443191 -0.15565011769669121 0 0.16100489956071731 -0.16303745961465041 0 0.16684393348443191 -0.15565011769669121 0 0.17396385138822151 -0.1642705967051673 0 0.16100489956071731 -0.16303745961465041 0 0.16684393348443191 -0.15565011769669121 0 0.17388336815073591 -0.15265076618197049 0 0.17396385138822151 -0.1642705967051673 0 0.17396385138822151 -0.1642705967051673 0 0.16100489956071731 -0.16303745961465041 0 0.16767538253209571 -0.17047062644954239 0 
</DataArray>
</Points>
<Cells>
<DataArray type="UInt32" Name="connectivity" format="ascii">
0 1 2 3 4 5 6 7 8 9 10 11 12 13 14 15 16 17 18 19 20 21 22 23 24 25 26 27 28 29 30 31 32 33 34 35 36 37 38 39 40 41 42 43 44 45 46 47 48 49 50 51 52 53 54 55 56 57 58 59 60 61 62 63 64 65 66 67 68 69 70 71 72 73 74 75 76 77 78 79 80 81 82 83 84 85 86 87 88 89 90 91 92 93 94 95 96 97 98 99 100 101 102 103 104 105 106 107 108 109 110 111 112 113 114 115 116 117 118 119 120 121 122 123 124 125 126 127 128 129 130 131 132 133 134 135 136 137 138 139 140 141 142 143 144 145 146 147 148 149 150 151 152 153 154 155 156 157 158 159 160 161 162 163 164 165 166 167 168 169 170 171 172 173 174 175 176 177 178 179 180 181 182 183 184 185 186 187 188 189 190 191 192 193 194 195 196 197 198 199 200 201 202 203 204 205 206 207 208 209 210 211 212 213 214 215 216 217 218 219 220 221 222 223 224 225 226 227 228 229 230 231 232 233 234 235 236 237 238 239 240 241 242 243 244 245 246 247 248 249 250 251 252 253 254 255 256 257 258 259 260 261 262 263 264 265 266 267 268 269 270 271 272 273 274 275 276 277 278 279 280 281 282 283 284 285 286 287 288 289 290 291 292 293 294 295 296 297 298 299 300 301 302 303 304 305 306 307 308 309 310 311 312 313 314 315 316 317 318 319 320 321 322 323 324 325 326 327 328 329 330 331 332 333 334 335 336 337 338 339 340 341 342 343 344 345 346 347 348 349 350 351 352 353 354 355 356 357 358 359 360 361 362 363 364 365 366 367 368 369 370 371 372 373 374 375 376 377 378 379 380 381 382 383 384 385 386 387 388 389 390 391 392 393 394 395 396 397 398 399 400 401 402 403 404 405 406 407 408 409 410 411 412 413 414 415 416 417 418 419 420 421 422 423 424 425 426 427 428 429 430 431 432 433 434 435 436 437 438 439 440 441 442 443 444 445 446 447 448 449 450 451 452 453 454 455 456 457 458 459 460 461 462 463 464 465 466 467 468 469 470 471 472 473 474 475 476 477 478 479 480 481 482 483 484 485 486 487 488 489 490 491 492 493 494 495 496 497 498 499 500 501 502 503 504 505 506 507 508 509 510 511 512 513 514 515 516 517 518 519 520 521 522 523 524 525 526 527 528 529 530 531 532 533 534 535 536 537 538 539 540 541 542 543 544 545 546 547 548 549 550 551 552 553 554 555 556 557 558 559 560 561 562 563 564 565 566 567 568 569 570 571 572 573 574 575 576 577 578 579 580 581 582 583 584 585 586 587 588 589 590 591 592 593 594 595 596 597 598 599 600 601 602 603 604 605 606 607 608 609 610 611 612 613 614 615 616 617 618 619 620 621 622 623 624 625 626 627 628 629 630 631 632 633 634 635 636 637 638 639 640 641 642 643 644 645 646 647 648 649 650 651 652 653 654 655 656 657 658 659 660 661 662 663 664 665 666 667 668 669 670 671 672 673 674 675 676 677 678 679 680 681 682 683 684 685 686 687 688 689 690 691 692 693 694 695 696 697 698 699 700 701 702 703 704 705 706 707 708 709 710 711 712 713 714 715 716 717 718 719 720 721 722 723 724 725 726 727 728 729 730 731 732 733 734 735 736 737 738 739 740 741 742 743 744 745 746 747 748 749 750 751 752 753 754 755 756 757 758 759 760 761 762 763 764 765 766 767 768 769 770 771 772 773 774 775 776 777 778 779 780 781 782 783 784 785 786 787 788 789 790 791 792 793 794 795 796 797 798 799 800 801 802 803 804 805 806 807 808 809 810 811 812 813 814 815 816 817 818 819 820 821 822 823 824 825 826 827 828 829 830 831 832 833 834 835 836 837 838 839 840 841 842 843 844 845 846 847 848 849 850 851 852 853 854 855 856 857 858 859 860 861 862 863 864 865 866 867 868 869 870 871 872 873 874 875 876 877 878 879 880 881 882 883 884 885 886 887 888 889 890 891 892 893 894 895 896 897 898 899 900 901 902 903 904 905 906 907 908 909 910 911 912 913 914 915 916 917 918 919 920 921 922 923 924 925 926 927 928 929 930 931 932 933 934 935 936 937 938 939 940 941 942 943 944 945 946 947 948 949 950 951 952 953 954 955 956 957 958 959 960 961 962 963 964 965 966 967 968 969 970 971 972 973 974 975 976 977 978 979 980 981 982 983 984 985 986 987 988 989 990 991 992 993 994 995 996 997 998 999 1000 1001 1002 1003 1004 1005 1006 1007 1008 1009 1010 1011 1012 1013 1014 1015 1016 1017 1018 1019 1020 1021 1022 1023 1024 1025 1026 1027 1028 1029 1030 1031 1032 1033 1034 1035 1036 1037 1038 1039 1040 1041 1042 1043 1044 1045 1046 1047 1048 1049 1050 1051 1052 1053 1054 1055 1056 1057 1058 1059 1060 1061 1062 1063 1064 1065 1066 1067 1068 1069 1070 1071 1072 1073 1074 1075 1076 1077 1078 1079 1080 1081 1082 1083 1084 1085 1086 1087 1088 1089 1090 1091 1092 1093 1094 1095 1096 1097 1098 1099 1100 1101 1102 1103 1104 1105 1106 1107 1108 1109 1110 1111 1112 1113 1114 1115 1116 1117 1118 1119 1120 1121 1122 1123 1124 1125 1126 1127 1128 1129 1130 1131 1132 1133 1134 1135 1136 1137 1138 1139 1140 1141 1142 1143 1144 1145 1146 1147 1148 1149 1150 1151 1152 1153 1154 1155 1156 1157 1158 1159 1160 1161 1162 1163 1164 1165 1166 1167 1168 1169 1170 1171 1172 1173 1174 1175 1176 1177 1178 1179 1180 1181 1182 1183 1184 1185 1186 1187 1188 1189 1190 1191 1192 1193 1194 1195 1196 1197 1198 1199 1200 1201 1202 1203 1204 1205 1206 1207 1208 1209 1210 1211 1212 1213 1214 1215 1216 1217 1218 1219 1220 1221 1222 1223 1224 1225 1226 1227 1228 1229 1230 1231 1232 1233 1234 1235 1236 1237 1238 1239 1240 1241 1242 1243 1244 1245 1246 1247 1248 1249 1250 1251 1252 1253 1254 1255 1256 1257 1258 1259 1260 1261 1262 1263 1264 1265 1266 1267 1268 1269 1270 1271 1272 1273 1274 1275 1276 1277 1278 1279 1280 1281 1282 1283 1284 1285 1286 1287 1288 1289 1290 1291 1292 1293 1294 1295 1296 1297 1298 1299 1300 1301 1302 1303 1304 1305 1306 1307 1308 1309 1310 1311 1312 1313 1314 1315 1316 1317 1318 1319 1320 1321 1322 1323 1324 1325 1326 1327 1328 1329 1330 1331 1332 1333 1334 1335 1336 1337 1338 1339 1340 1341 1342 1343 1344 1345 1346 1347 1348 1349 1350 1351 1352 1353 1354 1355 1356 1357 1358 1359 1360 1361 1362 1363 1364 1365 1366 1367 1368 1369 1370 1371 1372 1373 1374 1375 1376 1377 1378 1379 1380 1381 1382 1383 1384 1385 1386 1387 1388 1389 1390 1391 1392 1393 1394 1395 1396 1397 1398 1399 1400 1401 1402 1403 1404 1405 1406 1407 1408 1409 1410 1411 1412 1413 1414 1415 1416 1417 1418 1419 1420 1421 1422 1423 1424 1425 1426 1427 1428 1429 1430 1431 1432 1433 1434 1435 1436 1437 1438 1439 1440 1441 1442 1443 1444 1445 1446 1447 1448 1449 1450 1451 1452 1453 1454 1455 1456 1457 1458 1459 1460 1461 1462 1463 1464 1465 1466 1467 1468 1469 1470 1471 1472 1473 1474 1475 1476 1477 1478 1479 1480 1481 1482 1483 1484 1485 1486 1487 1488 1489 1490 1491 1492 1493 1494 1495 1496 1497 1498 1499 1500 1501 1502 1503 1504 1505 1506 1507 1508 1509 1510 1511 1512 1513 1514 1515 1516 1517 1518 1519 1520 1521 1522 1523 1524 1525 1526 1527 1528 1529 1530 1531 1532 1533 1534 1535 1536 1537 1538 1539 1540 1541 1542 1543 1544 1545 1546 1547 1548 1549 1550 1551 1552 1553 1554 1555 1556 1557 1558 1559 1560 1561 1562 1563 1564 1565 1566 1567 1568 1569 1570 1571 1572 1573 1574 1575 1576 1577 1578 1579 1580 1581 1582 1583 1584 1585 1586 1587 1588 1589 1590 1591 1592 1593 1594 1595 1596 1597 1598 1599 1600 1601 1602 1603 1604 1605 1606 1607 1608 1609 1610 1611 1612 1613 1614 1615 1616 1617 1618 1619 1620 1621 1622 1623 1624 1625 1626 1627 1628 1629 1630 1631 1632 1633 1634 1635 1636 1637 1638 1639 1640 1641 1642 1643 1644 1645 1646 1647 1648 1649 1650 1651 1652 1653 1654 1655 1656 1657 1658 1659 1660 1661 1662 1663 1664 1665 1666 1667 1668 1669 1670 1671 1672 1673 1674 1675 1676 1677 1678 1679 1680 1681 1682 1683 1684 1685 1686 1687 1688 1689 1690 1691 1692 1693 1694 1695 1696 1697 1698 1699 1700 1701 1702 1703 1704 1705 1706 1707 1708 1709 1710 1711 1712 1713 1714 1715 1716 1717 1718 1719 1720 1721 1722 1723 1724 1725 1726 1727 1728 1729 1730 1731 1732 1733 1734 1735 1736 1737 1738 1739 1740 1741 1742 1743 1744 1745 1746 1747 1748 1749 1750 1751 1752 1753 1754 1755 1756 1757 1758 1759 1760 1761 1762 1763 1764 1765 1766 1767 1768 1769 1770 1771 1772 1773 1774 1775 1776 1777 1778 1779 1780 1781 1782 1783 1784 1785 1786 1787 1788 1789 1790 1791 1792 1793 1794 1795 1796 1797 1798 1799 1800 1801 1802 1803 1804 1805 1806 1807 1808 1809 1810 1811 1812 1813 1814 1815 1816 1817 1818 1819 1820 1821 1822 1823 1824 1825 1826 1827 1828 1829 1830 1831 1832 1833 1834 1835 1836 1837 1838 1839 1840 1841 1842 1843 1844 1845 1846 1847 1848 1849 1850 1851 1852 1853 1854 1855 1856 1857 1858 1859 1860 1861 1862 1863 1864 1865 1866 1867 1868 1869 1870 1871 1872 1873 1874 1875 1876 1877 1878 1879 1880 1881 1882 1883 1884 1885 1886 1887 1888 1889 1890 1891 1892 1893 1894 1895 1896 1897 1898 1899 1900 1901 1902 1903 1904 1905 1906 1907 1908 1909 1910 1911 1912 1913 1914 1915 1916 1917 1918 1919 1920 1921 1922 1923 1924 1925 1926 1927 1928 1929 1930 1931 1932 1933 1934 1935 1936 1937 1938 1939 1940 1941 1942 1943 1944 1945 1946 1947 1948 1949 1950 1951 1952 1953 1954 1955 1956 1957 1958 1959 1960 1961 1962 1963 1964 1965 1966 1967 1968 1969 1970 1971 1972 1973 1974 1975 1976 1977 1978 1979 1980 1981 1982 1983 1984 1985 1986 1987 1988 1989 1990 1991 1992 1993 1994 1995 1996 1997 1998 1999 2000 2001 2002 2003 2004 2005 2006 2007 2008 2009 2010 2011 2012 2013 2014 2015 2016 2017 2018 2019 2020 2021 2022 2023 2024 2025 2026 2027 2028 2029 2030 2031 2032 2033 2034 2035 2036 2037 2038 2039 2040 2041 2042 2043 2044 2045 2046 2047 2048 2049 2050 2051 2052 2053 2054 2055 2056 2057 2058 2059 2060 2061 2062 2063 2064 2065 2066 2067 2068 2069 2070 2071 2072 2073 2074 2075 2076 2077 2078 2079 2080 2081 2082 2083 2084 2085 2086 2087 2088 2089 2090 2091 2092 2093 2094 2095 2096 2097 2098 2099 2100 2101 2102 2103 2104 2105 2106 2107 2108 2109 2110 2111 2112 2113 2114 2115 2116 2117 2118 2119 2120 2121 2122 2123 2124 2125 2126 2127 2128 2129 2130 2131 2132 2133 2134 2135 2136 2137 2138 2139 2140 2141 2142 2143 2144 2145 2146 2147 2148 2149 2150 2151 2152 2153 2154 2155 2156 2157 2158 2159 2160 2161 2162 2163 2164 2165 2166 2167 2168 2169 2170 2171 2172 2173 2174 2175 2176 2177 2178 2179 2180 2181 2182 2183 2184 2185 2186 2187 2188 2189 2190 2191 2192 2193 2194 2195 2196 2197 2198 2199 2200 2201 2202 2203 2204 2205 2206 2207 2208 2209 2210 2211 2212 2213 2214 2215 2216 2217 2218 2219 2220 2221 2222 2223 2224 2225 2226 2227 2228 2229 2230 2231 2232 2233 2234 2235 2236 2237 2238 2239 2240 2241 2242 2243 2244 2245 2246 2247 2248 2249 2250 2251 2252 2253 2254 2255 2256 2257 2258 2259 2260 2261 2262 2263 2264 2265 2266 2267 2268 2269 2270 2271 2272 2273 2274 2275 2276 2277 2278 2279 2280 2281 2282 2283 2284 2285 2286 2287 2288 2289 2290 2291 2292 2293 2294 2295 2296 2297 2298 2299 2300 2301 2302 2303 2304 2305 2306 2307 2308 2309 2310 2311 2312 2313 2314 2315 2316 2317 2318 2319 2320 2321 2322 2323 2324 2325 2326 2327 2328 2329 2330 2331 2332 2333 2334 2335 2336 2337 2338 2339 2340 2341 2342 2343 2344 2345 2346 2347 2348 2349 2350 2351 2352 2353 2354 2355 2356 2357 2358 2359 2360 2361 2362 2363 2364 2365 2366 2367 2368 2369 2370 2371 2372 2373 2374 2375 2376 2377 2378 2379 2380 2381 2382 2383 2384 2385 2386 2387 2388 2389 2390 2391 2392 2393 2394 2395 2396 2397 2398 2399 2400 2401 2402 2403 2404 2405 2406 2407 2408 2409 2410 2411 2412 2413 2414 2415 2416 2417 2418 2419 2420 2421 2422 2423 2424 2425 2426 2427 2428 2429 2430 2431 2432 2433 2434 2435 2436 2437 2438 2439 2440 2441 2442 2443 2444 2445 2446 2447 2448 2449 2450 2451 2452 2453 2454 2455 2456 2457 2458 2459 2460 2461 2462 2463 2464 2465 2466 2467 2468 2469 2470 2471 2472 2473 2474 2475 2476 2477 2478 2479 2480 2481 2482 2483 2484 2485 2486 2487 2488 2489 2490 2491 2492 2493 2494 2495 2496 2497 2498 2499 2500 2501 2502 2503 2504 2505 2506 2507 2508 2509 2510 2511 2512 2513 2514 2515 2516 2517 2518 2519 2520 2521 2522 2523 2524 2525 2526 2527 2528 2529 2530 2531 2532 2533 2534 2535 2536 2537 2538 2539 2540 2541 2542 2543 2544 2545 2546 2547 2548 2549 2550 2551 2552 2553 2554 2555 2556 2557 2558 2559 2560 2561 2562 2563 2564 2565 2566 2567 2568 2569 2570 2571 2572 2573 2574 2575 2576 2577 2578 2579 2580 2581 2582 2583 2584 2585 2586 2587 2588 2589 2590 2591 2592 2593 2594 2595 2596 2597 2598 2599 2600 2601 2602 2603 2604 2605 2606 2607 2608 2609 2610 2611 2612 2613 2614 2615 2616 2617 2618 2619 2620 2621 2622 2623 2624 2625 2626 2627 2628 2629 2630 2631 2632 2633 2634 2635 2636 2637 2638 2639 2640 2641 2642 2643 2644 2645 2646 2647 2648 2649 2650 2651 2652 2653 2654 2655 2656 2657 2658 2659 2660 2661 2662 2663 2664 2665 2666 2667 2668 2669 2670 2671 2672 2673 2674 2675 2676 2677 2678 2679 2680 2681 2682 2683 2684 2685 2686 2687 2688 2689 2690 2691 2692 2693 2694 2695 2696 2697 2698 2699 2700 2701 2702 2703 2704 2705 2706 2707 2708 2709 2710 2711 2712 2713 2714 2715 2716 2717 2718 2719 2720 2721 2722 2723 2724 2725 2726 2727 2728 2729 2730 2731 2732 2733 2734 2735 2736 2737 2738 2739 2740 2741 2742 2743 2744 2745 2746 2747 2748 2749 2750 2751 2752 2753 2754 2755 2756 2757 2758 2759 2760 2761 2762 2763 2764 2765 2766 2767 2768 2769 2770 2771 2772 2773 2774 2775 2776 2777 2778 2779 2780 2781 2782 2783 2784 2785 2786 2787 2788 2789 2790 2791 2792 2793 2794 2795 2796 2797 2798 2799 2800 2801 2802 2803 2804 2805 2806 2807 2808 2809 2810 2811 2812 2813 2814 2815 2816 2817 2818 2819 2820 2821 2822 2823 2824 2825 2826 2827 2828 2829 2830 2831 2832 2833 2834 2835 2836 2837 2838 2839 2840 2841 2842 2843 2844 2845 2846 2847 2848 2849 2850 2851 2852 2853 2854 2855 2856 2857 2858 2859 2860 2861 2862 2863 2864 2865 2866 2867 2868 2869 2870 2871 2872 2873 2874 2875 2876 2877 2878 2879 2880 2881 2882 2883 2884 2885 2886 2887 2888 2889 2890 2891 2892 2893 2894 2895 2896 2897 2898 2899 2900 2901 2902 2903 2904 2905 2906 2907 2908 2909 2910 2911 2912 2913 2914 2915 2916 2917 2918 2919 2920 2921 2922 2923 2924 2925 2926 2927 2928 2929 2930 2931 2932 2933 2934 2935 2936 2937 2938 2939 2940 2941 2942 2943 2944 2945 2946 2947 2948 2949 2950 2951 2952 2953 2954 2955 2956 2957 2958 2959 2960 2961 2962 2963 2964 2965 2966 2967 2968 2969 2970 2971 2972 2973 2974 2975 2976 2977 2978 2979 2980 2981 2982 2983 2984 2985 2986 2987 2988 2989 2990 2991 2992 2993 2994 2995 2996 2997 2998 2999 3000 3001 3002 3003 3004 3005 3006 3007 3008 3009 3010 3011 3012 3013 3014 3015 3016 3017 3018 3019 3020 3021 3022 3023 3024 3025 3026 3027 3028 3029 3030 3031 3032 3033 3034 3035 3036 3037 3038 3039 3040 3041 3042 3043 3044 3045 3046 3047 3048 3049 3050 3051 3052 3053 3054 3055 3056 3057 3058 3059 3060 3061 3062 3063 3064 3065 3066 3067 3068 3069 3070 3071 3072 3073 3074 3075 3076 3077 3078 3079 3080 3081 3082 3083 3084 3085 3086 3087 3088 3089 3090 3091 3092 3093 3094 3095 3096 3097 3098 3099 3100 3101 3102 3103 3104 3105 3106 3107 3108 3109 3110 3111 3112 3113 3114 3115 3116 3117 3118 3119 3120 3121 3122 3123 3124 3125 3126 3127 3128 3129 3130 3131 3132 3133 3134 3135 3136 3137 3138 3139 3140 3141 3142 3143 3144 3145 3146 3147 3148 3149 3150 3151 3152 3153 3154 3155 3156 3157 3158 3159 3160 3161 3162 3163 3164 3165 3166 3167 3168 3169 3170 3171 3172 3173 3174 3175 3176 3177 3178 3179 3180 3181 3182 3183 3184 3185 3186 3187 3188 3189 3190 3191 3192 3193 3194 3195 3196 3197 3198 3199 3200 3201 3202 3203 3204 3205 3206 3207 3208 3209 3210 3211 3212 3213 3214 3215 3216 3217 3218 3219 3220 3221 3222 3223 3224 3225 3226 3227 3228 3229 3230 3231 3232 3233 3234 3235 3236 3237 3238 3239 3240 3241 3242 3243 3244 3245 3246 3247 3248 3249 3250 3251 3252 3253 3254 3255 3256 3257 3258 3259 3260 3261 3262 3263 3264 3265 3266 3267 3268 3269 3270 3271 3272 3273 3274 3275 3276 3277 3278 3279 3280 3281 3282 3283 3284 3285 3286 3287 3288 3289 3290 3291 3292 3293 3294 3295 3296 3297 3298 3299 3300 3301 3302 3303 3304 3305 3306 3307 3308 3309 3310 3311 3312 3313 3314 3315 3316 3317 3318 3319 3320 3321 3322 3323 3324 3325 3326 3327 3328 3329 3330 3331 3332 3333 3334 3335 3336 3337 3338 3339 3340 3341 3342 3343 3344 3345 3346 3347 3348 3349 3350 3351 3352 3353 3354 3355 3356 3357 3358 3359 3360 3361 3362 3363 3364 3365 3366 3367 3368 3369 3370 3371 3372 3373 3374 3375 3376 3377 3378 3379 3380 3381 3382 3383 3384 3385 3386 3387 3388 3389 3390 3391 3392 3393 3394 3395 3396 3397 3398 3399 3400 3401 3402 3403 3404 3405 3406 3407 3408 3409 3410 3411 3412 3413 3414 3415 3416 3417 3418 3419 3420 3421 3422 3423 3424 3425 3426 3427 3428 3429 3430 3431 3432 3433 3434 3435 3436 3437 3438 3439 3440 3441 3442 3443 3444 3445 3446 3447 3448 3449 3450 3451 3452 3453 3454 3455 3456 3457 3458 3459 3460 3461 3462 3463 3464 3465 3466 3467 3468 3469 3470 3471 3472 3473 3474 3475 3476 3477 3478 3479 3480 3481 3482 3483 3484 3485 3486 3487 3488 3489 3490 3491 3492 3493 3494 3495 3496 3497 3498 3499 3500 3501 3502 3503 3504 3505 3506 3507 3508 3509 3510 3511 3512 3513 3514 3515 3516 3517 3518 3519 3520 3521 3522 3523 3524 3525 3526 3527 3528 3529 3530 3531 3532 3533 3534 3535 3536 3537 3538 3539 3540 3541 3542 3543 3544 3545 3546 3547 3548 3549 3550 3551 3552 3553 3554 3555 3556 3557 3558 3559 3560 3561 3562 3563 3564 3565 3566 3567 3568 3569 3570 3571 3572 3573 3574 3575 3576 3577 3578 3579 3580 3581 3582 3583 3584 3585 3586 3587 3588 3589 3590 3591 3592 3593 3594 3595 3596 3597 3598 3599 3600 3601 3602 3603 3604 3605 3606 3607 3608 3609 3610 3611 3612 3613 3614 3615 3616 3617 3618 3619 3620 3621 3622 3623 3624 3625 3626 3627 3628 3629 3630 3631 3632 3633 3634 3635 3636 3637 3638 3639 3640 3641 3642 3643 3644 3645 3646 3647 3648 3649 3650 3651 3652 3653 3654 3655 3656 3657 3658 3659 3660 3661 3662 3663 3664 3665 3666 3667 3668 3669 3670 3671 3672 3673 3674 3675 3676 3677 3678 3679 3680 3681 3682 3683 3684 3685 3686 3687 3688 3689 3690 3691 3692 3693 3694 3695 3696 3697 3698 3699 3700 3701 3702 3703 3704 3705 3706 3707 3708 3709 3710 3711 3712 3713 3714 3715 3716 3717 3718 3719 3720 3721 3722 3723 3724 3725 3726 3727 3728 3729 3730 3731 3732 3733 3734 3735 3736 3737 3738 3739 3740 3741 3742 3743 3744 3745 3746 3747 3748 3749 3750 3751 3752 3753 3754 3755 3756 3757 3758 3759 3760 3761 3762 3763 3764 3765 3766 3767 3768 3769 3770 3771 3772 3773 3774 3775 3776 3777 3778 3779 3780 3781 3782 3783 3784 3785 3786 3787 3788 3789 3790 3791 3792 3793 3794 3795 3796 3797 3798 3799 3800 3801 3802 3803 3804 3805 3806 3807 3808 3809 3810 3811 3812 3813 3814 3815 3816 3817 3818 3819 3820 3821 3822 3823 3824 3825 3826 3827 3828 3829 3830 3831 3832 3833 3834 3835 3836 3837 3838 3839 3840 3841 3842 3843 3844 3845 3846 3847 3848 3849 3850 3851 3852 3853 3854 3855 3856 3857 3858 3859 3860 3861 3862 3863 3864 3865 3866 3867 3868 3869 3870 3871 3872 3873 3874 3875 3876 3877 3878 3879 3880 3881 3882 3883 3884 3885 3886 3887 3888 3889 3890 3891 3892 3893 3894 3895 3896 3897 3898 3899 3900 3901 3902 3903 3904 3905 3906 3907 3908 3909 3910 3911 3912 3913 3914 3915 3916 3917 3918 3919 3920 3921 3922 3923 3924 3925 3926 3927 3928 3929 3930 3931 3932 3933 3934 3935 3936 3937 3938 3939 3940 3941 3942 3943 3944 3945 3946 3947 3948 3949 3950 3951 3952 3953 3954 3955 3956 3957 3958 3959 3960 3961 3962 3963 3964 3965 3966 3967 3968 3969 3970 3971 3972 3973 3974 3975 3976 3977 3978 3979 3980 3981 3982 3983 3984 3985 3986 3987 3988 3989 3990 3991 3992 3993 3994 3995 3996 3997 3998 3999 4000 4001 4002 4003 4004 4005 4006 4007 4008 4009 4010 4011 4012 4013 4014 4015 4016 4017 4018 4019 4020 4021 4022 4023 4024 4025 4026 4027 4028 4029 4030 4031 4032 4033 4034 4035 4036 4037 4038 4039 4040 4041 4042 4043 4044 4045 4046 4047 4048 4049 4050 4051 4052 4053 4054 4055 4056 4057 4058 4059 4060 4061 4062 4063 4064 4065 4066 4067 4068 4069 4070 4071 4072 4073 4074 4075 4076 4077 4078 4079 4080 4081 4082 4083 4084 4085 4086 4087 4088 4089 4090 4091 4092 4093 4094 4095 4096 4097 4098 4099 4100 4101 4102 4103 4104 4105 4106 4107 4108 4109 4110 4111 4112 4113 4114 4115 4116 4117 4118 4119 4120 4121 4122 4123 4124 4125 4126 4127 4128 4129 4130 4131 4132 4133 4134 4135 4136 4137 4138 4139 4140 4141 4142 4143 4144 4145 4146 4147 4148 4149 4150 4151 4152 4153 4154 4155 4156 4157 4158 4159 4160 4161 4162 4163 4164 4165 4166 4167 4168 4169 4170 4171 4172 4173 4174 4175 4176 4177 4178 4179 4180 4181 4182 4183 4184 4185 4186 4187 4188 4189 4190 4191 4192 4193 4194 4195 4196 4197 4198 4199 4200 4201 4202 4203 4204 4205 4206 4207 4208 4209 4210 4211 4212 4213 4214 4215 4216 4217 4218 4219 4220 4221 4222 4223 4224 4225 4226 4227 4228 4229 4230 4231 4232 4233 4234 4235 4236 4237 4238 4239 4240 4241 4242 4243 4244 4245 4246 4247 4248 4249 4250 4251 4252 4253 4254 4255 4256 4257 4258 4259 4260 4261 4262 4263 4264 4265 4266 4267 4268 4269 4270 4271 4272 4273 4274 4275 4276 4277 4278 4279 4280 4281 4282 4283 4284 4285 4286 4287 4288 4289 4290 4291 4292 4293 4294 4295 4296 4297 4298 4299 4300 4301 4302 4303 4304 4305 4306 4307 4308 4309 4310 4311 4312 4313 4314 4315 4316 4317 4318 4319 4320 4321 4322 4323 4324 4325 4326 4327 4328 4329 4330 4331 4332 4333 4334 4335 4336 4337 4338 4339 4340 4341 4342 4343 4344 4345 4346 4347 4348 4349 4350 4351 4352 4353 4354 4355 4356 4357 4358 4359 4360 4361 4362 4363 4364 4365 4366 4367 4368 4369 4370 4371 4372 4373 4374 4375 4376 4377 4378 4379 4380 4381 4382 4383 4384 4385 4386 4387 4388 4389 4390 4391 4392 4393 4394 4395 4396 4397 4398 4399 4400 4401 4402 4403 4404 4405 4406 4407 4408 4409 4410 4411 4412 4413 4414 4415 4416 4417 4418 4419 4420 4421 4422 4423 4424 4425 4426 4427 4428 4429 4430 4431 4432 4433 4434 4435 4436 4437 4438 4439 4440 4441 4442 4443 4444 4445 4446 4447 4448 4449 4450 4451 4452 4453 4454 4455 4456 4457 4458 4459 4460 4461 4462 4463 4464 4465 4466 4467 4468 4469 4470 4471 4472 4473 4474 4475 4476 4477 4478 4479 4480 4481 4482 4483 4484 4485 4486 4487 4488 4489 4490 4491 4492 4493 4494 4495 4496 4497 4498 4499 4500 4501 4502 4503 4504 4505 4506 4507 4508 4509 4510 4511 4512 4513 4514 4515 4516 4517 4518 4519 4520 4521 4522 4523 4524 4525 4526 4527 4528 4529 4530 4531 4532 4533 4534 4535 4536 4537 4538 4539 4540 4541 4542 4543 4544 4545 4546 4547 4548 4549 4550 4551 4552 4553 4554 4555 4556 4557 4558 4559 4560 4561 4562 4563 4564 4565 4566 4567 4568 4569 4570 4571 4572 4573 4574 4575 4576 4577 4578 4579 4580 4581 4582 4583 4584 4585 4586 4587 4588 4589 4590 4591 4592 4593 4594 4595 4596 4597 4598 4599 4600 4601 4602 4603 4604 4605 4606 4607 4608 4609 4610 4611 4612 4613 4614 4615 4616 4617 4618 4619 4620 4621 4622 4623 4624 4625 4626 4627 4628 4629 4630 4631 4632 4633 4634 4635 4636 4637 4638 4639 4640 4641 4642 4643 4644 4645 4646 4647 4648 4649 4650 4651 4652 4653 4654 4655 4656 4657 4658 4659 4660 4661 4662 4663 4664 4665 4666 4667 4668 4669 4670 4671 4672 4673 4674 4675 4676 4677 4678 4679 4680 4681 4682 4683 4684 4685 4686 4687 4688 4689 4690 4691 4692 4693 4694 4695 4696 4697 4698 4699 4700 4701 4702 4703 4704 4705 4706 4707 4708 4709 4710 4711 4712 4713 4714 4715 4716 4717 4718 4719 4720 4721 4722 4723 4724 4725 4726 4727 4728 4729 4730 4731 4732 4733 4734 4735 4736 4737 4738 4739 4740 4741 4742 4743 4744 4745 4746 4747 4748 4749 4750 4751 4752 4753 4754 4755 4756 4757 4758 4759 4760 4761 4762 4763 4764 4765 4766 4767 4768 4769 4770 4771 4772 4773 4774 4775 4776 4777 4778 4779 4780 4781 4782 4783 4784 4785 4786 4787 4788 4789 4790 4791 4792 4793 4794 4795 4796 4797 4798 4799 4800 4801 4802 4803 4804 4805 4806 4807 4808 4809 4810 4811 4812 4813 4814 4815 4816 4817 4818 4819 4820 4821 4822 4823 4824 4825 4826 4827 4828 4829 4830 4831 4832 4833 4834 4835 4836 4837 4838 4839 4840 4841 4842 4843 4844 4845 4846 4847 4848 4849 4850 4851 4852 4853 4854 4855 4856 4857 4858 4859 4860 4861 4862 4863 4864 4865 4866 4867 4868 4869 4870 4871 4872 4873 4874 4875 4876 4877 4878 4879 4880 4881 4882 4883 4884 4885 4886 4887 4888 4889 4890 4891 4892 4893 4894 4895 4896 4897 4898 4899 4900 4901 4902 4903 4904 4905 4906 4907 4908 4909 4910 4911 4912 4913 4914 4915 4916 4917 4918 4919 4920 4921 4922 4923 4924 4925 4926 4927 4928 4929 4930 4931 4932 4933 4934 4935 4936 4937 4938 4939 4940 4941 4942 4943 4944 4945 4946 4947 4948 4949 4950 4951 4952 4953 4954 4955 4956 4957 4958 4959 4960 4961 4962 4963 4964 4965 4966 4967 4968 4969 4970 4971 4972 4973 4974 4975 4976 4977 4978 4979 4980 4981 4982 4983 4984 4985 4986 4987 4988 4989 4990 4991 4992 4993 4994 4995 4996 4997 4998 4999 5000 5001 5002 5003 5004 5005 5006 5007 5008 5009 5010 5011 5012 5013 5014 5015 5016 5017 5018 5019 5020 5021 5022 5023 5024 5025 5026 5027 5028 5029 5030 5031 5032 5033 5034 5035 5036 5037 5038 5039 5040 5041 5042 5043 5044 5045 5046 5047 5048 5049 5050 5051 5052 5053 5054 5055 5056 5057 5058 5059 5060 5061 5062 5063 5064 5065 5066 5067 5068 5069 5070 5071 5072 5073 5074 5075 5076 5077 5078 5079 5080 5081 5082 5083 5084 5085 5086 5087 5088 5089 5090 5091 5092 5093 5094 5095 5096 5097 5098 5099 5100 5101 5102 5103 5104 5105 5106 5107 5108 5109 5110 5111 5112 5113 5114 5115 5116 5117 5118 5119 5120 5121 5122 5123 5124 5125 5126 5127 5128 5129 5130 5131 5132 5133 5134 5135 5136 5137 5138 5139 5140 5141 5142 5143 5144 5145 5146 5147 5148 5149 5150 5151 5152 5153 5154 5155 5156 5157 5158 5159 5160 5161 5162 5163 5164 5165 5166 5167 5168 5169 5170 5171 5172 5173 5174 5175 5176 5177 5178 5179 5180 5181 5182 5183 5184 5185 5186 5187 5188 5189 5190 5191 5192 5193 5194 5195 5196 5197 5198 5199 5200 5201 5202 5203 5204 5205 5206 5207 5208 5209 5210 5211 5212 5213 5214 5215 5216 5217 5218 5219 5220 5221 5222 5223 5224 5225 5226 5227 5228 5229 5230 5231 5232 5233 5234 5235 5236 5237 5238 5239 5240 5241 5242 5243 5244 5245 5246 5247 5248 5249 5250 5251 5252 5253 5254 5255 5256 5257 5258 5259 5260 5261 5262 5263 5264 5265 5266 5267 5268 5269 5270 5271 5272 5273 5274 5275 5276 5277 5278 5279 5280 5281 5282 5283 5284 5285 5286 5287 5288 5289 5290 5291 5292 5293 5294 5295 5296 5297 5298 5299 5300 5301 5302 5303 5304 5305 5306 5307 5308 5309 5310 5311 5312 5313 5314 5315 5316 5317 5318 5319 5320 5321 5322 5323 5324 5325 5326 5327 5328 5329 5330 5331 5332 5333 5334 5335 5336 5337 5338 5339 5340 5341 5342 5343 5344 5345 5346 5347 5348 5349 5350 5351 5352 5353 5354 5355 5356 5357 5358 5359 5360 5361 5362 5363 5364 5365 5366 5367 5368 5369 5370 5371 5372 5373 5374 5375 5376 5377 5378 5379 5380 5381 5382 5383 5384 5385 5386 5387 5388 5389 5390 5391 5392 5393 5394 5395 5396 5397 5398 5399 5400 5401 5402 5403 5404 5405 5406 5407 5408 5409 5410 5411 5412 5413 5414 5415 5416 5417 5418 5419 5420 5421 5422 5423 5424 5425 5426 5427 5428 5429 5430 5431 5432 5433 5434 5435 5436 5437 5438 5439 5440 5441 5442 5443 5444 5445 5446 5447 5448 5449 5450 5451 5452 5453 5454 5455 5456 5457 5458 5459 5460 5461 5462 5463 5464 5465 5466 5467 5468 5469 5470 5471 5472 5473 5474 5475 5476 5477 5478 5479 5480 5481 5482 5483 5484 5485 5486 5487 5488 5489 5490 5491 5492 5493 5494 5495 5496 5497 5498 5499 5500 5501 5502 5503 5504 5505 5506 5507 5508 5509 5510 5511 5512 5513 5514 5515 5516 5517 5518 5519 5520 5521 5522 5523 5524 5525 5526 5527 5528 5529 5530 5531 5532 5533 5534 5535 5536 5537 5538 5539 5540 5541 5542 5543 5544 5545 5546 5547 5548 5549 5550 5551 5552 5553 5554 5555 5556 5557 5558 5559 5560 5561 5562 5563 5564 5565 5566 5567 5568 5569 5570 5571 5572 5573 5574 5575 5576 5577 5578 5579 5580 5581 5582 5583 5584 5585 5586 5587 5588 5589 5590 5591 5592 5593 5594 5595 5596 5597 5598 5599 5600 5601 5602 5603 5604 5605 5606 5607 5608 5609 5610 5611 5612 5613 5614 5615 5616 5617 5618 5619 5620 5621 5622 5623 5624 5625 5626 5627 5628 5629 5630 5631 5632 5633 5634 5635 5636 5637 5638 5639 5640 5641 5642 5643 5644 5645 5646 5647 5648 5649 5650 5651 5652 5653 5654 5655 5656 5657 5658 5659 5660 5661 5662 5663 5664 5665 5666 5667 5668 5669 5670 5671 5672 5673 5674 5675 5676 5677 5678 5679 5680 5681 5682 5683 5684 5685 5686 5687 5688 5689 5690 5691 5692 5693 5694 5695 5696 5697 5698 5699 5700 5701 5702 5703 5704 5705 5706 5707 5708 5709 5710 5711 5712 5713 5714 5715 5716 5717 5718 5719 5720 5721 5722 5723 5724 5725 5726 5727 5728 5729 5730 5731 5732 5733 5734 5735 5736 5737 5738 5739 5740 5741 5742 5743 5744 5745 5746 5747 5748 5749 5750 5751 5752 5753 5754 5755 5756 5757 5758 5759 5760 5761 5762 5763 5764 5765 5766 5767 5768 5769 5770 5771 5772 5773 5774 5775 5776 5777 5778 5779 5780 5781 5782 5783 5784 5785 5786 5787 5788 5789 5790 5791 5792 5793 5794 5795 5796 5797 5798 5799 5800 5801 5802 5803 5804 5805 5806 5807 5808 5809 5810 5811 5812 5813 5814 5815 5816 5817 5818 5819 5820 5821 5822 5823 5824 5825 5826 5827 5828 5829 5830 5831 5832 5833 5834 5835 5836 5837 5838 5839 5840 5841 5842 5843 5844 5845 5846 5847 5848 5849 5850 5851 5852 5853 5854 5855 5856 5857 5858 5859 5860 5861 5862 5863 5864 5865 5866 5867 5868 5869 5870 5871 5872 5873 5874 5875 5876 5877 5878 5879 5880 5881 5882 5883 5884 5885 5886 5887 5888 5889 5890 5891 5892 5893 5894 5895 5896 5897 5898 5899 5900 5901 5902 5903 5904 5905 5906 5907 5908 5909 5910 5911 5912 5913 5914 5915 5916 5917 5918 5919 5920 5921 5922 5923 5924 5925 5926 5927 5928 5929 5930 5931 5932 5933 5934 5935 5936 5937 5938 5939 5940 5941 5942 5943 5944 5945 5946 5947 5948 5949 5950 5951 5952 5953 5954 5955 5956 5957 5958 5959 5960 5961 5962 5963 5964 5965 5966 5967 5968 5969 5970 5971 5972 5973 5974 5975 5976 5977 5978 5979 5980 5981 5982 5983 5984 5985 5986 5987 5988 5989 5990 5991 5992 5993 5994 5995 5996 5997 5998 5999 6000 6001 6002 6003 6004 6005 6006 6007 6008 6009 6010 6011 6012 6013 6014 6015 6016 6017 6018 6019 6020 6021 6022 6023 6024 6025 6026 6027 6028 6029 6030 6031 6032 6033 6034 6035 6036 6037 6038 6039 6040 6041 6042 6043 6044 6045 6046 6047 6048 6049 6050 6051 6052 6053 6054 6055 6056 6057 6058 6059 6060 6061 6062 6063 6064 6065 6066 6067 6068 6069 6070 6071 6072 6073 6074 6075 6076 6077 6078 6079 6080 6081 6082 6083 6084 6085 6086 6087 6088 6089 6090 6091 6092 6093 6094 6095 6096 6097 6098 6099 6100 6101 6102 6103 6104 6105 6106 6107 6108 6109 6110 6111 6112 6113 6114 6115 6116 6117 6118 6119 6120 6121 6122 6123 6124 6125 6126 6127 6128 6129 6130 6131 6132 6133 6134 6135 6136 6137 6138 6139 6140 6141 6142 6143 6144 6145 6146 6147 6148 6149 6150 6151 6152 6153 6154 6155 6156 6157 6158 6159 6160 6161 6162 6163 6164 6165 6166 6167 6168 6169 6170 6171 6172 6173 6174 6175 6176 6177 6178 6179 6180 6181 6182 6183 6184 6185 6186 6187 6188 6189 6190 6191 6192 6193 6194 6195 6196 6197 6198 6199 6200 6201 6202 6203 6204 6205 6206 6207 6208 6209 6210 6211 6212 6213 6214 6215 6216 6217 6218 6219 6220 6221 6222 6223 6224 6225 6226 6227 6228 6229 6230 6231 6232 6233 6234 6235 6236 6237 6238 6239 6240 6241 6242 6243 6244 6245 6246 6247 6248 6249 6250 6251 6252 6253 6254 6255 6256 6257 6258 6259 6260 6261 6262 6263 6264 6265 6266 6267 6268 6269 6270 6271 6272 6273 6274 6275 6276 6277 6278 6279 6280 6281 6282 6283 6284 6285 6286 6287 6288 6289 6290 6291 6292 6293 6294 6295 6296 6297 6298 6299 6300 6301 6302 6303 6304 6305 6306 6307 6308 6309 6310 6311 6312 6313 6314 6315 6316 6317 6318 6319 6320 6321 6322 6323 6324 6325 6326 6327 6328 6329 6330 6331 6332 6333 6334 6335 6336 6337 6338 6339 6340 6341 6342 6343 6344 6345 6346 6347 6348 6349 6350 6351 6352 6353 6354 6355 6356 6357 6358 6359 6360 6361 6362 6363 6364 6365 6366 6367 6368 6369 6370 6371 6372 6373 6374 6375 6376 6377 6378 6379 6380 6381 6382 6383 6384 6385 6386 6387 6388 6389 6390 6391 6392 6393 6394 6395 6396 6397 6398 6399 6400 6401 6402 6403 6404 6405 6406 6407 6408 6409 6410 6411 6412 6413 6414 6415 6416 6417 6418 6419 6420 6421 6422 6423 6424 6425 6426 6427 6428 6429 6430 6431 6432 6433 6434 6435 6436 6437 6438 6439 6440 6441 6442 6443 6444 6445 6446 6447 6448 6449 6450 6451 6452 6453 6454 6455 6456 6457 6458 6459 6460 6461 6462 6463 6464 6465 6466 6467 6468 6469 6470 6471 6472 6473 6474 6475 6476 6477 6478 6479 6480 6481 6482 6483 6484 6485 6486 6487 6488 6489 6490 6491 6492 6493 6494 6495 6496 6497 6498 6499 6500 6501 6502 6503 6504 6505 6506 6507 6508 6509 6510 6511 6512 6513 6514 6515 6516 6517 6518 6519 6520 6521 6522 6523 6524 6525 6526 6527 6528 6529 6530 6531 6532 6533 6534 6535 6536 6537 6538 6539 6540 6541 6542 6543 6544 6545 6546 6547 6548 6549 6550 6551 6552 6553 6554 6555 6556 6557 6558 6559 6560 6561 6562 6563 6564 6565 6566 6567 6568 6569 6570 6571 6572 6573 6574 6575 6576 6577 6578 6579 6580 6581 6582 6583 6584 6585 6586 6587 6588 6589 6590 6591 6592 6593 6594 6595 6596 6597 6598 6599 6600 6601 6602 6603 6604 6605 6606 6607 6608 6609 6610 6611 6612 6613 6614 6615 6616 6617 6618 6619 6620 6621 6622 6623 6624 6625 6626 6627 6628 6629 6630 6631 6632 6633 6634 6635 6636 6637 6638 6639 6640 6641 6642 6643 6644 6645 6646 6647 6648 6649 6650 6651 6652 6653 6654 6655 6656 6657 6658 6659 6660 6661 6662 6663 6664 6665 6666 6667 6668 6669 6670 6671 6672 6673 6674 6675 6676 6677 6678 6679 6680 6681 6682 6683 6684 6685 6686 6687 6688 6689 6690 6691 6692 6693 6694 6695 6696 6697 6698 6699 6700 6701 6702 6703 6704 6705 6706 6707 6708 6709 6710 6711 6712 6713 6714 6715 6716 6717 6718 6719 6720 6721 6722 6723 6724 6725 6726 6727 6728 6729 6730 6731 6732 6733 6734 6735 6736 6737 6738 6739 6740 6741 6742 6743 6744 6745 6746 6747 6748 6749 6750 6751 6752 6753 6754 6755 6756 6757 6758 6759 6760 6761 6762 6763 6764 6765 6766 6767 6768 6769 6770 6771 6772 6773 6774 6775 6776 6777 6778 6779 6780 6781 6782 6783 6784 6785 6786 6787 6788 6789 6790 6791 6792 6793 6794 6795 6796 6797 6798 6799 6800 6801 6802 6803 6804 6805 6806 6807 6808 6809 6810 6811 6812 6813 6814 6815 6816 6817 6818 6819 6820 6821 6822 6823 6824 6825 6826 6827 6828 6829 6830 6831 6832 6833 6834 6835 6836 6837 6838 6839 6840 6841 6842 6843 6844 6845 6846 6847 6848 6849 6850 6851 6852 6853 6854 6855 6856 6857 6858 6859 6860 6861 6862 6863 6864 6865 6866 6867 6868 6869 6870 6871 6872 6873 6874 6875 6876 6877 6878 6879 6880 6881 6882 6883 6884 6885 6886 6887 6888 6889 6890 6891 6892 6893 6894 6895 6896 6897 6898 6899 6900 6901 6902 6903 6904 6905 6906 6907 6908 6909 6910 6911 6912 6913 6914 6915 6916 6917 6918 6919 6920 6921 6922 6923 6924 6925 6926 6927 6928 6929 6930 6931 6932 6933 6934 6935 6936 6937 6938 6939 6940 6941 6942 6943 6944 6945 6946 6947 6948 6949 6950 6951 6952 6953 6954 6955 6956 6957 6958 6959 6960 6961 6962 6963 6964 6965 6966 6967 6968 6969 6970 6971 6972 6973 6974 6975 6976 6977 6978 6979 6980 6981 6982 6983 6984 6985 6986 6987 6988 6989 6990 6991 6992 6993 6994 6995 6996 6997 6998 6999 7000 7001 7002 7003 7004 7005 7006 7007 7008 7009 7010 7011 7012 7013 7014 7015 7016 7017 7018 7019 7020 7021 7022 7023 7024 7025 7026 7027 7028 7029 7030 7031 7032 7033 7034 7035 7036 7037 7038 7039 7040 7041 7042 7043 7044 7045 7046 7047 7048 7049 7050 7051 7052 7053 7054 7055 7056 7057 7058 7059 7060 7061 7062 7063 7064 7065 7066 7067 7068 7069 7070 7071 7072 7073 7074 7075 7076 7077 7078 7079 7080 7081 7082 7083 7084 7085 7086 7087 7088 7089 7090 7091 7092 7093 7094 7095 7096 7097 7098 7099 7100 7101 7102 7103 7104 7105 7106 7107 7108 7109 7110 7111 7112 7113 7114 7115 7116 7117 7118 7119 7120 7121 7122 7123 7124 7125 7126 7127 7128 7129 7130 7131 7132 7133 7134 7135 7136 7137 7138 7139 7140 7141 7142 7143 7144 7145 7146 7147 7148 7149 7150 7151 7152 7153 7154 7155 7156 7157 7158 7159 7160 7161 7162 7163 7164 7165 7166 7167 7168 7169 7170 7171 7172 7173 7174 7175 7176 7177 7178 7179 7180 7181 7182 7183 7184 7185 7186 7187 7188 7189 7190 7191 7192 7193 7194 7195 7196 7197 7198 7199 7200 7201 7202 7203 7204 7205 7206 7207 7208 7209 7210 7211 7212 7213 7214 7215 7216 7217 7218 7219 7220 7221 7222 7223 7224 7225 7226 7227 7228 7229 7230 7231 7232 7233 7234 7235 7236 7237 7238 7239 7240 7241 7242 7243 7244 7245 7246 7247 7248 7249 7250 7251 7252 7253 7254 7255 7256 7257 7258 7259 7260 7261 7262 7263 7264 7265 7266 7267 7268 7269 7270 7271 7272 7273 7274 7275 7276 7277 7278 7279 7280 7281 7282 7283 7284 7285 7286 7287 7288 7289 7290 7291 7292 7293 7294 7295 7296 7297 7298 7299 7300 7301 7302 7303 7304 7305 7306 7307 7308 7309 7310 7311 7312 7313 7314 7315 7316 7317 7318 7319 7320 7321 7322 7323 7324 7325 7326 7327 7328 7329 7330 7331 7332 7333 7334 7335 7336 7337 7338 7339 7340 7341 7342 7343 7344 7345 7346 7347 7348 7349 7350 7351 7352 7353 7354 7355 7356 7357 7358 7359 7360 7361 7362 7363 7364 7365 7366 7367 7368 7369 7370 7371 7372 7373 7374 7375 7376 7377 7378 7379 7380 7381 7382 7383 7384 7385 7386 7387 7388 7389 7390 7391 7392 7393 7394 7395 7396 7397 7398 7399 7400 7401 7402 7403 7404 7405 7406 7407 7408 7409 7410 7411 7412 7413 7414 7415 7416 7417 7418 7419 7420 7421 7422 7423 7424 7425 7426 7427 7428 7429 7430 7431 7432 7433 7434 7435 7436 7437 7438 7439 7440 7441 7442 7443 7444 7445 7446 7447 7448 7449 7450 7451 7452 7453 7454 7455 7456 7457 7458 7459 7460 7461 7462 7463 7464 7465 7466 7467 7468 7469 7470 7471 7472 7473 7474 7475 7476 7477 7478 7479 7480 7481 7482 7483 7484 7485 7486 7487 7488 7489 7490 7491 7492 7493 7494 7495 7496 7497 7498 7499 7500 7501 7502 7503 7504 7505 7506 7507 7508 7509 7510 7511 7512 7513 7514 7515 7516 7517 7518 7519 7520 7521 7522 7523 7524 7525 7526 7527 7528 7529 7530 7531 7532 7533 7534 7535 7536 7537 7538 7539 7540 7541 7542 7543 7544 7545 7546 7547 7548 7549 7550 7551 7552 7553 7554 7555 7556 7557 7558 7559 7560 7561 7562 7563 7564 7565 7566 7567 7568 7569 7570 7571 7572 7573 7574 7575 7576 7577 7578 7579 7580 7581 7582 7583 7584 7585 7586 7587 7588 7589 7590 7591 7592 7593 7594 7595 7596 7597 7598 7599 7600 7601 7602 7603 7604 7605 7606 7607 7608 7609 7610 7611 7612 7613 7614 7615 7616 7617 7618 7619 7620 7621 7622 7623 7624 7625 7626 7627 7628 7629 7630 7631 7632 7633 7634 7635 7636 7637 7638 7639 7640 7641 7642 7643 7644 7645 7646 7647 7648 7649 7650 7651 7652 7653 7654 7655 7656 7657 7658 7659 7660 7661 7662 7663 7664 7665 7666 7667 7668 7669 7670 7671 7672 7673 7674 7675 7676 7677 7678 7679 7680 7681 7682 7683 7684 7685 7686 7687 7688 7689 7690 7691 7692 7693 7694 7695 7696 7697 7698 7699 7700 7701 7702 7703 7704 7705 7706 7707 7708 7709 7710 7711 7712 7713 7714 7715 7716 7717 7718 7719 7720 7721 7722 7723 7724 7725 7726 7727 7728 7729 7730 7731 7732 7733 7734 7735 7736 7737 7738 7739 7740 7741 7742 7743 7744 7745 7746 7747 7748 7749 7750 7751 7752 7753 7754 7755 7756 7757 7758 7759 7760 7761 7762 7763 7764 7765 7766 7767 7768 7769 7770 7771 7772 7773 7774 7775 7776 7777 7778 7779 7780 7781 7782 7783 7784 7785 7786 7787 7788 7789 7790 7791 7792 7793 7794 7795 7796 7797 7798 7799 7800 7801 7802 7803 7804 7805 7806 7807 7808 7809 7810 7811 7812 7813 7814 7815 7816 7817 7818 7819 7820 7821 7822 7823 7824 7825 7826 7827 7828 7829 7830 7831 7832 7833 7834 7835 7836 7837 7838 7839 7840 7841 7842 7843 7844 7845 7846 7847 7848 7849 7850 7851 7852 7853 7854 7855 7856 7857 7858 7859 7860 7861 7862 7863 7864 7865 7866 7867 7868 7869 7870 7871 7872 7873 7874 7875 7876 7877 7878 7879 7880 7881 7882 7883 7884 7885 7886 7887 7888 7889 7890 7891 7892 7893 7894 7895 7896 7897 7898 7899 7900 7901 7902 7903 7904 7905 7906 7907 7908 7909 7910 7911 7912 7913 7914 7915 7916 7917 7918 7919 7920 7921 7922 7923 7924 7925 7926 7927 7928 7929 7930 7931 7932 7933 7934 7935 7936 7937 7938 7939 7940 7941 7942 7943 7944 7945 7946 7947 7948 7949 7950 7951 7952 7953 7954 7955 7956 7957 7958 7959 7960 7961 7962 7963 7964 7965 7966 7967 7968 7969 7970 7971 7972 7973 7974 7975 7976 7977 7978 7979 7980 7981 7982 7983 7984 7985 7986 7987 7988 7989 7990 7991 7992 7993 7994 7995 7996 7997 7998 7999 8000 8001 8002 8003 8004 8005 8006 8007 8008 8009 8010 8011 8012 8013 8014 8015 8016 8017 8018 8019 8020 8021 8022 8023 8024 8025 8026 8027 8028 8029 8030 8031 8032 8033 8034 8035 8036 8037 8038 8039 8040 8041 8042 8043 8044 8045 8046 8047 8048 8049 8050 8051 8052 8053 8054 8055 8056 8057 8058 8059 8060 8061 8062 8063 8064 8065 8066 8067 8068 8069 8070 8071 8072 8073 8074 8075 8076 8077 8078 8079 8080 8081 8082 8083 8084 8085 8086 8087 8088 8089 8090 8091 8092 8093 8094 8095 8096 8097 8098 8099 8100 8101 8102 8103 8104 8105 8106 8107 8108 8109 8110 8111 8112 8113 8114 8115 8116 8117 8118 8119 8120 8121 8122 8123 8124 8125 8126 8127 8128 8129 8130 8131 8132 8133 8134 8135 8136 8137 8138 8139 8140 8141 8142 8143 8144 8145 8146 8147 8148 8149 8150 8151 8152 8153 8154 8155 8156 8157 8158 8159 8160 8161 8162 8163 8164 8165 8166 8167 8168 8169 8170 8171 8172 8173 8174 8175 8176 8177 8178 8179 8180 8181 8182 8183 8184 8185 8186 8187 8188 8189 8190 8191 8192 8193 8194 8195 8196 8197 8198 8199 8200 8201 8202 8203 8204 8205 8206 8207 8208 8209 8210 8211 8212 8213 8214 8215 8216 8217 8218 8219 8220 8221 8222 8223 8224 8225 8226 8227 8228 8229 8230 8231 8232 8233 8234 8235 8236 8237 8238 8239 8240 8241 8242 8243 8244 8245 8246 8247 8248 8249 8250 8251 8252 8253 8254 8255 8256 8257 8258 8259 8260 8261 8262 8263 8264 8265 8266 8267 8268 8269 8270 8271 8272 8273 8274 8275 8276 8277 8278 8279 8280 8281 8282 8283 8284 8285 8286 8287 8288 8289 8290 8291 8292 8293 8294 8295 8296 8297 8298 8299 8300 8301 8302 8303 8304 8305 8306 8307 8308 8309 8310 8311 8312 8313 8314 8315 8316 8317 8318 8319 8320 8321 8322 8323 8324 8325 8326 8327 8328 8329 8330 8331 8332 8333 8334 8335 8336 8337 8338 8339 8340 8341 8342 8343 8344 8345 8346 8347 8348 8349 8350 8351 8352 8353 8354 8355 8356 8357 8358 8359 8360 8361 8362 8363 8364 8365 8366 8367 8368 8369 8370 8371 8372 8373 8374 8375 8376 8377 8378 8379 8380 8381 8382 8383 8384 8385 8386 8387 8388 8389 8390 8391 8392 8393 8394 8395 8396 8397 8398 8399 8400 8401 8402 8403 8404 8405 8406 8407 8408 8409 8410 8411 8412 8413 8414 8415 8416 8417 8418 8419 8420 8421 8422 8423 8424 8425 8426 8427 8428 8429 8430 8431 8432 8433 8434 8435 8436 8437 8438 8439 8440 8441 8442 8443 8444 8445 8446 8447 8448 8449 8450 8451 8452 8453 8454 8455 8456 8457 8458 8459 8460 8461 8462 8463 8464 8465 8466 8467 8468 8469 8470 8471 8472 8473 8474 8475 8476 8477 8478 8479 8480 8481 8482 8483 8484 8485 8486 8487 8488 8489 8490 8491 8492 8493 8494 8495 8496 8497 8498 8499 8500 8501 8502 8503 8504 8505 8506 8507 8508 8509 8510 8511 8512 8513 8514 8515 8516 8517 8518 8519 8520 8521 8522 8523 8524 8525 8526 8527 8528 8529 8530 8531 8532 8533 8534 8535 8536 8537 8538 8539 8540 8541 8542 8543 8544 8545 8546 8547 8548 8549 8550 8551 8552 8553 8554 8555 8556 8557 8558 8559 8560 8561 8562 8563 8564 8565 8566 8567 8568 8569 8570 8571 8572 8573 8574 8575 8576 8577 8578 8579 8580 8581 8582 8583 8584 8585 8586 8587 8588 8589 8590 8591 8592 8593 8594 8595 8596 8597 8598 8599 8600 8601 8602 8603 8604 8605 8606 8607 8608 8609 8610 8611 8612 8613 8614 8615 8616 8617 8618 8619 8620 8621 8622 8623 8624 8625 8626 8627 8628 8629 8630 8631 8632 8633 8634 8635 8636 8637 8638 8639 8640 8641 8642 8643 8644 8645 8646 8647 8648 8649 8650 8651 8652 8653 8654 8655 8656 8657 8658 8659 8660 8661 8662 8663 8664 8665 8666 8667 8668 8669 8670 8671 8672 8673 8674 8675 8676 8677 8678 8679 8680 8681 8682 8683 8684 8685 8686 8687 8688 8689 8690 8691 8692 8693 8694 8695 8696 8697 8698 8699 8700 8701 8702 8703 8704 8705 8706 8707 8708 8709 8710 8711 8712 8713 8714 8715 8716 8717 8718 8719 8720 8721 8722 8723 8724 8725 8726 8727 8728 8729 8730 8731 8732 8733 8734 8735 8736 8737 8738 8739 8740 8741 8742 8743 8744 8745 8746 8747 8748 8749 8750 8751 8752 8753 8754 8755 8756 8757 8758 8759 8760 8761 8762 8763 8764 8765 8766 8767 8768 8769 8770 8771 8772 8773 8774 8775 8776 8777 8778 8779 8780 8781 8782 8783 8784 8785 8786 8787 8788 8789 8790 8791 8792 8793 8794 8795 8796 8797 8798 8799 8800 8801 8802 8803 8804 8805 8806 8807 8808 8809 8810 8811 8812 8813 8814 8815 8816 8817 8818 8819 8820 8821 8822 8823 8824 8825 8826 8827 8828 8829 8830 8831 8832 8833 8834 8835 8836 8837 8838 8839 8840 8841 8842 8843 8844 8845 8846 8847 8848 8849 8850 8851 8852 8853 8854 8855 8856 8857 8858 8859 8860 8861 8862 8863 8864 8865 8866 8867 8868 8869 8870 8871 8872 8873 8874 8875 8876 8877 8878 8879 8880 8881 8882 8883 8884 8885 8886 8887 8888 8889 8890 8891 8892 8893 8894 8895 8896 8897 8898 8899 8900 8901 8902 8903 8904 8905 8906 8907 8908 8909 8910 8911 8912 8913 8914 8915 8916 8917 8918 8919 8920 8921 8922 8923 8924 8925 8926 8927 8928 8929 8930 8931 8932 8933 8934 8935 8936 8937 8938 8939 8940 8941 8942 8943 8944 8945 8946 8947 8948 8949 8950 8951 8952 8953 8954 8955 8956 8957 8958 8959 8960 8961 8962 8963 8964 8965 8966 8967 8968 8969 8970 8971 8972 8973 8974 8975 8976 8977 8978 8979 8980 8981 8982 8983 8984 8985 8986 8987 8988 8989 8990 8991 8992 8993 8994 8995 8996 8997 8998 8999 9000 9001 9002 9003 9004 9005 9006 9007 9008 9009 9010 9011 9012 9013 9014 9015 9016 9017 9018 9019 9020 9021 9022 9023 9024 9025 9026 9027 9028 9029 9030 9031 9032 9033 9034 9035 9036 9037 9038 9039 9040 9041 9042 9043 9044 9045 9046 9047 9048 9049 9050 9051 9052 9053 9054 9055 9056 9057 9058 9059 9060 9061 9062 9063 9064 9065 9066 9067 9068 9069 9070 9071 9072 9073 9074 9075 9076 9077 9078 9079 9080 9081 9082 9083 9084 9085 9086 9087 9088 9089 9090 9091 9092 9093 9094 9095 9096 9097 9098 9099 9100 9101 9102 9103 9104 9105 9106 9107 9108 9109 9110 9111 9112 9113 9114 9115 9116 9117 9118 9119 9120 9121 9122 9123 9124 9125 9126 9127 9128 9129 9130 9131 9132 9133 9134 9135 9136 9137 9138 9139 9140 9141 9142 9143 9144 9145 9146 9147 9148 9149 9150 9151 9152 9153 9154 9155 9156 9157 9158 9159 9160 9161 9162 9163 9164 9165 9166 9167 9168 9169 9170 9171 9172 9173 9174 9175 9176 9177 9178 9179 9180 9181 9182 9183 9184 9185 9186 9187 9188 9189 9190 9191 9192 9193 9194 9195 9196 9197 9198 9199 9200 9201 9202 9203 9204 9205 9206 9207 9208 9209 9210 9211 9212 9213 9214 9215 9216 9217 9218 9219 9220 9221 9222 9223 9224 9225 9226 9227 9228 9229 9230 9231 9232 9233 9234 9235 9236 9237 9238 9239 9240 9241 9242 9243 9244 9245 9246 9247 9248 9249 9250 9251 9252 9253 9254 9255 9256 9257 9258 9259 9260 9261 9262 9263 9264 9265 9266 9267 9268 9269 9270 9271 9272 9273 9274 9275 9276 9277 9278 9279 9280 9281 9282 9283 9284 9285 9286 9287 9288 9289 9290 9291 9292 9293 9294 9295 9296 9297 9298 9299 9300 9301 9302 9303 9304 9305 9306 9307 9308 9309 9310 9311 9312 9313 9314 9315 9316 9317 9318 9319 9320 9321 9322 9323 9324 9325 9326 9327 9328 9329 9330 9331 9332 9333 9334 9335 9336 9337 9338 9339 9340 9341 9342 9343 9344 9345 9346 9347 9348 9349 9350 9351 9352 9353 9354 9355 9356 9357 9358 9359 9360 9361 9362 9363 9364 9365 9366 9367 9368 9369 9370 9371 9372 9373 9374 9375 9376 9377 9378 9379 9380 9381 9382 9383 9384 9385 9386 9387 9388 9389 9390 9391 9392 9393 9394 9395 9396 9397 9398 9399 9400 9401 9402 9403 9404 9405 9406 9407 9408 9409 9410 9411 9412 9413 9414 9415 9416 9417 9418 9419 9420 9421 9422 9423 9424 9425 9426 9427 9428 9429 9430 9431 9432 9433 9434 9435 9436 9437 9438 9439 9440 9441 9442 9443 9444 9445 9446 9447 9448 9449 9450 9451 9452 9453 9454 9455 9456 9457 9458 9459 9460 9461 9462 9463 9464 9465 9466 9467 9468 9469 9470 9471 9472 9473 9474 9475 9476 9477 9478 9479 9480 9481 9482 9483 9484 9485 9486 9487 9488 9489 9490 9491 9492 9493 9494 9495 9496 9497 9498 9499 9500 9501 9502 9503 9504 9505 9506 9507 9508 9509 9510 9511 9512 9513 9514 9515 9516 9517 9518 9519 9520 9521 9522 9523 9524 9525 9526 9527 9528 9529 9530 9531 9532 9533 9534 9535 9536 9537 9538 9539 9540 9541 9542 9543 9544 9545 9546 9547 9548 9549 9550 9551 9552 9553 9554 9555 9556 9557 9558 9559 9560 9561 9562 9563 9564 9565 9566 9567 9568 9569 9570 9571 9572 9573 9574 9575 9576 9577 9578 9579 9580 9581 9582 9583 9584 9585 9586 9587 9588 9589 9590 9591 9592 9593 9594 9595 9596 9597 9598 9599 9600 9601 9602 9603 9604 9605 9606 9607 9608 9609 9610 9611 9612 9613 9614 9615 9616 9617 9618 9619 9620 9621 9622 9623 9624 9625 9626 9627 9628 9629 9630 9631 9632 9633 9634 9635 9636 9637 9638 9639 9640 9641 9642 9643 9644 9645 9646 9647 9648 9649 9650 9651 9652 9653 9654 9655 9656 9657 9658 9659 9660 9661 9662 9663 9664 9665 9666 9667 9668 9669 9670 9671 9672 9673 9674 9675 9676 9677 9678 9679 9680 9681 9682 9683 9684 9685 9686 9687 9688 9689 9690 9691 9692 9693 9694 9695 9696 9697 9698 9699 9700 9701 9702 9703 9704 9705 9706 9707 9708 9709 9710 9711 9712 9713 9714 9715 9716 9717 9718 9719 9720 9721 9722 9723 9724 9725 9726 9727 9728 9729 9730 9731 9732 9733 9734 9735 9736 9737 9738 9739 9740 9741 9742 9743 9744 9745 9746 9747 9748 9749 9750 9751 9752 9753 9754 9755 9756 9757 9758 9759 9760 9761 9762 9763 9764 9765 9766 9767 9768 9769 9770 9771 9772 9773 9774 9775 9776 9777 9778 9779 9780 9781 9782 9783 9784 9785 9786 9787 9788 9789 9790 9791 9792 9793 9794 9795 9796 9797 9798 9799 9800 9801 9802 9803 9804 9805 9806 9807 9808 9809 9810 9811 9812 9813 9814 9815 9816 9817 9818 9819 9820 9821 9822 9823 9824 9825 9826 9827 9828 9829 9830 9831 9832 9833 9834 9835 9836 9837 9838 9839 9840 9841 9842 9843 9844 9845 9846 9847 9848 9849 9850 9851 9852 9853 9854 9855 9856 9857 9858 9859 9860 9861 9862 9863 9864 9865 9866 9867 9868 9869 9870 9871 9872 9873 9874 9875 9876 9877 9878 9879 9880 9881 9882 9883 9884 9885 9886 9887 9888 9889 9890 9891 9892 9893 9894 9895 9896 9897 9898 9899 9900 9901 9902 9903 9904 9905 9906 9907 9908 9909 9910 9911 9912 9913 9914 9915 9916 9917 9918 9919 9920 9921 9922 9923 9924 9925 9926 9927 9928 9929 9930 9931 9932 9933 9934 9935 9936 9937 9938 9939 9940 9941 9942 9943 9944 9945 9946 9947 9948 9949 9950 9951 9952 9953 9954 9955 9956 9957 9958 9959 9960 9961 9962 9963 9964 9965 9966 9967 9968 9969 9970 9971 9972 9973 9974 9975 9976 9977 9978 9979 9980 9981 9982 9983 9984 9985 9986 9987 9988 9989 9990 9991 9992 9993 9994 9995 9996 9997 9998 9999 10000 10001 10002 10003 10004 10005 10006 10007 10008 10009 10010 10011 10012 10013 10014 10015 10016 10017 10018 10019 10020 10021 10022 10023 10024 10025 10026 10027 10028 10029 10030 10031 10032 10033 10034 10035 10036 10037 10038 10039 10040 10041 10042 10043 10044 10045 10046 10047 10048 10049 10050 10051 10052 10053 10054 10055 10056 10057 10058 10059 10060 10061 10062 10063 10064 10065 10066 10067 10068 10069 10070 10071 10072 10073 10074 10075 10076 10077 10078 10079 10080 10081 10082 10083 10084 10085 10086 10087 10088 10089 10090 10091 10092 10093 10094 10095 10096 10097 10098 10099 10100 10101 10102 10103 10104 10105 10106 10107 10108 10109 10110 10111 10112 10113 10114 10115 10116 10117 10118 10119 10120 10121 10122 10123 10124 10125 10126 10127 10128 10129 10130 10131 10132 10133 10134 10135 10136 10137 10138 10139 10140 10141 10142 10143 10144 10145 10146 10147 10148 10149 10150 10151 10152 10153 10154 10155 10156 10157 10158 10159 10160 10161 10162 10163 10164 10165 10166 10167 10168 10169 10170 10171 10172 10173 10174 10175 10176 10177 10178 10179 10180 10181 10182 10183 10184 10185 10186 10187 10188 10189 10190 10191 10192 10193 10194 10195 10196 10197 10198 10199 10200 10201 10202 10203 10204 10205 10206 10207 10208 10209 10210 10211 10212 10213 10214 10215 10216 10217 10218 10219 10220 10221 10222 10223 10224 10225 10226 10227 10228 10229 10230 10231 10232 10233 10234 10235 10236 10237 10238 10239 10240 10241 10242 10243 10244 10245 10246 10247 10248 10249 10250 10251 10252 10253 10254 10255 10256 10257 10258 10259 10260 10261 10262 10263 10264 10265 10266 10267 10268 10269 10270 10271 10272 10273 10274 10275 10276 10277 10278 10279 10280 10281 10282 10283 10284 10285 10286 10287 10288 10289 10290 10291 10292 10293 10294 10295 10296 10297 10298 10299 10300 10301 10302 10303 10304 10305 10306 10307 10308 10309 10310 10311 10312 10313 10314 10315 10316 10317 10318 10319 10320 10321 10322 10323 10324 10325 10326 10327 10328 10329 10330 10331 10332 10333 10334 10335 10336 10337 10338 10339 10340 10341 10342 10343 10344 10345 10346 10347 10348 10349 10350 10351 10352 10353 10354 10355 10356 10357 10358 10359 10360 10361 10362 10363 10364 10365 10366 10367 10368 10369 10370 10371 10372 10373 10374 10375 10376 10377 10378 10379 10380 10381 10382 10383 10384 10385 10386 10387 10388 10389 10390 10391 10392 10393 10394 10395 10396 10397 10398 10399 10400 10401 10402 10403 10404 10405 10406 10407 10408 10409 10410 10411 10412 10413 10414 10415 10416 10417 10418 10419 10420 10421 10422 10423 10424 10425 10426 10427 10428 10429 10430 10431 10432 10433 10434 10435 10436 10437 10438 10439 10440 10441 10442 10443 10444 10445 10446 10447 10448 10449 10450 10451 10452 10453 10454 10455 10456 10457 10458 10459 10460 10461 10462 10463 10464 10465 10466 10467 10468 10469 10470 10471 10472 10473 10474 10475 10476 10477 10478 10479 10480 10481 10482 10483 10484 10485 10486 10487 10488 10489 10490 10491 10492 10493 10494 10495 10496 10497 10498 10499 10500 10501 10502 10503 10504 10505 10506 10507 10508 10509 10510 10511 10512 10513 10514 10515 10516 10517 10518 10519 10520 10521 10522 10523 10524 10525 10526 10527 10528 10529 10530 10531 10532 10533 10534 10535 10536 10537 10538 10539 10540 10541 10542 10543 10544 10545 10546 10547 10548 10549 10550 10551 10552 10553 10554 10555 10556 10557 10558 10559 10560 10561 10562 10563 10564 10565 10566 10567 10568 10569 10570 10571 10572 10573 10574 10575 10576 10577 10578 10579 10580 10581 10582 10583 10584 10585 10586 10587 10588 10589 10590 10591 10592 10593 10594 10595 10596 10597 10598 10599 10600 10601 10602 10603 10604 10605 10606 10607 10608 10609 10610 10611 10612 10613 10614 10615 10616 10617 10618 10619 10620 10621 10622 10623 10624 10625 10626 10627 10628 10629 10630 10631 10632 10633 10634 10635 10636 10637 10638 10639 10640 10641 10642 10643 10644 10645 10646 10647 10648 10649 10650 10651 10652 10653 10654 10655 10656 10657 10658 10659 10660 10661 10662 10663 10664 10665 10666 10667 10668 10669 10670 10671 10672 10673 10674 10675 10676 10677 10678 10679 10680 10681 10682 10683 10684 10685 10686 10687 10688 10689 10690 10691 10692 10693 10694 10695 10696 10697 10698 10699 10700 10701 10702 10703 10704 10705 10706 10707 10708 10709 10710 10711 10712 10713 10714 10715 10716 10717 10718 10719 10720 10721 10722 10723 10724 10725 10726 10727 10728 10729 10730 10731 10732 10733 10734 10735 10736 10737 10738 10739 10740 10741 10742 10743 10744 10745 10746 10747 10748 10749 10750 10751 10752 10753 10754 10755 10756 10757 10758 10759 10760 10761 10762 10763 10764 10765 10766 10767 10768 10769 10770 10771 10772 10773 10774 10775 10776 10777 10778 10779 10780 10781 10782 10783 10784 10785 10786 10787 10788 10789 10790 10791 10792 10793 10794 10795 10796 10797 10798 10799 10800 10801 10802 10803 10804 10805 10806 10807 10808 10809 10810 10811 10812 10813 10814 10815 10816 10817 10818 10819 10820 10821 10822 10823 10824 10825 10826 10827 10828 10829 10830 10831 10832 10833 10834 10835 10836 10837 10838 10839 10840 10841 10842 10843 10844 10845 10846 10847 10848 10849 10850 10851 10852 10853 10854 10855 10856 10857 10858 10859 10860 10861 10862 10863 10864 10865 10866 10867 10868 10869 10870 10871 10872 10873 10874 10875 10876 10877 10878 10879 10880 10881 10882 10883 10884 10885 10886 10887 10888 10889 10890 10891 10892 10893 10894 10895 10896 10897 10898 10899 10900 10901 10902 10903 10904 10905 10906 10907 10908 10909 10910 10911 10912 10913 10914 10915 10916 10917 10918 10919 10920 10921 10922 10923 10924 10925 10926 10927 10928 10929 10930 10931 10932 10933 10934 10935 10936 10937 10938 10939 10940 10941 10942 10943 10944 10945 10946 10947 10948 10949 10950 10951 10952 10953 10954 10955 10956 10957 10958 10959 10960 10961 10962 10963 10964 10965 10966 10967 10968 10969 10970 10971 10972 10973 10974 10975 10976 10977 10978 10979 10980 10981 10982 10983 10984 10985 10986 10987 10988 10989 10990 10991 10992 10993 10994 10995 10996 10997 10998 10999 11000 11001 11002 11003 11004 11005 11006 11007 11008 11009 11010 11011 11012 11013 11014 11015 11016 11017 11018 11019 11020 11021 11022 11023 11024 11025 11026 11027 11028 11029 11030 11031 11032 11033 11034 11035 11036 11037 11038 11039 11040 11041 11042 11043 11044 11045 11046 11047 11048 11049 11050 11051 11052 11053 11054 11055 11056 11057 11058 11059 11060 11061 11062 11063 11064 11065 11066 11067 11068 11069 11070 11071 11072 11073 11074 11075 11076 11077 11078 11079 11080 11081 11082 11083 11084 11085 11086 11087 11088 11089 11090 11091 11092 11093 11094 11095 11096 11097 11098 11099 11100 11101 11102 11103 11104 11105 11106 11107 11108 11109 11110 11111 11112 11113 11114 11115 11116 11117 11118 11119 11120 11121 11122 11123 11124 11125 11126 11127 11128 11129 11130 11131 11132 11133 11134 11135 11136 11137 11138 11139 11140 11141 11142 11143 11144 11145 11146 11147 11148 11149 11150 11151 11152 11153 11154 11155 11156 11157 11158 11159 11160 11161 11162 11163 11164 11165 11166 11167 11168 11169 11170 11171 11172 11173 11174 11175 11176 11177 11178 11179 11180 11181 11182 11183 11184 11185 11186 11187 11188 11189 11190 11191 11192 11193 11194 11195 11196 11197 11198 11199 11200 11201 11202 11203 11204 11205 11206 11207 11208 11209 11210 11211 11212 11213 11214 11215 11216 11217 11218 11219 11220 11221 11222 11223 11224 11225 11226 11227 11228 11229 11230 11231 11232 11233 11234 11235 11236 11237 11238 11239 11240 11241 11242 11243 11244 11245 11246 11247 11248 11249 11250 11251 11252 11253 11254 11255 11256 11257 11258 11259 11260 11261 11262 11263 11264 11265 11266 11267 11268 11269 11270 11271 11272 11273 11274 11275 11276 11277 11278 11279 11280 11281 11282 11283 11284 11285 11286 11287 11288 11289 11290 11291 11292 11293 11294 11295 11296 11297 11298 11299 11300 11301 11302 11303 11304 11305 11306 11307 11308 11309 11310 11311 11312 11313 11314 11315 11316 11317 11318 11319 11320 11321 11322 11323 11324 11325 11326 11327 11328 11329 11330 11331 11332 11333 11334 11335 11336 11337 11338 11339 11340 11341 11342 11343 11344 11345 11346 11347 11348 11349 11350 11351 11352 11353 11354 11355 11356 11357 11358 11359 11360 11361 11362 11363 11364 11365 11366 11367 11368 11369 11370 11371 11372 11373 11374 11375 11376 11377 11378 11379 11380 11381 11382 11383 11384 11385 11386 11387 11388 11389 11390 11391 11392 11393 11394 11395 11396 11397 11398 11399 11400 11401 11402 11403 11404 11405 11406 11407 11408 11409 11410 11411 11412 11413 11414 11415 11416 11417 11418 11419 11420 11421 11422 11423 11424 11425 11426 11427 11428 11429 11430 11431 11432 11433 11434 11435 11436 11437 11438 11439 11440 11441 11442 11443 11444 11445 11446 11447 11448 11449 11450 11451 11452 11453 11454 11455 11456 11457 11458 11459 11460 11461 11462 11463 11464 11465 11466 11467 11468 11469 11470 11471 11472 11473 11474 11475 11476 11477 11478 11479 11480 11481 11482 11483 11484 11485 11486 11487 11488 11489 11490 11491 11492 11493 11494 11495 11496 11497 11498 11499 11500 11501 11502 11503 11504 11505 11506 11507 11508 11509 11510 11511 11512 11513 11514 11515 11516 11517 11518 11519 11520 11521 11522 11523 11524 11525 11526 11527 11528 11529 11530 11531 11532 11533 11534 11535 11536 11537 11538 11539 11540 11541 11542 11543 11544 11545 11546 11547 11548 11549 11550 11551 11552 11553 11554 11555 11556 11557 11558 11559 11560 11561 11562 11563 11564 11565 11566 11567 11568 11569 11570 11571 11572 11573 11574 11575 11576 11577 11578 11579 11580 11581 11582 11583 11584 11585 11586 11587 11588 11589 11590 11591 11592 11593 11594 11595 11596 11597 11598 11599 11600 11601 11602 11603 11604 11605 11606 11607 11608 11609 11610 11611 11612 11613 11614 11615 11616 11617 11618 11619 11620 11621 11622 11623 11624 11625 11626 11627 11628 11629 11630 11631 11632 11633 11634 11635 11636 11637 11638 11639 11640 11641 11642 11643 11644 11645 11646 11647 11648 11649 11650 11651 11652 11653 11654 11655 11656 11657 11658 11659 11660 11661 11662 11663 11664 11665 11666 11667 11668 11669 11670 11671 11672 11673 11674 11675 11676 11677 11678 11679 11680 11681 11682 11683 11684 11685 11686 11687 11688 11689 11690 11691 11692 11693 11694 11695 11696 11697 11698 11699 11700 11701 11702 11703 11704 11705 11706 11707 11708 11709 11710 11711 11712 11713 11714 11715 11716 11717 11718 11719 11720 11721 11722 11723 11724 11725 11726 11727 11728 11729 11730 11731 11732 11733 11734 11735 11736 11737 11738 11739 11740 11741 11742 11743 11744 11745 11746 11747 11748 11749 11750 11751 11752 11753 11754 11755 11756 11757 11758 11759 11760 11761 11762 11763 11764 11765 11766 11767 11768 11769 11770 11771 11772 11773 11774 11775 11776 11777 11778 11779 11780 11781 11782 11783 11784 11785 11786 11787 11788 11789 11790 11791 11792 11793 11794 11795 11796 11797 11798 11799 11800 11801 11802 11803 11804 11805 11806 11807 11808 11809 11810 11811 11812 11813 11814 11815 11816 11817 11818 11819 11820 11821 11822 11823 11824 11825 11826 11827 11828 11829 11830 11831 11832 11833 11834 11835 11836 11837 11838 11839 11840 11841 11842 11843 11844 11845 11846 11847 11848 11849 11850 11851 11852 11853 11854 11855 11856 11857 11858 11859 11860 11861 11862 11863 11864 11865 11866 11867 11868 11869 11870 11871 11872 11873 11874 11875 11876 11877 11878 11879 11880 11881 11882 11883 11884 11885 11886 11887 11888 11889 11890 11891 11892 11893 11894 11895 11896 11897 11898 11899 11900 11901 11902 11903 11904 11905 11906 11907 11908 11909 11910 11911 11912 11913 11914 11915 11916 11917 11918 11919 11920 11921 11922 11923 11924 11925 11926 11927 11928 11929 11930 11931 11932 11933 11934 11935 11936 11937 11938 11939 11940 11941 11942 11943 11944 11945 11946 11947 11948 11949 11950 11951 11952 11953 11954 11955 11956 11957 11958 11959 11960 11961 11962 11963 11964 11965 11966 11967 11968 11969 11970 11971 11972 11973 11974 11975 11976 11977 11978 11979 11980 11981 11982 11983 11984 11985 11986 11987 11988 11989 11990 11991 11992 11993 11994 11995 11996 11997 11998 11999 12000 12001 12002 12003 12004 12005 12006 12007 12008 12009 12010 12011 12012 12013 12014 12015 12016 12017 12018 12019 12020 12021 12022 12023 12024 12025 12026 12027 12028 12029 12030 12031 12032 12033 12034 12035 12036 12037 12038 12039 12040 12041 12042 12043 12044 12045 12046 12047 12048 12049 12050 12051 12052 12053 12054 12055 12056 12057 12058 12059 12060 12061 12062 12063 12064 12065 12066 12067 12068 12069 12070 12071 12072 12073 12074 12075 12076 12077 12078 12079 12080 12081 12082 12083 12084 12085 12086 12087 12088 12089 12090 12091 12092 12093 12094 12095 12096 12097 12098 12099 12100 12101 12102 12103 12104 12105 12106 12107 12108 12109 12110 12111 12112 12113 12114 12115 12116 12117 12118 12119 12120 12121 12122 12123 12124 12125 12126 12127 12128 12129 12130 12131 12132 12133 12134 12135 12136 12137 12138 12139 12140 12141 12142 12143 12144 12145 12146 12147 12148 12149 12150 12151 12152 12153 12154 12155 12156 12157 12158 12159 12160 12161 12162 12163 12164 12165 12166 12167 12168 12169 12170 12171 12172 12173 12174 12175 12176 12177 12178 12179 12180 12181 12182 12183 12184 12185 12186 12187 12188 12189 12190 12191 12192 12193 12194 12195 12196 12197 12198 12199 12200 12201 12202 12203 12204 12205 12206 12207 12208 12209 12210 12211 12212 12213 12214 12215 12216 12217 12218 12219 12220 12221 12222 12223 12224 12225 12226 12227 12228 12229 12230 12231 12232 12233 12234 12235 12236 12237 12238 12239 12240 12241 12242 12243 12244 12245 12246 12247 12248 12249 12250 12251 12252 12253 12254 12255 12256 12257 12258 12259 12260 12261 12262 12263 12264 12265 12266 12267 12268 12269 12270 12271 12272 12273 12274 12275 12276 12277 12278 12279 12280 12281 12282 12283 12284 12285 12286 12287 12288 12289 12290 12291 12292 12293 12294 12295 12296 12297 12298 12299 12300 12301 12302 12303 12304 12305 12306 12307 12308 12309 12310 12311 12312 12313 12314 12315 12316 12317 12318 12319 12320 12321 12322 12323 12324 12325 12326 12327 12328 12329 12330 12331 12332 12333 12334 12335 12336 12337 12338 12339 12340 12341 12342 12343 12344 12345 12346 12347 12348 12349 12350 12351 12352 12353 12354 12355 12356 12357 12358 12359 12360 12361 12362 12363 12364 12365 12366 12367 12368 12369 12370 12371 12372 12373 12374 12375 12376 12377 12378 12379 12380 12381 12382 12383 12384 12385 12386 12387 12388 12389 12390 12391 12392 12393 12394 12395 12396 12397 12398 12399 12400 12401 12402 12403 12404 12405 12406 12407 12408 12409 12410 12411 12412 12413 12414 12415 12416 12417 12418 12419 12420 12421 12422 12423 12424 12425 12426 12427 12428 12429 12430 12431 12432 12433 12434 12435 12436 12437 12438 12439 12440 12441 12442 12443 12444 12445 12446 12447 12448 12449 12450 12451 12452 12453 12454 12455 12456 12457 12458 12459 12460 12461 12462 12463 12464 12465 12466 12467 12468 12469 12470 12471 12472 12473 12474 12475 12476 12477 12478 12479 12480 12481 12482 12483 12484 12485 12486 12487 12488 12489 12490 12491 12492 12493 12494 12495 12496 12497 12498 12499 12500 12501 12502 12503 12504 12505 12506 12507 12508 12509 12510 12511 12512 12513 12514 12515 12516 12517 12518 12519 12520 12521 12522 12523 12524 12525 12526 12527 12528 12529 12530 12531 12532 12533 12534 12535 12536 12537 12538 12539 12540 12541 12542 12543 12544 12545 12546 12547 12548 12549 12550 12551 12552 12553 12554 12555 12556 12557 12558 12559 12560 12561 12562 12563 12564 12565 12566 12567 12568 12569 12570 12571 12572 12573 12574 12575 12576 12577 12578 12579 12580 12581 12582 12583 12584 12585 12586 12587 12588 12589 12590 12591 12592 12593 12594 12595 12596 12597 12598 12599 12600 12601 12602 12603 12604 12605 12606 12607 12608 12609 12610 12611 12612 12613 12614 12615 12616 12617 12618 12619 12620 12621 12622 12623 12624 12625 12626 12627 12628 12629 12630 12631 12632 12633 12634 12635 12636 12637 12638 12639 12640 12641 12642 12643 12644 12645 12646 12647 12648 12649 12650 12651 12652 12653 12654 12655 12656 12657 12658 12659 12660 12661 12662 12663 12664 12665 12666 12667 12668 12669 12670 12671 12672 12673 12674 12675 12676 12677 12678 12679 12680 12681 12682 12683 12684 12685 12686 12687 12688 12689 12690 12691 12692 12693 12694 12695 12696 12697 12698 12699 12700 12701 12702 12703 12704 12705 12706 12707 12708 12709 12710 12711 12712 12713 12714 12715 12716 12717 12718 12719 12720 12721 12722 12723 12724 12725 12726 12727 12728 12729 12730 12731 12732 12733 12734 12735 12736 12737 12738 12739 12740 12741 12742 12743 12744 12745 12746 12747 12748 12749 12750 12751 12752 12753 12754 12755 12756 12757 12758 12759 12760 12761 12762 12763 12764 12765 12766 12767 12768 12769 12770 12771 12772 12773 12774 12775 12776 12777 12778 12779 12780 12781 12782 12783 12784 12785 12786 12787 12788 12789 12790 12791 12792 12793 12794 12795 12796 12797 12798 12799 12800 12801 12802 12803 12804 12805 12806 12807 12808 12809 12810 12811 12812 12813 12814 12815 12816 12817 12818 12819 12820 12821 12822 12823 12824 12825 12826 12827 12828 12829 12830 12831 12832 12833 12834 12835 12836 12837 12838 12839 12840 12841 12842 12843 12844 12845 12846 12847 12848 12849 12850 12851 12852 12853 12854 12855 12856 12857 12858 12859 12860 12861 12862 12863 12864 12865 12866 12867 12868 12869 12870 12871 12872 12873 12874 12875 12876 12877 12878 12879 12880 12881 12882 12883 12884 12885 12886 12887 12888 12889 12890 12891 12892 12893 12894 12895 12896 12897 12898 12899 12900 12901 12902 12903 12904 12905 12906 12907 12908 12909 12910 12911 12912 12913 12914 12915 12916 12917 12918 12919 12920 12921 12922 12923 12924 12925 12926 12927 12928 12929 12930 12931 12932 12933 12934 12935 12936 12937 12938 12939 12940 12941 12942 12943 12944 12945 12946 12947 12948 12949 12950 12951 12952 12953 12954 12955 12956 12957 12958 12959 12960 12961 12962 12963 12964 12965 12966 12967 12968 12969 12970 12971 12972 12973 12974 12975 12976 12977 12978 12979 12980 12981 12982 12983 12984 12985 12986 12987 12988 12989 12990 12991 12992 12993 12994 12995 12996 12997 12998 12999 13000 13001 13002 13003 13004 13005 13006 13007 13008 13009 13010 13011 13012 13013 13014 13015 13016 13017 13018 13019 13020 13021 13022 13023 13024 13025 13026 13027 13028 13029 13030 13031 13032 13033 13034 13035 13036 13037 13038 13039 13040 13041 13042 13043 13044 13045 13046 13047 13048 13049 13050 13051 13052 13053 13054 13055 13056 13057 13058 13059 13060 13061 13062 13063 13064 13065 13066 13067 13068 13069 13070 13071 13072 13073 13074 13075 13076 13077 13078 13079 13080 13081 13082 13083 13084 13085 13086 13087 13088 13089 13090 13091 13092 13093 13094 13095 13096 13097 13098 13099 13100 13101 13102 13103 13104 13105 13106 13107 13108 13109 13110 13111 13112 13113 13114 13115 13116 13117 13118 13119 13120 13121 13122 13123 13124 13125 13126 13127 13128 13129 13130 13131 13132 13133 13134 13135 13136 13137 13138 13139 13140 13141 13142 13143 13144 13145 13146 13147 13148 13149 13150 13151 13152 13153 13154 13155 13156 13157 13158 13159 13160 13161 13162 13163 13164 13165 13166 13167 13168 13169 13170 13171 13172 13173 13174 13175 13176 13177 13178 13179 13180 13181 13182 13183 13184 13185 13186 13187 13188 13189 13190 13191 13192 13193 13194 13195 13196 13197 13198 13199 13200 13201 13202 13203 13204 13205 13206 13207 13208 13209 13210 13211 13212 13213 13214 13215 13216 13217 13218 13219 13220 13221 13222 13223 13224 13225 13226 13227 13228 13229 13230 13231 13232 13233 13234 13235 13236 13237 13238 13239 13240 13241 13242 13243 13244 13245 13246 13247 13248 13249 13250 13251 13252 13253 13254 13255 13256 13257 13258 13259 13260 13261 13262 13263 13264 13265 13266 13267 13268 13269 13270 13271 13272 13273 13274 13275 13276 13277 13278 13279 13280 13281 13282 13283 13284 13285 13286 13287 13288 13289 13290 13291 13292 13293 13294 13295 13296 13297 13298 13299 13300 13301 13302 13303 13304 13305 13306 13307 13308 13309 13310 13311 13312 13313 13314 13315 13316 13317 13318 13319 13320 13321 13322 13323 13324 13325 13326 13327 13328 13329 13330 13331 13332 13333 13334 13335 13336 13337 13338 13339 13340 13341 13342 13343 13344 13345 13346 13347 13348 13349 13350 13351 13352 13353 13354 13355 13356 13357 13358 13359 13360 13361 13362 13363 13364 13365 13366 13367 13368 13369 13370 13371 13372 13373 13374 13375 13376 13377 13378 13379 13380 13381 13382 13383 13384 13385 13386 13387 13388 13389 13390 13391 13392 13393 13394 13395 13396 13397 13398 13399 13400 13401 13402 13403 13404 13405 13406 13407 13408 13409 13410 13411 13412 13413 13414 13415 13416 13417 13418 13419 13420 13421 13422 13423 13424 13425 13426 13427 13428 13429 13430 13431 13432 13433 13434 13435 13436 13437 13438 13439 13440 13441 13442 13443 13444 13445 13446 13447 13448 13449 13450 13451 13452 13453 13454 13455 13456 13457 13458 13459 13460 13461 13462 13463 13464 13465 13466 13467 13468 13469 13470 13471 13472 13473 13474 13475 13476 13477 13478 13479 13480 13481 13482 13483 13484 13485 13486 13487 13488 13489 13490 13491 13492 13493 13494 13495 13496 13497 13498 13499 13500 13501 13502 13503 13504 13505 13506 13507 13508 13509 13510 13511 13512 13513 13514 13515 13516 13517 13518 13519 13520 13521 13522 13523 13524 13525 13526 13527 13528 13529 13530 13531 13532 13533 13534 13535 13536 13537 13538 13539 13540 13541 13542 13543 13544 13545 13546 13547 13548 13549 13550 13551 13552 13553 13554 13555 13556 13557 13558 13559 13560 13561 13562 13563 13564 13565 13566 13567 13568 13569 13570 13571 13572 13573 13574 13575 13576 13577 13578 13579 13580 13581 13582 13583 13584 13585 13586 13587 13588 13589 13590 13591 13592 13593 13594 13595 13596 13597 13598 13599 13600 13601 13602 13603 13604 13605 13606 13607 13608 13609 13610 13611 13612 13613 13614 13615 13616 13617 13618 13619 13620 13621 13622 13623 13624 13625 13626 13627 13628 13629 13630 13631 13632 13633 13634 13635 13636 13637 13638 13639 13640 13641 13642 13643 13644 13645 13646 13647 13648 13649 13650 13651 13652 13653 13654 13655 13656 13657 13658 13659 13660 13661 13662 13663 13664 13665 13666 13667 13668 13669 13670 13671 13672 13673 13674 13675 13676 13677 13678 13679 13680 13681 13682 13683 13684 13685 13686 13687 13688 13689 13690 13691 13692 13693 13694 13695 13696 13697 13698 13699 13700 13701 13702 13703 13704 13705 13706 13707 13708 13709 13710 13711 13712 13713 13714 13715 13716 13717 13718 13719 13720 13721 13722 13723 13724 13725 13726 13727 13728 13729 13730 13731 13732 13733 13734 13735 13736 13737 13738 13739 13740 13741 13742 13743 13744 13745 13746 13747 13748 13749 13750 13751 13752 13753 13754 13755 13756 13757 13758 13759 13760 13761 13762 13763 13764 13765 13766 13767 13768 13769 13770 13771 13772 13773 13774 13775 13776 13777 13778 13779 13780 13781 13782 13783 13784 13785 13786 13787 13788 13789 13790 13791 13792 13793 13794 13795 13796 13797 13798 13799 13800 13801 13802 13803 13804 13805 13806 13807 13808 13809 13810 13811 13812 13813 13814 13815 13816 13817 13818 13819 13820 13821 13822 13823 13824 13825 13826 13827 13828 13829 13830 13831 13832 13833 13834 13835 13836 13837 13838 13839 13840 13841 13842 13843 13844 13845 13846 13847 13848 13849 13850 13851 13852 13853 13854 13855 13856 13857 13858 13859 13860 13861 13862 13863 13864 13865 13866 13867 13868 13869 13870 13871 13872 13873 13874 13875 13876 13877 13878 13879 13880 13881 13882 13883 13884 13885 13886 13887 13888 13889 13890 13891 13892 13893 13894 13895 13896 13897 13898 13899 13900 13901 13902 13903 13904 13905 13906 13907 13908 13909 13910 13911 13912 13913 13914 13915 13916 13917 13918 13919 13920 13921 13922 13923 13924 13925 13926 13927 13928 13929 13930 13931 13932 13933 13934 13935 13936 13937 13938 13939 13940 13941 13942 13943 13944 13945 13946 13947 13948 13949 13950 13951 13952 13953 13954 13955 13956 13957 13958 13959 13960 13961 13962 13963 13964 13965 13966 13967 13968 13969 13970 13971 13972 13973 13974 13975 13976 13977 13978 13979 13980 13981 13982 13983 13984 13985 13986 13987 13988 13989 13990 13991 13992 13993 13994 13995 13996 13997 13998 13999 14000 14001 14002 14003 14004 14005 14006 14007 14008 14009 14010 14011 14012 14013 14014 14015 14016 14017 14018 14019 14020 14021 14022 14023 14024 14025 14026 14027 14028 14029 14030 14031 14032 14033 14034 14035 14036 14037 14038 14039 14040 14041 14042 14043 14044 14045 14046 14047 14048 14049 14050 14051 14052 14053 14054 14055 14056 14057 14058 14059 14060 14061 14062 14063 14064 14065 14066 14067 14068 14069 14070 14071 14072 14073 14074 14075 14076 14077 14078 14079 14080 14081 14082 14083 14084 14085 14086 14087 14088 14089 14090 14091 14092 14093 14094 14095 14096 14097 14098 14099 14100 14101 14102 14103 14104 14105 14106 14107 14108 14109 14110 14111 14112 14113 14114 14115 14116 14117 14118 14119 14120 14121 14122 14123 14124 14125 14126 14127 14128 14129 14130 14131 14132 14133 14134 14135 14136 14137 14138 14139 14140 14141 14142 14143 14144 14145 14146 14147 14148 14149 14150 14151 14152 14153 14154 14155 14156 14157 14158 14159 14160 14161 14162 14163 14164 14165 14166 14167 14168 14169 14170 14171 14172 14173 14174 14175 14176 14177 14178 14179 14180 14181 14182 14183 14184 14185 14186 14187 14188 14189 14190 14191 14192 14193 14194 14195 14196 14197 14198 14199 14200 14201 14202 14203 14204 14205 14206 14207 14208 14209 14210 14211 14212 14213 14214 14215 14216 14217 14218 14219 14220 14221 14222 14223 14224 14225 14226 14227 14228 14229 14230 14231 14232 14233 14234 14235 14236 14237 14238 14239 14240 14241 14242 14243 14244 14245 14246 14247 14248 14249 14250 14251 14252 14253 14254 14255 14256 14257 14258 14259 14260 14261 14262 14263 14264 14265 14266 14267 14268 14269 14270 14271 14272 14273 14274 14275 14276 14277 14278 14279 14280 14281 14282 14283 14284 14285 14286 14287 14288 14289 14290 14291 14292 14293 14294 14295 14296 14297 14298 14299 14300 14301 14302 14303 14304 14305 14306 14307 14308 14309 14310 14311 14312 14313 14314 14315 14316 14317 14318 14319 14320 14321 14322 14323 14324 14325 14326 14327 14328 14329 14330 14331 14332 14333 14334 14335 14336 14337 14338 14339 14340 14341 14342 14343 14344 14345 14346 14347 14348 14349 14350 14351 14352 14353 14354 14355 14356 14357 14358 14359 14360 14361 14362 14363 14364 14365 14366 14367 14368 14369 14370 14371 14372 14373 14374 14375 14376 14377 14378 14379 14380 14381 14382 14383 14384 14385 14386 14387 14388 14389 14390 14391 14392 14393 14394 14395 14396 14397 14398 14399 14400 14401 14402 14403 14404 14405 14406 14407 14408 14409 14410 14411 14412 14413 14414 14415 14416 14417 14418 14419 14420 14421 14422 14423 14424 14425 14426 14427 14428 14429 14430 14431 14432 14433 14434 14435 14436 14437 14438 14439 14440 14441 14442 14443 14444 14445 14446 14447 14448 14449 14450 14451 14452 14453 14454 14455 14456 14457 14458 14459 14460 14461 14462 14463 14464 14465 14466 14467 14468 14469 14470 14471 14472 14473 14474 14475 14476 14477 14478 14479 14480 14481 14482 14483 14484 14485 14486 14487 14488 14489 14490 14491 14492 14493 14494 14495 14496 14497 14498 14499 14500 14501 14502 14503 14504 14505 14506 14507 14508 14509 14510 14511 14512 14513 14514 14515 14516 14517 14518 14519 14520 14521 14522 14523 14524 14525 14526 14527 14528 14529 14530 14531 14532 14533 14534 14535 14536 14537 14538 14539 14540 14541 14542 14543 14544 14545 14546 14547 14548 14549 14550 14551 14552 14553 14554 14555 14556 14557 14558 14559 14560 14561 14562 14563 14564 14565 14566 14567 14568 14569 14570 14571 14572 14573 14574 14575 14576 14577 14578 14579 14580 14581 14582 14583 14584 14585 14586 14587 14588 14589 14590 14591 14592 14593 14594 14595 14596 14597 14598 14599 14600 14601 14602 14603 14604 14605 14606 14607 14608 14609 14610 14611 14612 14613 14614 14615 14616 14617 14618 14619 14620 14621 14622 14623 14624 14625 14626 14627 14628 14629 14630 14631 14632 14633 14634 14635 14636 14637 14638 14639 14640 14641 14642 14643 14644 14645 14646 14647 14648 14649 14650 14651 14652 14653 14654 14655 14656 14657 14658 14659 14660 14661 14662 14663 14664 14665 14666 14667 14668 14669 14670 14671 14672 14673 14674 14675 14676 14677 14678 14679 14680 14681 14682 14683 14684 14685 14686 14687 14688 14689 14690 14691 14692 14693 14694 14695 14696 14697 14698 14699 14700 14701 14702 14703 14704 14705 14706 14707 14708 14709 14710 14711 14712 14713 14714 14715 14716 14717 14718 14719 14720 14721 14722 14723 14724 14725 14726 14727 14728 14729 14730 14731 14732 14733 14734 14735 14736 14737 14738 14739 14740 14741 14742 14743 14744 14745 14746 14747 14748 14749 14750 14751 14752 14753 14754 14755 14756 14757 14758 14759 14760 14761 14762 14763 14764 14765 14766 14767 14768 14769 14770 14771 14772 14773 14774 14775 14776 14777 14778 14779 14780 14781 14782 14783 14784 14785 14786 14787 14788 14789 14790 14791 14792 14793 14794 14795 14796 14797 14798 14799 14800 14801 14802 14803 14804 14805 14806 14807 14808 14809 14810 14811 14812 14813 14814 14815 14816 14817 14818 14819 14820 14821 14822 14823 14824 14825 14826 14827 14828 14829 14830 14831 14832 14833 14834 14835 14836 14837 14838 14839 14840 14841 14842 14843 14844 14845 14846 14847 14848 14849 14850 14851 14852 14853 14854 14855 14856 14857 14858 14859 14860 14861 14862 14863 14864 14865 14866 14867 14868 14869 14870 14871 14872 14873 14874 14875 14876 14877 14878 14879 14880 14881 14882 14883 14884 14885 14886 14887 14888 14889 14890 14891 14892 14893 14894 14895 14896 14897 14898 14899 14900 14901 14902 14903 14904 14905 14906 14907 14908 14909 14910 14911 14912 14913 14914 14915 14916 14917 14918 14919 14920 14921 14922 14923 14924 14925 14926 14927 14928 14929 14930 14931 14932 14933 14934 14935 14936 14937 14938 14939 14940 14941 14942 14943 14944 14945 14946 14947 14948 14949 14950 14951 14952 14953 14954 14955 14956 14957 14958 14959 14960 14961 14962 14963 14964 14965 14966 14967 14968 14969 14970 14971 14972 14973 14974 14975 14976 14977 14978 14979 14980 14981 14982 14983 14984 14985 14986 14987 14988 14989 14990 14991 14992 14993 14994 14995 14996 14997 14998 14999 15000 15001 15002 15003 15004 15005 15006 15007 15008 15009 15010 15011 15012 15013 15014 15015 15016 15017 15018 15019 15020 15021 15022 15023 15024 15025 15026 15027 15028 15029 15030 15031 15032 15033 15034 15035 15036 15037 15038 15039 15040 15041 15042 15043 15044 15045 15046 15047 15048 15049 15050 15051 15052 15053 15054 15055 15056 15057 15058 15059 15060 15061 15062 15063 15064 15065 15066 15067 15068 15069 15070 15071 15072 15073 15074 15075 15076 15077 15078 15079 15080 15081 15082 15083 15084 15085 15086 15087 15088 15089 15090 15091 15092 15093 15094 15095 15096 15097 15098 15099 15100 15101 15102 15103 15104 15105 15106 15107 15108 15109 15110 15111 15112 15113 15114 15115 15116 15117 15118 15119 15120 15121 15122 15123 15124 15125 15126 15127 15128 15129 15130 15131 15132 15133 15134 15135 15136 15137 15138 15139 15140 15141 15142 15143 15144 15145 15146 15147 15148 15149 15150 15151 15152 15153 15154 15155 15156 15157 15158 15159 15160 15161 15162 15163 15164 15165 15166 15167 15168 15169 15170 15171 15172 15173 15174 15175 15176 15177 15178 15179 15180 15181 15182 15183 15184 15185 15186 15187 15188 15189 15190 15191 15192 15193 15194 15195 15196 15197 15198 15199 15200 15201 15202 15203 15204 15205 15206 15207 15208 15209 15210 15211 15212 15213 15214 15215 15216 15217 15218 15219 15220 15221 15222 15223 15224 15225 15226 15227 15228 15229 15230 15231 15232 15233 15234 15235 15236 15237 15238 15239 15240 15241 15242 15243 15244 15245 15246 15247 15248 15249 15250 15251 15252 15253 15254 15255 15256 15257 15258 15259 15260 15261 15262 15263 15264 15265 15266 15267 15268 15269 15270 15271 15272 15273 15274 15275 15276 15277 15278 15279 15280 15281 15282 15283 15284 15285 15286 15287 15288 15289 15290 15291 15292 15293 15294 15295 15296 15297 15298 15299 15300 15301 15302 15303 15304 15305 15306 15307 15308 15309 15310 15311 15312 15313 15314 15315 15316 15317 15318 15319 15320 15321 15322 15323 15324 15325 15326 15327 15328 15329 15330 15331 15332 15333 15334 15335 15336 15337 15338 15339 15340 15341 15342 15343 15344 15345 15346 15347 15348 15349 15350 15351 15352 15353 15354 15355 15356 15357 15358 15359 15360 15361 15362 15363 15364 15365 15366 15367 15368 15369 15370 15371 15372 15373 15374 15375 15376 15377 15378 15379 15380 15381 15382 15383 15384 15385 15386 15387 15388 15389 15390 15391 15392 15393 15394 15395 15396 15397 15398 15399 15400 15401 15402 15403 15404 15405 15406 15407 15408 15409 15410 15411 15412 15413 15414 15415 15416 15417 15418 15419 15420 15421 15422 15423 15424 15425 15426 15427 15428 15429 15430 15431 15432 15433 15434 15435 15436 15437 15438 15439 15440 15441 15442 15443 15444 15445 15446 15447 15448 15449 15450 15451 15452 15453 15454 15455 15456 15457 15458 15459 15460 15461 15462 15463 15464 15465 15466 15467 15468 15469 15470 15471 15472 15473 15474 15475 15476 15477 15478 15479 15480 15481 15482 15483 15484 15485 15486 15487 15488 15489 15490 15491 15492 15493 15494 15495 15496 15497 15498 15499 15500 15501 15502 15503 15504 15505 15506 15507 15508 15509 15510 15511 15512 15513 15514 15515 15516 15517 15518 15519 15520 15521 15522 15523 15524 15525 15526 15527 15528 15529 15530 15531 15532 15533 15534 15535 15536 15537 15538 15539 15540 15541 15542 15543 15544 15545 15546 15547 15548 15549 15550 15551 15552 15553 15554 15555 15556 15557 15558 15559 15560 15561 15562 15563 15564 15565 15566 15567 15568 15569 15570 15571 15572 15573 15574 15575 15576 15577 15578 15579 15580 15581 15582 15583 15584 15585 15586 15587 15588 15589 15590 15591 15592 15593 15594 15595 15596 15597 15598 15599 15600 15601 15602 15603 15604 15605 15606 15607 15608 15609 15610 15611 15612 15613 15614 15615 15616 15617 15618 15619 15620 15621 15622 15623 15624 15625 15626 15627 15628 15629 15630 15631 15632 15633 15634 15635 15636 15637 15638 15639 15640 15641 15642 15643 15644 15645 15646 15647 15648 15649 15650 15651 15652 15653 15654 15655 15656 15657 15658 15659 15660 15661 15662 15663 15664 15665 15666 15667 15668 15669 15670 15671 15672 15673 15674 15675 15676 15677 15678 15679 15680 15681 15682 15683 15684 15685 15686 15687 15688 15689 15690 15691 15692 15693 15694 15695 15696 15697 15698 15699 15700 15701 15702 15703 15704 15705 15706 15707 15708 15709 15710 15711 15712 15713 15714 15715 15716 15717 15718 15719 15720 15721 15722 15723 15724 15725 15726 15727 15728 15729 15730 15731 15732 15733 15734 15735 15736 15737 15738 15739 15740 15741 15742 15743 15744 15745 15746 15747 15748 15749 15750 15751 15752 15753 15754 15755 15756 15757 15758 15759 15760 15761 15762 15763 15764 15765 15766 15767 15768 15769 15770 15771 15772 15773 15774 15775 15776 15777 15778 15779 15780 15781 15782 15783 15784 15785 15786 15787 15788 15789 15790 15791 15792 15793 15794 15795 15796 15797 15798 15799 15800 15801 15802 15803 15804 15805 15806 15807 15808 15809 15810 15811 15812 15813 15814 15815 15816 15817 15818 15819 15820 15821 15822 15823 15824 15825 15826 15827 15828 15829 15830 15831 15832 15833 15834 15835 15836 15837 15838 15839 15840 15841 15842 15843 15844 15845 15846 15847 15848 15849 15850 15851 15852 15853 15854 15855 15856 15857 15858 15859 15860 15861 15862 15863 15864 15865 15866 15867 15868 15869 15870 15871 15872 15873 15874 15875 15876 15877 15878 15879 15880 15881 15882 15883 15884 15885 15886 15887 15888 15889 15890 15891 15892 15893 15894 15895 15896 15897 15898 15899 15900 15901 15902 15903 15904 15905 15906 15907 15908 15909 15910 15911 15912 15913 15914 15915 15916 15917 15918 15919 15920 15921 15922 15923 15924 15925 15926 15927 15928 15929 15930 15931 15932 15933 15934 15935 15936 15937 15938 15939 15940 15941 15942 15943 15944 15945 15946 15947 15948 15949 15950 15951 15952 15953 15954 15955 15956 15957 15958 15959 15960 15961 15962 15963 15964 15965 15966 15967 15968 15969 15970 15971 15972 15973 15974 15975 15976 15977 15978 15979 15980 15981 15982 15983 15984 15985 15986 15987 15988 15989 15990 15991 15992 15993 15994 15995 15996 15997 15998 15999 16000 16001 16002 16003 16004 16005 16006 16007 16008 16009 16010 16011 16012 16013 16014 16015 16016 16017 16018 16019 16020 16021 16022 16023 16024 16025 16026 16027 16028 16029 16030 16031 16032 16033 16034 16035 16036 16037 16038 16039 16040 16041 16042 16043 16044 16045 16046 16047 16048 16049 16050 16051 16052 16053 16054 16055 16056 16057 16058 16059 16060 16061 16062 16063 16064 16065 16066 16067 16068 16069 16070 16071 16072 16073 16074 16075 16076 16077 16078 16079 16080 16081 16082 16083 16084 16085 16086 16087 16088 16089 16090 16091 16092 16093 16094 16095 16096 16097 16098 16099 16100 16101 16102 16103 16104 16105 16106 16107 16108 16109 16110 16111 16112 16113 16114 16115 16116 16117 16118 16119 16120 16121 16122 16123 16124 16125 16126 16127 16128 16129 16130 16131 16132 16133 16134 16135 16136 16137 16138 16139 16140 16141 16142 16143 16144 16145 16146 16147 16148 16149 16150 16151 16152 16153 16154 16155 16156 16157 16158 16159 16160 16161 16162 16163 16164 16165 16166 16167 16168 16169 16170 16171 16172 16173 16174 16175 16176 16177 16178 16179 16180 16181 16182 16183 16184 16185 16186 16187 16188 16189 16190 16191 16192 16193 16194 16195 16196 16197 16198 16199 16200 16201 16202 16203 16204 16205 16206 16207 16208 16209 16210 16211 16212 16213 16214 16215 16216 16217 16218 16219 16220 16221 16222 16223 16224 16225 16226 16227 16228 16229 16230 16231 16232 16233 16234 16235 16236 16237 16238 16239 16240 16241 16242 16243 16244 16245 16246 16247 16248 16249 16250 16251 16252 16253 16254 16255 16256 16257 16258 16259 16260 16261 16262 16263 16264 16265 16266 16267 16268 16269 16270 16271 16272 16273 16274 16275 16276 16277 16278 16279 16280 16281 16282 16283 16284 16285 16286 16287 16288 16289 16290 16291 16292 16293 16294 16295 16296 16297 16298 16299 16300 16301 16302 16303 16304 16305 16306 16307 16308 16309 16310 16311 16312 16313 16314 16315 16316 16317 16318 16319 16320 16321 16322 16323 16324 16325 16326 16327 16328 16329 16330 16331 16332 16333 16334 16335 16336 16337 16338 16339 16340 16341 16342 16343 16344 16345 16346 16347 16348 16349 16350 16351 16352 16353 16354 16355 16356 16357 16358 16359 16360 16361 16362 16363 16364 16365 16366 16367 16368 16369 16370 16371 16372 16373 16374 16375 16376 16377 16378 16379 16380 16381 16382 16383 16384 16385 16386 16387 16388 16389 16390 16391 16392 16393 16394 16395 16396 16397 16398 16399 16400 16401 16402 16403 16404 16405 16406 16407 16408 16409 16410 16411 16412 16413 16414 16415 16416 16417 16418 16419 16420 16421 16422 16423 16424 16425 16426 16427 16428 16429 16430 16431 16432 16433 16434 16435 16436 16437 16438 16439 16440 16441 16442 16443 16444 16445 16446 16447 16448 16449 16450 16451 16452 16453 16454 16455 16456 16457 16458 16459 16460 16461 16462 16463 16464 16465 16466 16467 16468 16469 16470 16471 16472 16473 16474 16475 16476 16477 16478 16479 16480 16481 16482 16483 16484 16485 16486 16487 16488 16489 16490 16491 16492 16493 16494 16495 16496 16497 16498 16499 16500 16501 16502 16503 16504 16505 16506 16507 16508 16509 16510 16511 16512 16513 16514 16515 16516 16517 16518 16519 16520 16521 16522 16523 16524 16525 16526 16527 16528 16529 16530 16531 16532 16533 16534 16535 16536 16537 16538 16539 16540 16541 16542 16543 16544 16545 16546 16547 16548 16549 16550 16551 16552 16553 16554 16555 16556 16557 16558 16559 16560 16561 16562 16563 16564 16565 16566 16567 16568 16569 16570 16571 16572 16573 16574 16575 16576 16577 16578 16579 16580 16581 16582 16583 16584 16585 16586 16587 16588 16589 16590 16591 16592 16593 16594 16595 16596 16597 16598 16599 16600 16601 16602 16603 16604 16605 16606 16607 16608 16609 16610 16611 16612 16613 16614 16615 16616 16617 16618 16619 16620 16621 16622 16623 16624 16625 16626 16627 16628 16629 16630 16631 16632 16633 16634 16635 16636 16637 16638 16639 16640 16641 16642 16643 16644 16645 16646 16647 16648 16649 16650 16651 16652 16653 16654 16655 16656 16657 16658 16659 16660 16661 16662 16663 16664 16665 16666 16667 16668 16669 16670 16671 16672 16673 16674 16675 16676 16677 16678 16679 16680 16681 16682 16683 16684 16685 16686 16687 16688 16689 16690 16691 16692 16693 16694 16695 16696 16697 16698 16699 16700 16701 16702 16703 16704 16705 16706 16707 16708 16709 16710 16711 16712 16713 16714 16715 16716 16717 16718 16719 16720 16721 16722 16723 16724 16725 16726 16727 16728 16729 16730 16731 16732 16733 16734 16735 16736 16737 16738 16739 16740 16741 16742 16743 16744 16745 16746 16747 16748 16749 16750 16751 16752 16753 16754 16755 16756 16757 16758 16759 16760 16761 16762 16763 16764 16765 16766 16767 16768 16769 16770 16771 16772 16773 16774 16775 16776 16777 16778 16779 16780 16781 16782 16783 16784 16785 16786 16787 16788 16789 16790 16791 16792 16793 16794 16795 16796 16797 16798 16799 16800 16801 16802 16803 16804 16805 16806 16807 16808 16809 16810 16811 16812 16813 16814 16815 16816 16817 16818 16819 16820 16821 16822 16823 16824 16825 16826 16827 16828 16829 16830 16831 16832 16833 16834 16835 16836 16837 16838 16839 16840 16841 16842 16843 16844 16845 16846 16847 16848 16849 16850 16851 16852 16853 16854 16855 16856 16857 16858 16859 16860 16861 16862 16863 16864 16865 16866 16867 16868 16869 16870 16871 16872 16873 16874 16875 16876 16877 16878 16879 16880 16881 16882 16883 16884 16885 16886 16887 16888 16889 16890 16891 16892 16893 16894 16895 16896 16897 16898 16899 16900 16901 16902 16903 16904 16905 16906 16907 16908 16909 16910 16911 16912 16913 16914 16915 16916 16917 16918 16919 16920 16921 16922 16923 16924 16925 16926 16927 16928 16929 16930 16931 16932 16933 16934 16935 16936 16937 16938 16939 16940 16941 16942 16943 16944 16945 16946 16947 16948 16949 16950 16951 16952 16953 16954 16955 16956 16957 16958 16959 16960 16961 16962 16963 16964 16965 16966 16967 16968 16969 16970 16971 16972 16973 16974 16975 16976 16977 16978 16979 16980 16981 16982 16983 16984 16985 16986 16987 16988 16989 16990 16991 16992 16993 16994 16995 16996 16997 16998 16999 17000 17001 17002 17003 17004 17005 17006 17007 17008 17009 17010 17011 17012 17013 17014 17015 17016 17017 17018 17019 17020 17021 17022 17023 17024 17025 17026 17027 17028 17029 17030 17031 17032 17033 17034 17035 17036 17037 17038 17039 17040 17041 17042 17043 17044 17045 17046 17047 17048 17049 17050 17051 17052 17053 17054 17055 17056 17057 17058 17059 17060 17061 17062 17063 17064 17065 17066 17067 17068 17069 17070 17071 17072 17073 17074 17075 17076 17077 17078 17079 17080 17081 17082 17083 17084 17085 17086 17087 17088 17089 17090 17091 17092 17093 17094 17095 17096 17097 17098 17099 17100 17101 17102 17103 17104 17105 17106 17107 17108 17109 17110 17111 17112 17113 17114 17115 17116 17117 17118 17119 17120 17121 17122 17123 17124 17125 17126 17127 17128 17129 17130 17131 17132 17133 17134 17135 17136 17137 17138 17139 17140 17141 17142 17143 17144 17145 17146 17147 17148 17149 17150 17151 17152 17153 17154 17155 17156 17157 17158 17159 17160 17161 17162 17163 17164 17165 17166 17167 17168 17169 17170 17171 17172 17173 17174 17175 17176 17177 17178 17179 17180 17181 17182 17183 17184 17185 17186 17187 17188 17189 17190 17191 17192 17193 17194 17195 17196 17197 17198 17199 17200 17201 17202 17203 17204 17205 17206 17207 17208 17209 17210 17211 17212 17213 17214 17215 17216 17217 17218 17219 17220 17221 17222 17223 17224 17225 17226 17227 17228 17229 17230 17231 17232 17233 17234 17235 17236 17237 17238 17239 17240 17241 17242 17243 17244 17245 17246 17247 17248 17249 17250 17251 17252 17253 17254 17255 17256 17257 17258 17259 17260 17261 17262 17263 17264 17265 17266 17267 17268 17269 17270 17271 17272 17273 17274 17275 17276 17277 17278 17279 17280 17281 17282 17283 17284 17285 17286 17287 17288 17289 17290 17291 17292 17293 17294 17295 17296 17297 17298 17299 17300 17301 17302 17303 17304 17305 17306 17307 17308 17309 17310 17311 17312 17313 17314 17315 17316 17317 17318 17319 17320 17321 17322 17323 17324 17325 17326 17327 17328 17329 17330 17331 17332 17333 17334 17335 17336 17337 17338 17339 17340 17341 17342 17343 17344 17345 17346 17347 17348 17349 17350 17351 17352 17353 17354 17355 17356 17357 17358 17359 17360 17361 17362 17363 17364 17365 17366 17367 17368 17369 17370 17371 17372 17373 17374 17375 17376 17377 17378 17379 17380 17381 17382 17383 17384 17385 17386 17387 17388 17389 17390 17391 17392 17393 17394 17395 17396 17397 17398 17399 17400 17401 17402 17403 17404 17405 17406 17407 17408 17409 17410 17411 17412 17413 17414 17415 17416 17417 17418 17419 17420 17421 17422 17423 17424 17425 17426 17427 17428 17429 17430 17431 17432 17433 17434 17435 17436 17437 17438 17439 17440 17441 17442 17443 17444 17445 17446 17447 17448 17449 17450 17451 17452 17453 17454 17455 17456 17457 17458 17459 17460 17461 17462 17463 17464 17465 17466 17467 17468 17469 17470 17471 17472 17473 17474 17475 17476 17477 17478 17479 17480 17481 17482 17483 17484 17485 17486 17487 17488 17489 17490 17491 17492 17493 17494 17495 17496 17497 17498 17499 17500 17501 17502 17503 17504 17505 17506 17507 17508 17509 17510 17511 17512 17513 17514 17515 17516 17517 17518 17519 17520 17521 17522 17523 17524 17525 17526 17527 17528 17529 17530 17531 17532 17533 17534 17535 17536 17537 17538 17539 17540 17541 17542 17543 17544 17545 17546 17547 17548 17549 17550 17551 17552 17553 17554 17555 17556 17557 17558 17559 17560 17561 17562 17563 17564 17565 17566 17567 17568 17569 17570 17571 17572 17573 17574 17575 17576 17577 17578 17579 17580 17581 17582 17583 17584 17585 17586 17587 17588 17589 17590 17591 17592 17593 17594 17595 17596 17597 17598 17599 17600 17601 17602 17603 17604 17605 17606 17607 17608 17609 17610 17611 17612 17613 17614 17615 17616 17617 17618 17619 17620 17621 17622 17623 17624 17625 17626 17627 17628 17629 17630 17631 17632 17633 17634 17635 17636 17637 17638 17639 17640 17641 17642 17643 17644 17645 17646 17647 17648 17649 17650 17651 17652 17653 17654 17655 17656 17657 17658 17659 17660 17661 17662 17663 17664 17665 17666 17667 17668 17669 17670 17671 17672 17673 17674 17675 17676 17677 17678 17679 17680 17681 17682 17683 17684 17685 17686 17687 17688 17689 17690 17691 17692 17693 17694 17695 17696 17697 17698 17699 17700 17701 17702 17703 17704 17705 17706 17707 17708 17709 17710 17711 17712 17713 17714 17715 17716 17717 17718 17719 17720 17721 17722 17723 17724 17725 17726 17727 17728 17729 17730 17731 17732 17733 17734 17735 17736 17737 17738 17739 17740 17741 17742 17743 17744 17745 17746 17747 17748 17749 17750 17751 17752 17753 17754 17755 17756 17757 17758 17759 17760 17761 17762 17763 17764 17765 17766 17767 17768 17769 17770 17771 17772 17773 17774 17775 17776 17777 17778 17779 17780 17781 17782 17783 17784 17785 17786 17787 17788 17789 17790 17791 17792 17793 17794 17795 17796 17797 17798 17799 17800 17801 17802 17803 17804 17805 17806 17807 17808 17809 17810 17811 17812 17813 17814 17815 17816 17817 17818 17819 17820 17821 17822 17823 17824 17825 17826 17827 17828 17829 17830 17831 17832 17833 17834 17835 17836 17837 17838 17839 17840 17841 17842 17843 17844 17845 17846 17847 17848 17849 17850 17851 17852 17853 17854 17855 17856 17857 17858 17859 17860 17861 17862 17863 17864 17865 17866 17867 17868 17869 17870 17871 17872 17873 17874 17875 17876 17877 17878 17879 17880 17881 17882 17883 17884 17885 17886 17887 17888 17889 17890 17891 17892 17893 17894 17895 17896 17897 17898 17899 17900 17901 17902 17903 17904 17905 17906 17907 17908 17909 17910 17911 17912 17913 17914 17915 17916 17917 17918 17919 17920 17921 17922 17923 17924 17925 17926 17927 17928 17929 17930 17931 17932 17933 17934 17935 17936 17937 17938 17939 17940 17941 17942 17943 17944 17945 17946 17947 17948 17949 17950 17951 17952 17953 17954 17955 17956 17957 17958 17959 17960 17961 17962 17963 17964 17965 17966 17967 17968 17969 17970 17971 17972 17973 17974 17975 17976 17977 17978 17979 17980 17981 17982 17983 17984 17985 17986 17987 17988 17989 17990 17991 17992 17993 17994 17995 17996 17997 17998 17999 18000 18001 18002 18003 18004 18005 18006 18007 18008 18009 18010 18011 18012 18013 18014 18015 18016 18017 18018 18019 18020 18021 18022 18023 18024 18025 18026 18027 18028 18029 18030 18031 18032 18033 18034 18035 18036 18037 18038 18039 18040 18041 18042 18043 18044 18045 18046 18047 18048 18049 18050 18051 18052 18053 18054 18055 18056 18057 18058 18059 18060 18061 18062 18063 18064 18065 18066 18067 18068 18069 18070 18071 18072 18073 18074 18075 18076 18077 18078 18079 18080 18081 18082 18083 18084 18085 18086 18087 18088 18089 18090 18091 18092 18093 18094 18095 18096 18097 18098 18099 18100 18101 18102 18103 18104 18105 18106 18107 18108 18109 18110 18111 18112 18113 18114 18115 18116 18117 18118 18119 18120 18121 18122 18123 18124 18125 18126 18127 18128 18129 18130 18131 18132 18133 18134 18135 18136 18137 18138 18139 18140 18141 18142 18143 18144 18145 18146 18147 18148 18149 18150 18151 18152 18153 18154 18155 18156 18157 18158 18159 18160 18161 18162 18163 18164 18165 18166 18167 18168 18169 18170 18171 18172 18173 18174 18175 18176 18177 18178 18179 18180 18181 18182 18183 18184 18185 18186 18187 18188 18189 18190 18191 18192 18193 18194 18195 18196 18197 18198 18199 18200 18201 18202 18203 18204 18205 18206 18207 18208 18209 18210 18211 18212 18213 18214 18215 18216 18217 18218 18219 18220 18221 18222 18223 18224 18225 18226 18227 18228 18229 18230 18231 18232 18233 18234 18235 18236 18237 18238 18239 18240 18241 18242 18243 18244 18245 18246 18247 18248 18249 18250 18251 18252 18253 18254 18255 18256 18257 18258 18259 18260 18261 18262 18263 18264 18265 18266 18267 18268 18269 18270 18271 18272 18273 18274 18275 18276 18277 18278 18279 18280 18281 18282 18283 18284 18285 18286 18287 18288 18289 18290 18291 18292 18293 18294 18295 18296 18297 18298 18299 18300 18301 18302 18303 18304 18305 18306 18307 18308 18309 18310 18311 18312 18313 18314 18315 18316 18317 18318 18319 18320 18321 18322 18323 18324 18325 18326 18327 18328 18329 18330 18331 18332 18333 18334 18335 18336 18337 18338 18339 18340 18341 18342 18343 18344 18345 18346 18347 18348 18349 18350 18351 18352 18353 18354 18355 18356 18357 18358 18359 18360 18361 18362 18363 18364 18365 18366 18367 18368 18369 18370 18371 18372 18373 18374 18375 18376 18377 18378 18379 18380 18381 18382 18383 18384 18385 18386 18387 18388 18389 18390 18391 18392 18393 18394 18395 18396 18397 18398 18399 18400 18401 18402 18403 18404 18405 18406 18407 18408 18409 18410 18411 18412 18413 18414 18415 18416 18417 18418 18419 18420 18421 18422 18423 18424 18425 18426 18427 18428 18429 18430 18431 18432 18433 18434 18435 18436 18437 18438 18439 18440 18441 18442 18443 18444 18445 18446 18447 18448 18449 18450 18451 18452 18453 18454 18455 18456 18457 18458 18459 18460 18461 18462 18463 18464 18465 18466 18467 18468 18469 18470 18471 18472 18473 18474 18475 18476 18477 18478 18479 18480 18481 18482 18483 18484 18485 18486 18487 18488 18489 18490 18491 18492 18493 18494 18495 18496 18497 18498 18499 18500 18501 18502 18503 18504 18505 18506 18507 18508 18509 18510 18511 18512 18513 18514 18515 18516 18517 18518 18519 18520 18521 18522 18523 18524 18525 18526 18527 18528 18529 18530 18531 18532 18533 18534 18535 18536 18537 18538 18539 18540 18541 18542 18543 18544 18545 18546 18547 18548 18549 18550 18551 18552 18553 18554 18555 18556 18557 18558 18559 18560 18561 18562 18563 18564 18565 18566 18567 18568 18569 18570 18571 18572 18573 18574 18575 18576 18577 18578 18579 18580 18581 18582 18583 18584 18585 18586 18587 18588 18589 18590 18591 18592 18593 18594 18595 18596 18597 18598 18599 18600 18601 18602 18603 18604 18605 18606 18607 18608 18609 18610 18611 18612 18613 18614 18615 18616 18617 18618 18619 18620 18621 18622 18623 18624 18625 18626 18627 18628 18629 18630 18631 18632 18633 18634 18635 18636 18637 18638 18639 18640 18641 18642 18643 18644 18645 18646 18647 18648 18649 18650 18651 18652 18653 18654 18655 18656 18657 18658 18659 18660 18661 18662 18663 18664 18665 18666 18667 18668 18669 18670 18671 18672 18673 18674 18675 18676 18677 18678 18679 18680 18681 18682 18683 18684 18685 18686 18687 18688 18689 18690 18691 18692 18693 18694 18695 18696 18697 18698 18699 18700 18701 18702 18703 18704 18705 18706 18707 18708 18709 18710 18711 18712 18713 18714 18715 18716 18717 18718 18719 18720 18721 18722 18723 18724 18725 18726 18727 18728 18729 18730 18731 18732 18733 18734 18735 18736 18737 18738 18739 18740 18741 18742 18743 18744 18745 18746 18747 18748 18749 18750 18751 18752 18753 18754 18755 18756 18757 18758 18759 18760 18761 18762 18763 18764 18765 18766 18767 18768 18769 18770 18771 18772 18773 18774 18775 18776 18777 18778 18779 18780 18781 18782 18783 18784 18785 18786 18787 18788 18789 18790 18791 18792 18793 18794 18795 18796 18797 18798 18799 18800 18801 18802 18803 18804 18805 18806 18807 18808 18809 18810 18811 18812 18813 18814 18815 18816 18817 18818 18819 18820 18821 18822 18823 18824 18825 18826 18827 18828 18829 18830 18831 18832 18833 18834 18835 18836 18837 18838 18839 18840 18841 18842 18843 18844 18845 18846 18847 18848 18849 18850 18851 18852 18853 18854 18855 18856 18857 18858 18859 18860 18861 18862 18863 18864 18865 18866 18867 18868 18869 18870 18871 18872 18873 18874 18875 18876 18877 18878 18879 18880 18881 18882 18883 18884 18885 18886 18887 18888 18889 18890 18891 18892 18893 18894 18895 18896 18897 18898 18899 18900 18901 18902 18903 18904 18905 18906 18907 18908 18909 18910 18911 18912 18913 18914 18915 18916 18917 18918 18919 18920 18921 18922 18923 18924 18925 18926 18927 18928 18929 18930 18931 18932 18933 18934 18935 18936 18937 18938 18939 18940 18941 18942 18943 18944 18945 18946 18947 18948 18949 18950 18951 18952 18953 18954 18955 18956 18957 18958 18959 18960 18961 18962 18963 18964 18965 18966 18967 18968 18969 18970 18971 18972 18973 18974 18975 18976 18977 18978 18979 18980 18981 18982 18983 18984 18985 18986 18987 18988 18989 18990 18991 18992 18993 18994 18995 18996 18997 18998 18999 19000 19001 19002 19003 19004 19005 19006 19007 19008 19009 19010 19011 19012 19013 19014 19015 19016 19017 19018 19019 19020 19021 19022 19023 19024 19025 19026 19027 19028 19029 19030 19031 19032 19033 19034 19035 19036 19037 19038 19039 19040 19041 19042 19043 19044 19045 19046 19047 19048 19049 19050 19051 19052 19053 19054 19055 19056 19057 19058 19059 19060 19061 19062 19063 19064 19065 19066 19067 19068 19069 19070 19071 19072 19073 19074 19075 19076 19077 19078 19079 19080 19081 19082 19083 19084 19085 19086 19087 19088 19089 19090 19091 19092 19093 19094 19095 19096 19097 19098 19099 19100 19101 19102 19103 19104 19105 19106 19107 19108 19109 19110 19111 19112 19113 19114 19115 19116 19117 19118 19119 19120 19121 19122 19123 19124 19125 19126 19127 19128 19129 19130 19131 19132 19133 19134 19135 19136 19137 19138 19139 19140 19141 19142 19143 19144 19145 19146 19147 19148 19149 19150 19151 19152 19153 19154 19155 19156 19157 19158 19159 19160 19161 19162 19163 19164 19165 19166 19167 19168 19169 19170 19171 19172 19173 19174 19175 19176 19177 19178 19179 19180 19181 19182 19183 19184 19185 19186 19187 19188 19189 19190 19191 19192 19193 19194 19195 19196 19197 19198 19199 19200 19201 19202 19203 19204 19205 19206 19207 19208 19209 19210 19211 19212 19213 19214 19215 19216 19217 19218 19219 19220 19221 19222 19223 19224 19225 19226 19227 19228 19229 19230 19231 19232 19233 19234 19235 19236 19237 19238 19239 19240 19241 19242 19243 19244 19245 19246 19247 19248 19249 19250 19251 19252 19253 19254 19255 19256 19257 19258 19259 19260 19261 19262 19263 19264 19265 19266 19267 19268 19269 19270 19271 19272 19273 19274 19275 19276 19277 19278 19279 19280 19281 19282 19283 19284 19285 19286 19287 19288 19289 19290 19291 19292 19293 19294 19295 19296 19297 19298 19299 19300 19301 19302 19303 19304 19305 19306 19307 19308 19309 19310 19311 19312 19313 19314 19315 19316 19317 19318 19319 19320 19321 19322 19323 19324 19325 19326 19327 19328 19329 19330 19331 19332 19333 19334 19335 19336 19337 19338 19339 19340 19341 19342 19343 19344 19345 19346 19347 19348 19349 19350 19351 19352 19353 19354 19355 19356 19357 19358 19359 19360 19361 19362 19363 19364 19365 19366 19367 19368 19369 19370 19371 19372 19373 19374 19375 19376 19377 19378 19379 19380 19381 19382 19383 19384 19385 19386 19387 19388 19389 19390 19391 19392 19393 19394 19395 19396 19397 19398 19399 19400 19401 19402 19403 19404 19405 19406 19407 19408 19409 19410 19411 19412 19413 19414 19415 19416 19417 19418 19419 19420 19421 19422 19423 19424 19425 19426 19427 19428 19429 19430 19431 19432 19433 19434 19435 19436 19437 19438 19439 19440 19441 19442 19443 19444 19445 19446 19447 19448 19449 19450 19451 19452 19453 19454 19455 19456 19457 19458 19459 19460 19461 19462 19463 19464 19465 19466 19467 19468 19469 19470 19471 19472 19473 19474 19475 19476 19477 19478 19479 19480 19481 19482 19483 19484 19485 19486 19487 19488 19489 19490 19491 19492 19493 19494 19495 19496 19497 19498 19499 19500 19501 19502 19503 19504 19505 19506 19507 19508 19509 19510 19511 19512 19513 19514 19515 19516 19517 19518 19519 19520 19521 19522 19523 19524 19525 19526 19527 19528 19529 19530 19531 19532 19533 19534 19535 19536 19537 19538 19539 19540 19541 19542 19543 19544 19545 19546 19547 19548 19549 19550 19551 19552 19553 19554 19555 19556 19557 19558 19559 19560 19561 19562 19563 19564 19565 19566 19567 19568 19569 19570 19571 19572 19573 19574 19575 19576 19577 19578 19579 19580 19581 19582 19583 19584 19585 19586 19587 19588 19589 19590 19591 19592 19593 19594 19595 19596 19597 19598 19599 19600 19601 19602 19603 19604 19605 19606 19607 19608 19609 19610 19611 19612 19613 19614 19615 19616 19617 19618 19619 19620 19621 19622 19623 19624 19625 19626 19627 19628 19629 19630 19631 19632 19633 19634 19635 19636 19637 19638 19639 19640 19641 19642 19643 19644 19645 19646 19647 19648 19649 19650 19651 19652 19653 19654 19655 19656 19657 19658 19659 19660 19661 19662 19663 19664 19665 19666 19667 19668 19669 19670 19671 19672 19673 19674 19675 19676 19677 19678 19679 19680 19681 19682 19683 19684 19685 19686 19687 19688 19689 19690 19691 19692 19693 19694 19695 19696 19697 19698 19699 19700 19701 19702 19703 19704 19705 19706 19707 19708 19709 19710 19711 19712 19713 19714 19715 19716 19717 19718 19719 19720 19721 19722 19723 19724 19725 19726 19727 19728 19729 19730 19731 19732 19733 19734 19735 19736 19737 19738 19739 19740 19741 19742 19743 19744 19745 19746 19747 19748 19749 19750 19751 19752 19753 19754 19755 19756 19757 19758 19759 19760 19761 19762 19763 19764 19765 19766 19767 19768 19769 19770 19771 19772 19773 19774 19775 19776 19777 19778 19779 19780 19781 19782 19783 19784 19785 19786 19787 19788 19789 19790 19791 19792 19793 19794 19795 19796 19797 19798 19799 19800 19801 19802 19803 19804 19805 19806 19807 19808 19809 19810 19811 19812 19813 19814 19815 19816 19817 19818 19819 19820 19821 19822 19823 19824 19825 19826 19827 19828 19829 19830 19831 19832 19833 19834 19835 19836 19837 19838 19839 19840 19841 19842 19843 19844 19845 19846 19847 19848 19849 19850 19851 19852 19853 19854 19855 19856 19857 19858 19859 19860 19861 19862 19863 19864 19865 19866 19867 19868 19869 19870 19871 19872 19873 19874 19875 19876 19877 19878 19879 19880 19881 19882 19883 19884 19885 19886 19887 19888 19889 19890 19891 19892 19893 19894 19895 19896 19897 19898 19899 19900 19901 19902 19903 19904 19905 19906 19907 19908 19909 19910 19911 19912 19913 19914 19915 19916 19917 19918 19919 19920 19921 19922 19923 19924 19925 19926 19927 19928 19929 19930 19931 19932 19933 19934 19935 19936 19937 19938 19939 19940 19941 19942 19943 19944 19945 19946 19947 19948 19949 19950 19951 19952 19953 19954 19955 19956 19957 19958 19959 19960 19961 19962 19963 19964 19965 19966 19967 19968 19969 19970 19971 19972 19973 19974 19975 19976 19977 19978 19979 19980 19981 19982 19983 19984 19985 19986 19987 19988 19989 19990 19991 19992 19993 19994 19995 19996 19997 19998 19999 20000 20001 20002 20003 20004 20005 20006 20007 20008 20009 20010 20011 20012 20013 20014 20015 20016 20017 20018 20019 20020 20021 20022 20023 20024 20025 20026 20027 20028 20029 20030 20031 20032 20033 20034 20035 20036 20037 20038 20039 20040 20041 20042 20043 20044 20045 20046 20047 20048 20049 20050 20051 20052 20053 20054 20055 20056 20057 20058 20059 20060 20061 20062 20063 20064 20065 20066 20067 20068 20069 20070 20071 20072 20073 20074 20075 20076 20077 20078 20079 20080 20081 20082 20083 20084 20085 20086 20087 20088 20089 20090 20091 20092 20093 20094 20095 20096 20097 20098 20099 20100 20101 20102 20103 20104 20105 20106 20107 20108 20109 20110 20111 20112 20113 20114 20115 20116 20117 20118 20119 20120 20121 20122 20123 20124 20125 20126 20127 20128 20129 20130 20131 20132 20133 20134 20135 20136 20137 20138 20139 20140 20141 20142 20143 20144 20145 20146 20147 20148 20149 20150 20151 20152 20153 20154 20155 20156 20157 20158 20159 20160 20161 20162 20163 20164 20165 20166 20167 20168 20169 20170 20171 20172 20173 20174 20175 20176 20177 20178 20179 20180 20181 20182 20183 20184 20185 20186 20187 20188 20189 20190 20191 20192 20193 20194 20195 20196 20197 20198 20199 20200 20201 20202 20203 20204 20205 20206 20207 20208 20209 20210 20211 20212 20213 20214 20215 20216 20217 20218 20219 20220 20221 20222 20223 20224 20225 20226 20227 20228 20229 20230 20231 20232 20233 20234 20235 20236 20237 20238 20239 20240 20241 20242 20243 20244 20245 20246 20247 20248 20249 20250 20251 20252 20253 20254 20255 20256 20257 20258 20259 20260 20261 20262 20263 20264 20265 20266 20267 20268 20269 20270 20271 20272 20273 20274 20275 20276 20277 20278 20279 20280 20281 20282 20283 20284 20285 20286 20287 20288 20289 20290 20291 20292 20293 20294 20295 20296 20297 20298 20299 20300 20301 20302 20303 20304 20305 20306 20307 20308 20309 20310 20311 20312 20313 20314 20315 20316 20317 20318 20319 20320 20321 20322 20323 20324 20325 20326 20327 20328 20329 20330 20331 20332 20333 20334 20335 20336 20337 20338 20339 20340 20341 20342 20343 20344 20345 20346 20347 20348 20349 20350 20351 20352 20353 20354 20355 20356 20357 20358 20359 20360 20361 20362 20363 20364 20365 20366 20367 20368 20369 20370 20371 20372 20373 20374 20375 20376 20377 20378 20379 20380 20381 20382 20383 20384 20385 20386 20387 20388 20389 20390 20391 20392 20393 20394 20395 20396 20397 20398 20399 20400 20401 20402 20403 20404 20405 20406 20407 20408 20409 20410 20411 20412 20413 20414 20415 20416 20417 20418 20419 20420 20421 20422 20423 20424 20425 20426 20427 20428 20429 20430 20431 20432 20433 20434 20435 20436 20437 20438 20439 20440 20441 20442 20443 20444 20445 20446 20447 20448 20449 20450 20451 20452 20453 20454 20455 20456 20457 20458 20459 20460 20461 20462 20463 20464 20465 20466 20467 20468 20469 20470 20471 20472 20473 20474 20475 20476 20477 20478 20479 20480 20481 20482 20483 20484 20485 20486 20487 20488 20489 20490 20491 20492 20493 20494 20495 20496 20497 20498 20499 20500 20501 20502 20503 20504 20505 20506 20507 20508 20509 20510 20511 20512 20513 20514 20515 20516 20517 20518 20519 20520 20521 20522 20523 20524 20525 20526 20527 20528 20529 20530 20531 20532 20533 20534 20535 20536 20537 20538 20539 20540 20541 20542 20543 20544 20545 20546 20547 20548 20549 20550 20551 20552 20553 20554 20555 20556 20557 20558 20559 20560 20561 20562 20563 20564 20565 20566 20567 20568 20569 20570 20571 20572 20573 20574 20575 20576 20577 20578 20579 20580 20581 20582 20583 20584 20585 20586 20587 20588 20589 20590 20591 20592 20593 20594 20595 20596 20597 20598 20599 20600 20601 20602 20603 20604 20605 20606 20607 20608 20609 20610 20611 20612 20613 20614 20615 20616 20617 20618 20619 20620 20621 20622 20623 20624 20625 20626 20627 20628 20629 20630 20631 20632 20633 20634 20635 20636 20637 20638 20639 20640 20641 20642 20643 20644 20645 20646 20647 20648 20649 20650 20651 20652 20653 20654 20655 20656 20657 20658 20659 20660 20661 20662 20663 20664 20665 20666 20667 20668 20669 20670 20671 20672 20673 20674 20675 20676 20677 20678 20679 20680 20681 20682 20683 20684 20685 20686 20687 20688 20689 20690 20691 20692 20693 20694 20695 20696 20697 20698 20699 20700 20701 20702 20703 20704 20705 20706 20707 20708 20709 20710 20711 20712 20713 20714 20715 20716 20717 20718 20719 20720 20721 20722 20723 20724 20725 20726 20727 20728 20729 20730 20731 20732 20733 20734 20735 20736 20737 20738 20739 20740 20741 20742 20743 20744 20745 20746 20747 20748 20749 20750 20751 20752 20753 20754 20755 20756 20757 20758 20759 20760 20761 20762 20763 20764 20765 20766 20767 20768 20769 20770 20771 20772 20773 20774 20775 20776 20777 20778 20779 20780 20781 20782 20783 20784 20785 20786 20787 20788 20789 20790 20791 20792 20793 20794 20795 20796 20797 20798 20799 20800 20801 20802 20803 20804 20805 20806 20807 20808 20809 20810 20811 20812 20813 20814 20815 20816 20817 20818 20819 20820 20821 20822 20823 20824 20825 20826 20827 20828 20829 20830 20831 20832 20833 20834 20835 20836 20837 20838 20839 20840 20841 20842 20843 20844 20845 20846 20847 20848 20849 20850 20851 20852 20853 20854 20855 20856 20857 20858 20859 20860 20861 20862 20863 20864 20865 20866 20867 20868 20869 20870 20871 20872 20873 20874 20875 20876 20877 20878 20879 20880 20881 20882 20883 20884 20885 20886 20887 20888 20889 20890 20891 20892 20893 20894 20895 20896 20897 20898 20899 20900 20901 20902 20903 20904 20905 20906 20907 20908 20909 20910 20911 20912 20913 20914 20915 20916 20917 20918 20919 20920 20921 20922 20923 20924 20925 20926 20927 20928 20929 20930 20931 20932 20933 20934 20935 20936 20937 20938 20939 20940 20941 20942 20943 20944 20945 20946 20947 20948 20949 20950 20951 20952 20953 20954 20955 20956 20957 20958 20959 20960 20961 20962 20963 20964 20965 20966 20967 20968 20969 20970 20971 20972 20973 20974 20975 20976 20977 20978 20979 20980 20981 20982 20983 20984 20985 20986 20987 20988 20989 20990 20991 20992 20993 20994 20995 20996 20997 20998 20999 21000 21001 21002 21003 21004 21005 21006 21007 21008 21009 21010 21011 21012 21013 21014 21015 21016 21017 21018 21019 21020 21021 21022 21023 21024 21025 21026 21027 21028 21029 21030 21031 21032 21033 21034 21035 21036 21037 21038 21039 21040 21041 21042 21043 21044 21045 21046 21047 21048 21049 21050 21051 21052 21053 21054 21055 21056 21057 21058 21059 21060 21061 21062 21063 21064 21065 21066 21067 21068 21069 21070 21071 21072 21073 21074 21075 21076 21077 21078 21079 21080 21081 21082 21083 21084 21085 21086 21087 21088 21089 21090 21091 21092 21093 21094 21095 21096 21097 21098 21099 21100 21101 21102 21103 21104 21105 21106 21107 21108 21109 21110 21111 21112 21113 21114 21115 21116 21117 21118 21119 21120 21121 21122 21123 21124 21125 21126 21127 21128 21129 21130 21131 21132 21133 21134 21135 21136 21137 21138 21139 21140 21141 21142 21143 21144 21145 21146 21147 21148 21149 21150 21151 21152 21153 21154 21155 21156 21157 21158 21159 21160 21161 21162 21163 21164 21165 21166 21167 21168 21169 21170 21171 21172 21173 21174 21175 21176 21177 21178 21179 21180 21181 21182 21183 21184 21185 21186 21187 21188 21189 21190 21191 21192 21193 21194 21195 21196 21197 21198 21199 21200 21201 21202 21203 21204 21205 21206 21207 21208 21209 21210 21211 21212 21213 21214 21215 21216 21217 21218 21219 21220 21221 21222 21223 21224 21225 21226 21227 21228 21229 21230 21231 21232 21233 21234 21235 21236 21237 21238 21239 21240 21241 21242 21243 21244 21245 21246 21247 21248 21249 21250 21251 21252 21253 21254 21255 21256 21257 21258 21259 21260 21261 21262 21263 21264 21265 21266 21267 21268 21269 21270 21271 21272 21273 21274 21275 21276 21277 21278 21279 21280 21281 21282 21283 21284 21285 21286 21287 21288 21289 21290 21291 21292 21293 21294 21295 21296 21297 21298 21299 21300 21301 21302 21303 21304 21305 21306 21307 21308 21309 21310 21311 21312 21313 21314 21315 21316 21317 21318 21319 21320 21321 21322 21323 21324 21325 21326 21327 21328 21329 21330 21331 21332 21333 21334 21335 21336 21337 21338 21339 21340 21341 21342 21343 21344 21345 21346 21347 21348 21349 21350 21351 21352 21353 21354 21355 21356 21357 21358 21359 21360 21361 21362 21363 21364 21365 21366 21367 21368 21369 21370 21371 21372 21373 21374 21375 21376 21377 21378 21379 21380 21381 21382 21383 21384 21385 21386 21387 21388 21389 21390 21391 21392 21393 21394 21395 21396 21397 21398 21399 21400 21401 21402 21403 21404 21405 21406 21407 21408 21409 21410 21411 21412 21413 21414 21415 21416 21417 21418 21419 21420 21421 21422 21423 21424 21425 21426 21427 21428 21429 21430 21431 21432 21433 21434 21435 21436 21437 21438 21439 21440 21441 21442 21443 21444 21445 21446 21447 21448 21449 21450 21451 21452 21453 21454 21455 21456 21457 21458 21459 21460 21461 21462 21463 21464 21465 21466 21467 21468 21469 21470 21471 21472 21473 21474 21475 21476 21477 21478 21479 21480 21481 21482 21483 21484 21485 21486 21487 21488 21489 21490 21491 21492 21493 21494 21495 21496 21497 21498 21499 21500 21501 21502 21503 21504 21505 21506 21507 21508 21509 21510 21511 21512 21513 21514 21515 21516 21517 21518 21519 21520 21521 21522 21523 21524 21525 21526 21527 21528 21529 21530 21531 21532 21533 21534 21535 21536 21537 21538 21539 21540 21541 21542 21543 21544 21545 21546 21547 21548 21549 21550 21551 21552 21553 21554 21555 21556 21557 21558 21559 21560 21561 21562 21563 21564 21565 21566 21567 21568 21569 21570 21571 21572 21573 21574 21575 21576 21577 21578 21579 21580 21581 21582 21583 21584 21585 21586 21587 21588 21589 21590 21591 21592 21593 21594 21595 21596 21597 21598 21599 21600 21601 21602 21603 21604 21605 21606 21607 21608 21609 21610 21611 21612 21613 21614 21615 21616 21617 21618 21619 21620 21621 21622 21623 21624 21625 21626 21627 21628 21629 21630 21631 21632 21633 21634 21635 21636 21637 21638 21639 21640 21641 21642 21643 21644 21645 21646 21647 21648 21649 21650 21651 21652 21653 21654 21655 21656 21657 21658 21659 21660 21661 21662 21663 21664 21665 21666 21667 21668 21669 21670 21671 21672 21673 21674 21675 21676 21677 21678 21679 21680 21681 21682 21683 21684 21685 21686 21687 21688 21689 21690 21691 21692 21693 21694 21695 21696 21697 21698 21699 21700 21701 21702 21703 21704 21705 21706 21707 21708 21709 21710 21711 21712 21713 21714 21715 21716 21717 21718 21719 21720 21721 21722 21723 21724 21725 21726 21727 21728 21729 21730 21731 21732 21733 21734 21735 21736 21737 21738 21739 21740 21741 21742 21743 21744 21745 21746 21747 21748 21749 21750 21751 21752 21753 21754 21755 21756 21757 21758 21759 21760 21761 21762 21763 21764 21765 21766 21767 21768 21769 21770 21771 21772 21773 21774 21775 21776 21777 21778 21779 21780 21781 21782 21783 21784 21785 21786 21787 21788 21789 21790 21791 21792 21793 21794 21795 21796 21797 21798 21799 21800 21801 21802 21803 21804 21805 21806 21807 21808 21809 21810 21811 21812 21813 21814 21815 21816 21817 21818 21819 21820 21821 21822 21823 21824 21825 21826 21827 21828 21829 21830 21831 21832 21833 21834 21835 21836 21837 21838 21839 21840 21841 21842 21843 21844 21845 21846 21847 21848 21849 21850 21851 21852 21853 21854 21855 21856 21857 21858 21859 21860 21861 21862 21863 21864 21865 21866 21867 21868 21869 21870 21871 21872 21873 21874 21875 21876 21877 21878 21879 21880 21881 21882 21883 21884 21885 21886 21887 21888 21889 21890 21891 21892 21893 21894 21895 21896 21897 21898 21899 21900 21901 21902 21903 21904 21905 21906 21907 21908 21909 21910 21911 21912 21913 21914 21915 21916 21917 21918 21919 21920 21921 21922 21923 21924 21925 21926 21927 21928 21929 21930 21931 21932 21933 21934 21935 21936 21937 21938 21939 21940 21941 21942 21943 21944 21945 21946 21947 21948 21949 21950 21951 21952 21953 21954 21955 21956 21957 21958 21959 21960 21961 21962 21963 21964 21965 21966 21967 21968 21969 21970 21971 21972 21973 21974 21975 21976 21977 21978 21979 21980 21981 21982 21983 21984 21985 21986 21987 21988 21989 21990 21991 21992 21993 21994 21995 21996 21997 21998 21999 22000 22001 22002 22003 22004 22005 22006 22007 22008 22009 22010 22011 22012 22013 22014 22015 22016 22017 22018 22019 22020 22021 22022 22023 22024 22025 22026 22027 22028 22029 22030 22031 22032 22033 22034 22035 22036 22037 22038 22039 22040 22041 22042 22043 22044 22045 22046 22047 22048 22049 22050 22051 22052 22053 22054 22055 22056 22057 22058 22059 22060 22061 22062 22063 22064 22065 22066 22067 22068 22069 22070 22071 22072 22073 22074 22075 22076 22077 22078 22079 22080 22081 22082 22083 22084 22085 22086 22087 22088 22089 22090 22091 22092 22093 22094 22095 22096 22097 22098 22099 22100 22101 22102 22103 22104 22105 22106 22107 22108 22109 22110 22111 22112 22113 22114 22115 22116 22117 22118 22119 22120 22121 22122 22123 22124 22125 22126 22127 22128 22129 22130 22131 22132 22133 22134 22135 22136 22137 22138 22139 22140 22141 22142 22143 22144 22145 22146 22147 22148 22149 22150 22151 22152 22153 22154 22155 22156 22157 22158 22159 22160 22161 22162 22163 22164 22165 22166 22167 22168 22169 22170 22171 22172 22173 22174 22175 22176 22177 22178 22179 22180 22181 22182 22183 22184 22185 22186 22187 22188 22189 22190 22191 22192 22193 22194 22195 22196 22197 22198 22199 22200 22201 22202 22203 22204 22205 22206 22207 22208 22209 22210 22211 22212 22213 22214 22215 22216 22217 22218 22219 22220 22221 22222 22223 22224 22225 22226 22227 22228 22229 22230 22231 22232 22233 22234 22235 22236 22237 22238 22239 22240 22241 22242 22243 22244 22245 22246 22247 22248 22249 22250 22251 22252 22253 22254 22255 22256 22257 22258 22259 22260 22261 22262 22263 22264 22265 22266 22267 22268 22269 22270 22271 22272 22273 22274 22275 22276 22277 22278 22279 22280 22281 22282 22283 22284 22285 22286 22287 22288 22289 22290 22291 22292 22293 22294 22295 22296 22297 22298 22299 22300 22301 22302 22303 22304 22305 22306 22307 22308 22309 22310 22311 22312 22313 22314 22315 22316 22317 22318 22319 22320 22321 22322 22323 22324 22325 22326 22327 22328 22329 22330 22331 22332 22333 22334 22335 22336 22337 22338 22339 22340 22341 22342 22343 22344 22345 22346 22347 22348 22349 22350 22351 22352 22353 22354 22355 22356 22357 22358 22359 22360 22361 22362 22363 22364 22365 22366 22367 22368 22369 22370 22371 22372 22373 22374 22375 22376 22377 22378 22379 22380 22381 22382 22383 22384 22385 22386 22387 22388 22389 22390 22391 22392 22393 22394 22395 22396 22397 22398 22399 22400 22401 22402 22403 22404 22405 22406 22407 22408 22409 22410 22411 22412 22413 22414 22415 22416 22417 22418 22419 22420 22421 22422 22423 22424 22425 22426 22427 22428 22429 22430 22431 22432 22433 22434 22435 22436 22437 22438 22439 22440 22441 22442 22443 22444 22445 22446 22447 22448 22449 22450 22451 22452 22453 22454 22455 22456 22457 22458 22459 22460 22461 22462 22463 22464 22465 22466 22467 22468 22469 22470 22471 22472 22473 22474 22475 22476 22477 22478 22479 22480 22481 22482 22483 22484 22485 22486 22487 22488 22489 22490 22491 22492 22493 22494 22495 22496 22497 22498 22499 22500 22501 22502 22503 22504 22505 22506 22507 22508 22509 22510 22511 22512 22513 22514 22515 22516 22517 22518 22519 22520 22521 22522 22523 22524 22525 22526 22527 22528 22529 22530 22531 22532 22533 22534 22535 22536 22537 22538 22539 22540 22541 22542 22543 22544 22545 22546 22547 22548 22549 22550 22551 22552 22553 22554 22555 22556 22557 22558 22559 22560 22561 22562 22563 22564 22565 22566 22567 22568 22569 22570 22571 22572 22573 22574 22575 22576 22577 22578 22579 22580 22581 22582 22583 22584 22585 22586 22587 22588 22589 22590 22591 22592 22593 22594 22595 22596 22597 22598 22599 22600 22601 22602 22603 22604 22605 22606 22607 22608 22609 22610 22611 22612 22613 22614 22615 22616 22617 22618 22619 22620 22621 22622 22623 22624 22625 22626 22627 22628 22629 22630 22631 22632 22633 22634 22635 22636 22637 22638 22639 22640 22641 22642 22643 22644 22645 22646 22647 22648 22649 22650 22651 22652 22653 22654 22655 22656 22657 22658 22659 22660 22661 22662 22663 22664 22665 22666 22667 22668 22669 22670 22671 22672 22673 22674 22675 22676 22677 22678 22679 22680 22681 22682 22683 22684 22685 22686 22687 22688 22689 22690 22691 22692 22693 22694 22695 22696 22697 22698 22699 22700 22701 22702 22703 22704 22705 22706 22707 22708 22709 22710 22711 22712 22713 22714 22715 22716 22717 22718 22719 22720 22721 22722 22723 22724 22725 22726 22727 22728 22729 22730 22731 22732 22733 22734 22735 22736 22737 22738 22739 22740 22741 22742 22743 22744 22745 22746 22747 22748 22749 22750 22751 22752 22753 22754 22755 22756 22757 22758 22759 22760 22761 22762 22763 22764 22765 22766 22767 22768 22769 22770 22771 22772 22773 22774 22775 22776 22777 22778 22779 22780 22781 22782 22783 22784 22785 22786 22787 22788 22789 22790 22791 22792 22793 22794 22795 22796 22797 22798 22799 22800 22801 22802 22803 22804 22805 22806 22807 22808 22809 22810 22811 22812 22813 22814 22815 22816 22817 22818 22819 22820 22821 22822 22823 22824 22825 22826 22827 22828 22829 22830 22831 22832 22833 22834 22835 22836 22837 22838 22839 22840 22841 22842 22843 22844 22845 22846 22847 22848 22849 22850 22851 22852 22853 22854 22855 22856 22857 22858 22859 22860 22861 22862 22863 22864 22865 22866 22867 22868 22869 22870 22871 22872 22873 22874 22875 22876 22877 22878 22879 22880 22881 22882 22883 22884 22885 22886 22887 22888 22889 22890 22891 22892 22893 22894 22895 22896 22897 22898 22899 22900 22901 22902 22903 22904 22905 22906 22907 22908 22909 22910 22911 22912 22913 22914 22915 22916 22917 22918 22919 22920 22921 22922 22923 22924 22925 22926 22927 22928 22929 22930 22931 22932 22933 22934 22935 22936 22937 22938 22939 22940 22941 22942 22943 22944 22945 22946 22947 22948 22949 22950 22951 22952 22953 22954 22955 22956 22957 22958 22959 22960 22961 22962 22963 22964 22965 22966 22967 22968 22969 22970 22971 22972 22973 22974 22975 22976 22977 22978 22979 22980 22981 22982 22983 22984 22985 22986 22987 22988 22989 22990 22991 22992 22993 22994 22995 22996 22997 22998 22999 23000 23001 23002 23003 23004 23005 23006 23007 23008 23009 23010 23011 23012 23013 23014 23015 23016 23017 23018 23019 23020 23021 23022 23023 23024 23025 23026 23027 23028 23029 23030 23031 23032 23033 23034 23035 23036 23037 23038 23039 23040 23041 23042 23043 23044 23045 23046 23047 23048 23049 23050 23051 23052 23053 23054 23055 23056 23057 23058 23059 23060 23061 23062 23063 23064 23065 23066 23067 23068 23069 23070 23071 23072 23073 23074 23075 23076 23077 23078 23079 23080 23081 23082 23083 23084 23085 23086 23087 23088 23089 23090 23091 23092 23093 23094 23095 23096 23097 23098 23099 23100 23101 23102 23103 23104 23105 23106 23107 23108 23109 23110 23111 23112 23113 23114 23115 23116 23117 23118 23119 23120 23121 23122 23123 23124 23125 23126 23127 23128 23129 23130 23131 23132 23133 23134 23135 23136 23137 23138 23139 23140 23141 23142 23143 23144 23145 23146 23147 23148 23149 23150 23151 23152 23153 23154 23155 23156 23157 23158 23159 23160 23161 23162 23163 23164 23165 23166 23167 23168 23169 23170 23171 23172 23173 23174 23175 23176 23177 23178 23179 23180 23181 23182 23183 23184 23185 23186 23187 23188 23189 23190 23191 23192 23193 23194 23195 23196 23197 23198 23199 23200 23201 23202 23203 23204 23205 23206 23207 23208 23209 23210 23211 23212 23213 23214 23215 23216 23217 23218 23219 23220 23221 23222 23223 23224 23225 23226 23227 23228 23229 23230 23231 23232 23233 23234 23235 23236 23237 23238 23239 23240 23241 23242 23243 23244 23245 23246 23247 23248 23249 23250 23251 23252 23253 23254 23255 23256 23257 23258 23259 23260 23261 23262 23263 23264 23265 23266 23267 23268 23269 23270 23271 23272 23273 23274 23275 23276 23277 23278 23279 23280 23281 23282 23283 23284 23285 23286 23287 23288 23289 23290 23291 23292 23293 23294 23295 23296 23297 23298 23299 23300 23301 23302 23303 23304 23305 23306 23307 23308 23309 23310 23311 23312 23313 23314 23315 23316 23317 23318 23319 23320 23321 23322 23323 23324 23325 23326 23327 23328 23329 23330 23331 23332 23333 23334 23335 23336 23337 23338 23339 23340 23341 23342 23343 23344 23345 23346 23347 23348 23349 23350 23351 23352 23353 23354 23355 23356 23357 23358 23359 23360 23361 23362 23363 23364 23365 23366 23367 23368 23369 23370 23371 23372 23373 23374 23375 23376 23377 23378 23379 23380 23381 23382 23383 23384 23385 23386 23387 23388 23389 23390 23391 23392 23393 23394 23395 23396 23397 23398 23399 23400 23401 23402 23403 23404 23405 23406 23407 23408 23409 23410 23411 23412 23413 23414 23415 23416 23417 23418 23419 23420 23421 23422 23423 23424 23425 23426 23427 23428 23429 23430 23431 23432 23433 23434 23435 23436 23437 23438 23439 23440 23441 23442 23443 23444 23445 23446 23447 23448 23449 23450 23451 23452 23453 23454 23455 23456 23457 23458 23459 23460 23461 23462 23463 23464 23465 23466 23467 23468 23469 23470 23471 23472 23473 23474 23475 23476 23477 23478 23479 23480 23481 23482 23483 23484 23485 23486 23487 23488 23489 23490 23491 23492 23493 23494 23495 23496 23497 23498 23499 23500 23501 23502 23503 23504 23505 23506 23507 23508 23509 23510 23511 23512 23513 23514 23515 23516 23517 23518 23519 23520 23521 23522 23523 23524 23525 23526 23527 23528 23529 23530 23531 23532 23533 23534 23535 23536 23537 23538 23539 23540 23541 23542 23543 23544 23545 23546 23547 23548 23549 23550 23551 23552 23553 23554 23555 23556 23557 23558 23559 23560 23561 23562 23563 23564 23565 23566 23567 23568 23569 23570 23571 23572 23573 23574 23575 23576 23577 23578 23579 23580 23581 23582 23583 23584 23585 23586 23587 23588 23589 23590 23591 23592 23593 23594 23595 23596 23597 23598 23599 23600 23601 23602 23603 23604 23605 23606 23607 23608 23609 23610 23611 23612 23613 23614 23615 23616 23617 23618 23619 23620 23621 23622 23623 23624 23625 23626 23627 23628 23629 23630 23631 23632 23633 23634 23635 23636 23637 23638 23639 23640 23641 23642 23643 23644 23645 23646 23647 23648 23649 23650 23651 23652 23653 23654 23655 23656 23657 23658 23659 23660 23661 23662 23663 23664 23665 23666 23667 23668 23669 23670 23671 23672 23673 23674 23675 23676 23677 23678 23679 23680 23681 23682 23683 23684 23685 23686 23687 23688 23689 23690 23691 23692 23693 23694 23695 23696 23697 23698 23699 23700 23701 23702 23703 23704 23705 23706 23707 23708 23709 23710 23711 23712 23713 23714 23715 23716 23717 23718 23719 23720 23721 23722 23723 23724 23725 23726 23727 23728 23729 23730 23731 23732 23733 23734 23735 23736 23737 23738 23739 23740 23741 23742 23743 23744 23745 23746 23747 23748 23749 23750 23751 23752 23753 23754 23755 23756 23757 23758 23759 23760 23761 23762 23763 23764 23765 23766 23767 23768 23769 23770 23771 23772 23773 23774 23775 23776 23777 23778 23779 23780 23781 23782 23783 23784 23785 23786 23787 23788 23789 23790 23791 23792 23793 23794 23795 23796 23797 23798 23799 23800 23801 23802 23803 23804 23805 23806 23807 23808 23809 23810 23811 23812 23813 23814 23815 23816 23817 23818 23819 23820 23821 23822 23823 23824 23825 23826 23827 23828 23829 23830 23831 23832 23833 23834 23835 23836 23837 23838 23839 23840 23841 23842 23843 23844 23845 23846 23847 23848 23849 23850 23851 23852 23853 23854 23855 23856 23857 23858 23859 23860 23861 23862 23863 23864 23865 23866 23867 23868 23869 23870 23871 23872 23873 23874 23875 23876 23877 23878 23879 23880 23881 23882 23883 23884 23885 23886 23887 23888 23889 23890 23891 23892 23893 23894 23895 23896 23897 23898 23899 23900 23901 23902 23903 23904 23905 23906 23907 23908 23909 23910 23911 23912 23913 23914 23915 23916 23917 23918 23919 23920 23921 23922 23923 23924 23925 23926 23927 23928 23929 23930 23931 23932 23933 23934 23935 23936 23937 23938 23939 23940 23941 23942 23943 23944 23945 23946 23947 23948 23949 23950 23951 23952 23953 23954 23955 23956 23957 23958 23959 23960 23961 23962 23963 23964 23965 23966 23967 23968 23969 23970 23971 23972 23973 23974 23975 23976 23977 23978 23979 23980 23981 23982 23983 23984 23985 23986 23987 23988 23989 23990 23991 23992 23993 23994 23995 23996 23997 23998 23999 24000 24001 24002 24003 24004 24005 24006 24007 24008 24009 24010 24011 24012 24013 24014 24015 24016 24017 24018 24019 24020 24021 24022 24023 24024 24025 24026 24027 24028 24029 24030 24031 24032 24033 24034 24035 24036 24037 24038 24039 24040 24041 24042 24043 24044 24045 24046 24047 24048 24049 24050 24051 24052 24053 24054 24055 24056 24057 24058 24059 24060 24061 24062 24063 24064 24065 24066 24067 24068 24069 24070 24071 24072 24073 24074 24075 24076 24077 24078 24079 24080 24081 24082 24083 24084 24085 24086 24087 24088 24089 24090 24091 24092 24093 24094 24095 24096 24097 24098 24099 24100 24101 24102 24103 24104 24105 24106 24107 24108 24109 24110 24111 24112 24113 24114 24115 24116 24117 24118 24119 24120 24121 24122 24123 24124 24125 24126 24127 24128 24129 24130 24131 24132 24133 24134 24135 24136 24137 24138 24139 24140 24141 24142 24143 24144 24145 24146 24147 24148 24149 24150 24151 24152 24153 24154 24155 24156 24157 24158 24159 24160 24161 24162 24163 24164 24165 24166 24167 24168 24169 24170 24171 24172 24173 24174 24175 24176 24177 24178 24179 24180 24181 24182 24183 24184 24185 24186 24187 24188 24189 24190 24191 24192 24193 24194 24195 24196 24197 24198 24199 24200 24201 24202 24203 24204 24205 24206 24207 24208 24209 24210 24211 24212 24213 24214 24215 24216 24217 24218 24219 24220 24221 24222 24223 24224 24225 24226 24227 24228 24229 24230 24231 24232 24233 24234 24235 24236 24237 24238 24239 24240 24241 24242 24243 24244 24245 24246 24247 24248 24249 24250 24251 24252 24253 24254 24255 24256 24257 24258 24259 24260 24261 24262 24263 24264 24265 24266 24267 24268 24269 24270 24271 24272 24273 24274 24275 24276 24277 24278 24279 24280 24281 24282 24283 24284 24285 24286 24287 24288 24289 24290 24291 24292 24293 24294 24295 24296 24297 24298 24299 24300 24301 24302 24303 24304 24305 24306 24307 24308 24309 24310 24311 24312 24313 24314 24315 24316 24317 24318 24319 24320 24321 24322 24323 24324 24325 24326 24327 24328 24329 24330 24331 24332 24333 24334 24335 24336 24337 24338 24339 24340 24341 24342 24343 24344 24345 24346 24347 24348 24349 24350 24351 24352 24353 24354 24355 24356 24357 24358 24359 24360 24361 24362 24363 24364 24365 24366 24367 24368 24369 24370 24371 24372 24373 24374 24375 24376 24377 24378 24379 24380 24381 24382 24383 24384 24385 24386 24387 24388 24389 24390 24391 24392 24393 24394 24395 24396 24397 24398 24399 24400 24401 24402 24403 24404 24405 24406 24407 24408 24409 24410 24411 24412 24413 24414 24415 24416 24417 24418 24419 24420 24421 24422 24423 24424 24425 24426 24427 24428 24429 24430 24431 24432 24433 24434 24435 24436 24437 24438 24439 24440 24441 24442 24443 24444 24445 24446 24447 24448 24449 24450 24451 24452 24453 24454 24455 24456 24457 24458 24459 24460 24461 24462 24463 24464 24465 24466 24467 24468 24469 24470 24471 24472 24473 24474 24475 24476 24477 24478 24479 24480 24481 24482 24483 24484 24485 24486 24487 24488 24489 24490 24491 24492 24493 24494 24495 24496 24497 24498 24499 24500 24501 24502 24503 24504 24505 24506 24507 24508 24509 24510 24511 24512 24513 24514 24515 24516 24517 24518 24519 24520 24521 24522 24523 24524 24525 24526 24527 24528 24529 24530 24531 24532 24533 24534 24535 24536 24537 24538 24539 24540 24541 24542 24543 24544 24545 24546 24547 24548 24549 24550 24551 24552 24553 24554 24555 24556 24557 24558 24559 24560 24561 24562 24563 24564 24565 24566 24567 24568 24569 24570 24571 24572 24573 24574 24575 24576 24577 24578 24579 24580 24581 24582 24583 24584 24585 24586 24587 24588 24589 24590 24591 24592 24593 24594 24595 24596 24597 24598 24599 24600 24601 24602 24603 24604 24605 24606 24607 24608 24609 24610 24611 24612 24613 24614 24615 24616 24617 24618 24619 24620 24621 24622 24623 24624 24625 24626 24627 24628 24629 24630 24631 24632 24633 24634 24635 24636 24637 24638 24639 24640 24641 24642 24643 24644 24645 24646 24647 24648 24649 24650 24651 24652 24653 24654 24655 24656 24657 24658 24659 24660 24661 24662 24663 24664 24665 24666 24667 24668 24669 24670 24671 24672 24673 24674 24675 24676 24677 24678 24679 24680 24681 24682 24683 24684 24685 24686 24687 24688 24689 24690 24691 24692 24693 24694 24695 24696 24697 24698 24699 24700 24701 24702 24703 24704 24705 24706 24707 24708 24709 24710 24711 24712 24713 24714 24715 24716 24717 24718 24719 24720 24721 24722 24723 24724 24725 24726 24727 24728 24729 24730 24731 24732 24733 24734 24735 24736 24737 24738 24739 24740 24741 24742 24743 24744 24745 24746 24747 24748 24749 24750 24751 24752 24753 24754 24755 24756 24757 24758 24759 24760 24761 24762 24763 24764 24765 24766 24767 24768 24769 24770 24771 24772 24773 24774 24775 24776 24777 24778 24779 24780 24781 24782 24783 24784 24785 24786 24787 24788 24789 24790 24791 24792 24793 24794 24795 24796 24797 24798 24799 24800 24801 24802 24803 24804 24805 24806 24807 24808 24809 24810 24811 24812 24813 24814 24815 24816 24817 24818 24819 24820 24821 24822 24823 24824 24825 24826 24827 24828 24829 24830 24831 24832 24833 24834 24835 24836 24837 24838 24839 24840 24841 24842 24843 24844 24845 24846 24847 24848 24849 24850 24851 24852 24853 24854 24855 24856 24857 24858 24859 24860 24861 24862 24863 24864 24865 24866 24867 24868 24869 24870 24871 24872 24873 24874 24875 24876 24877 24878 24879 24880 24881 24882 24883 24884 24885 24886 24887 24888 24889 24890 24891 24892 24893 24894 24895 24896 24897 24898 24899 24900 24901 24902 24903 24904 24905 24906 24907 24908 24909 24910 24911 24912 24913 24914 24915 24916 24917 24918 24919 24920 24921 24922 24923 24924 24925 24926 24927 24928 24929 24930 24931 24932 24933 24934 24935 24936 24937 24938 24939 24940 24941 24942 24943 24944 24945 24946 24947 24948 24949 24950 24951 24952 24953 24954 24955 24956 24957 24958 24959 24960 24961 24962 24963 24964 24965 24966 24967 24968 24969 24970 24971 24972 24973 24974 24975 24976 24977 24978 24979 24980 24981 24982 24983 24984 24985 24986 24987 24988 24989 24990 24991 24992 24993 24994 24995 24996 24997 24998 24999 25000 25001 25002 25003 25004 25005 25006 25007 25008 25009 25010 25011 25012 25013 25014 25015 25016 25017 25018 25019 25020 25021 25022 25023 25024 25025 25026 25027 25028 25029 25030 25031 25032 25033 25034 25035 25036 25037 25038 25039 25040 25041 25042 25043 25044 25045 25046 25047 25048 25049 25050 25051 25052 25053 25054 25055 25056 25057 25058 25059 25060 25061 25062 25063 25064 25065 25066 25067 25068 25069 25070 25071 25072 25073 25074 25075 25076 25077 25078 25079 25080 25081 25082 25083 25084 25085 25086 25087 25088 25089 25090 25091 25092 25093 25094 25095 25096 25097 25098 25099 25100 25101 25102 25103 25104 25105 25106 25107 25108 25109 25110 25111 25112 25113 25114 25115 25116 25117 25118 25119 25120 25121 25122 25123 25124 25125 25126 25127 25128 25129 25130 25131 25132 25133 25134 25135 25136 25137 25138 25139 25140 25141 25142 25143 25144 25145 25146 25147 25148 25149 25150 25151 25152 25153 25154 25155 25156 25157 25158 25159 25160 25161 25162 25163 25164 25165 25166 25167 25168 25169 25170 25171 25172 25173 25174 25175 25176 25177 25178 25179 25180 25181 25182 25183 25184 25185 25186 25187 25188 25189 25190 25191 25192 25193 25194 25195 25196 25197 25198 25199 25200 25201 25202 25203 25204 25205 25206 25207 25208 25209 25210 25211 25212 25213 25214 25215 25216 25217 25218 25219 25220 25221 25222 25223 25224 25225 25226 25227 25228 25229 25230 25231 25232 25233 25234 25235 25236 25237 25238 25239 25240 25241 25242 25243 25244 25245 25246 25247 25248 25249 25250 25251 25252 25253 25254 25255 25256 25257 25258 25259 25260 25261 25262 25263 25264 25265 25266 25267 25268 25269 25270 25271 25272 25273 25274 25275 25276 25277 25278 25279 25280 25281 25282 25283 25284 25285 25286 25287 25288 25289 25290 25291 25292 25293 25294 25295 25296 25297 25298 25299 25300 25301 25302 25303 25304 25305 25306 25307 25308 25309 25310 25311 25312 25313 25314 25315 25316 25317 25318 25319 25320 25321 25322 25323 25324 25325 25326 25327 25328 25329 25330 25331 25332 25333 25334 25335 25336 25337 25338 25339 25340 25341 25342 25343 25344 25345 25346 25347 25348 25349 25350 25351 25352 25353 25354 25355 25356 25357 25358 25359 25360 25361 25362 25363 25364 25365 25366 25367 25368 25369 25370 25371 25372 25373 25374 25375 25376 25377 25378 25379 25380 25381 25382 25383 25384 25385 25386 25387 25388 25389 25390 25391 25392 25393 25394 25395 25396 25397 25398 25399 25400 25401 25402 25403 25404 25405 25406 25407 25408 25409 25410 25411 25412 25413 25414 25415 25416 25417 25418 25419 25420 25421 25422 25423 25424 25425 25426 25427 25428 25429 25430 25431 25432 25433 25434 25435 25436 25437 25438 25439 25440 25441 25442 25443 25444 25445 25446 25447 25448 25449 25450 25451 25452 25453 25454 25455 25456 25457 25458 25459 25460 25461 25462 25463 25464 25465 25466 25467 25468 25469 25470 25471 25472 25473 25474 25475 25476 25477 25478 25479 25480 25481 25482 25483 25484 25485 25486 25487 25488 25489 25490 25491 25492 25493 25494 25495 25496 25497 25498 25499 25500 25501 25502 25503 25504 25505 25506 25507 25508 25509 25510 25511 25512 25513 25514 25515 25516 25517 25518 25519 25520 25521 25522 25523 25524 25525 25526 25527 25528 25529 25530 25531 25532 25533 25534 25535 25536 25537 25538 25539 25540 25541 25542 25543 25544 25545 25546 25547 25548 25549 25550 25551 25552 25553 25554 25555 25556 25557 25558 25559 25560 25561 25562 25563 25564 25565 25566 25567 25568 25569 25570 25571 25572 25573 25574 25575 25576 25577 25578 25579 25580 25581 25582 25583 25584 25585 25586 25587 25588 25589 25590 25591 25592 25593 25594 25595 25596 25597 25598 25599 25600 25601 25602 25603 25604 25605 25606 25607 25608 25609 25610 25611 25612 25613 25614 25615 25616 25617 25618 25619 25620 25621 25622 25623 25624 25625 25626 25627 25628 25629 25630 25631 25632 25633 25634 25635 25636 25637 25638 25639 25640 25641 25642 25643 25644 25645 25646 25647 25648 25649 25650 25651 25652 25653 25654 25655 25656 25657 25658 25659 25660 25661 25662 25663 25664 25665 25666 25667 25668 25669 25670 25671 25672 25673 25674 25675 25676 25677 25678 25679 25680 25681 25682 25683 25684 25685 25686 25687 25688 25689 25690 25691 25692 25693 25694 25695 25696 25697 25698 25699 25700 25701 25702 25703 25704 25705 25706 25707 25708 25709 25710 25711 25712 25713 25714 25715 25716 25717 25718 25719 25720 25721 25722 25723 25724 25725 25726 25727 25728 25729 25730 25731 25732 25733 25734 25735 25736 25737 25738 25739 25740 25741 25742 25743 25744 25745 25746 25747 25748 25749 25750 25751 25752 25753 25754 25755 25756 25757 25758 25759 25760 25761 25762 25763 25764 25765 25766 25767 25768 25769 25770 25771 25772 25773 25774 25775 25776 25777 25778 25779 25780 25781 25782 25783 25784 25785 25786 25787 25788 25789 25790 25791 25792 25793 25794 25795 25796 25797 25798 25799 25800 25801 25802 25803 25804 25805 25806 25807 25808 25809 25810 25811 25812 25813 25814 25815 25816 25817 25818 25819 25820 25821 25822 25823 25824 25825 25826 25827 25828 25829 25830 25831 25832 25833 25834 25835 25836 25837 25838 25839 25840 25841 25842 25843 25844 25845 25846 25847 25848 25849 25850 25851 25852 25853 25854 25855 25856 25857 25858 25859 25860 25861 25862 25863 25864 25865 25866 25867 25868 25869 25870 25871 25872 25873 25874 25875 25876 25877 25878 25879 25880 25881 25882 25883 25884 25885 25886 25887 25888 25889 25890 25891 25892 25893 25894 25895 25896 25897 25898 25899 25900 25901 25902 25903 25904 25905 25906 25907 25908 25909 25910 25911 25912 25913 25914 25915 25916 25917 25918 25919 25920 25921 25922 25923 25924 25925 25926 25927 25928 25929 25930 25931 25932 25933 25934 25935 25936 25937 25938 25939 25940 25941 25942 25943 25944 25945 25946 25947 25948 25949 25950 25951 25952 25953 25954 25955 25956 25957 25958 25959 25960 25961 25962 25963 25964 25965 25966 25967 25968 25969 25970 25971 25972 25973 25974 25975 25976 25977 25978 25979 25980 25981 25982 25983 25984 25985 25986 25987 25988 25989 25990 25991 25992 25993 25994 25995 25996 25997 25998 25999 26000 26001 26002 26003 26004 26005 26006 26007 26008 26009 26010 26011 26012 26013 26014 26015 26016 26017 26018 26019 26020 26021 26022 26023 26024 26025 26026 26027 26028 26029 26030 26031 26032 26033 26034 26035 26036 26037 26038 26039 26040 26041 26042 26043 26044 26045 26046 26047 26048 26049 26050 26051 26052 26053 26054 26055 26056 26057 26058 26059 26060 26061 26062 26063 26064 26065 26066 26067 26068 26069 26070 26071 26072 26073 26074 26075 26076 26077 26078 26079 26080 26081 26082 26083 26084 26085 26086 26087 26088 26089 26090 26091 26092 26093 26094 26095 26096 26097 26098 26099 26100 26101 26102 26103 26104 26105 26106 26107 26108 26109 26110 26111 26112 26113 26114 26115 26116 26117 26118 26119 26120 26121 26122 26123 26124 26125 26126 26127 26128 26129 26130 26131 26132 26133 26134 26135 26136 26137 26138 26139 26140 26141 26142 26143 26144 26145 26146 26147 26148 26149 26150 26151 26152 26153 26154 26155 26156 26157 26158 26159 26160 26161 26162 26163 26164 26165 26166 26167 26168 26169 26170 26171 26172 26173 26174 26175 26176 26177 26178 26179 26180 26181 26182 26183 26184 26185 26186 26187 26188 26189 26190 26191 26192 26193 26194 26195 26196 26197 26198 26199 26200 26201 26202 26203 26204 26205 26206 26207 26208 26209 26210 26211 26212 26213 26214 26215 26216 26217 26218 26219 26220 26221 26222 26223 26224 26225 26226 26227 26228 26229 26230 26231 26232 26233 26234 26235 26236 26237 26238 26239 26240 26241 26242 26243 26244 26245 26246 26247 26248 26249 26250 26251 26252 26253 26254 26255 26256 26257 26258 26259 26260 26261 26262 26263 26264 26265 26266 26267 26268 26269 26270 26271 26272 26273 26274 26275 26276 26277 26278 26279 26280 26281 26282 26283 26284 26285 26286 26287 26288 26289 26290 26291 26292 26293 26294 26295 26296 26297 26298 26299 26300 26301 26302 26303 26304 26305 26306 26307 26308 26309 26310 26311 26312 26313 26314 26315 26316 26317 26318 26319 26320 26321 26322 26323 26324 26325 26326 26327 26328 26329 26330 26331 26332 26333 26334 26335 26336 26337 26338 26339 26340 26341 26342 26343 26344 26345 26346 26347 26348 26349 26350 26351 26352 26353 26354 26355 26356 26357 26358 26359 26360 26361 26362 26363 26364 26365 26366 26367 26368 26369 26370 26371 26372 26373 26374 26375 26376 26377 26378 26379 26380 26381 26382 26383 26384 26385 26386 26387 26388 26389 26390 26391 26392 26393 26394 26395 26396 26397 26398 26399 26400 26401 26402 26403 26404 26405 26406 26407 26408 26409 26410 26411 26412 26413 26414 26415 26416 26417 26418 26419 26420 26421 26422 26423 26424 26425 26426 26427 26428 26429 26430 26431 26432 26433 26434 26435 26436 26437 26438 26439 26440 26441 26442 26443 26444 26445 26446 26447 26448 26449 26450 26451 26452 26453 26454 26455 26456 26457 26458 26459 26460 26461 26462 26463 26464 26465 26466 26467 26468 26469 26470 26471 26472 26473 26474 26475 26476 26477 26478 26479 26480 26481 26482 26483 26484 26485 26486 26487 26488 26489 26490 26491 26492 26493 26494 26495 26496 26497 26498 26499 26500 26501 26502 26503 26504 26505 26506 26507 26508 26509 26510 26511 26512 26513 26514 26515 26516 26517 26518 26519 26520 26521 26522 26523 26524 26525 26526 26527 26528 26529 26530 26531 26532 26533 26534 26535 26536 26537 26538 26539 26540 26541 26542 26543 26544 26545 26546 26547 26548 26549 26550 26551 26552 26553 26554 26555 26556 26557 26558 26559 26560 26561 26562 26563 26564 26565 26566 26567 26568 26569 26570 26571 26572 26573 26574 26575 26576 26577 26578 26579 26580 26581 26582 26583 26584 26585 26586 26587 26588 26589 26590 26591 26592 26593 26594 26595 26596 26597 26598 26599 26600 26601 26602 26603 26604 26605 26606 26607 26608 26609 26610 26611 26612 26613 26614 26615 26616 26617 26618 26619 26620 26621 26622 26623 26624 26625 26626 26627 26628 26629 26630 26631 26632 26633 26634 26635 26636 26637 26638 26639 26640 26641 26642 26643 26644 26645 26646 26647 26648 26649 26650 26651 26652 26653 26654 26655 26656 26657 26658 26659 26660 26661 26662 26663 26664 26665 26666 26667 26668 26669 26670 26671 26672 26673 26674 26675 26676 26677 26678 26679 26680 26681 26682 26683 26684 26685 26686 26687 26688 26689 26690 26691 26692 26693 26694 26695 26696 26697 26698 26699 26700 26701 26702 26703 26704 26705 26706 26707 26708 26709 26710 26711 26712 26713 26714 26715 26716 26717 26718 26719 26720 26721 26722 26723 26724 26725 26726 26727 26728 26729 26730 26731 26732 26733 26734 26735 26736 26737 26738 26739 26740 26741 26742 26743 26744 26745 26746 26747 26748 26749 26750 26751 26752 26753 26754 26755 26756 26757 26758 26759 26760 26761 26762 26763 26764 26765 26766 26767 26768 26769 26770 26771 26772 26773 26774 26775 26776 26777 26778 26779 26780 26781 26782 26783 26784 26785 26786 26787 26788 26789 26790 26791 26792 26793 26794 26795 26796 26797 26798 26799 26800 26801 26802 26803 26804 26805 26806 26807 26808 26809 26810 26811 26812 26813 26814 26815 26816 26817 26818 26819 26820 26821 26822 26823 26824 26825 26826 26827 26828 26829 26830 26831 26832 26833 26834 26835 26836 26837 26838 26839 26840 26841 26842 26843 26844 26845 26846 26847 26848 26849 26850 26851 26852 26853 26854 26855 26856 26857 26858 26859 26860 26861 26862 26863 26864 26865 26866 26867 26868 26869 26870 26871 26872 26873 26874 26875 26876 26877 26878 26879 26880 26881 26882 26883 26884 26885 26886 26887 26888 26889 26890 26891 26892 26893 26894 26895 26896 26897 26898 26899 26900 26901 26902 26903 26904 26905 26906 26907 26908 26909 26910 26911 26912 26913 26914 26915 26916 26917 26918 26919 26920 26921 26922 26923 26924 26925 26926 26927 26928 26929 26930 26931 26932 26933 26934 26935 26936 26937 26938 26939 26940 26941 26942 26943 26944 26945 26946 26947 26948 26949 26950 26951 26952 26953 26954 26955 26956 26957 26958 26959 26960 26961 26962 26963 26964 26965 26966 26967 26968 26969 26970 26971 26972 26973 26974 26975 26976 26977 26978 26979 26980 26981 26982 26983 26984 26985 26986 26987 26988 26989 26990 26991 26992 26993 26994 26995 26996 26997 26998 26999 27000 27001 27002 27003 27004 27005 27006 27007 27008 27009 27010 27011 27012 27013 27014 27015 27016 27017 27018 27019 27020 27021 27022 27023 27024 27025 27026 27027 27028 27029 27030 27031 27032 27033 27034 27035 27036 27037 27038 27039 27040 27041 27042 27043 27044 27045 27046 27047 27048 27049 27050 27051 27052 27053 27054 27055 27056 27057 27058 27059 27060 27061 27062 27063 27064 27065 27066 27067 27068 27069 27070 27071 27072 27073 27074 27075 27076 27077 27078 27079 27080 27081 27082 27083 27084 27085 27086 27087 27088 27089 27090 27091 27092 27093 27094 27095 27096 27097 27098 27099 27100 27101 27102 27103 27104 27105 27106 27107 27108 27109 27110 27111 27112 27113 27114 27115 27116 27117 27118 27119 27120 27121 27122 27123 27124 27125 27126 27127 27128 27129 27130 27131 27132 27133 27134 27135 27136 27137 27138 27139 27140 27141 27142 27143 27144 27145 27146 27147 27148 27149 27150 27151 27152 27153 27154 27155 27156 27157 27158 27159 27160 27161 27162 27163 27164 27165 27166 27167 27168 27169 27170 27171 27172 27173 27174 27175 27176 27177 27178 27179 27180 27181 27182 27183 27184 27185 27186 27187 27188 27189 27190 27191 27192 27193 27194 27195 27196 27197 27198 27199 27200 27201 27202 27203 27204 27205 27206 27207 27208 27209 27210 27211 27212 27213 27214 27215 27216 27217 27218 27219 27220 27221 27222 27223 27224 27225 27226 27227 27228 27229 27230 27231 27232 27233 27234 27235 27236 27237 27238 27239 27240 27241 27242 27243 27244 27245 27246 27247 27248 27249 27250 27251 27252 27253 27254 27255 27256 27257 27258 27259 27260 27261 27262 27263 27264 27265 27266 27267 27268 27269 27270 27271 27272 27273 27274 27275 27276 27277 27278 27279 27280 27281 27282 27283 27284 27285 27286 27287 27288 27289 27290 27291 27292 27293 27294 27295 27296 27297 27298 27299 27300 27301 27302 27303 27304 27305 27306 27307 27308 27309 27310 27311 27312 27313 27314 27315 27316 27317 27318 27319 27320 27321 27322 27323 27324 27325 27326 27327 27328 27329 27330 27331 27332 27333 27334 27335 27336 27337 27338 27339 27340 27341 27342 27343 27344 27345 27346 27347 27348 27349 27350 27351 27352 27353 27354 27355 27356 27357 27358 27359 27360 27361 27362 27363 27364 27365 27366 27367 27368 27369 27370 27371 27372 27373 27374 27375 27376 27377 27378 27379 27380 27381 27382 27383 27384 27385 27386 27387 27388 27389 27390 27391 27392 27393 27394 27395 27396 27397 27398 27399 27400 27401 27402 27403 27404 27405 27406 27407 27408 27409 27410 27411 27412 27413 27414 27415 27416 27417 27418 27419 27420 27421 27422 27423 27424 27425 27426 27427 27428 27429 27430 27431 27432 27433 27434 27435 27436 27437 27438 27439 27440 27441 27442 27443 27444 27445 27446 27447 27448 27449 27450 27451 27452 27453 27454 27455 27456 27457 27458 27459 27460 27461 27462 27463 27464 27465 27466 27467 27468 27469 27470 27471 27472 27473 27474 27475 27476 27477 27478 27479 27480 27481 27482 27483 27484 27485 27486 27487 27488 27489 27490 27491 27492 27493 27494 27495 27496 27497 27498 27499 27500 27501 27502 27503 27504 27505 27506 27507 27508 27509 27510 27511 27512 27513 27514 27515 27516 27517 27518 27519 27520 27521 27522 27523 27524 27525 27526 27527 27528 27529 27530 27531 27532 27533 27534 27535 27536 27537 27538 27539 27540 27541 27542 27543 27544 27545 27546 27547 27548 27549 27550 27551 27552 27553 27554 27555 27556 27557 27558 27559 27560 27561 27562 27563 27564 27565 27566 27567 27568 27569 27570 27571 27572 27573 27574 27575 27576 27577 27578 27579 27580 27581 27582 27583 27584 27585 27586 27587 27588 27589 27590 27591 27592 27593 27594 27595 27596 27597 27598 27599 27600 27601 27602 27603 27604 27605 27606 27607 27608 27609 27610 27611 27612 27613 27614 27615 27616 27617 27618 27619 27620 27621 27622 27623 27624 27625 27626 27627 27628 27629 27630 27631 27632 27633 27634 27635 27636 27637 27638 27639 27640 27641 27642 27643 27644 27645 27646 27647 27648 27649 27650 27651 27652 27653 27654 27655 27656 27657 27658 27659 27660 27661 27662 27663 27664 27665 27666 27667 27668 27669 27670 27671 27672 27673 27674 27675 27676 27677 27678 27679 27680 27681 27682 27683 27684 27685 27686 27687 27688 27689 27690 27691 27692 27693 27694 27695 27696 27697 27698 27699 27700 27701 27702 27703 27704 27705 27706 27707 27708 27709 27710 27711 27712 27713 27714 27715 27716 27717 27718 27719 27720 27721 27722 27723 27724 27725 27726 27727 27728 27729 27730 27731 27732 27733 27734 27735 27736 27737 27738 27739 27740 27741 27742 27743 27744 27745 27746 27747 27748 27749 27750 27751 27752 27753 27754 27755 27756 27757 27758 27759 27760 27761 27762 27763 27764 27765 27766 27767 27768 27769 27770 27771 27772 27773 27774 27775 27776 27777 27778 27779 27780 27781 27782 27783 27784 27785 27786 27787 27788 27789 27790 27791 27792 27793 27794 27795 27796 27797 27798 27799 27800 27801 27802 27803 27804 27805 27806 27807 27808 27809 27810 27811 27812 27813 27814 27815 27816 27817 27818 27819 27820 27821 27822 27823 27824 27825 27826 27827 27828 27829 27830 27831 27832 27833 27834 27835 27836 27837 27838 27839 27840 27841 27842 27843 27844 27845 27846 27847 27848 27849 27850 27851 27852 27853 27854 27855 27856 27857 27858 27859 27860 27861 27862 27863 27864 27865 27866 27867 27868 27869 27870 27871 27872 27873 27874 27875 27876 27877 27878 27879 27880 27881 27882 27883 27884 27885 27886 27887 27888 27889 27890 27891 27892 27893 27894 27895 27896 27897 27898 27899 27900 27901 27902 27903 27904 27905 27906 27907 27908 27909 27910 27911 27912 27913 27914 27915 27916 27917 27918 27919 27920 27921 27922 27923 27924 27925 27926 27927 27928 27929 27930 27931 27932 27933 27934 27935 27936 27937 27938 27939 27940 27941 27942 27943 27944 27945 27946 27947 27948 27949 27950 27951 27952 27953 27954 27955 27956 27957 27958 27959 27960 27961 27962 27963 27964 27965 27966 27967 27968 27969 27970 27971 27972 27973 27974 27975 27976 27977 27978 27979 27980 27981 27982 27983 27984 27985 27986 27987 27988 27989 27990 27991 27992 27993 27994 27995 27996 27997 27998 27999 28000 28001 28002 28003 28004 28005 28006 28007 28008 28009 28010 28011 28012 28013 28014 28015 28016 28017 28018 28019 28020 28021 28022 28023 28024 28025 28026 28027 28028 28029 28030 28031 28032 28033 28034 28035 28036 28037 28038 28039 28040 28041 28042 28043 28044 28045 28046 28047 28048 28049 28050 28051 28052 28053 28054 28055 28056 28057 28058 28059 28060 28061 28062 28063 28064 28065 28066 28067 28068 28069 28070 28071 28072 28073 28074 28075 28076 28077 28078 28079 28080 28081 28082 28083 28084 28085 28086 28087 28088 28089 28090 28091 28092 28093 28094 28095 28096 28097 28098 28099 28100 28101 28102 28103 28104 28105 28106 28107 28108 28109 28110 28111 28112 28113 28114 28115 28116 28117 28118 28119 28120 28121 28122 28123 28124 28125 28126 28127 28128 28129 28130 28131 28132 28133 28134 28135 28136 28137 28138 28139 28140 28141 28142 28143 28144 28145 28146 28147 28148 28149 28150 28151 28152 28153 28154 28155 28156 28157 28158 28159 28160 28161 28162 28163 28164 28165 28166 28167 28168 28169 28170 28171 28172 28173 28174 28175 28176 28177 28178 28179 28180 28181 28182 28183 28184 28185 28186 28187 28188 28189 28190 28191 28192 28193 28194 28195 28196 28197 28198 28199 28200 28201 28202 28203 28204 28205 28206 28207 28208 28209 28210 28211 28212 28213 28214 28215 28216 28217 28218 28219 28220 28221 28222 28223 28224 28225 28226 28227 28228 28229 28230 28231 28232 28233 28234 28235 28236 28237 28238 28239 28240 28241 28242 28243 28244 28245 28246 28247 28248 28249 28250 28251 28252 28253 28254 28255 28256 28257 28258 28259 28260 28261 28262 28263 28264 28265 28266 28267 28268 28269 28270 28271 28272 28273 28274 28275 28276 28277 28278 28279 28280 28281 28282 28283 28284 28285 28286 28287 28288 28289 28290 28291 28292 28293 28294 28295 28296 28297 28298 28299 28300 28301 28302 28303 28304 28305 28306 28307 28308 28309 28310 28311 28312 28313 28314 28315 28316 28317 28318 28319 28320 28321 28322 28323 28324 28325 28326 28327 28328 28329 28330 28331 28332 28333 28334 28335 28336 28337 28338 28339 28340 28341 28342 28343 28344 28345 28346 28347 28348 28349 28350 28351 28352 28353 28354 28355 28356 28357 28358 28359 28360 28361 28362 28363 28364 28365 28366 28367 28368 28369 28370 28371 28372 28373 28374 28375 28376 28377 28378 28379 28380 28381 28382 28383 28384 28385 28386 28387 28388 28389 28390 28391 28392 28393 28394 28395 28396 28397 28398 28399 28400 28401 28402 28403 28404 28405 28406 28407 28408 28409 28410 28411 28412 28413 28414 28415 28416 28417 28418 28419 28420 28421 28422 28423 28424 28425 28426 28427 28428 28429 28430 28431 28432 28433 28434 28435 28436 28437 28438 28439 28440 28441 28442 28443 28444 28445 28446 28447 28448 28449 28450 28451 28452 28453 28454 28455 28456 28457 28458 28459 28460 28461 28462 28463 28464 28465 28466 28467 28468 28469 28470 28471 28472 28473 28474 28475 28476 28477 28478 28479 28480 28481 28482 28483 28484 28485 28486 28487 28488 28489 28490 28491 28492 28493 28494 28495 28496 28497 28498 28499 28500 28501 28502 28503 28504 28505 28506 28507 28508 28509 28510 28511 28512 28513 28514 28515 28516 28517 28518 28519 28520 28521 28522 28523 28524 28525 28526 28527 28528 28529 28530 28531 28532 28533 28534 28535 28536 28537 28538 28539 28540 28541 28542 28543 28544 28545 28546 28547 28548 28549 28550 28551 28552 28553 28554 28555 28556 28557 28558 28559 28560 28561 28562 28563 28564 28565 28566 28567 28568 28569 28570 28571 28572 28573 28574 28575 28576 28577 28578 28579 28580 28581 28582 28583 28584 28585 28586 28587 28588 28589 28590 28591 28592 28593 28594 28595 28596 28597 28598 28599 28600 28601 28602 28603 28604 28605 28606 28607 28608 28609 28610 28611 28612 28613 28614 28615 28616 28617 28618 28619 28620 28621 28622 28623 28624 28625 28626 28627 28628 28629 28630 28631 28632 28633 28634 28635 28636 28637 28638 28639 28640 28641 28642 28643 28644 28645 28646 28647 28648 28649 28650 28651 28652 28653 28654 28655 28656 28657 28658 28659 28660 28661 28662 28663 28664 28665 28666 28667 28668 28669 28670 28671 28672 28673 28674 28675 28676 28677 28678 28679 28680 28681 28682 28683 28684 28685 28686 28687 28688 28689 28690 28691 28692 28693 28694 28695 28696 28697 28698 28699 28700 28701 28702 28703 28704 28705 28706 28707 28708 28709 28710 28711 28712 28713 28714 28715 28716 28717 28718 28719 28720 28721 28722 28723 28724 28725 28726 28727 28728 28729 28730 28731 28732 28733 28734 28735 28736 28737 28738 28739 28740 28741 28742 28743 28744 28745 28746 28747 28748 28749 28750 28751 28752 28753 28754 28755 28756 28757 28758 28759 28760 28761 28762 28763 28764 28765 28766 28767 28768 28769 28770 28771 28772 28773 28774 28775 28776 28777 28778 28779 28780 28781 28782 28783 28784 28785 28786 28787 28788 28789 28790 28791 28792 28793 28794 28795 28796 28797 28798 28799 28800 28801 28802 28803 28804 28805 28806 28807 28808 28809 28810 28811 28812 28813 28814 28815 28816 28817 28818 28819 28820 28821 28822 28823 28824 28825 28826 28827 28828 28829 28830 28831 28832 28833 28834 28835 28836 28837 28838 28839 28840 28841 28842 28843 28844 28845 28846 28847 28848 28849 28850 28851 28852 28853 28854 28855 28856 28857 28858 28859 28860 28861 28862 28863 28864 28865 28866 28867 28868 28869 28870 28871 28872 28873 28874 28875 28876 28877 28878 28879 28880 28881 28882 28883 28884 28885 28886 28887 28888 28889 28890 28891 28892 28893 28894 28895 28896 28897 28898 28899 28900 28901 28902 28903 28904 28905 28906 28907 28908 28909 28910 28911 28912 28913 28914 28915 28916 28917 28918 28919 28920 28921 28922 28923 28924 28925 28926 28927 28928 28929 28930 28931 28932 28933 28934 28935 28936 28937 28938 28939 28940 28941 28942 28943 28944 28945 28946 28947 28948 28949 28950 28951 28952 28953 28954 28955 28956 28957 28958 28959 28960 28961 28962 28963 28964 28965 28966 28967 28968 28969 28970 28971 28972 28973 28974 28975 28976 28977 28978 28979 28980 28981 28982 28983 28984 28985 28986 28987 28988 28989 28990 28991 28992 28993 28994 28995 28996 28997 28998 28999 29000 29001 29002 29003 29004 29005 29006 29007 29008 29009 29010 29011 29012 29013 29014 29015 29016 29017 29018 29019 29020 29021 29022 29023 29024 29025 29026 29027 29028 29029 29030 29031 29032 29033 29034 29035 29036 29037 29038 29039 29040 29041 29042 29043 29044 29045 29046 29047 29048 29049 29050 29051 29052 29053 29054 29055 29056 29057 29058 29059 29060 29061 29062 29063 29064 29065 29066 29067 29068 29069 29070 29071 29072 29073 29074 29075 29076 29077 29078 29079 29080 29081 29082 29083 29084 29085 29086 29087 29088 29089 29090 29091 29092 29093 29094 29095 29096 29097 29098 29099 29100 29101 29102 29103 29104 29105 29106 29107 29108 29109 29110 29111 29112 29113 29114 29115 29116 29117 29118 29119 29120 29121 29122 29123 29124 29125 29126 29127 29128 29129 29130 29131 29132 29133 29134 29135 29136 29137 29138 29139 29140 29141 29142 29143 29144 29145 29146 29147 29148 29149 29150 29151 29152 29153 29154 29155 29156 29157 29158 29159 29160 29161 29162 29163 29164 29165 29166 29167 29168 29169 29170 29171 29172 29173 29174 29175 29176 29177 29178 29179 29180 29181 29182 29183 29184 29185 29186 29187 29188 29189 29190 29191 29192 29193 29194 29195 29196 29197 29198 29199 29200 29201 29202 29203 29204 29205 29206 29207 29208 29209 29210 29211 29212 29213 29214 29215 29216 29217 29218 29219 29220 29221 29222 29223 29224 29225 29226 29227 29228 29229 29230 29231 29232 29233 29234 29235 29236 29237 29238 29239 29240 29241 29242 29243 29244 29245 29246 29247 29248 29249 29250 29251 29252 29253 29254 29255 29256 29257 29258 29259 29260 29261 29262 29263 29264 29265 29266 29267 29268 29269 29270 29271 29272 29273 29274 29275 29276 29277 29278 29279 29280 29281 29282 29283 29284 29285 29286 29287 29288 29289 29290 29291 29292 29293 29294 29295 29296 29297 29298 29299 29300 29301 29302 29303 29304 29305 29306 29307 29308 29309 29310 29311 29312 29313 29314 29315 29316 29317 29318 29319 29320 29321 29322 29323 29324 29325 29326 29327 29328 29329 29330 29331 29332 29333 29334 29335 29336 29337 29338 29339 29340 29341 29342 29343 29344 29345 29346 29347 29348 29349 29350 29351 29352 29353 29354 29355 29356 29357 29358 29359 29360 29361 29362 29363 29364 29365 29366 29367 29368 29369 29370 29371 29372 29373 29374 29375 29376 29377 29378 29379 29380 29381 29382 29383 29384 29385 29386 29387 29388 29389 29390 29391 29392 29393 29394 29395 29396 29397 29398 29399 29400 29401 29402 29403 29404 29405 29406 29407 29408 29409 29410 29411 29412 29413 29414 29415 29416 29417 29418 29419 29420 29421 29422 29423 29424 29425 29426 29427 29428 29429 29430 29431 29432 29433 29434 29435 29436 29437 29438 29439 29440 29441 29442 29443 29444 29445 29446 29447 29448 29449 29450 29451 29452 29453 29454 29455 29456 29457 29458 29459 29460 29461 29462 29463 29464 29465 29466 29467 29468 29469 29470 29471 29472 29473 29474 29475 29476 29477 29478 29479 29480 29481 29482 29483 29484 29485 29486 29487 29488 29489 29490 29491 29492 29493 29494 29495 29496 29497 29498 29499 29500 29501 29502 29503 29504 29505 29506 29507 29508 29509 29510 29511 29512 29513 29514 29515 29516 29517 29518 29519 29520 29521 29522 29523 29524 29525 29526 29527 29528 29529 29530 29531 29532 29533 29534 29535 29536 29537 29538 29539 29540 29541 29542 29543 29544 29545 29546 29547 29548 29549 29550 29551 29552 29553 29554 29555 29556 29557 29558 29559 29560 29561 29562 29563 29564 29565 29566 29567 29568 29569 29570 29571 29572 29573 29574 29575 29576 29577 29578 29579 29580 29581 29582 29583 29584 29585 29586 29587 29588 29589 29590 29591 29592 29593 29594 29595 29596 29597 29598 29599 29600 29601 29602 29603 29604 29605 29606 29607 29608 29609 29610 29611 29612 29613 29614 29615 29616 29617 29618 29619 29620 29621 29622 29623 29624 29625 29626 29627 29628 29629 29630 29631 29632 29633 29634 29635 29636 29637 29638 29639 29640 29641 29642 29643 29644 29645 29646 29647 29648 29649 29650 29651 29652 29653 29654 29655 29656 29657 29658 29659 29660 29661 29662 29663 29664 29665 29666 29667 29668 29669 29670 29671 29672 29673 29674 29675 29676 29677 29678 29679 29680 29681 29682 29683 29684 29685 29686 29687 29688 29689 29690 29691 29692 29693 29694 29695 29696 29697 29698 29699 29700 29701 29702 29703 29704 29705 29706 29707 29708 29709 29710 29711 29712 29713 29714 29715 29716 29717 29718 29719 29720 29721 29722 29723 29724 29725 29726 29727 29728 29729 29730 29731 29732 29733 29734 29735 29736 29737 29738 29739 29740 29741 29742 29743 29744 29745 29746 29747 29748 29749 29750 29751 29752 29753 29754 29755 29756 29757 29758 29759 29760 29761 29762 29763 29764 29765 29766 29767 29768 29769 29770 29771 29772 29773 29774 29775 29776 29777 29778 29779 29780 29781 29782 29783 29784 29785 29786 29787 29788 29789 29790 29791 29792 29793 29794 29795 29796 29797 29798 29799 29800 29801 29802 29803 29804 29805 29806 29807 29808 29809 29810 29811 29812 29813 29814 29815 29816 29817 29818 29819 29820 29821 29822 29823 29824 29825 29826 29827 29828 29829 29830 29831 29832 29833 29834 29835 29836 29837 29838 29839 29840 29841 29842 29843 29844 29845 29846 29847 29848 29849 29850 29851 29852 29853 29854 29855 29856 29857 29858 29859 29860 29861 29862 29863 29864 29865 29866 29867 29868 29869 29870 29871 29872 29873 29874 29875 29876 29877 29878 29879 29880 29881 29882 29883 29884 29885 29886 29887 29888 29889 29890 29891 29892 29893 29894 29895 29896 29897 29898 29899 29900 29901 29902 29903 29904 29905 29906 29907 29908 29909 29910 29911 29912 29913 29914 29915 29916 29917 29918 29919 29920 29921 29922 29923 29924 29925 29926 29927 29928 29929 29930 29931 29932 29933 29934 29935 29936 29937 29938 29939 29940 29941 29942 29943 29944 29945 29946 29947 29948 29949 29950 29951 29952 29953 29954 29955 29956 29957 29958 29959 29960 29961 29962 29963 29964 29965 29966 29967 29968 29969 29970 29971 29972 29973 29974 29975 29976 29977 29978 29979 29980 29981 29982 29983 29984 29985 29986 29987 29988 29989 29990 29991 29992 29993 29994 29995 29996 29997 29998 29999 30000 30001 30002 30003 30004 30005 30006 30007 30008 30009 30010 30011 30012 30013 30014 30015 30016 30017 30018 30019 30020 30021 30022 30023 30024 30025 30026 30027 30028 30029 30030 30031 30032 30033 30034 30035 30036 30037 30038 30039 30040 30041 30042 30043 30044 30045 30046 30047 30048 30049 30050 30051 30052 30053 30054 30055 30056 30057 30058 30059 30060 30061 30062 30063 30064 30065 30066 30067 30068 30069 30070 30071 30072 30073 30074 30075 30076 30077 30078 30079 30080 30081 30082 30083 30084 30085 30086 30087 30088 30089 30090 30091 30092 30093 30094 30095 30096 30097 30098 30099 30100 30101 30102 30103 30104 30105 30106 30107 30108 30109 30110 30111 30112 30113 30114 30115 30116 30117 30118 30119 30120 30121 30122 30123 30124 30125 30126 30127 30128 30129 30130 30131 30132 30133 30134 30135 30136 30137 30138 30139 30140 30141 30142 30143 30144 30145 30146 30147 30148 30149 30150 30151 30152 30153 30154 30155 30156 30157 30158 30159 30160 30161 30162 30163 30164 30165 30166 30167 30168 30169 30170 30171 30172 30173 30174 30175 30176 30177 30178 30179 30180 30181 30182 30183 30184 30185 30186 30187 30188 30189 30190 30191 30192 30193 30194 30195 30196 30197 30198 30199 30200 30201 30202 30203 30204 30205 30206 30207 30208 30209 30210 30211 30212 30213 30214 30215 30216 30217 30218 30219 30220 30221 30222 30223 30224 30225 30226 30227 30228 30229 30230 30231 30232 30233 30234 30235 30236 30237 30238 30239 30240 30241 30242 30243 30244 30245 30246 30247 30248 30249 30250 30251 30252 30253 30254 30255 30256 30257 30258 30259 30260 30261 30262 30263 30264 30265 30266 30267 30268 30269 30270 30271 30272 30273 30274 30275 30276 30277 30278 30279 30280 30281 30282 30283 30284 30285 30286 30287 30288 30289 30290 30291 30292 30293 30294 30295 30296 30297 30298 30299 30300 30301 30302 30303 30304 30305 30306 30307 30308 30309 30310 30311 30312 30313 30314 30315 30316 30317 30318 30319 30320 30321 30322 30323 30324 30325 30326 30327 30328 30329 30330 30331 30332 30333 30334 30335 30336 30337 30338 30339 30340 30341 30342 30343 30344 30345 30346 30347 30348 30349 30350 30351 30352 30353 30354 30355 30356 30357 30358 30359 30360 30361 30362 30363 30364 30365 30366 30367 30368 30369 30370 30371 30372 
</DataArray>
<DataArray type="UInt32" Name="offsets" format="ascii">
3 6 9 12 15 18 21 24 27 30 33 36 38 41 44 47 50 53 56 59 62 64 67 70 73 76 79 81 84 87 89 92 95 98 100 103 106 108 111 114 117 120 123 126 129 131 134 137 140 143 146 149 151 154 157 160 163 166 169 172 175 177 180 183 186 189 191 194 197 200 203 206 209 212 215 218 221 224 226 228 231 234 237 240 243 246 249 252 255 258 260 262 265 268 271 273 276 279 282 284 287 290 293 295 298 301 304 307 310 313 316 319 321 324 327 330 333 336 339 342 345 348 351 354 357 360 363 366 369 372 375 378 381 384 387 390 393 396 398 401 404 407 410 412 415 418 421 424 427 430 433 436 439 441 443 446 449 451 454 457 460 463 465 468 470 473 476 479 482 485 488 491 494 496 499 502 505 508 511 514 517 520 523 526 528 531 534 536 539 542 544 547 550 553 556 558 561 563 566 569 572 575 578 581 584 587 590 593 596 599 602 605 608 611 614 617 620 623 626 629 632 635 638 641 644 647 650 653 656 659 662 665 668 671 674 676 679 682 684 687 689 692 695 698 701 703 706 708 710 713 716 719 722 724 727 729 732 735 737 740 743 746 749 752 755 758 761 764 767 770 773 776 779 781 784 787 790 793 796 799 802 804 807 810 813 816 819 822 825 828 831 834 837 840 843 846 849 852 855 858 861 864 867 870 873 876 879 882 884 887 890 893 896 898 901 904 907 910 913 915 918 920 923 926 929 931 934 937 940 943 946 949 952 955 958 961 964 966 969 972 975 978 981 984 987 990 993 996 999 1002 1005 1008 1011 1014 1017 1020 1023 1026 1029 1032 1035 1038 1041 1044 1047 1050 1053 1055 1058 1061 1064 1067 1069 1072 1075 1078 1081 1084 1087 1090 1092 1095 1098 1101 1104 1107 1110 1113 1116 1118 1121 1123 1126 1129 1131 1134 1137 1140 1143 1146 1149 1151 1154 1156 1159 1162 1165 1168 1171 1174 1177 1180 1183 1186 1189 1192 1194 1196 1199 1202 1205 1207 1209 1212 1215 1218 1221 1224 1227 1230 1232 1234 1237 1240 1243 1245 1248 1251 1254 1256 1259 1262 1265 1268 1270 1272 1275 1277 1280 1283 1286 1289 1291 1294 1297 1300 1303 1306 1309 1312 1315 1318 1321 1324 1327 1330 1333 1336 1339 1342 1345 1348 1351 1354 1357 1360 1363 1366 1369 1372 1375 1378 1381 1383 1386 1389 1392 1395 1398 1401 1404 1407 1410 1413 1416 1419 1422 1425 1428 1431 1434 1437 1440 1443 1446 1448 1451 1454 1457 1460 1463 1466 1469 1472 1475 1477 1480 1483 1486 1489 1491 1494 1497 1500 1502 1505 1508 1510 1513 1516 1519 1522 1525 1528 1531 1534 1537 1540 1542 1544 1546 1549 1552 1555 1558 1561 1564 1566 1569 1572 1575 1578 1581 1584 1587 1590 1592 1595 1598 1601 1604 1607 1610 1612 1615 1618 1621 1624 1627 1630 1633 1636 1639 1642 1645 1648 1651 1653 1656 1659 1661 1664 1667 1670 1673 1675 1678 1681 1683 1686 1689 1692 1695 1698 1701 1704 1707 1710 1713 1716 1719 1722 1725 1728 1731 1734 1737 1740 1743 1745 1748 1751 1754 1757 1760 1763 1765 1768 1771 1774 1776 1778 1781 1784 1787 1789 1792 1795 1798 1801 1804 1807 1810 1813 1816 1819 1822 1825 1827 1830 1833 1835 1838 1841 1844 1847 1849 1852 1854 1857 1860 1863 1866 1869 1872 1875 1878 1881 1884 1886 1889 1892 1895 1898 1901 1904 1907 1910 1913 1916 1918 1921 1924 1927 1930 1933 1936 1939 1942 1945 1948 1951 1954 1957 1960 1963 1966 1969 1971 1974 1977 1980 1983 1986 1989 1992 1995 1998 2001 2004 2007 2009 2011 2014 2017 2019 2022 2025 2028 2031 2033 2036 2039 2041 2044 2047 2050 2053 2056 2059 2061 2064 2067 2069 2072 2074 2077 2080 2083 2086 2088 2091 2093 2096 2099 2102 2105 2108 2111 2113 2116 2119 2122 2125 2127 2130 2133 2136 2138 2141 2144 2146 2149 2151 2154 2157 2160 2162 2165 2168 2171 2173 2176 2179 2182 2185 2188 2191 2194 2197 2200 2203 2205 2208 2210 2213 2215 2218 2221 2224 2226 2229 2232 2235 2238 2241 2244 2247 2249 2252 2255 2258 2261 2264 2267 2270 2273 2276 2279 2282 2285 2288 2291 2294 2296 2299 2302 2305 2308 2310 2313 2316 2319 2322 2324 2327 2330 2333 2336 2339 2341 2344 2347 2350 2353 2356 2359 2362 2365 2368 2371 2374 2377 2380 2383 2386 2389 2392 2395 2398 2401 2404 2407 2410 2413 2416 2419 2422 2425 2428 2431 2434 2437 2440 2443 2446 2449 2452 2455 2458 2461 2464 2467 2470 2473 2476 2479 2481 2484 2487 2490 2493 2496 2499 2501 2504 2507 2510 2513 2516 2519 2522 2525 2528 2531 2534 2537 2540 2543 2546 2548 2551 2554 2557 2560 2563 2565 2568 2571 2574 2577 2580 2583 2586 2588 2591 2594 2597 2600 2603 2606 2609 2612 2615 2618 2621 2624 2627 2630 2633 2636 2639 2642 2645 2648 2651 2654 2657 2659 2662 2665 2668 2671 2674 2677 2680 2683 2686 2689 2692 2695 2697 2700 2703 2706 2709 2712 2715 2718 2721 2724 2726 2729 2732 2735 2738 2741 2744 2747 2750 2753 2756 2758 2761 2764 2767 2770 2773 2776 2779 2782 2785 2788 2791 2793 2795 2798 2801 2804 2807 2810 2813 2816 2818 2821 2824 2827 2830 2832 2835 2838 2841 2844 2847 2850 2852 2855 2858 2861 2864 2867 2870 2873 2876 2879 2882 2884 2887 2890 2893 2896 2899 2902 2904 2907 2910 2913 2916 2919 2922 2925 2927 2930 2933 2935 2938 2940 2943 2946 2949 2952 2955 2958 2961 2963 2966 2969 2972 2975 2977 2980 2983 2986 2989 2992 2995 2998 3000 3003 3006 3009 3012 3014 3017 3020 3022 3025 3027 3030 3033 3036 3039 3042 3044 3047 3050 3053 3056 3058 3060 3063 3066 3069 3072 3075 3078 3081 3084 3087 3090 3093 3095 3098 3101 3104 3107 3110 3113 3115 3118 3121 3124 3127 3130 3133 3136 3139 3141 3144 3147 3150 3153 3156 3159 3162 3165 3168 3171 3174 3177 3180 3183 3185 3188 3191 3194 3196 3199 3202 3205 3208 3211 3214 3217 3220 3223 3226 3229 3232 3234 3237 3240 3243 3246 3249 3252 3255 3257 3260 3262 3265 3267 3270 3272 3275 3278 3281 3284 3287 3290 3293 3296 3298 3301 3304 3306 3309 3312 3314 3317 3320 3323 3326 3328 3331 3334 3337 3340 3343 3346 3349 3352 3354 3357 3359 3362 3364 3367 3370 3372 3375 3378 3381 3383 3386 3389 3392 3394 3397 3399 3402 3405 3408 3411 3414 3417 3420 3423 3426 3429 3431 3433 3436 3438 3441 3444 3446 3449 3452 3454 3457 3459 3462 3465 3468 3470 3473 3476 3479 3482 3485 3488 3491 3494 3497 3500 3503 3505 3508 3510 3513 3516 3519 3521 3524 3527 3530 3533 3535 3538 3541 3543 3546 3549 3552 3554 3557 3560 3563 3565 3568 3570 3572 3575 3578 3581 3584 3587 3590 3593 3596 3599 3601 3604 3607 3610 3613 3616 3619 3622 3625 3628 3631 3634 3637 3640 3643 3646 3648 3651 3654 3657 3660 3663 3666 3669 3672 3675 3678 3681 3683 3686 3688 3691 3694 3697 3700 3703 3706 3708 3711 3714 3717 3720 3723 3726 3728 3731 3734 3737 3740 3742 3745 3748 3751 3754 3756 3759 3762 3764 3767 3769 3772 3775 3778 3780 3782 3785 3788 3791 3794 3797 3800 3803 3806 3809 3812 3815 3818 3820 3823 3826 3829 3832 3835 3838 3841 3844 3847 3850 3853 3855 3857 3860 3863 3865 3868 3871 3874 3876 3878 3881 3884 3887 3890 3893 3896 3899 3902 3905 3908 3911 3914 3917 3919 3922 3925 3927 3930 3933 3936 3939 3942 3945 3948 3950 3953 3956 3959 3961 3964 3967 3970 3973 3976 3978 3981 3983 3986 3989 3992 3995 3998 4001 4004 4007 4010 4013 4015 4018 4021 4024 4027 4029 4031 4034 4037 4040 4043 4046 4049 4052 4055 4058 4061 4064 4067 4070 4073 4075 4078 4081 4084 4087 4090 4093 4096 4098 4101 4104 4107 4109 4112 4115 4118 4121 4124 4127 4130 4133 4135 4138 4141 4144 4147 4150 4153 4156 4159 4162 4165 4168 4171 4174 4176 4179 4182 4185 4188 4191 4194 4196 4199 4202 4204 4207 4210 4213 4216 4219 4222 4225 4228 4231 4234 4237 4240 4242 4245 4248 4251 4254 4257 4260 4262 4265 4268 4271 4274 4277 4280 4283 4286 4288 4291 4294 4297 4299 4302 4305 4308 4311 4313 4316 4319 4322 4325 4328 4331 4333 4336 4339 4342 4345 4348 4351 4353 4356 4359 4361 4364 4367 4370 4373 4375 4378 4381 4384 4387 4390 4392 4395 4398 4401 4404 4407 4410 4413 4416 4419 4421 4424 4427 4430 4432 4435 4437 4440 4443 4446 4449 4452 4455 4458 4461 4464 4467 4470 4473 4476 4479 4481 4484 4487 4490 4492 4495 4498 4501 4504 4507 4510 4513 4516 4519 4522 4525 4528 4531 4534 4537 4540 4542 4545 4548 4551 4554 4556 4559 4562 4565 4568 4571 4574 4576 4579 4582 4585 4588 4591 4594 4597 4600 4603 4606 4609 4611 4614 4617 4619 4622 4625 4628 4631 4634 4637 4640 4643 4646 4649 4651 4654 4657 4660 4663 4666 4669 4672 4675 4678 4681 4683 4686 4689 4692 4695 4698 4701 4704 4707 4710 4713 4716 4719 4722 4725 4727 4730 4733 4736 4738 4741 4743 4746 4749 4751 4754 4757 4760 4763 4766 4769 4772 4775 4778 4781 4784 4786 4789 4792 4795 4797 4800 4803 4806 4809 4812 4815 4818 4821 4824 4827 4830 4833 4836 4839 4842 4845 4848 4851 4853 4856 4859 4862 4865 4868 4871 4874 4877 4880 4883 4886 4889 4892 4895 4898 4901 4904 4906 4909 4911 4914 4917 4920 4923 4925 4927 4929 4932 4935 4938 4941 4944 4947 4950 4953 4956 4959 4962 4964 4967 4969 4972 4975 4977 4980 4982 4985 4988 4991 4994 4997 5000 5002 5005 5008 5010 5013 5016 5018 5021 5024 5027 5030 5033 5036 5038 5041 5043 5045 5048 5051 5054 5057 5060 5062 5065 5068 5070 5073 5076 5079 5082 5085 5088 5091 5094 5097 5100 5103 5106 5109 5112 5115 5118 5121 5124 5127 5130 5133 5136 5138 5141 5144 5147 5150 5153 5156 5159 5162 5165 5167 5170 5173 5176 5179 5182 5185 5187 5190 5193 5196 5199 5202 5205 5208 5211 5213 5216 5219 5222 5225 5227 5230 5233 5236 5239 5242 5245 5248 5251 5254 5257 5260 5262 5265 5268 5271 5274 5277 5280 5283 5286 5289 5292 5295 5298 5301 5304 5307 5310 5313 5316 5319 5322 5324 5327 5329 5332 5335 5338 5341 5344 5347 5350 5353 5356 5359 5362 5365 5368 5371 5374 5377 5380 5383 5386 5389 5392 5395 5398 5401 5404 5407 5409 5412 5415 5418 5420 5423 5426 5429 5432 5435 5438 5441 5444 5446 5449 5452 5455 5458 5460 5462 5465 5468 5470 5473 5476 5478 5480 5483 5486 5488 5491 5494 5497 5500 5503 5506 5508 5511 5514 5517 5520 5523 5526 5529 5532 5535 5538 5541 5544 5547 5550 5553 5556 5558 5561 5564 5567 5570 5572 5575 5578 5581 5584 5587 5590 5593 5596 5599 5602 5605 5608 5610 5613 5616 5618 5621 5624 5626 5628 5630 5633 5636 5639 5642 5645 5648 5651 5654 5656 5659 5661 5664 5667 5670 5673 5676 5679 5682 5685 5687 5690 5692 5695 5698 5701 5704 5706 5709 5711 5714 5717 5720 5722 5724 5727 5730 5733 5736 5739 5741 5744 5747 5749 5752 5755 5757 5759 5762 5765 5768 5771 5773 5776 5779 5781 5784 5786 5788 5791 5794 5797 5800 5803 5806 5809 5812 5815 5818 5821 5824 5827 5830 5833 5836 5838 5841 5844 5847 5850 5853 5856 5859 5862 5865 5868 5871 5874 5877 5880 5883 5885 5888 5890 5893 5896 5899 5902 5904 5907 5910 5913 5916 5919 5922 5924 5927 5929 5932 5935 5938 5941 5944 5947 5950 5952 5955 5958 5960 5963 5966 5969 5972 5975 5977 5979 5982 5985 5988 5991 5994 5997 6000 6003 6005 6007 6010 6013 6015 6017 6020 6023 6026 6029 6032 6035 6038 6041 6043 6046 6049 6052 6055 6057 6060 6063 6066 6069 6072 6075 6078 6081 6084 6086 6089 6091 6094 6097 6100 6102 6105 6108 6111 6114 6117 6120 6123 6126 6129 6132 6134 6137 6140 6143 6146 6148 6151 6153 6156 6159 6161 6163 6166 6169 6172 6175 6178 6181 6184 6187 6190 6193 6195 6198 6201 6204 6207 6210 6213 6216 6219 6222 6225 6228 6231 6234 6237 6240 6243 6246 6249 6252 6255 6258 6261 6264 6267 6270 6273 6276 6279 6282 6285 6288 6291 6294 6296 6299 6301 6304 6307 6310 6313 6316 6319 6322 6325 6328 6330 6333 6336 6338 6341 6344 6347 6350 6353 6356 6359 6362 6365 6368 6371 6374 6377 6380 6383 6386 6389 6392 6395 6397 6400 6403 6406 6409 6412 6415 6418 6421 6424 6427 6430 6433 6436 6439 6442 6445 6448 6451 6453 6456 6459 6462 6465 6468 6471 6474 6477 6480 6483 6485 6488 6491 6494 6497 6500 6503 6506 6509 6512 6515 6517 6520 6523 6526 6529 6532 6535 6538 6541 6544 6547 6550 6553 6556 6559 6562 6565 6567 6570 6573 6576 6579 6582 6585 6588 6591 6594 6597 6599 6602 6605 6608 6611 6613 6616 6619 6622 6625 6628 6631 6634 6637 6639 6642 6644 6647 6650 6653 6656 6659 6662 6665 6668 6671 6674 6677 6679 6682 6685 6688 6691 6694 6696 6699 6702 6705 6708 6711 6714 6717 6720 6723 6726 6729 6731 6734 6737 6739 6742 6745 6748 6750 6753 6756 6759 6762 6764 6767 6770 6773 6775 6778 6781 6784 6787 6790 6793 6796 6798 6801 6804 6807 6809 6812 6815 6818 6821 6824 6827 6830 6833 6836 6839 6842 6845 6848 6850 6853 6856 6858 6861 6864 6867 6870 6873 6876 6879 6882 6885 6887 6890 6893 6896 6899 6902 6905 6908 6911 6913 6916 6919 6922 6925 6927 6929 6932 6934 6937 6940 6943 6946 6949 6952 6954 6957 6960 6963 6966 6968 6971 6974 6976 6979 6982 6985 6988 6991 6994 6997 7000 7003 7006 7009 7012 7015 7017 7020 7023 7026 7029 7031 7034 7037 7039 7042 7045 7048 7051 7054 7056 7059 7062 7065 7068 7071 7074 7077 7080 7083 7086 7089 7092 7095 7098 7101 7104 7107 7109 7112 7115 7117 7120 7123 7126 7129 7132 7135 7137 7140 7143 7146 7149 7152 7155 7158 7161 7163 7166 7169 7172 7174 7177 7180 7183 7186 7189 7192 7195 7198 7200 7202 7205 7208 7211 7214 7216 7219 7222 7225 7227 7230 7233 7235 7238 7241 7244 7247 7250 7253 7256 7259 7262 7265 7268 7271 7274 7277 7280 7283 7286 7289 7291 7294 7297 7300 7303 7306 7309 7312 7315 7318 7321 7324 7327 7330 7333 7336 7338 7341 7344 7347 7350 7353 7356 7359 7362 7365 7368 7371 7373 7376 7379 7382 7385 7388 7391 7394 7397 7400 7403 7406 7409 7412 7415 7418 7421 7424 7427 7430 7433 7435 7438 7441 7444 7447 7450 7453 7455 7458 7461 7464 7467 7470 7473 7476 7479 7482 7485 7488 7491 7494 7497 7499 7502 7505 7507 7510 7513 7516 7519 7522 7525 7528 7531 7534 7537 7540 7543 7546 7548 7551 7554 7557 7560 7563 7566 7569 7572 7575 7578 7581 7584 7587 7590 7593 7596 7599 7602 7605 7608 7611 7614 7617 7620 7623 7626 7629 7632 7635 7638 7641 7644 7647 7650 7653 7655 7658 7661 7664 7667 7670 7673 7676 7679 7681 7684 7687 7690 7693 7696 7699 7702 7705 7708 7711 7714 7717 7720 7723 7726 7729 7732 7735 7738 7740 7742 7745 7748 7751 7754 7757 7760 7763 7766 7769 7772 7775 7778 7781 7784 7787 7790 7793 7796 7799 7802 7805 7808 7811 7814 7817 7820 7823 7826 7829 7832 7835 7838 7841 7844 7846 7849 7852 7854 7857 7860 7863 7866 7869 7872 7875 7878 7881 7884 7887 7890 7893 7895 7898 7901 7904 7906 7909 7912 7914 7917 7919 7922 7925 7927 7930 7933 7936 7939 7942 7945 7948 7950 7953 7956 7959 7962 7964 7967 7969 7971 7974 7977 7980 7983 7986 7989 7991 7993 7995 7998 8001 8004 8007 8010 8013 8015 8018 8021 8024 8027 8030 8033 8036 8039 8042 8045 8048 8050 8053 8055 8057 8060 8063 8066 8068 8071 8074 8076 8078 8081 8084 8087 8090 8093 8096 8099 8102 8105 8108 8111 8114 8117 8120 8122 8125 8128 8131 8134 8137 8140 8143 8146 8149 8152 8155 8158 8161 8164 8167 8170 8173 8176 8179 8182 8185 8187 8190 8192 8195 8198 8201 8204 8207 8210 8213 8216 8219 8222 8224 8227 8230 8233 8236 8239 8242 8245 8248 8251 8254 8257 8260 8263 8266 8269 8272 8275 8278 8281 8284 8287 8290 8293 8296 8299 8302 8305 8308 8311 8314 8317 8320 8323 8326 8329 8332 8335 8338 8341 8344 8347 8350 8353 8356 8359 8362 8365 8368 8370 8373 8375 8378 8380 8383 8386 8389 8392 8395 8398 8401 8404 8407 8410 8413 8416 8419 8422 8425 8428 8431 8434 8437 8439 8442 8445 8448 8451 8453 8456 8459 8462 8465 8468 8471 8474 8477 8479 8482 8485 8488 8491 8494 8497 8500 8503 8506 8509 8512 8515 8517 8520 8522 8525 8527 8530 8533 8536 8539 8542 8544 8547 8550 8552 8555 8558 8561 8563 8565 8568 8571 8574 8576 8579 8582 8585 8587 8590 8592 8595 8598 8601 8604 8607 8610 8613 8616 8619 8622 8625 8628 8631 8634 8636 8639 8641 8644 8647 8650 8653 8656 8659 8662 8665 8667 8670 8673 8676 8679 8682 8685 8688 8691 8694 8697 8699 8702 8705 8708 8711 8714 8717 8720 8723 8726 8729 8732 8735 8738 8741 8744 8747 8749 8752 8755 8758 8761 8764 8766 8769 8772 8775 8778 8780 8783 8785 8788 8791 8794 8796 8799 8802 8805 8808 8811 8814 8817 8820 8823 8826 8829 8832 8835 8838 8841 8844 8847 8850 8853 8856 8859 8862 8865 8868 8871 8874 8877 8880 8883 8886 8889 8892 8894 8896 8899 8901 8904 8907 8909 8912 8914 8917 8920 8923 8925 8928 8931 8934 8937 8940 8942 8945 8948 8951 8953 8956 8959 8961 8964 8967 8969 8972 8975 8978 8981 8984 8987 8990 8993 8996 8998 9001 9004 9007 9010 9013 9016 9019 9021 9024 9027 9030 9032 9035 9038 9040 9043 9046 9049 9052 9055 9058 9061 9064 9066 9068 9071 9074 9077 9080 9082 9085 9088 9090 9093 9096 9099 9102 9105 9108 9111 9114 9117 9120 9123 9126 9129 9132 9135 9138 9141 9143 9146 9149 9151 9154 9156 9159 9161 9164 9167 9170 9173 9176 9178 9181 9184 9186 9189 9191 9194 9197 9200 9203 9206 9208 9211 9214 9217 9219 9222 9225 9228 9230 9233 9236 9238 9241 9244 9247 9250 9252 9254 9257 9260 9263 9266 9269 9272 9275 9277 9279 9282 9285 9288 9290 9293 9296 9299 9302 9305 9308 9311 9314 9317 9320 9322 9325 9328 9331 9334 9337 9340 9343 9346 9348 9351 9354 9356 9359 9362 9365 9368 9371 9374 9377 9380 9383 9386 9389 9392 9395 9398 9401 9404 9407 9410 9412 9415 9417 9420 9423 9426 9429 9432 9435 9438 9441 9444 9447 9450 9453 9456 9459 9462 9465 9468 9471 9474 9477 9480 9483 9486 9489 9492 9495 9498 9501 9504 9507 9510 9513 9516 9519 9522 9525 9528 9531 9534 9537 9540 9543 9546 9549 9552 9555 9558 9561 9564 9567 9570 9572 9575 9578 9581 9584 9587 9590 9593 9596 9599 9602 9605 9608 9611 9614 9617 9620 9623 9626 9628 9631 9634 9637 9639 9642 9644 9647 9650 9653 9656 9659 9661 9664 9666 9669 9672 9675 9678 9681 9683 9685 9688 9691 9694 9697 9700 9703 9706 9709 9712 9715 9718 9721 9724 9727 9729 9731 9734 9737 9740 9743 9746 9749 9752 9755 9758 9761 9764 9766 9769 9771 9774 9776 9779 9782 9785 9787 9790 9792 9795 9798 9801 9804 9807 9810 9813 9816 9819 9822 9825 9828 9830 9832 9835 9838 9841 9844 9847 9850 9853 9856 9859 9862 9865 9868 9871 9874 9877 9880 9883 9886 9889 9892 9895 9898 9901 9904 9907 9910 9913 9916 9919 9921 9924 9927 9930 9932 9935 9938 9941 9944 9947 9950 9952 9955 9958 9961 9964 9967 9970 9973 9976 9979 9982 9985 9988 9991 9994 9997 9999 10002 10005 10008 10011 10014 10017 10020 10023 10026 10029 10032 10035 10038 10041 10044 10047 10050 10053 10056 10059 10062 10065 10067 10070 10073 10076 10078 10080 10083 10086 10089 10092 10095 10098 10101 10103 10106 10109 10112 10115 10118 10121 10124 10127 10129 10132 10135 10137 10140 10143 10145 10148 10151 10154 10157 10160 10163 10166 10168 10171 10174 10177 10180 10183 10186 10189 10192 10194 10197 10200 10203 10206 10209 10212 10215 10218 10221 10224 10227 10230 10233 10236 10239 10242 10245 10248 10251 10254 10257 10259 10262 10264 10267 10270 10273 10276 10279 10282 10285 10288 10291 10294 10297 10300 10303 10306 10309 10312 10315 10318 10321 10324 10327 10330 10333 10336 10339 10342 10345 10348 10351 10354 10356 10359 10362 10365 10368 10371 10374 10377 10380 10383 10385 10388 10391 10394 10397 10400 10403 10406 10409 10412 10415 10418 10421 10424 10427 10429 10432 10435 10438 10441 10444 10447 10450 10453 10456 10459 10462 10465 10468 10471 10474 10477 10480 10483 10486 10488 10491 10494 10497 10499 10502 10505 10508 10511 10514 10517 10520 10523 10526 10529 10532 10535 10538 10541 10544 10547 10550 10552 10555 10558 10561 10564 10567 10570 10573 10576 10578 10581 10584 10587 10590 10593 10596 10599 10602 10605 10608 10611 10614 10617 10620 10623 10626 10629 10632 10635 10638 10641 10644 10647 10650 10653 10656 10659 10662 10665 10667 10670 10673 10676 10678 10681 10684 10686 10689 10692 10695 10697 10700 10702 10705 10707 10709 10712 10715 10718 10721 10723 10725 10728 10731 10734 10737 10740 10742 10745 10748 10751 10753 10756 10759 10762 10765 10768 10771 10774 10777 10780 10783 10786 10789 10792 10795 10798 10801 10804 10807 10809 10812 10815 10818 10820 10823 10826 10829 10832 10835 10838 10841 10844 10847 10850 10853 10856 10859 10862 10865 10868 10871 10874 10877 10880 10882 10885 10888 10891 10894 10897 10900 10903 10906 10908 10911 10914 10917 10920 10922 10924 10927 10930 10933 10936 10939 10942 10945 10948 10951 10954 10957 10960 10963 10966 10969 10972 10975 10978 10981 10983 10986 10989 10992 10994 10997 10999 11002 11005 11007 11010 11013 11016 11019 11022 11025 11028 11030 11033 11036 11039 11041 11044 11047 11049 11052 11055 11058 11061 11064 11066 11068 11071 11074 11077 11080 11083 11086 11089 11092 11095 11098 11101 11103 11106 11109 11112 11114 11117 11120 11123 11125 11128 11130 11133 11136 11139 11142 11144 11147 11150 11153 11156 11159 11162 11165 11168 11171 11174 11177 11180 11183 11185 11188 11191 11194 11196 11199 11202 11205 11207 11210 11213 11216 11219 11222 11225 11228 11231 11234 11237 11240 11242 11245 11248 11251 11254 11257 11260 11263 11266 11269 11272 11275 11278 11281 11284 11287 11290 11293 11296 11299 11302 11305 11308 11311 11314 11317 11320 11323 11326 11329 11332 11335 11338 11341 11344 11347 11349 11352 11355 11358 11361 11364 11367 11370 11373 11376 11379 11382 11385 11388 11391 11394 11397 11400 11403 11406 11408 11411 11414 11417 11420 11423 11426 11428 11431 11434 11437 11440 11443 11445 11448 11451 11454 11457 11460 11463 11466 11469 11472 11475 11477 11480 11483 11486 11489 11492 11495 11498 11501 11504 11507 11510 11513 11515 11518 11521 11524 11527 11530 11533 11536 11539 11542 11545 11548 11551 11554 11557 11560 11563 11566 11569 11572 11575 11578 11581 11584 11587 11589 11592 11595 11598 11601 11604 11607 11610 11613 11616 11619 11622 11625 11628 11630 11633 11636 11639 11642 11645 11648 11651 11654 11657 11660 11663 11666 11669 11672 11675 11678 11681 11684 11687 11690 11693 11696 11699 11702 11705 11708 11711 11714 11717 11720 11722 11724 11727 11730 11733 11736 11739 11742 11745 11748 11751 11754 11757 11760 11763 11766 11769 11772 11775 11778 11781 11784 11787 11790 11793 11796 11799 11802 11805 11808 11810 11813 11816 11819 11821 11824 11827 11830 11833 11836 11838 11841 11844 11847 11850 11853 11856 11859 11862 11864 11867 11870 11873 11876 11879 11881 11884 11887 11890 11892 11895 11898 11901 11904 11906 11909 11912 11915 11918 11921 11924 11927 11930 11933 11936 11939 11941 11944 11947 11950 11953 11956 11959 11962 11965 11968 11971 11974 11977 11980 11983 11985 11988 11991 11994 11997 12000 12003 12006 12009 12011 12014 12017 12020 12023 12026 12029 12032 12035 12038 12041 12044 12047 12050 12053 12056 12059 12062 12065 12068 12071 12074 12077 12080 12083 12086 12089 12092 12094 12097 12100 12103 12106 12109 12112 12115 12118 12121 12124 12127 12129 12132 12135 12138 12141 12144 12147 12150 12153 12156 12159 12162 12165 12168 12171 12173 12176 12179 12182 12185 12188 12191 12194 12197 12199 12202 12205 12207 12210 12213 12216 12219 12221 12224 12227 12229 12232 12234 12237 12239 12242 12245 12247 12250 12253 12256 12259 12262 12265 12268 12271 12274 12277 12280 12283 12285 12287 12290 12293 12295 12298 12301 12304 12307 12310 12313 12316 12319 12322 12325 12328 12331 12333 12336 12339 12342 12345 12348 12351 12354 12357 12360 12363 12366 12369 12372 12375 12377 12380 12382 12385 12388 12391 12394 12397 12400 12402 12405 12408 12411 12414 12417 12420 12422 12425 12428 12431 12434 12436 12439 12441 12444 12447 12450 12452 12454 12457 12460 12462 12465 12467 12470 12473 12475 12478 12481 12484 12487 12490 12493 12496 12499 12502 12505 12508 12511 12513 12516 12519 12522 12525 12528 12531 12534 12536 12539 12542 12545 12548 12551 12554 12557 12560 12563 12566 12569 12572 12575 12577 12580 12582 12585 12587 12590 12592 12595 12597 12599 12601 12604 12607 12610 12612 12615 12618 12621 12623 12626 12629 12631 12633 12636 12639 12642 12644 12647 12650 12653 12656 12659 12662 12664 12667 12670 12673 12676 12679 12682 12685 12688 12691 12694 12697 12700 12703 12706 12709 12712 12715 12718 12720 12722 12725 12728 12731 12733 12735 12738 12741 12743 12746 12748 12751 12754 12757 12760 12763 12766 12769 12772 12774 12777 12780 12783 12786 12789 12792 12795 12798 12801 12804 12807 12809 12812 12815 12817 12819 12822 12825 12828 12830 12833 12836 12838 12841 12844 12847 12850 12853 12856 12859 12862 12865 12868 12870 12873 12875 12877 12880 12883 12885 12888 12890 12893 12896 12898 12900 12903 12906 12909 12912 12915 12918 12920 12923 12925 12928 12931 12933 12936 12939 12942 12945 12948 12951 12953 12956 12959 12962 12965 12968 12971 12974 12977 12980 12982 12985 12987 12990 12993 12996 12999 13002 13005 13007 13010 13013 13016 13019 13022 13025 13028 13031 13034 13037 13040 13043 13046 13049 13052 13055 13058 13061 13064 13067 13070 13073 13076 13079 13082 13085 13088 13091 13094 13097 13100 13103 13105 13108 13111 13114 13117 13120 13122 13125 13128 13131 13134 13137 13140 13142 13145 13148 13151 13154 13157 13160 13163 13166 13169 13172 13175 13178 13180 13183 13186 13189 13192 13195 13197 13200 13203 13206 13209 13212 13214 13217 13220 13223 13226 13229 13232 13235 13238 13241 13244 13247 13250 13253 13256 13259 13262 13265 13268 13271 13274 13276 13278 13281 13284 13287 13289 13292 13295 13298 13301 13304 13307 13310 13313 13316 13319 13322 13325 13328 13330 13333 13336 13338 13341 13344 13347 13350 13353 13356 13359 13362 13365 13368 13371 13374 13377 13380 13383 13386 13389 13392 13395 13398 13401 13404 13407 13410 13413 13416 13419 13422 13425 13428 13431 13434 13437 13440 13443 13446 13449 13452 13454 13457 13460 13463 13466 13469 13472 13475 13477 13480 13483 13486 13489 13492 13495 13498 13501 13504 13506 13509 13512 13515 13518 13521 13524 13527 13529 13532 13535 13537 13540 13542 13544 13547 13550 13552 13555 13558 13560 13563 13565 13568 13570 13573 13576 13579 13582 13585 13587 13590 13593 13596 13599 13602 13605 13607 13610 13613 13616 13619 13622 13625 13628 13631 13634 13637 13640 13642 13645 13648 13650 13653 13655 13658 13661 13664 13666 13669 13672 13675 13678 13681 13684 13687 13690 13693 13696 13699 13702 13704 13707 13710 13713 13716 13719 13722 13725 13728 13731 13733 13736 13739 13742 13745 13748 13750 13753 13756 13759 13761 13764 13766 13769 13772 13775 13777 13779 13781 13783 13786 13788 13791 13794 13797 13800 13803 13805 13808 13811 13814 13817 13820 13823 13826 13828 13831 13834 13837 13840 13843 13845 13847 13850 13853 13856 13859 13862 13865 13868 13871 13873 13876 13879 13882 13884 13886 13889 13892 13895 13898 13901 13904 13906 13909 13912 13915 13918 13921 13924 13927 13930 13932 13935 13938 13941 13944 13947 13950 13952 13955 13958 13961 13964 13967 13970 13973 13976 13979 13982 13985 13988 13991 13994 13997 14000 14002 14005 14008 14011 14013 14015 14018 14021 14024 14027 14030 14033 14035 14038 14041 14044 14046 14049 14052 14055 14058 14061 14064 14067 14070 14073 14076 14079 14082 14085 14088 14091 14094 14096 14099 14102 14105 14108 14110 14113 14116 14118 14121 14124 14127 14129 14131 14134 14137 14140 14143 14146 14149 14152 14155 14158 14161 14164 14166 14169 14172 14174 14177 14180 14183 14186 14189 14192 14195 14198 14201 14204 14207 14210 14213 14216 14219 14222 14225 14228 14231 14234 14237 14240 14243 14246 14249 14252 14255 14258 14261 14263 14266 14268 14271 14274 14277 14280 14283 14286 14289 14292 14295 14298 14301 14304 14307 14310 14313 14316 14319 14322 14325 14328 14331 14333 14336 14339 14342 14345 14348 14351 14354 14357 14360 14363 14366 14369 14372 14375 14378 14381 14384 14387 14390 14393 14396 14399 14402 14405 14408 14411 14414 14417 14420 14423 14426 14429 14432 14435 14438 14441 14444 14447 14450 14453 14456 14459 14462 14465 14468 14471 14473 14476 14479 14482 14485 14488 14491 14494 14497 14500 14503 14506 14509 14511 14513 14516 14519 14522 14525 14528 14531 14534 14536 14539 14542 14545 14548 14551 14554 14557 14560 14562 14564 14567 14570 14573 14575 14578 14581 14584 14587 14590 14593 14596 14599 14602 14605 14608 14611 14614 14617 14620 14623 14625 14628 14631 14634 14636 14639 14642 14645 14648 14651 14653 14656 14659 14662 14665 14668 14671 14674 14677 14680 14683 14685 14688 14691 14694 14696 14699 14702 14705 14707 14710 14713 14716 14719 14722 14725 14728 14731 14734 14737 14739 14742 14745 14748 14750 14753 14756 14759 14762 14764 14767 14770 14773 14776 14779 14782 14785 14787 14790 14793 14795 14798 14801 14804 14807 14810 14812 14815 14818 14821 14824 14827 14830 14832 14834 14837 14839 14841 14844 14847 14850 14853 14855 14857 14859 14862 14864 14867 14869 14872 14874 14877 14880 14882 14885 14887 14889 14892 14895 14897 14900 14903 14906 14908 14911 14914 14917 14920 14923 14926 14929 14932 14935 14938 14941 14944 14947 14950 14952 14955 14958 14960 14963 14966 14968 14971 14974 14977 14980 14982 14984 14987 14989 14992 14995 14998 15000 15003 15005 15007 15010 15012 15014 15017 15020 15023 15025 15028 15031 15034 15037 15040 15043 15046 15049 15052 15055 15057 15060 15063 15065 15068 15070 15073 15076 15079 15082 15085 15087 15090 15093 15095 15098 15101 15104 15106 15109 15111 15113 15116 15119 15122 15124 15127 15130 15133 15135 15138 15141 15143 15146 15149 15152 15155 15158 15161 15164 15167 15170 15173 15176 15179 15182 15185 15188 15191 15194 15197 15199 15202 15204 15207 15210 15212 15215 15218 15221 15224 15227 15229 15232 15235 15237 15240 15243 15246 15248 15251 15254 15257 15259 15262 15265 15268 15270 15273 15276 15279 15282 15285 15288 15291 15294 15297 15300 15303 15306 15309 15312 15315 15318 15321 15324 15327 15330 15333 15336 15339 15342 15345 15348 15351 15354 15357 15360 15363 15366 15369 15372 15375 15378 15381 15384 15387 15390 15393 15396 15399 15402 15405 15408 15411 15414 15417 15420 15423 15426 15429 15432 15435 15438 15441 15444 15447 15450 15453 15456 15459 15462 15465 15468 15471 15474 15477 15480 15483 15486 15489 15492 15495 15498 15501 15504 15507 15510 15513 15516 15519 15522 15524 15527 15530 15533 15536 15539 15542 15545 15548 15551 15554 15557 15560 15563 15565 15568 15571 15573 15576 15579 15582 15585 15588 15591 15594 15597 15600 15603 15605 15608 15610 15613 15616 15618 15620 15623 15626 15629 15632 15634 15637 15640 15643 15645 15647 15650 15652 15655 15658 15661 15664 15666 15669 15672 15675 15678 15681 15684 15687 15690 15693 15695 15698 15701 15704 15706 15709 15712 15715 15718 15721 15723 15726 15728 15731 15734 15737 15740 15742 15745 15748 15751 15754 15757 15760 15763 15765 15768 15771 15774 15777 15780 15783 15786 15789 15792 15795 15797 15800 15803 15806 15809 15812 15815 15818 15820 15822 15825 15827 15830 15833 15836 15839 15842 15845 15847 15850 15853 15856 15859 15862 15864 15867 15870 15873 15876 15879 15882 15884 15887 15889 15892 15894 15896 15899 15901 15904 15907 15910 15913 15915 15918 15921 15924 15926 15929 15932 15934 15937 15939 15942 15945 15948 15951 15954 15957 15960 15962 15965 15968 15971 15974 15976 15979 15982 15985 15988 15991 15994 15997 16000 16003 16006 16009 16012 16015 16018 16021 16024 16026 16029 16032 16035 16038 16041 16043 16046 16048 16051 16054 16057 16060 16063 16065 16068 16071 16074 16076 16079 16082 16085 16088 16091 16094 16097 16100 16102 16105 16107 16110 16113 16116 16119 16122 16125 16128 16131 16134 16137 16139 16141 16144 16147 16150 16152 16155 16158 16161 16164 16167 16170 16173 16176 16179 16182 16185 16188 16191 16194 16197 16200 16203 16206 16209 16212 16215 16218 16221 16224 16227 16230 16233 16236 16239 16242 16245 16248 16251 16254 16257 16260 16263 16266 16269 16272 16275 16278 16281 16284 16287 16290 16293 16296 16299 16302 16305 16308 16311 16314 16317 16320 16323 16326 16329 16331 16333 16336 16339 16342 16345 16348 16351 16354 16357 16359 16362 16365 16367 16370 16373 16376 16379 16381 16384 16386 16389 16392 16395 16398 16401 16404 16407 16410 16413 16416 16419 16422 16425 16428 16431 16434 16437 16440 16443 16446 16449 16452 16455 16457 16460 16462 16465 16468 16471 16474 16477 16480 16483 16486 16489 16491 16494 16497 16500 16503 16505 16507 16510 16513 16516 16519 16521 16524 16526 16529 16532 16535 16538 16541 16544 16547 16550 16553 16556 16558 16561 16564 16567 16569 16572 16575 16578 16581 16584 16587 16590 16593 16596 16599 16602 16605 16607 16610 16613 16615 16618 16621 16624 16626 16629 16631 16634 16637 16639 16642 16644 16647 16650 16653 16656 16659 16662 16665 16667 16670 16673 16675 16678 16681 16683 16686 16689 16692 16695 16698 16701 16704 16707 16710 16713 16716 16719 16722 16725 16728 16730 16733 16736 16739 16742 16745 16747 16750 16753 16756 16759 16762 16765 16768 16771 16774 16777 16780 16783 16786 16788 16791 16794 16797 16800 16803 16806 16809 16812 16815 16818 16821 16824 16827 16830 16833 16836 16839 16842 16845 16847 16849 16851 16854 16857 16860 16862 16865 16867 16870 16873 16876 16878 16880 16882 16885 16888 16891 16894 16897 16900 16902 16905 16908 16911 16914 16917 16920 16923 16926 16929 16932 16935 16937 16940 16943 16946 16949 16952 16955 16958 16961 16964 16967 16969 16972 16974 16977 16980 16983 16986 16988 16990 16993 16996 16998 17001 17004 17007 17009 17012 17015 17018 17021 17024 17027 17030 17033 17035 17038 17041 17044 17047 17050 17053 17056 17059 17062 17064 17067 17070 17073 17075 17078 17081 17083 17086 17089 17092 17094 17096 17099 17102 17105 17108 17111 17114 17117 17120 17123 17126 17129 17132 17135 17138 17141 17144 17147 17150 17153 17156 17159 17162 17165 17168 17171 17174 17177 17180 17183 17186 17189 17192 17195 17198 17201 17204 17207 17210 17213 17216 17219 17222 17225 17228 17231 17234 17237 17240 17243 17246 17248 17251 17254 17257 17259 17262 17265 17268 17271 17274 17277 17280 17283 17286 17289 17292 17295 17297 17300 17303 17305 17308 17311 17314 17317 17320 17323 17326 17329 17332 17335 17338 17341 17344 17347 17350 17353 17356 17359 17361 17364 17367 17370 17373 17376 17379 17382 17385 17388 17391 17394 17397 17400 17403 17406 17408 17411 17414 17417 17420 17423 17426 17429 17432 17435 17438 17441 17444 17446 17449 17452 17455 17458 17461 17464 17467 17470 17472 17475 17478 17481 17484 17486 17489 17492 17495 17497 17500 17503 17506 17509 17512 17515 17518 17521 17524 17527 17530 17533 17536 17539 17542 17545 17548 17551 17554 17557 17560 17563 17566 17569 17572 17575 17578 17581 17584 17587 17590 17593 17596 17599 17602 17605 17608 17610 17613 17616 17619 17622 17625 17627 17630 17632 17635 17638 17641 17644 17647 17650 17653 17655 17658 17661 17664 17667 17670 17673 17676 17679 17682 17685 17688 17691 17694 17697 17700 17703 17706 17709 17712 17715 17718 17721 17724 17727 17730 17733 17736 17739 17742 17745 17748 17751 17754 17757 17760 17763 17766 17768 17771 17774 17776 17779 17782 17785 17788 17791 17794 17797 17800 17803 17805 17808 17811 17814 17816 17818 17821 17824 17827 17830 17832 17835 17838 17841 17843 17846 17849 17852 17855 17858 17861 17864 17867 17870 17873 17876 17879 17882 17885 17888 17891 17893 17896 17899 17902 17905 17908 17911 17914 17917 17920 17923 17926 17929 17932 17935 17938 17941 17943 17946 17949 17952 17954 17957 17960 17963 17966 17969 17972 17975 17978 17981 17984 17987 17990 17993 17996 17999 18002 18005 18007 18010 18013 18016 18019 18022 18025 18028 18030 18033 18036 18039 18042 18045 18048 18051 18054 18057 18060 18063 18065 18068 18071 18074 18076 18079 18082 18085 18088 18091 18094 18097 18100 18102 18105 18108 18111 18114 18117 18120 18123 18126 18129 18132 18135 18138 18141 18144 18147 18150 18153 18156 18159 18162 18165 18168 18171 18174 18177 18180 18183 18186 18188 18191 18194 18197 18200 18203 18206 18209 18211 18214 18217 18220 18223 18226 18228 18231 18234 18237 18240 18242 18245 18248 18251 18253 18256 18259 18261 18264 18267 18270 18273 18276 18279 18282 18284 18287 18290 18293 18296 18298 18301 18304 18307 18310 18313 18316 18319 18322 18325 18328 18330 18333 18336 18339 18342 18345 18348 18351 18354 18357 18360 18363 18366 18369 18372 18375 18378 18381 18384 18387 18389 18392 18394 18397 18400 18403 18405 18408 18411 18414 18417 18420 18423 18426 18429 18432 18435 18437 18440 18443 18446 18449 18451 18454 18457 18460 18463 18466 18469 18472 18475 18478 18481 18484 18487 18490 18493 18496 18499 18502 18505 18508 18511 18514 18517 18520 18523 18526 18529 18531 18534 18537 18540 18543 18546 18548 18551 18554 18557 18560 18563 18565 18568 18571 18574 18577 18579 18582 18584 18587 18590 18593 18596 18599 18602 18604 18606 18609 18611 18614 18617 18620 18623 18626 18629 18632 18635 18638 18640 18643 18646 18648 18651 18654 18657 18660 18663 18666 18669 18672 18675 18678 18681 18684 18687 18690 18693 18696 18698 18701 18704 18707 18710 18712 18715 18718 18721 18724 18727 18730 18733 18736 18739 18742 18745 18748 18751 18754 18757 18760 18762 18765 18768 18771 18773 18776 18779 18782 18785 18788 18790 18793 18796 18798 18801 18804 18807 18810 18813 18815 18818 18821 18824 18827 18830 18833 18835 18838 18841 18844 18847 18850 18853 18856 18859 18862 18865 18868 18871 18874 18877 18880 18883 18886 18889 18892 18895 18898 18900 18903 18906 18908 18911 18914 18917 18920 18922 18925 18928 18931 18934 18936 18939 18941 18944 18947 18949 18952 18955 18957 18960 18963 18966 18969 18972 18975 18978 18981 18983 18986 18989 18991 18994 18997 19000 19003 19006 19009 19012 19015 19018 19021 19024 19027 19030 19033 19036 19039 19042 19045 19048 19051 19054 19057 19060 19063 19066 19069 19072 19074 19077 19080 19083 19086 19088 19091 19094 19097 19099 19102 19105 19108 19111 19114 19117 19120 19123 19126 19129 19132 19135 19138 19140 19143 19146 19149 19152 19155 19158 19161 19164 19166 19169 19172 19175 19178 19181 19184 19187 19190 19193 19196 19199 19202 19205 19208 19211 19214 19217 19220 19222 19224 19227 19230 19232 19235 19237 19240 19243 19245 19248 19251 19254 19257 19260 19263 19266 19269 19272 19275 19278 19281 19284 19287 19290 19293 19296 19299 19301 19304 19307 19310 19313 19316 19318 19321 19324 19327 19330 19333 19336 19338 19341 19344 19347 19350 19353 19356 19359 19362 19365 19368 19371 19374 19377 19380 19383 19386 19389 19392 19395 19398 19401 19404 19407 19410 19413 19416 19419 19422 19425 19428 19431 19434 19437 19440 19443 19446 19449 19452 19455 19458 19461 19464 19467 19470 19473 19476 19479 19482 19485 19488 19491 19493 19496 19499 19502 19505 19508 19511 19513 19516 19518 19521 19524 19527 19530 19533 19536 19539 19542 19545 19548 19551 19554 19557 19560 19563 19566 19569 19571 19574 19577 19580 19583 19585 19587 19590 19593 19596 19599 19602 19605 19608 19611 19614 19617 19620 19623 19626 19629 19632 19635 19638 19640 19643 19646 19649 19652 19655 19658 19661 19664 19666 19669 19672 19674 19677 19680 19683 19686 19689 19692 19695 19698 19701 19704 19707 19710 19713 19716 19719 19722 19725 19728 19730 19733 19736 19739 19742 19745 19748 19751 19754 19756 19759 19762 19765 19767 19770 19773 19775 19778 19781 19784 19787 19790 19793 19796 19799 19802 19805 19808 19811 19814 19817 19820 19823 19826 19829 19832 19834 19837 19840 19843 19846 19849 19852 19855 19858 19861 19864 19867 19870 19873 19876 19879 19882 19884 19887 19890 19893 19896 19899 19902 19905 19908 19910 19913 19916 19919 19922 19925 19928 19930 19933 19936 19938 19941 19944 19946 19949 19952 19954 19957 19960 19963 19966 19968 19971 19974 19976 19979 19982 19985 19988 19990 19993 19996 19998 20001 20003 20006 20008 20011 20014 20017 20020 20023 20026 20029 20032 20035 20037 20039 20042 20045 20048 20051 20054 20056 20059 20062 20064 20066 20069 20072 20075 20078 20081 20084 20087 20090 20093 20096 20099 20102 20105 20108 20111 20114 20117 20120 20123 20126 20129 20131 20134 20137 20140 20143 20146 20149 20152 20155 20158 20161 20164 20167 20170 20173 20176 20179 20182 20185 20188 20191 20194 20197 20200 20203 20206 20209 20212 20215 20218 20221 20224 20227 20230 20232 20235 20238 20240 20242 20245 20248 20251 20253 20255 20258 20261 20264 20267 20270 20273 20276 20279 20282 20285 20288 20291 20294 20297 20300 20302 20305 20308 20311 20314 20317 20320 20323 20326 20328 20331 20334 20337 20340 20343 20346 20349 20352 20355 20358 20361 20364 20366 20369 20372 20375 20378 20380 20383 20386 20389 20392 20395 20397 20400 20402 20405 20408 20411 20414 20417 20420 20422 20425 20427 20430 20432 20435 20438 20440 20443 20446 20448 20451 20454 20457 20460 20463 20466 20469 20472 20475 20478 20481 20483 20486 20489 20492 20495 20498 20501 20504 20507 20510 20513 20516 20519 20522 20525 20527 20530 20533 20536 20539 20542 20545 20548 20551 20554 20556 20559 20562 20565 20568 20570 20573 20576 20579 20582 20585 20588 20591 20594 20597 20600 20602 20605 20608 20611 20614 20617 20620 20623 20626 20628 20631 20634 20637 20640 20642 20645 20648 20651 20653 20656 20659 20662 20665 20667 20670 20673 20676 20679 20682 20685 20688 20691 20694 20697 20700 20703 20706 20708 20711 20714 20716 20719 20722 20725 20728 20731 20734 20737 20740 20743 20746 20749 20752 20755 20758 20761 20764 20767 20769 20772 20774 20777 20780 20783 20786 20788 20791 20794 20797 20800 20803 20806 20809 20812 20815 20818 20821 20824 20827 20830 20832 20835 20838 20840 20842 20845 20848 20851 20854 20857 20860 20863 20866 20869 20872 20875 20878 20881 20884 20887 20890 20893 20896 20899 20902 20905 20908 20911 20914 20917 20920 20923 20926 20929 20932 20935 20938 20941 20944 20947 20950 20952 20955 20958 20961 20964 20966 20969 20972 20974 20977 20980 20983 20985 20988 20991 20994 20996 20999 21002 21005 21008 21011 21014 21017 21020 21022 21025 21027 21030 21032 21035 21038 21040 21043 21046 21049 21052 21055 21057 21059 21062 21064 21067 21070 21073 21076 21079 21082 21085 21088 21091 21093 21096 21099 21102 21105 21108 21111 21114 21117 21120 21123 21126 21129 21132 21135 21138 21141 21144 21146 21149 21152 21155 21158 21161 21164 21167 21170 21173 21176 21178 21181 21184 21187 21189 21192 21194 21197 21200 21203 21205 21208 21210 21212 21215 21218 21221 21224 21226 21229 21232 21235 21238 21241 21244 21247 21250 21252 21255 21258 21261 21263 21266 21269 21271 21273 21276 21278 21281 21284 21286 21289 21292 21295 21298 21301 21303 21306 21308 21311 21314 21317 21319 21322 21325 21328 21331 21334 21337 21339 21342 21345 21348 21351 21354 21357 21360 21362 21365 21368 21371 21374 21377 21380 21383 21386 21389 21392 21395 21398 21400 21403 21406 21409 21412 21415 21418 21420 21423 21426 21429 21432 21435 21438 21441 21444 21447 21450 21453 21456 21459 21462 21465 21468 21470 21473 21476 21479 21481 21484 21487 21489 21492 21495 21498 21500 21503 21505 21508 21510 21513 21516 21519 21522 21525 21528 21531 21534 21537 21540 21543 21546 21549 21552 21555 21557 21560 21563 21566 21569 21572 21575 21578 21581 21584 21587 21590 21593 21596 21599 21602 21605 21607 21610 21612 21615 21617 21619 21622 21625 21627 21630 21632 21635 21638 21641 21644 21647 21650 21653 21655 21658 21661 21664 21667 21670 21673 21676 21679 21681 21684 21686 21689 21692 21695 21698 21700 21703 21706 21709 21712 21715 21717 21720 21722 21725 21728 21731 21734 21737 21740 21742 21745 21748 21751 21754 21757 21760 21763 21766 21769 21772 21775 21777 21780 21783 21786 21789 21792 21795 21798 21801 21804 21807 21810 21813 21815 21818 21821 21824 21827 21830 21832 21835 21838 21841 21844 21847 21850 21852 21855 21858 21861 21864 21867 21870 21873 21876 21879 21882 21885 21888 21891 21894 21897 21900 21903 21906 21909 21912 21915 21918 21921 21924 21927 21930 21932 21935 21938 21941 21943 21946 21949 21952 21955 21958 21961 21964 21967 21970 21973 21976 21979 21982 21985 21988 21991 21994 21996 21999 22002 22005 22007 22010 22013 22016 22019 22021 22024 22027 22030 22033 22036 22039 22042 22045 22048 22051 22054 22057 22060 22063 22066 22069 22072 22075 22078 22081 22084 22086 22088 22091 22094 22097 22099 22102 22105 22108 22111 22113 22116 22119 22121 22124 22127 22129 22132 22135 22138 22140 22143 22146 22149 22152 22155 22158 22161 22164 22166 22169 22172 22174 22177 22180 22183 22185 22188 22191 22193 22195 22198 22201 22204 22206 22209 22211 22214 22217 22220 22223 22226 22229 22231 22233 22236 22239 22242 22245 22248 22251 22254 22256 22259 22262 22265 22268 22271 22274 22277 22280 22283 22286 22289 22292 22295 22298 22301 22304 22307 22309 22312 22315 22318 22320 22323 22326 22329 22332 22335 22338 22341 22344 22347 22350 22353 22356 22359 22362 22365 22368 22371 22374 22377 22379 22381 22384 22387 22390 22393 22396 22399 22402 22404 22407 22410 22413 22416 22419 22422 22425 22427 22430 22433 22436 22439 22442 22445 22448 22450 22453 22456 22459 22462 22465 22468 22471 22474 22477 22480 22483 22486 22489 22492 22495 22498 22501 22504 22507 22510 22513 22516 22519 22522 22525 22528 22531 22534 22536 22539 22542 22545 22548 22551 22554 22557 22560 22563 22566 22569 22572 22575 22577 22580 22583 22586 22589 22592 22594 22597 22600 22603 22605 22607 22610 22613 22616 22619 22622 22625 22628 22631 22634 22636 22639 22642 22644 22646 22648 22651 22653 22656 22659 22662 22665 22668 22670 22673 22676 22679 22682 22685 22687 22690 22693 22695 22698 22701 22704 22707 22710 22713 22716 22719 22721 22724 22726 22728 22731 22734 22737 22740 22743 22746 22749 22752 22754 22756 22759 22762 22764 22767 22770 22773 22775 22778 22781 22784 22787 22790 22793 22796 22799 22802 22805 22807 22810 22813 22816 22819 22821 22823 22826 22829 22832 22835 22838 22841 22844 22847 22850 22853 22855 22858 22861 22864 22867 22870 22873 22876 22879 22882 22885 22888 22891 22894 22897 22900 22903 22906 22909 22912 22915 22918 22921 22924 22927 22930 22933 22936 22939 22942 22945 22948 22951 22954 22957 22960 22962 22965 22968 22971 22974 22977 22980 22982 22984 22987 22990 22993 22996 22999 23002 23005 23008 23011 23014 23017 23020 23023 23026 23029 23032 23035 23038 23041 23044 23047 23050 23053 23055 23058 23061 23064 23067 23070 23073 23076 23079 23082 23085 23088 23091 23094 23097 23100 23103 23106 23109 23112 23115 23118 23121 23124 23127 23130 23133 23136 23139 23142 23145 23148 23151 23153 23156 23159 23162 23165 23168 23171 23174 23176 23179 23182 23185 23188 23191 23194 23196 23199 23202 23205 23208 23211 23214 23217 23219 23222 23224 23227 23230 23233 23235 23238 23241 23244 23247 23250 23252 23255 23258 23260 23263 23266 23269 23272 23275 23278 23281 23284 23287 23290 23293 23295 23298 23301 23304 23307 23310 23313 23316 23319 23322 23325 23328 23331 23334 23337 23340 23342 23345 23348 23351 23354 23357 23360 23363 23366 23368 23371 23374 23377 23380 23383 23386 23389 23392 23395 23398 23401 23404 23406 23409 23412 23415 23418 23421 23423 23426 23429 23432 23435 23438 23441 23444 23446 23449 23452 23455 23458 23461 23463 23466 23469 23472 23475 23478 23481 23484 23487 23489 23492 23495 23498 23501 23504 23507 23510 23513 23516 23519 23522 23525 23528 23531 23534 23536 23539 23542 23545 23548 23551 23554 23557 23560 23563 23566 23569 23572 23575 23577 23580 23583 23586 23589 23591 23594 23597 23599 23602 23605 23608 23611 23614 23617 23620 23623 23625 23628 23631 23633 23636 23639 23642 23645 23648 23651 23653 23656 23659 23662 23665 23668 23671 23674 23677 23680 23683 23686 23689 23692 23695 23698 23701 23704 23707 23710 23712 23715 23718 23721 23724 23726 23729 23732 23735 23738 23741 23744 23747 23750 23753 23756 23759 23762 23765 23768 23771 23774 23777 23780 23783 23786 23789 23792 23795 23798 23801 23804 23807 23810 23813 23816 23819 23822 23825 23828 23831 23834 23837 23840 23843 23846 23849 23852 23855 23858 23861 23864 23867 23870 23873 23876 23879 23882 23885 23888 23891 23894 23897 23900 23903 23905 23907 23910 23913 23915 23918 23921 23924 23927 23930 23932 23935 23938 23941 23944 23947 23949 23952 23955 23958 23961 23963 23966 23969 23971 23974 23977 23980 23983 23986 23989 23992 23994 23997 24000 24003 24005 24008 24011 24014 24017 24020 24023 24026 24028 24031 24034 24037 24039 24042 24044 24047 24050 24053 24056 24059 24062 24064 24066 24069 24072 24075 24077 24080 24082 24085 24088 24091 24094 24097 24099 24102 24105 24108 24111 24114 24117 24119 24122 24125 24128 24130 24133 24136 24139 24142 24145 24148 24151 24154 24157 24160 24163 24166 24168 24171 24174 24177 24180 24183 24186 24188 24191 24194 24197 24200 24202 24205 24208 24211 24214 24216 24219 24221 24224 24226 24229 24232 24235 24237 24240 24243 24246 24248 24250 24253 24256 24259 24262 24264 24267 24270 24273 24275 24278 24281 24284 24287 24290 24293 24296 24299 24302 24305 24308 24311 24314 24317 24320 24323 24325 24328 24331 24334 24337 24340 24343 24346 24349 24352 24355 24358 24361 24364 24366 24369 24372 24375 24377 24380 24383 24386 24389 24392 24394 24397 24400 24403 24406 24409 24411 24414 24417 24420 24423 24426 24429 24432 24434 24437 24440 24443 24446 24449 24452 24455 24458 24461 24463 24466 24469 24472 24475 24478 24481 24484 24486 24489 24492 24495 24498 24501 24504 24507 24510 24513 24516 24519 24522 24525 24528 24531 24533 24536 24539 24542 24545 24548 24551 24554 24557 24560 24563 24566 24569 24572 24575 24578 24581 24584 24587 24590 24593 24596 24599 24602 24605 24608 24611 24614 24617 24620 24623 24626 24629 24632 24635 24638 24641 24644 24646 24649 24652 24655 24658 24661 24664 24666 24669 24672 24675 24677 24680 24683 24686 24689 24692 24695 24697 24700 24703 24706 24708 24711 24714 24717 24720 24722 24725 24728 24731 24734 24737 24740 24743 24746 24749 24752 24755 24758 24761 24764 24767 24770 24773 24776 24779 24782 24785 24788 24791 24794 24797 24800 24803 24805 24808 24811 24814 24817 24820 24823 24826 24829 24832 24835 24838 24841 24844 24847 24850 24853 24856 24859 24862 24865 24868 24871 24874 24876 24879 24882 24885 24888 24890 24893 24896 24899 24901 24904 24907 24910 24913 24916 24918 24921 24924 24927 24930 24933 24935 24938 24941 24944 24947 24950 24953 24956 24959 24962 24965 24968 24971 24973 24976 24978 24981 24984 24987 24990 24993 24996 24999 25002 25004 25007 25010 25012 25015 25018 25021 25024 25027 25030 25033 25036 25039 25042 25045 25048 25050 25053 25056 25059 25062 25065 25067 25070 25073 25075 25078 25081 25084 25087 25090 25093 25096 25099 25102 25105 25108 25111 25114 25117 25120 25123 25126 25128 25131 25134 25136 25138 25141 25144 25146 25149 25152 25155 25158 25160 25163 25165 25167 25170 25173 25176 25179 25182 25185 25188 25191 25194 25196 25199 25202 25204 25207 25210 25213 25216 25219 25222 25225 25228 25231 25233 25236 25239 25242 25245 25248 25250 25253 25256 25258 25260 25263 25265 25268 25270 25273 25276 25279 25282 25284 25287 25289 25292 25295 25298 25301 25304 25307 25309 25312 25315 25318 25321 25324 25327 25330 25333 25336 25339 25342 25345 25348 25351 25354 25357 25360 25363 25366 25369 25372 25375 25378 25381 25384 25387 25390 25393 25396 25399 25402 25405 25408 25411 25413 25416 25419 25422 25425 25428 25430 25432 25435 25437 25440 25442 25445 25448 25451 25453 25456 25459 25462 25465 25468 25470 25473 25476 25479 25482 25485 25488 25491 25494 25496 25499 25501 25504 25507 25509 25511 25514 25516 25519 25521 25524 25527 25530 25533 25536 25539 25542 25544 25547 25550 25552 25554 25557 25560 25563 25566 25569 25571 25573 25576 25579 25581 25583 25586 25589 25592 25594 25597 25600 25603 25605 25608 25611 25614 25617 25620 25623 25626 25629 25632 25635 25638 25641 25644 25647 25650 25653 25656 25659 25662 25664 25667 25670 25672 25675 25678 25681 25684 25687 25689 25692 25695 25698 25701 25704 25707 25710 25713 25716 25719 25722 25725 25728 25731 25734 25737 25739 25742 25745 25748 25751 25754 25757 25760 25763 25766 25769 25771 25774 25777 25779 25782 25785 25788 25791 25794 25796 25799 25802 25805 25808 25811 25814 25816 25819 25822 25824 25827 25830 25833 25836 25839 25842 25845 25847 25850 25852 25855 25857 25859 25861 25863 25866 25868 25871 25874 25877 25880 25882 25884 25886 25889 25891 25894 25897 25900 25903 25905 25908 25910 25913 25916 25919 25921 25924 25927 25930 25933 25935 25938 25941 25943 25946 25949 25952 25955 25958 25961 25964 25967 25970 25973 25976 25979 25982 25985 25988 25991 25994 25997 26000 26002 26005 26008 26011 26014 26017 26019 26022 26025 26027 26030 26033 26036 26039 26042 26045 26048 26051 26054 26056 26059 26061 26064 26067 26070 26073 26076 26079 26081 26084 26087 26090 26093 26096 26099 26102 26105 26108 26111 26114 26117 26120 26123 26126 26129 26132 26135 26138 26141 26144 26147 26150 26153 26156 26159 26162 26165 26168 26171 26174 26177 26180 26183 26186 26189 26191 26194 26197 26199 26202 26205 26208 26210 26213 26216 26219 26222 26225 26228 26231 26234 26237 26240 26243 26246 26249 26252 26255 26258 26261 26264 26266 26269 26272 26275 26278 26281 26284 26287 26290 26293 26296 26298 26300 26302 26305 26308 26311 26314 26316 26319 26322 26325 26328 26331 26334 26337 26340 26343 26346 26349 26352 26355 26358 26361 26364 26367 26370 26372 26375 26378 26381 26384 26387 26390 26393 26396 26398 26401 26404 26407 26409 26412 26414 26417 26419 26422 26424 26427 26429 26432 26435 26438 26441 26444 26446 26449 26452 26454 26456 26458 26461 26463 26465 26468 26471 26474 26477 26480 26482 26484 26487 26490 26493 26495 26497 26500 26503 26506 26509 26512 26514 26517 26519 26522 26525 26528 26531 26533 26535 26538 26541 26543 26546 26548 26551 26554 26556 26559 26561 26563 26566 26569 26572 26574 26576 26579 26582 26584 26586 26588 26591 26594 26597 26599 26602 26604 26606 26609 26612 26614 26616 26619 26621 26624 26626 26629 26632 26635 26638 26641 26644 26646 26649 26652 26655 26658 26661 26664 26667 26669 26671 26674 26676 26678 26681 26684 26687 26690 26692 26695 26698 26701 26703 26706 26709 26712 26715 26718 26720 26723 26726 26728 26730 26733 26736 26739 26742 26744 26747 26750 26753 26756 26759 26761 26764 26767 26770 26773 26776 26779 26782 26784 26786 26788 26790 26793 26796 26799 26802 26805 26807 26809 26812 26815 26817 26820 26823 26826 26828 26831 26834 26837 26840 26843 26846 26848 26851 26854 26857 26860 26862 26864 26866 26869 26871 26874 26877 26879 26882 26885 26888 26891 26894 26897 26900 26903 26906 26908 26911 26914 26917 26920 26922 26925 26928 26930 26933 26936 26939 26942 26945 26948 26951 26954 26957 26960 26963 26966 26969 26972 26975 26978 26981 26984 26987 26990 26993 26996 26999 27002 27005 27008 27011 27013 27016 27019 27022 27025 27028 27031 27034 27037 27040 27043 27046 27049 27052 27055 27058 27061 27064 27066 27069 27072 27075 27078 27081 27084 27087 27089 27092 27095 27098 27101 27104 27106 27109 27112 27115 27118 27121 27124 27127 27130 27133 27136 27139 27142 27145 27148 27151 27154 27157 27160 27163 27165 27168 27171 27174 27177 27180 27183 27186 27188 27191 27194 27197 27200 27203 27206 27209 27212 27215 27218 27220 27223 27226 27229 27232 27235 27238 27241 27243 27246 27249 27252 27255 27258 27260 27263 27266 27269 27272 27275 27277 27280 27283 27286 27289 27291 27294 27297 27300 27303 27306 27309 27312 27315 27318 27321 27324 27327 27330 27333 27336 27338 27341 27344 27346 27349 27352 27355 27358 27360 27363 27366 27369 27372 27375 27378 27381 27384 27387 27389 27392 27395 27398 27400 27402 27405 27407 27410 27413 27416 27419 27422 27425 27428 27431 27434 27436 27439 27442 27444 27446 27448 27451 27454 27456 27459 27462 27464 27467 27470 27473 27476 27478 27480 27483 27486 27488 27491 27493 27496 27499 27502 27504 27507 27510 27512 27514 27517 27519 27522 27525 27528 27531 27534 27537 27540 27543 27545 27548 27551 27554 27557 27560 27563 27566 27569 27571 27574 27577 27580 27583 27586 27589 27592 27595 27598 27601 27604 27607 27610 27613 27616 27619 27622 27624 27627 27630 27633 27636 27638 27641 27644 27646 27649 27652 27655 27658 27661 27664 27667 27670 27673 27676 27679 27682 27685 27688 27690 27693 27696 27699 27701 27704 27707 27710 27712 27715 27718 27721 27724 27727 27730 27733 27736 27739 27742 27745 27748 27751 27753 27756 27759 27762 27765 27768 27771 27774 27777 27780 27783 27786 27789 27792 27794 27797 27800 27803 27806 27809 27812 27815 27818 27821 27824 27827 27830 27833 27836 27839 27842 27845 27848 27851 27853 27856 27858 27860 27863 27866 27868 27870 27872 27875 27878 27881 27883 27885 27888 27891 27894 27897 27899 27901 27904 27907 27910 27913 27916 27919 27922 27925 27928 27931 27934 27937 27940 27943 27945 27948 27951 27954 27957 27960 27962 27965 27968 27971 27974 27977 27980 27983 27986 27989 27991 27994 27997 28000 28003 28005 28008 28011 28014 28016 28019 28022 28025 28028 28031 28034 28037 28040 28042 28045 28048 28051 28054 28057 28060 28063 28066 28069 28072 28075 28077 28080 28083 28086 28089 28092 28095 28098 28101 28104 28107 28110 28113 28116 28119 28122 28125 28128 28131 28133 28136 28139 28142 28145 28148 28151 28153 28156 28159 28162 28164 28167 28170 28172 28175 28178 28181 28184 28187 28190 28193 28196 28198 28201 28204 28207 28209 28212 28215 28218 28221 28224 28227 28229 28232 28235 28238 28241 28243 28246 28248 28251 28254 28257 28260 28263 28266 28269 28272 28275 28278 28280 28283 28286 28289 28292 28295 28297 28300 28303 28306 28308 28311 28314 28317 28320 28323 28325 28328 28331 28334 28337 28340 28343 28346 28349 28352 28355 28357 28360 28363 28366 28369 28372 28374 28377 28380 28382 28385 28388 28391 28394 28397 28400 28403 28406 28409 28412 28414 28417 28420 28422 28425 28428 28431 28434 28437 28440 28442 28445 28448 28450 28453 28456 28459 28462 28465 28468 28471 28474 28477 28480 28483 28486 28489 28492 28495 28498 28501 28504 28507 28510 28513 28516 28519 28522 28525 28528 28531 28534 28537 28540 28543 28546 28549 28552 28555 28558 28561 28564 28567 28570 28573 28576 28579 28582 28585 28588 28591 28594 28597 28600 28603 28605 28608 28611 28614 28616 28619 28622 28625 28628 28631 28634 28636 28639 28642 28645 28648 28651 28654 28657 28660 28663 28666 28669 28672 28675 28678 28681 28684 28687 28690 28693 28696 28699 28702 28705 28708 28711 28714 28717 28720 28723 28725 28728 28731 28734 28736 28739 28742 28745 28748 28751 28754 28757 28760 28763 28766 28769 28772 28775 28778 28781 28784 28787 28790 28793 28796 28799 28802 28805 28808 28811 28814 28817 28820 28823 28826 28828 28831 28834 28837 28839 28842 28844 28847 28850 28853 28856 28859 28862 28865 28868 28870 28873 28876 28878 28881 28884 28887 28890 28893 28896 28899 28901 28904 28907 28910 28913 28916 28919 28922 28925 28928 28930 28933 28936 28939 28942 28945 28948 28951 28954 28957 28960 28963 28966 28969 28972 28975 28978 28981 28984 28987 28990 28993 28996 28999 29002 29005 29008 29011 29014 29017 29020 29022 29025 29028 29031 29034 29037 29040 29043 29046 29049 29052 29055 29058 29061 29064 29066 29069 29072 29075 29078 29081 29083 29085 29088 29091 29094 29097 29099 29102 29105 29108 29111 29114 29117 29119 29121 29124 29127 29130 29132 29135 29138 29140 29143 29146 29149 29152 29155 29158 29161 29164 29167 29170 29173 29176 29179 29182 29185 29188 29191 29194 29197 29200 29203 29206 29209 29211 29213 29216 29218 29221 29224 29226 29229 29232 29235 29237 29240 29243 29246 29249 29252 29255 29258 29261 29264 29267 29270 29273 29276 29279 29282 29285 29288 29291 29294 29297 29299 29302 29305 29307 29310 29313 29316 29318 29321 29324 29326 29329 29331 29334 29337 29340 29343 29346 29349 29352 29355 29358 29361 29364 29367 29370 29372 29375 29378 29381 29384 29386 29389 29392 29395 29398 29401 29404 29407 29410 29413 29416 29419 29422 29425 29428 29431 29433 29436 29439 29442 29445 29448 29451 29454 29457 29460 29462 29465 29467 29470 29473 29476 29478 29481 29484 29487 29490 29493 29496 29499 29502 29505 29508 29510 29513 29515 29518 29521 29524 29527 29530 29533 29535 29538 29541 29544 29547 29549 29552 29555 29558 29561 29563 29566 29569 29572 29575 29578 29581 29584 29587 29590 29593 29596 29599 29602 29605 29608 29611 29614 29617 29620 29622 29625 29628 29631 29634 29637 29640 29643 29646 29649 29652 29655 29658 29661 29664 29667 29670 29673 29676 29678 29680 29683 29686 29689 29692 29695 29698 29700 29703 29705 29708 29711 29714 29717 29719 29722 29725 29728 29731 29734 29737 29740 29743 29746 29749 29751 29754 29757 29760 29763 29766 29769 29771 29774 29777 29779 29781 29784 29787 29789 29792 29794 29797 29800 29803 29806 29809 29811 29813 29816 29819 29822 29825 29828 29831 29833 29836 29839 29841 29843 29845 29848 29851 29854 29857 29860 29863 29866 29868 29870 29872 29875 29878 29880 29883 29886 29889 29891 29894 29896 29899 29902 29905 29908 29911 29914 29917 29920 29922 29925 29928 29930 29933 29936 29939 29942 29945 29948 29950 29953 29955 29958 29961 29964 29967 29969 29971 29974 29977 29980 29983 29986 29989 29992 29995 29998 30001 30003 30006 30009 30012 30015 30017 30020 30023 30026 30029 30032 30035 30038 30040 30043 30046 30049 30052 30055 30057 30059 30062 30064 30067 30070 30072 30075 30078 30080 30083 30086 30089 30091 30094 30097 30100 30103 30106 30109 30111 30114 30116 30119 30121 30123 30126 30129 30132 30134 30137 30140 30143 30146 30148 30150 30153 30155 30158 30161 30164 30167 30170 30172 30174 30177 30180 30183 30185 30188 30191 30193 30196 30199 30202 30205 30208 30211 30214 30217 30220 30223 30226 30229 30232 30235 30238 30240 30243 30245 30248 30251 30254 30256 30259 30261 30264 30267 30270 30273 30276 30279 30282 30285 30288 30291 30293 30296 30299 30301 30304 30307 30310 30312 30314 30317 30320 30323 30326 30328 30331 30334 30337 30340 30343 30346 30349 30352 30355 30358 30361 30364 30367 30370 30373 
</DataArray>
<DataArray type="UInt32" Name="types" format="ascii">
5 5 5 5 5 5 5 5 5 5 5 5 3 5 5 5 5 5 5 5 5 3 5 5 5 5 5 3 5 5 3 5 5 5 3 5 5 3 5 5 5 5 5 5 5 3 5 5 5 5 5 5 3 5 5 5 5 5 5 5 5 3 5 5 5 5 3 5 5 5 5 5 5 5 5 5 5 5 3 3 5 5 5 5 5 5 5 5 5 5 3 3 5 5 5 3 5 5 5 3 5 5 5 3 5 5 5 5 5 5 5 5 3 5 5 5 5 5 5 5 5 5 5 5 5 5 5 5 5 5 5 5 5 5 5 5 5 5 3 5 5 5 5 3 5 5 5 5 5 5 5 5 5 3 3 5 5 3 5 5 5 5 3 5 3 5 5 5 5 5 5 5 5 3 5 5 5 5 5 5 5 5 5 5 3 5 5 3 5 5 3 5 5 5 5 3 5 3 5 5 5 5 5 5 5 5 5 5 5 5 5 5 5 5 5 5 5 5 5 5 5 5 5 5 5 5 5 5 5 5 5 5 5 5 5 3 5 5 3 5 3 5 5 5 5 3 5 3 3 5 5 5 5 3 5 3 5 5 3 5 5 5 5 5 5 5 5 5 5 5 5 5 5 3 5 5 5 5 5 5 5 3 5 5 5 5 5 5 5 5 5 5 5 5 5 5 5 5 5 5 5 5 5 5 5 5 5 5 3 5 5 5 5 3 5 5 5 5 5 3 5 3 5 5 5 3 5 5 5 5 5 5 5 5 5 5 5 3 5 5 5 5 5 5 5 5 5 5 5 5 5 5 5 5 5 5 5 5 5 5 5 5 5 5 5 5 5 3 5 5 5 5 3 5 5 5 5 5 5 5 3 5 5 5 5 5 5 5 5 3 5 3 5 5 3 5 5 5 5 5 5 3 5 3 5 5 5 5 5 5 5 5 5 5 5 5 3 3 5 5 5 3 3 5 5 5 5 5 5 5 3 3 5 5 5 3 5 5 5 3 5 5 5 5 3 3 5 3 5 5 5 5 3 5 5 5 5 5 5 5 5 5 5 5 5 5 5 5 5 5 5 5 5 5 5 5 5 5 5 5 5 5 5 3 5 5 5 5 5 5 5 5 5 5 5 5 5 5 5 5 5 5 5 5 5 3 5 5 5 5 5 5 5 5 5 3 5 5 5 5 3 5 5 5 3 5 5 3 5 5 5 5 5 5 5 5 5 5 3 3 3 5 5 5 5 5 5 3 5 5 5 5 5 5 5 5 3 5 5 5 5 5 5 3 5 5 5 5 5 5 5 5 5 5 5 5 5 3 5 5 3 5 5 5 5 3 5 5 3 5 5 5 5 5 5 5 5 5 5 5 5 5 5 5 5 5 5 5 5 3 5 5 5 5 5 5 3 5 5 5 3 3 5 5 5 3 5 5 5 5 5 5 5 5 5 5 5 5 3 5 5 3 5 5 5 5 3 5 3 5 5 5 5 5 5 5 5 5 5 3 5 5 5 5 5 5 5 5 5 5 3 5 5 5 5 5 5 5 5 5 5 5 5 5 5 5 5 5 3 5 5 5 5 5 5 5 5 5 5 5 5 3 3 5 5 3 5 5 5 5 3 5 5 3 5 5 5 5 5 5 3 5 5 3 5 3 5 5 5 5 3 5 3 5 5 5 5 5 5 3 5 5 5 5 3 5 5 5 3 5 5 3 5 3 5 5 5 3 5 5 5 3 5 5 5 5 5 5 5 5 5 5 3 5 3 5 3 5 5 5 3 5 5 5 5 5 5 5 3 5 5 5 5 5 5 5 5 5 5 5 5 5 5 5 3 5 5 5 5 3 5 5 5 5 3 5 5 5 5 5 3 5 5 5 5 5 5 5 5 5 5 5 5 5 5 5 5 5 5 5 5 5 5 5 5 5 5 5 5 5 5 5 5 5 5 5 5 5 5 5 5 5 5 5 5 5 5 3 5 5 5 5 5 5 3 5 5 5 5 5 5 5 5 5 5 5 5 5 5 5 3 5 5 5 5 5 3 5 5 5 5 5 5 5 3 5 5 5 5 5 5 5 5 5 5 5 5 5 5 5 5 5 5 5 5 5 5 5 3 5 5 5 5 5 5 5 5 5 5 5 5 3 5 5 5 5 5 5 5 5 5 3 5 5 5 5 5 5 5 5 5 5 3 5 5 5 5 5 5 5 5 5 5 5 3 3 5 5 5 5 5 5 5 3 5 5 5 5 3 5 5 5 5 5 5 3 5 5 5 5 5 5 5 5 5 5 3 5 5 5 5 5 5 3 5 5 5 5 5 5 5 3 5 5 3 5 3 5 5 5 5 5 5 5 3 5 5 5 5 3 5 5 5 5 5 5 5 3 5 5 5 5 3 5 5 3 5 3 5 5 5 5 5 3 5 5 5 5 3 3 5 5 5 5 5 5 5 5 5 5 5 3 5 5 5 5 5 5 3 5 5 5 5 5 5 5 5 3 5 5 5 5 5 5 5 5 5 5 5 5 5 5 3 5 5 5 3 5 5 5 5 5 5 5 5 5 5 5 5 3 5 5 5 5 5 5 5 3 5 3 5 3 5 3 5 5 5 5 5 5 5 5 3 5 5 3 5 5 3 5 5 5 5 3 5 5 5 5 5 5 5 5 3 5 3 5 3 5 5 3 5 5 5 3 5 5 5 3 5 3 5 5 5 5 5 5 5 5 5 5 3 3 5 3 5 5 3 5 5 3 5 3 5 5 5 3 5 5 5 5 5 5 5 5 5 5 5 3 5 3 5 5 5 3 5 5 5 5 3 5 5 3 5 5 5 3 5 5 5 3 5 3 3 5 5 5 5 5 5 5 5 5 3 5 5 5 5 5 5 5 5 5 5 5 5 5 5 5 3 5 5 5 5 5 5 5 5 5 5 5 3 5 3 5 5 5 5 5 5 3 5 5 5 5 5 5 3 5 5 5 5 3 5 5 5 5 3 5 5 3 5 3 5 5 5 3 3 5 5 5 5 5 5 5 5 5 5 5 5 3 5 5 5 5 5 5 5 5 5 5 5 3 3 5 5 3 5 5 5 3 3 5 5 5 5 5 5 5 5 5 5 5 5 5 3 5 5 3 5 5 5 5 5 5 5 3 5 5 5 3 5 5 5 5 5 3 5 3 5 5 5 5 5 5 5 5 5 5 3 5 5 5 5 3 3 5 5 5 5 5 5 5 5 5 5 5 5 5 5 3 5 5 5 5 5 5 5 3 5 5 5 3 5 5 5 5 5 5 5 5 3 5 5 5 5 5 5 5 5 5 5 5 5 5 3 5 5 5 5 5 5 3 5 5 3 5 5 5 5 5 5 5 5 5 5 5 5 3 5 5 5 5 5 5 3 5 5 5 5 5 5 5 5 3 5 5 5 3 5 5 5 5 3 5 5 5 5 5 5 3 5 5 5 5 5 5 3 5 5 3 5 5 5 5 3 5 5 5 5 5 3 5 5 5 5 5 5 5 5 5 3 5 5 5 3 5 3 5 5 5 5 5 5 5 5 5 5 5 5 5 5 3 5 5 5 3 5 5 5 5 5 5 5 5 5 5 5 5 5 5 5 5 3 5 5 5 5 3 5 5 5 5 5 5 3 5 5 5 5 5 5 5 5 5 5 5 3 5 5 3 5 5 5 5 5 5 5 5 5 5 3 5 5 5 5 5 5 5 5 5 5 3 5 5 5 5 5 5 5 5 5 5 5 5 5 5 3 5 5 5 3 5 3 5 5 3 5 5 5 5 5 5 5 5 5 5 5 3 5 5 5 3 5 5 5 5 5 5 5 5 5 5 5 5 5 5 5 5 5 5 3 5 5 5 5 5 5 5 5 5 5 5 5 5 5 5 5 5 3 5 3 5 5 5 5 3 3 3 5 5 5 5 5 5 5 5 5 5 5 3 5 3 5 5 3 5 3 5 5 5 5 5 5 3 5 5 3 5 5 3 5 5 5 5 5 5 3 5 3 3 5 5 5 5 5 3 5 5 3 5 5 5 5 5 5 5 5 5 5 5 5 5 5 5 5 5 5 5 5 5 5 3 5 5 5 5 5 5 5 5 5 3 5 5 5 5 5 5 3 5 5 5 5 5 5 5 5 3 5 5 5 5 3 5 5 5 5 5 5 5 5 5 5 5 3 5 5 5 5 5 5 5 5 5 5 5 5 5 5 5 5 5 5 5 5 3 5 3 5 5 5 5 5 5 5 5 5 5 5 5 5 5 5 5 5 5 5 5 5 5 5 5 5 5 3 5 5 5 3 5 5 5 5 5 5 5 5 3 5 5 5 5 3 3 5 5 3 5 5 3 3 5 5 3 5 5 5 5 5 5 3 5 5 5 5 5 5 5 5 5 5 5 5 5 5 5 5 3 5 5 5 5 3 5 5 5 5 5 5 5 5 5 5 5 5 3 5 5 3 5 5 3 3 3 5 5 5 5 5 5 5 5 3 5 3 5 5 5 5 5 5 5 5 3 5 3 5 5 5 5 3 5 3 5 5 5 3 3 5 5 5 5 5 3 5 5 3 5 5 3 3 5 5 5 5 3 5 5 3 5 3 3 5 5 5 5 5 5 5 5 5 5 5 5 5 5 5 5 3 5 5 5 5 5 5 5 5 5 5 5 5 5 5 5 3 5 3 5 5 5 5 3 5 5 5 5 5 5 3 5 3 5 5 5 5 5 5 5 3 5 5 3 5 5 5 5 5 3 3 5 5 5 5 5 5 5 5 3 3 5 5 3 3 5 5 5 5 5 5 5 5 3 5 5 5 5 3 5 5 5 5 5 5 5 5 5 3 5 3 5 5 5 3 5 5 5 5 5 5 5 5 5 5 3 5 5 5 5 3 5 3 5 5 3 3 5 5 5 5 5 5 5 5 5 5 3 5 5 5 5 5 5 5 5 5 5 5 5 5 5 5 5 5 5 5 5 5 5 5 5 5 5 5 5 5 5 5 5 5 3 5 3 5 5 5 5 5 5 5 5 5 3 5 5 3 5 5 5 5 5 5 5 5 5 5 5 5 5 5 5 5 5 5 5 3 5 5 5 5 5 5 5 5 5 5 5 5 5 5 5 5 5 5 3 5 5 5 5 5 5 5 5 5 5 3 5 5 5 5 5 5 5 5 5 5 3 5 5 5 5 5 5 5 5 5 5 5 5 5 5 5 5 3 5 5 5 5 5 5 5 5 5 5 3 5 5 5 5 3 5 5 5 5 5 5 5 5 3 5 3 5 5 5 5 5 5 5 5 5 5 5 3 5 5 5 5 5 3 5 5 5 5 5 5 5 5 5 5 5 3 5 5 3 5 5 5 3 5 5 5 5 3 5 5 5 3 5 5 5 5 5 5 5 3 5 5 5 3 5 5 5 5 5 5 5 5 5 5 5 5 5 3 5 5 3 5 5 5 5 5 5 5 5 5 3 5 5 5 5 5 5 5 5 3 5 5 5 5 3 3 5 3 5 5 5 5 5 5 3 5 5 5 5 3 5 5 3 5 5 5 5 5 5 5 5 5 5 5 5 5 3 5 5 5 5 3 5 5 3 5 5 5 5 5 3 5 5 5 5 5 5 5 5 5 5 5 5 5 5 5 5 5 3 5 5 3 5 5 5 5 5 5 3 5 5 5 5 5 5 5 5 3 5 5 5 3 5 5 5 5 5 5 5 5 3 3 5 5 5 5 3 5 5 5 3 5 5 3 5 5 5 5 5 5 5 5 5 5 5 5 5 5 5 5 5 5 3 5 5 5 5 5 5 5 5 5 5 5 5 5 5 5 3 5 5 5 5 5 5 5 5 5 5 5 3 5 5 5 5 5 5 5 5 5 5 5 5 5 5 5 5 5 5 5 5 3 5 5 5 5 5 5 3 5 5 5 5 5 5 5 5 5 5 5 5 5 5 3 5 5 3 5 5 5 5 5 5 5 5 5 5 5 5 5 3 5 5 5 5 5 5 5 5 5 5 5 5 5 5 5 5 5 5 5 5 5 5 5 5 5 5 5 5 5 5 5 5 5 5 5 3 5 5 5 5 5 5 5 5 3 5 5 5 5 5 5 5 5 5 5 5 5 5 5 5 5 5 5 5 3 3 5 5 5 5 5 5 5 5 5 5 5 5 5 5 5 5 5 5 5 5 5 5 5 5 5 5 5 5 5 5 5 5 5 5 3 5 5 3 5 5 5 5 5 5 5 5 5 5 5 5 5 3 5 5 5 3 5 5 3 5 3 5 5 3 5 5 5 5 5 5 5 3 5 5 5 5 3 5 3 3 5 5 5 5 5 5 3 3 3 5 5 5 5 5 5 3 5 5 5 5 5 5 5 5 5 5 5 3 5 3 3 5 5 5 3 5 5 3 3 5 5 5 5 5 5 5 5 5 5 5 5 5 5 3 5 5 5 5 5 5 5 5 5 5 5 5 5 5 5 5 5 5 5 5 5 3 5 3 5 5 5 5 5 5 5 5 5 5 3 5 5 5 5 5 5 5 5 5 5 5 5 5 5 5 5 5 5 5 5 5 5 5 5 5 5 5 5 5 5 5 5 5 5 5 5 5 5 5 5 5 5 5 5 5 5 5 5 3 5 3 5 3 5 5 5 5 5 5 5 5 5 5 5 5 5 5 5 5 5 5 5 3 5 5 5 5 3 5 5 5 5 5 5 5 5 3 5 5 5 5 5 5 5 5 5 5 5 5 3 5 3 5 3 5 5 5 5 5 3 5 5 3 5 5 5 3 3 5 5 5 3 5 5 5 3 5 3 5 5 5 5 5 5 5 5 5 5 5 5 5 5 3 5 3 5 5 5 5 5 5 5 5 3 5 5 5 5 5 5 5 5 5 5 3 5 5 5 5 5 5 5 5 5 5 5 5 5 5 5 5 3 5 5 5 5 5 3 5 5 5 5 3 5 3 5 5 5 3 5 5 5 5 5 5 5 5 5 5 5 5 5 5 5 5 5 5 5 5 5 5 5 5 5 5 5 5 5 5 5 5 3 3 5 3 5 5 3 5 3 5 5 5 3 5 5 5 5 5 3 5 5 5 3 5 5 3 5 5 3 5 5 5 5 5 5 5 5 5 3 5 5 5 5 5 5 5 3 5 5 5 3 5 5 3 5 5 5 5 5 5 5 5 3 3 5 5 5 5 3 5 5 3 5 5 5 5 5 5 5 5 5 5 5 5 5 5 5 5 5 3 5 5 3 5 3 5 3 5 5 5 5 5 3 5 5 3 5 3 5 5 5 5 5 3 5 5 5 3 5 5 5 3 5 5 3 5 5 5 5 3 3 5 5 5 5 5 5 5 3 3 5 5 5 3 5 5 5 5 5 5 5 5 5 5 3 5 5 5 5 5 5 5 5 3 5 5 3 5 5 5 5 5 5 5 5 5 5 5 5 5 5 5 5 5 5 3 5 3 5 5 5 5 5 5 5 5 5 5 5 5 5 5 5 5 5 5 5 5 5 5 5 5 5 5 5 5 5 5 5 5 5 5 5 5 5 5 5 5 5 5 5 5 5 5 5 5 5 5 5 3 5 5 5 5 5 5 5 5 5 5 5 5 5 5 5 5 5 5 3 5 5 5 3 5 3 5 5 5 5 5 3 5 3 5 5 5 5 5 3 3 5 5 5 5 5 5 5 5 5 5 5 5 5 5 3 3 5 5 5 5 5 5 5 5 5 5 5 3 5 3 5 3 5 5 5 3 5 3 5 5 5 5 5 5 5 5 5 5 5 5 3 3 5 5 5 5 5 5 5 5 5 5 5 5 5 5 5 5 5 5 5 5 5 5 5 5 5 5 5 5 5 3 5 5 5 3 5 5 5 5 5 5 3 5 5 5 5 5 5 5 5 5 5 5 5 5 5 5 3 5 5 5 5 5 5 5 5 5 5 5 5 5 5 5 5 5 5 5 5 5 5 3 5 5 5 3 3 5 5 5 5 5 5 5 3 5 5 5 5 5 5 5 5 3 5 5 3 5 5 3 5 5 5 5 5 5 5 3 5 5 5 5 5 5 5 5 3 5 5 5 5 5 5 5 5 5 5 5 5 5 5 5 5 5 5 5 5 5 3 5 3 5 5 5 5 5 5 5 5 5 5 5 5 5 5 5 5 5 5 5 5 5 5 5 5 5 5 5 5 5 5 3 5 5 5 5 5 5 5 5 5 3 5 5 5 5 5 5 5 5 5 5 5 5 5 5 3 5 5 5 5 5 5 5 5 5 5 5 5 5 5 5 5 5 5 5 3 5 5 5 3 5 5 5 5 5 5 5 5 5 5 5 5 5 5 5 5 5 3 5 5 5 5 5 5 5 5 3 5 5 5 5 5 5 5 5 5 5 5 5 5 5 5 5 5 5 5 5 5 5 5 5 5 5 5 5 5 3 5 5 5 3 5 5 3 5 5 5 3 5 3 5 3 3 5 5 5 5 3 3 5 5 5 5 5 3 5 5 5 3 5 5 5 5 5 5 5 5 5 5 5 5 5 5 5 5 5 5 3 5 5 5 3 5 5 5 5 5 5 5 5 5 5 5 5 5 5 5 5 5 5 5 5 3 5 5 5 5 5 5 5 5 3 5 5 5 5 3 3 5 5 5 5 5 5 5 5 5 5 5 5 5 5 5 5 5 5 5 3 5 5 5 3 5 3 5 5 3 5 5 5 5 5 5 5 3 5 5 5 3 5 5 3 5 5 5 5 5 3 3 5 5 5 5 5 5 5 5 5 5 5 3 5 5 5 3 5 5 5 3 5 3 5 5 5 5 3 5 5 5 5 5 5 5 5 5 5 5 5 5 3 5 5 5 3 5 5 5 3 5 5 5 5 5 5 5 5 5 5 5 3 5 5 5 5 5 5 5 5 5 5 5 5 5 5 5 5 5 5 5 5 5 5 5 5 5 5 5 5 5 5 5 5 5 5 5 3 5 5 5 5 5 5 5 5 5 5 5 5 5 5 5 5 5 5 5 3 5 5 5 5 5 5 3 5 5 5 5 5 3 5 5 5 5 5 5 5 5 5 5 3 5 5 5 5 5 5 5 5 5 5 5 5 3 5 5 5 5 5 5 5 5 5 5 5 5 5 5 5 5 5 5 5 5 5 5 5 5 3 5 5 5 5 5 5 5 5 5 5 5 5 5 3 5 5 5 5 5 5 5 5 5 5 5 5 5 5 5 5 5 5 5 5 5 5 5 5 5 5 5 5 5 5 3 3 5 5 5 5 5 5 5 5 5 5 5 5 5 5 5 5 5 5 5 5 5 5 5 5 5 5 5 5 3 5 5 5 3 5 5 5 5 5 3 5 5 5 5 5 5 5 5 3 5 5 5 5 5 3 5 5 5 3 5 5 5 5 3 5 5 5 5 5 5 5 5 5 5 5 3 5 5 5 5 5 5 5 5 5 5 5 5 5 5 3 5 5 5 5 5 5 5 5 3 5 5 5 5 5 5 5 5 5 5 5 5 5 5 5 5 5 5 5 5 5 5 5 5 5 5 5 3 5 5 5 5 5 5 5 5 5 5 5 3 5 5 5 5 5 5 5 5 5 5 5 5 5 5 3 5 5 5 5 5 5 5 5 3 5 5 3 5 5 5 5 3 5 5 3 5 3 5 3 5 5 3 5 5 5 5 5 5 5 5 5 5 5 5 3 3 5 5 3 5 5 5 5 5 5 5 5 5 5 5 5 3 5 5 5 5 5 5 5 5 5 5 5 5 5 5 3 5 3 5 5 5 5 5 5 3 5 5 5 5 5 5 3 5 5 5 5 3 5 3 5 5 5 3 3 5 5 3 5 3 5 5 3 5 5 5 5 5 5 5 5 5 5 5 5 3 5 5 5 5 5 5 5 3 5 5 5 5 5 5 5 5 5 5 5 5 5 3 5 3 5 3 5 3 5 3 3 3 5 5 5 3 5 5 5 3 5 5 3 3 5 5 5 3 5 5 5 5 5 5 3 5 5 5 5 5 5 5 5 5 5 5 5 5 5 5 5 5 5 3 3 5 5 5 3 3 5 5 3 5 3 5 5 5 5 5 5 5 5 3 5 5 5 5 5 5 5 5 5 5 5 3 5 5 3 3 5 5 5 3 5 5 3 5 5 5 5 5 5 5 5 5 5 3 5 3 3 5 5 3 5 3 5 5 3 3 5 5 5 5 5 5 3 5 3 5 5 3 5 5 5 5 5 5 3 5 5 5 5 5 5 5 5 5 3 5 3 5 5 5 5 5 5 3 5 5 5 5 5 5 5 5 5 5 5 5 5 5 5 5 5 5 5 5 5 5 5 5 5 5 5 5 5 5 5 5 3 5 5 5 5 5 3 5 5 5 5 5 5 3 5 5 5 5 5 5 5 5 5 5 5 5 3 5 5 5 5 5 3 5 5 5 5 5 3 5 5 5 5 5 5 5 5 5 5 5 5 5 5 5 5 5 5 5 5 3 3 5 5 5 3 5 5 5 5 5 5 5 5 5 5 5 5 5 3 5 5 3 5 5 5 5 5 5 5 5 5 5 5 5 5 5 5 5 5 5 5 5 5 5 5 5 5 5 5 5 5 5 5 5 5 5 5 5 5 5 3 5 5 5 5 5 5 5 3 5 5 5 5 5 5 5 5 5 3 5 5 5 5 5 5 5 3 5 5 3 5 3 3 5 5 3 5 5 3 5 3 5 3 5 5 5 5 5 3 5 5 5 5 5 5 3 5 5 5 5 5 5 5 5 5 5 5 3 5 5 3 5 3 5 5 5 3 5 5 5 5 5 5 5 5 5 5 5 5 3 5 5 5 5 5 5 5 5 5 3 5 5 5 5 5 3 5 5 5 3 5 3 5 5 5 3 3 3 3 5 3 5 5 5 5 5 3 5 5 5 5 5 5 5 3 5 5 5 5 5 3 3 5 5 5 5 5 5 5 5 3 5 5 5 3 3 5 5 5 5 5 5 3 5 5 5 5 5 5 5 5 3 5 5 5 5 5 5 3 5 5 5 5 5 5 5 5 5 5 5 5 5 5 5 5 3 5 5 5 3 3 5 5 5 5 5 5 3 5 5 5 3 5 5 5 5 5 5 5 5 5 5 5 5 5 5 5 5 3 5 5 5 5 3 5 5 3 5 5 5 3 3 5 5 5 5 5 5 5 5 5 5 5 3 5 5 3 5 5 5 5 5 5 5 5 5 5 5 5 5 5 5 5 5 5 5 5 5 5 5 5 5 5 5 5 5 3 5 3 5 5 5 5 5 5 5 5 5 5 5 5 5 5 5 5 5 5 5 5 5 3 5 5 5 5 5 5 5 5 5 5 5 5 5 5 5 5 5 5 5 5 5 5 5 5 5 5 5 5 5 5 5 5 5 5 5 5 5 5 5 5 5 5 5 5 5 5 3 5 5 5 5 5 5 5 5 5 5 5 5 3 3 5 5 5 5 5 5 5 3 5 5 5 5 5 5 5 5 3 3 5 5 5 3 5 5 5 5 5 5 5 5 5 5 5 5 5 5 5 5 3 5 5 5 3 5 5 5 5 5 3 5 5 5 5 5 5 5 5 5 5 3 5 5 5 3 5 5 5 3 5 5 5 5 5 5 5 5 5 5 3 5 5 5 3 5 5 5 5 3 5 5 5 5 5 5 5 3 5 5 3 5 5 5 5 5 3 5 5 5 5 5 5 3 3 5 3 3 5 5 5 5 3 3 3 5 3 5 3 5 3 5 5 3 5 3 3 5 5 3 5 5 5 3 5 5 5 5 5 5 5 5 5 5 5 5 5 5 3 5 5 3 5 5 3 5 5 5 5 3 3 5 3 5 5 5 3 5 3 3 5 3 3 5 5 5 3 5 5 5 5 5 5 5 5 5 5 3 5 5 3 5 3 5 5 5 5 5 3 5 5 3 5 5 5 3 5 3 3 5 5 5 3 5 5 5 3 5 5 3 5 5 5 5 5 5 5 5 5 5 5 5 5 5 5 5 5 5 3 5 3 5 5 3 5 5 5 5 5 3 5 5 3 5 5 5 3 5 5 5 3 5 5 5 3 5 5 5 5 5 5 5 5 5 5 5 5 5 5 5 5 5 5 5 5 5 5 5 5 5 5 5 5 5 5 5 5 5 5 5 5 5 5 5 5 5 5 5 5 5 5 5 5 5 5 5 5 5 5 5 5 5 5 5 5 5 5 5 5 5 5 5 5 5 5 5 5 5 5 5 5 5 5 5 5 5 5 5 5 3 5 5 5 5 5 5 5 5 5 5 5 5 5 3 5 5 3 5 5 5 5 5 5 5 5 5 5 3 5 3 5 5 3 3 5 5 5 5 3 5 5 5 3 3 5 3 5 5 5 5 3 5 5 5 5 5 5 5 5 5 3 5 5 5 3 5 5 5 5 5 3 5 3 5 5 5 5 3 5 5 5 5 5 5 5 3 5 5 5 5 5 5 5 5 5 5 3 5 5 5 5 5 5 5 3 3 5 3 5 5 5 5 5 5 3 5 5 5 5 5 3 5 5 5 5 5 5 3 5 3 5 3 3 5 3 5 5 5 5 3 5 5 5 3 5 5 3 5 3 5 5 5 5 5 5 5 3 5 5 5 5 3 5 5 5 5 5 5 5 5 5 5 5 5 5 5 5 5 3 5 5 5 5 5 3 5 3 5 5 5 5 5 3 5 5 5 3 5 5 5 5 5 5 5 5 3 5 3 5 5 5 5 5 5 5 5 5 5 3 3 5 5 5 3 5 5 5 5 5 5 5 5 5 5 5 5 5 5 5 5 5 5 5 5 5 5 5 5 5 5 5 5 5 5 5 5 5 5 5 5 5 5 5 5 5 5 5 5 5 5 5 5 5 5 5 5 5 5 5 5 5 5 5 3 3 5 5 5 5 5 5 5 5 3 5 5 3 5 5 5 5 3 5 3 5 5 5 5 5 5 5 5 5 5 5 5 5 5 5 5 5 5 5 5 5 5 5 3 5 3 5 5 5 5 5 5 5 5 5 3 5 5 5 5 3 3 5 5 5 5 3 5 3 5 5 5 5 5 5 5 5 5 5 3 5 5 5 3 5 5 5 5 5 5 5 5 5 5 5 5 3 5 5 3 5 5 5 3 5 3 5 5 3 5 3 5 5 5 5 5 5 5 3 5 5 3 5 5 3 5 5 5 5 5 5 5 5 5 5 5 5 5 5 5 3 5 5 5 5 5 3 5 5 5 5 5 5 5 5 5 5 5 5 5 3 5 5 5 5 5 5 5 5 5 5 5 5 5 5 5 5 5 5 5 3 3 3 5 5 5 3 5 3 5 5 5 3 3 3 5 5 5 5 5 5 3 5 5 5 5 5 5 5 5 5 5 5 3 5 5 5 5 5 5 5 5 5 5 3 5 3 5 5 5 5 3 3 5 5 3 5 5 5 3 5 5 5 5 5 5 5 5 3 5 5 5 5 5 5 5 5 5 3 5 5 5 3 5 5 3 5 5 5 3 3 5 5 5 5 5 5 5 5 5 5 5 5 5 5 5 5 5 5 5 5 5 5 5 5 5 5 5 5 5 5 5 5 5 5 5 5 5 5 5 5 5 5 5 5 5 5 5 5 5 5 3 5 5 5 3 5 5 5 5 5 5 5 5 5 5 5 5 3 5 5 3 5 5 5 5 5 5 5 5 5 5 5 5 5 5 5 5 5 5 3 5 5 5 5 5 5 5 5 5 5 5 5 5 5 5 3 5 5 5 5 5 5 5 5 5 5 5 5 3 5 5 5 5 5 5 5 5 3 5 5 5 5 3 5 5 5 3 5 5 5 5 5 5 5 5 5 5 5 5 5 5 5 5 5 5 5 5 5 5 5 5 5 5 5 5 5 5 5 5 5 5 5 5 5 3 5 5 5 5 5 3 5 3 5 5 5 5 5 5 5 3 5 5 5 5 5 5 5 5 5 5 5 5 5 5 5 5 5 5 5 5 5 5 5 5 5 5 5 5 5 5 5 5 5 5 5 5 5 3 5 5 3 5 5 5 5 5 5 5 5 5 3 5 5 5 3 3 5 5 5 5 3 5 5 5 3 5 5 5 5 5 5 5 5 5 5 5 5 5 5 5 5 3 5 5 5 5 5 5 5 5 5 5 5 5 5 5 5 5 3 5 5 5 3 5 5 5 5 5 5 5 5 5 5 5 5 5 5 5 5 5 3 5 5 5 5 5 5 5 3 5 5 5 5 5 5 5 5 5 5 5 3 5 5 5 3 5 5 5 5 5 5 5 5 3 5 5 5 5 5 5 5 5 5 5 5 5 5 5 5 5 5 5 5 5 5 5 5 5 5 5 5 5 3 5 5 5 5 5 5 5 3 5 5 5 5 5 3 5 5 5 5 3 5 5 5 3 5 5 3 5 5 5 5 5 5 5 3 5 5 5 5 3 5 5 5 5 5 5 5 5 5 5 3 5 5 5 5 5 5 5 5 5 5 5 5 5 5 5 5 5 5 5 3 5 3 5 5 5 3 5 5 5 5 5 5 5 5 5 5 3 5 5 5 5 3 5 5 5 5 5 5 5 5 5 5 5 5 5 5 5 5 5 5 5 5 5 5 5 5 5 5 3 5 5 5 5 5 3 5 5 5 5 5 3 5 5 5 5 3 5 3 5 5 5 5 5 5 3 3 5 3 5 5 5 5 5 5 5 5 5 3 5 5 3 5 5 5 5 5 5 5 5 5 5 5 5 5 5 5 5 3 5 5 5 5 3 5 5 5 5 5 5 5 5 5 5 5 5 5 5 5 5 3 5 5 5 3 5 5 5 5 5 3 5 5 3 5 5 5 5 5 3 5 5 5 5 5 5 3 5 5 5 5 5 5 5 5 5 5 5 5 5 5 5 5 5 5 5 5 5 3 5 5 3 5 5 5 5 3 5 5 5 5 3 5 3 5 5 3 5 5 3 5 5 5 5 5 5 5 5 3 5 5 3 5 5 5 5 5 5 5 5 5 5 5 5 5 5 5 5 5 5 5 5 5 5 5 5 5 5 5 3 5 5 5 5 3 5 5 5 3 5 5 5 5 5 5 5 5 5 5 5 5 5 3 5 5 5 5 5 5 5 5 3 5 5 5 5 5 5 5 5 5 5 5 5 5 5 5 5 5 5 3 3 5 5 3 5 3 5 5 3 5 5 5 5 5 5 5 5 5 5 5 5 5 5 5 5 5 5 3 5 5 5 5 5 3 5 5 5 5 5 5 3 5 5 5 5 5 5 5 5 5 5 5 5 5 5 5 5 5 5 5 5 5 5 5 5 5 5 5 5 5 5 5 5 5 5 5 5 5 5 5 5 5 5 5 5 5 5 5 5 5 5 5 3 5 5 5 5 5 5 3 5 3 5 5 5 5 5 5 5 5 5 5 5 5 5 5 5 5 5 3 5 5 5 5 3 3 5 5 5 5 5 5 5 5 5 5 5 5 5 5 5 5 5 3 5 5 5 5 5 5 5 5 3 5 5 3 5 5 5 5 5 5 5 5 5 5 5 5 5 5 5 5 5 5 3 5 5 5 5 5 5 5 5 3 5 5 5 3 5 5 3 5 5 5 5 5 5 5 5 5 5 5 5 5 5 5 5 5 5 5 3 5 5 5 5 5 5 5 5 5 5 5 5 5 5 5 5 3 5 5 5 5 5 5 5 5 3 5 5 5 5 5 5 3 5 5 3 5 5 3 5 5 3 5 5 5 5 3 5 5 3 5 5 5 5 3 5 5 3 5 3 5 3 5 5 5 5 5 5 5 5 5 3 3 5 5 5 5 5 3 5 5 3 3 5 5 5 5 5 5 5 5 5 5 5 5 5 5 5 5 5 5 5 5 5 3 5 5 5 5 5 5 5 5 5 5 5 5 5 5 5 5 5 5 5 5 5 5 5 5 5 5 5 5 5 5 5 5 5 3 5 5 3 3 5 5 5 3 3 5 5 5 5 5 5 5 5 5 5 5 5 5 5 5 3 5 5 5 5 5 5 5 5 3 5 5 5 5 5 5 5 5 5 5 5 5 3 5 5 5 5 3 5 5 5 5 5 3 5 3 5 5 5 5 5 5 3 5 3 5 3 5 5 3 5 5 3 5 5 5 5 5 5 5 5 5 5 5 3 5 5 5 5 5 5 5 5 5 5 5 5 5 5 3 5 5 5 5 5 5 5 5 5 3 5 5 5 5 3 5 5 5 5 5 5 5 5 5 5 3 5 5 5 5 5 5 5 5 3 5 5 5 5 3 5 5 5 3 5 5 5 5 3 5 5 5 5 5 5 5 5 5 5 5 5 5 3 5 5 3 5 5 5 5 5 5 5 5 5 5 5 5 5 5 5 5 5 3 5 3 5 5 5 5 3 5 5 5 5 5 5 5 5 5 5 5 5 5 5 3 5 5 3 3 5 5 5 5 5 5 5 5 5 5 5 5 5 5 5 5 5 5 5 5 5 5 5 5 5 5 5 5 5 5 5 5 5 5 5 5 3 5 5 5 5 3 5 5 3 5 5 5 3 5 5 5 3 5 5 5 5 5 5 5 5 3 5 3 5 3 5 5 3 5 5 5 5 5 3 3 5 3 5 5 5 5 5 5 5 5 5 3 5 5 5 5 5 5 5 5 5 5 5 5 5 5 5 5 5 3 5 5 5 5 5 5 5 5 5 5 3 5 5 5 3 5 3 5 5 5 3 5 3 3 5 5 5 5 3 5 5 5 5 5 5 5 5 3 5 5 5 3 5 5 3 3 5 3 5 5 3 5 5 5 5 5 3 5 3 5 5 5 3 5 5 5 5 5 5 3 5 5 5 5 5 5 5 3 5 5 5 5 5 5 5 5 5 5 5 5 3 5 5 5 5 5 5 3 5 5 5 5 5 5 5 5 5 5 5 5 5 5 5 5 3 5 5 5 3 5 5 3 5 5 5 3 5 3 5 3 5 5 5 5 5 5 5 5 5 5 5 5 5 5 5 3 5 5 5 5 5 5 5 5 5 5 5 5 5 5 5 5 3 5 3 5 3 3 5 5 3 5 3 5 5 5 5 5 5 5 3 5 5 5 5 5 5 5 5 3 5 3 5 5 5 5 3 5 5 5 5 5 3 5 3 5 5 5 5 5 5 3 5 5 5 5 5 5 5 5 5 5 5 3 5 5 5 5 5 5 5 5 5 5 5 5 3 5 5 5 5 5 3 5 5 5 5 5 5 3 5 5 5 5 5 5 5 5 5 5 5 5 5 5 5 5 5 5 5 5 5 5 5 5 5 5 3 5 5 5 3 5 5 5 5 5 5 5 5 5 5 5 5 5 5 5 5 5 3 5 5 5 3 5 5 5 5 3 5 5 5 5 5 5 5 5 5 5 5 5 5 5 5 5 5 5 5 5 5 3 3 5 5 5 3 5 5 5 5 3 5 5 3 5 5 3 5 5 5 3 5 5 5 5 5 5 5 5 3 5 5 3 5 5 5 3 5 5 3 3 5 5 5 3 5 3 5 5 5 5 5 5 3 3 5 5 5 5 5 5 5 3 5 5 5 5 5 5 5 5 5 5 5 5 5 5 5 5 5 3 5 5 5 3 5 5 5 5 5 5 5 5 5 5 5 5 5 5 5 5 5 5 5 3 3 5 5 5 5 5 5 5 3 5 5 5 5 5 5 5 3 5 5 5 5 5 5 5 3 5 5 5 5 5 5 5 5 5 5 5 5 5 5 5 5 5 5 5 5 5 5 5 5 5 5 5 5 3 5 5 5 5 5 5 5 5 5 5 5 5 5 3 5 5 5 5 5 3 5 5 5 3 3 5 5 5 5 5 5 5 5 5 3 5 5 3 3 3 5 3 5 5 5 5 5 3 5 5 5 5 5 3 5 5 3 5 5 5 5 5 5 5 5 3 5 3 3 5 5 5 5 5 5 5 5 3 3 5 5 3 5 5 5 3 5 5 5 5 5 5 5 5 5 5 3 5 5 5 5 3 3 5 5 5 5 5 5 5 5 5 5 3 5 5 5 5 5 5 5 5 5 5 5 5 5 5 5 5 5 5 5 5 5 5 5 5 5 5 5 5 5 5 5 5 5 5 5 3 5 5 5 5 5 5 3 3 5 5 5 5 5 5 5 5 5 5 5 5 5 5 5 5 5 5 5 5 5 5 5 3 5 5 5 5 5 5 5 5 5 5 5 5 5 5 5 5 5 5 5 5 5 5 5 5 5 5 5 5 5 5 5 5 3 5 5 5 5 5 5 5 3 5 5 5 5 5 5 3 5 5 5 5 5 5 5 3 5 3 5 5 5 3 5 5 5 5 5 3 5 5 3 5 5 5 5 5 5 5 5 5 5 5 3 5 5 5 5 5 5 5 5 5 5 5 5 5 5 5 3 5 5 5 5 5 5 5 5 3 5 5 5 5 5 5 5 5 5 5 5 5 3 5 5 5 5 5 3 5 5 5 5 5 5 5 3 5 5 5 5 5 3 5 5 5 5 5 5 5 5 3 5 5 5 5 5 5 5 5 5 5 5 5 5 5 5 3 5 5 5 5 5 5 5 5 5 5 5 5 5 3 5 5 5 5 3 5 5 3 5 5 5 5 5 5 5 5 3 5 5 3 5 5 5 5 5 5 3 5 5 5 5 5 5 5 5 5 5 5 5 5 5 5 5 5 5 5 3 5 5 5 5 3 5 5 5 5 5 5 5 5 5 5 5 5 5 5 5 5 5 5 5 5 5 5 5 5 5 5 5 5 5 5 5 5 5 5 5 5 5 5 5 5 5 5 5 5 5 5 5 5 5 5 5 5 5 5 5 5 5 5 5 3 3 5 5 3 5 5 5 5 5 3 5 5 5 5 5 3 5 5 5 5 3 5 5 3 5 5 5 5 5 5 5 3 5 5 5 3 5 5 5 5 5 5 5 3 5 5 5 3 5 3 5 5 5 5 5 5 3 3 5 5 5 3 5 3 5 5 5 5 5 3 5 5 5 5 5 5 3 5 5 5 3 5 5 5 5 5 5 5 5 5 5 5 5 3 5 5 5 5 5 5 3 5 5 5 5 3 5 5 5 5 3 5 3 5 3 5 5 5 3 5 5 5 3 3 5 5 5 5 3 5 5 5 3 5 5 5 5 5 5 5 5 5 5 5 5 5 5 5 5 3 5 5 5 5 5 5 5 5 5 5 5 5 5 3 5 5 5 3 5 5 5 5 5 3 5 5 5 5 5 3 5 5 5 5 5 5 5 3 5 5 5 5 5 5 5 5 5 3 5 5 5 5 5 5 5 3 5 5 5 5 5 5 5 5 5 5 5 5 5 5 5 3 5 5 5 5 5 5 5 5 5 5 5 5 5 5 5 5 5 5 5 5 5 5 5 5 5 5 5 5 5 5 5 5 5 5 5 5 5 3 5 5 5 5 5 5 3 5 5 5 3 5 5 5 5 5 5 3 5 5 5 3 5 5 5 5 3 5 5 5 5 5 5 5 5 5 5 5 5 5 5 5 5 5 5 5 5 5 5 5 5 5 5 5 3 5 5 5 5 5 5 5 5 5 5 5 5 5 5 5 5 5 5 5 5 5 5 5 3 5 5 5 5 3 5 5 5 3 5 5 5 5 5 3 5 5 5 5 5 3 5 5 5 5 5 5 5 5 5 5 5 5 3 5 3 5 5 5 5 5 5 5 5 3 5 5 3 5 5 5 5 5 5 5 5 5 5 5 5 3 5 5 5 5 5 3 5 5 3 5 5 5 5 5 5 5 5 5 5 5 5 5 5 5 5 5 3 5 5 3 3 5 5 3 5 5 5 5 3 5 3 3 5 5 5 5 5 5 5 5 5 3 5 5 3 5 5 5 5 5 5 5 5 5 3 5 5 5 5 5 3 5 5 3 3 5 3 5 3 5 5 5 5 3 5 3 5 5 5 5 5 5 3 5 5 5 5 5 5 5 5 5 5 5 5 5 5 5 5 5 5 5 5 5 5 5 5 5 5 5 5 5 5 5 5 5 5 3 5 5 5 5 5 3 3 5 3 5 3 5 5 5 3 5 5 5 5 5 3 5 5 5 5 5 5 5 5 3 5 3 5 5 3 3 5 3 5 3 5 5 5 5 5 5 5 3 5 5 3 3 5 5 5 5 5 3 3 5 5 3 3 5 5 5 3 5 5 5 3 5 5 5 5 5 5 5 5 5 5 5 5 5 5 5 5 5 5 5 3 5 5 3 5 5 5 5 5 3 5 5 5 5 5 5 5 5 5 5 5 5 5 5 5 5 3 5 5 5 5 5 5 5 5 5 5 3 5 5 3 5 5 5 5 5 3 5 5 5 5 5 5 3 5 5 3 5 5 5 5 5 5 5 3 5 3 5 3 3 3 3 5 3 5 5 5 5 3 3 3 5 3 5 5 5 5 3 5 3 5 5 5 3 5 5 5 5 3 5 5 3 5 5 5 5 5 5 5 5 5 5 5 5 5 5 5 5 5 5 5 3 5 5 5 5 5 3 5 5 3 5 5 5 5 5 5 5 5 5 3 5 3 5 5 5 5 5 5 3 5 5 5 5 5 5 5 5 5 5 5 5 5 5 5 5 5 5 5 5 5 5 5 5 5 5 5 5 5 5 5 5 5 5 5 5 3 5 5 3 5 5 5 3 5 5 5 5 5 5 5 5 5 5 5 5 5 5 5 5 5 5 3 5 5 5 5 5 5 5 5 5 5 3 3 3 5 5 5 5 3 5 5 5 5 5 5 5 5 5 5 5 5 5 5 5 5 5 5 3 5 5 5 5 5 5 5 5 3 5 5 5 3 5 3 5 3 5 3 5 3 5 5 5 5 5 3 5 5 3 3 3 5 3 3 5 5 5 5 5 3 3 5 5 5 3 3 5 5 5 5 5 3 5 3 5 5 5 5 3 3 5 5 3 5 3 5 5 3 5 3 3 5 5 5 3 3 5 5 3 3 3 5 5 5 3 5 3 3 5 5 3 3 5 3 5 3 5 5 5 5 5 5 3 5 5 5 5 5 5 5 3 3 5 3 3 5 5 5 5 3 5 5 5 3 5 5 5 5 5 3 5 5 3 3 5 5 5 5 3 5 5 5 5 5 3 5 5 5 5 5 5 5 3 3 3 3 5 5 5 5 5 3 3 5 5 3 5 5 5 3 5 5 5 5 5 5 3 5 5 5 5 3 3 3 5 3 5 5 3 5 5 5 5 5 5 5 5 5 3 5 5 5 5 3 5 5 3 5 5 5 5 5 5 5 5 5 5 5 5 5 5 5 5 5 5 5 5 5 5 5 5 5 5 5 3 5 5 5 5 5 5 5 5 5 5 5 5 5 5 5 5 5 3 5 5 5 5 5 5 5 3 5 5 5 5 5 3 5 5 5 5 5 5 5 5 5 5 5 5 5 5 5 5 5 5 5 3 5 5 5 5 5 5 5 3 5 5 5 5 5 5 5 5 5 5 3 5 5 5 5 5 5 5 3 5 5 5 5 5 3 5 5 5 5 5 3 5 5 5 5 3 5 5 5 5 5 5 5 5 5 5 5 5 5 5 5 3 5 5 3 5 5 5 5 3 5 5 5 5 5 5 5 5 5 3 5 5 5 3 3 5 3 5 5 5 5 5 5 5 5 5 3 5 5 3 3 3 5 5 3 5 5 3 5 5 5 5 3 3 5 5 3 5 3 5 5 5 3 5 5 3 3 5 3 5 5 5 5 5 5 5 5 3 5 5 5 5 5 5 5 5 3 5 5 5 5 5 5 5 5 5 5 5 5 5 5 5 5 5 3 5 5 5 5 3 5 5 3 5 5 5 5 5 5 5 5 5 5 5 5 5 5 3 5 5 5 3 5 5 5 3 5 5 5 5 5 5 5 5 5 5 5 5 5 3 5 5 5 5 5 5 5 5 5 5 5 5 5 3 5 5 5 5 5 5 5 5 5 5 5 5 5 5 5 5 5 5 5 3 5 3 3 5 5 3 3 3 5 5 5 3 3 5 5 5 5 3 3 5 5 5 5 5 5 5 5 5 5 5 5 5 5 3 5 5 5 5 5 3 5 5 5 5 5 5 5 5 5 3 5 5 5 5 3 5 5 5 3 5 5 5 5 5 5 5 5 3 5 5 5 5 5 5 5 5 5 5 5 3 5 5 5 5 5 5 5 5 5 5 5 5 5 5 5 5 5 5 3 5 5 5 5 5 5 3 5 5 5 3 5 5 3 5 5 5 5 5 5 5 5 3 5 5 5 3 5 5 5 5 5 5 3 5 5 5 5 3 5 3 5 5 5 5 5 5 5 5 5 5 3 5 5 5 5 5 3 5 5 5 3 5 5 5 5 5 3 5 5 5 5 5 5 5 5 5 5 3 5 5 5 5 5 3 5 5 3 5 5 5 5 5 5 5 5 5 5 3 5 5 3 5 5 5 5 5 5 3 5 5 3 5 5 5 5 5 5 5 5 5 5 5 5 5 5 5 5 5 5 5 5 5 5 5 5 5 5 5 5 5 5 5 5 5 5 5 5 5 5 5 5 5 5 5 5 5 5 5 5 5 5 5 3 5 5 5 3 5 5 5 5 5 5 3 5 5 5 5 5 5 5 5 5 5 5 5 5 5 5 5 5 5 5 5 5 5 5 5 5 5 5 5 5 3 5 5 5 3 5 5 5 5 5 5 5 5 5 5 5 5 5 5 5 5 5 5 5 5 5 5 5 5 5 5 5 5 5 5 3 5 5 5 3 5 3 5 5 5 5 5 5 5 5 3 5 5 3 5 5 5 5 5 5 5 3 5 5 5 5 5 5 5 5 5 3 5 5 5 5 5 5 5 5 5 5 5 5 5 5 5 5 5 5 5 5 5 5 5 5 5 5 5 5 5 5 3 5 5 5 5 5 5 5 5 5 5 5 5 5 5 3 5 5 5 5 5 3 3 5 5 5 5 3 5 5 5 5 5 5 3 3 5 5 5 3 5 5 3 5 5 5 5 5 5 5 5 5 5 5 5 5 5 5 5 5 5 5 5 5 5 5 3 3 5 3 5 5 3 5 5 5 3 5 5 5 5 5 5 5 5 5 5 5 5 5 5 5 5 5 5 5 5 3 5 5 3 5 5 5 3 5 5 3 5 3 5 5 5 5 5 5 5 5 5 5 5 5 5 3 5 5 5 5 3 5 5 5 5 5 5 5 5 5 5 5 5 5 5 5 3 5 5 5 5 5 5 5 5 5 3 5 3 5 5 5 3 5 5 5 5 5 5 5 5 5 5 3 5 3 5 5 5 5 5 5 3 5 5 5 5 3 5 5 5 5 3 5 5 5 5 5 5 5 5 5 5 5 5 5 5 5 5 5 5 5 3 5 5 5 5 5 5 5 5 5 5 5 5 5 5 5 5 5 5 3 3 5 5 5 5 5 5 3 5 3 5 5 5 5 3 5 5 5 5 5 5 5 5 5 5 3 5 5 5 5 5 5 3 5 5 3 3 5 5 3 5 3 5 5 5 5 5 3 3 5 5 5 5 5 5 3 5 5 3 3 3 5 5 5 5 5 5 5 3 3 3 5 5 3 5 5 5 3 5 3 5 5 5 5 5 5 5 5 3 5 5 3 5 5 5 5 5 5 3 5 3 5 5 5 5 3 3 5 5 5 5 5 5 5 5 5 5 3 5 5 5 5 3 5 5 5 5 5 5 5 3 5 5 5 5 5 3 3 5 3 5 5 3 5 5 3 5 5 5 3 5 5 5 5 5 5 3 5 3 5 3 3 5 5 5 3 5 5 5 5 3 3 5 3 5 5 5 5 5 3 3 5 5 5 3 5 5 3 5 5 5 5 5 5 5 5 5 5 5 5 5 5 5 3 5 3 5 5 5 3 5 3 5 5 5 5 5 5 5 5 5 5 3 5 5 3 5 5 5 3 3 5 5 5 5 3 5 5 5 5 5 5 5 5 5 5 5 5 5 5 5 
</DataArray>
</Cells>
<PointData Scalars="" Vectors="displacement," Tensors="">
<DataArray type="Float64" Name="displacement" NumberOfComponents="3" format="ascii">
-0.049997063498561749 -0.049996241256593028 0 -0.046386055228460996 -0.048387831827905681 0 -0.04261270817992964 -0.049995739471392041 0 -0.049997063498561749 -0.049996241256593028 0 -0.048671246253562506 -0.046117877218132132 0 -0.049995504267390453 -0.043507747959302748 0 -0.049997063498561749 -0.049996241256593028 0 -0.048671246253562506 -0.046117877218132132 0 -0.046386055228460996 -0.048387831827905681 0 -0.048671246253562506 -0.046117877218132132 0 -0.046386055228460996 -0.048387831827905681 0 -0.047435374461389103 -0.045552932005310659 0 -0.046386055228460996 -0.048387831827905681 0 -0.046641563490896043 -0.046842030869396117 0 -0.047435374461389103 -0.045552932005310659 0 -0.046386055228460996 -0.048387831827905681 0 -0.04261270817992964 -0.049995739471392041 0 -0.042214736866010363 -0.049891620817276612 0 -0.042214736866010363 -0.049891620817276612 0 -0.038997957161955817 -0.05075973787599812 0 -0.037115426848953165 -0.049997785549383229 0 -0.04261270817992964 -0.049995739471392041 0 -0.042214736866010363 -0.049891620817276612 0 -0.037115426848953165 -0.049997785549383229 0 -0.038997957161955817 -0.05075973787599812 0 -0.039391684540004836 -0.051623194222539311 0 -0.041700804698388473 -0.050353218721537661 0 -0.042214736866010363 -0.049891620817276612 0 -0.038997957161955817 -0.05075973787599812 0 -0.041700804698388473 -0.050353218721537661 0 -0.039391684540004836 -0.051623194222539311 0 -0.041700804698388473 -0.050353218721537661 0 -0.043064211601684811 -0.05017490796922814 0 -0.038336390855998936 -0.047782084871031479 0 -0.043064211601684811 -0.05017490796922814 0 -0.040767824232814318 -0.051399877983974558 0 -0.038854241153831043 -0.049662782710318015 0 -0.042667266424057777 -0.050240470467423685 0 -0.042214736866010363 -0.049891620817276612 0 -0.041700804698388473 -0.050353218721537661 0 -0.045786371282020601 -0.04869713598744476 0 -0.046386055228460996 -0.048387831827905681 0 -0.042214736866010363 -0.049891620817276612 0 -0.045786371282020601 -0.04869713598744476 0 -0.041700804698388473 -0.050353218721537661 0 -0.043064211601684811 -0.05017490796922814 0 -0.045786371282020601 -0.04869713598744476 0 -0.046386055228460996 -0.048387831827905681 0 -0.045786371282020601 -0.04869713598744476 0 -0.046641563490896043 -0.046842030869396117 0 -0.046641563490896043 -0.046842030869396117 0 -0.047131811082837899 -0.046002193939189091 0 -0.047272903821007205 -0.043970417200788828 0 -0.045786371282020601 -0.04869713598744476 0 -0.046641563490896043 -0.046842030869396117 0 -0.047131811082837899 -0.046002193939189091 0 -0.043064211601684811 -0.05017490796922814 0 -0.045786371282020601 -0.04869713598744476 0 -0.043472121229117672 -0.051807310572140469 0 -0.045786371282020601 -0.04869713598744476 0 -0.047131811082837899 -0.046002193939189091 0 -0.04863674203770723 -0.046124932035573822 0 -0.045782990949643831 -0.048691433713160558 0 -0.046396139226225409 -0.049340034076977443 0 -0.047131811082837899 -0.046002193939189091 0 -0.048488419497359381 -0.044486935987854137 0 -0.047272903821007205 -0.043970417200788828 0 -0.047131811082837899 -0.046002193939189091 0 -0.048488419497359381 -0.044486935987854137 0 -0.04863674203770723 -0.046124932035573822 0 -0.038336390855998936 -0.047782084871031479 0 -0.040767824232814318 -0.051399877983974558 0 -0.03795910918820633 -0.052520210868112441 0 -0.043064211601684811 -0.05017490796922814 0 -0.040767824232814318 -0.051399877983974558 0 -0.043472121229117672 -0.051807310572140469 0 -0.040767824232814318 -0.051399877983974558 0 -0.043472121229117672 -0.051807310572140469 0 -0.041286957466170615 -0.053900509293358927 0 -0.046396139226225409 -0.049340034076977443 0 -0.040680337297949107 -0.044828160184948659 0 -0.048488419497359381 -0.044486935987854137 0 -0.04863674203770723 -0.046124932035573822 0 -0.049522178105480472 -0.044727265665230879 0 -0.031824194458591908 -0.044779802535289806 0 -0.03243772138569586 -0.045864962366510567 0 -0.032715180415866893 -0.044995935792765965 0 -0.040680337297949107 -0.044828160184948659 0 -0.034816754737817722 -0.049496324658716929 0 -0.040767824232814318 -0.051399877983974558 0 -0.041286957466170615 -0.053900509293358927 0 -0.03795910918820633 -0.052520210868112441 0 -0.031824194458591908 -0.044779802535289806 0 -0.032528839835577403 -0.043908657619958269 0 -0.032715180415866893 -0.044995935792765965 0 -0.039716216624162616 -0.035476199032728216 0 -0.037424588686466663 -0.037776434653101883 0 -0.040337914074398101 -0.039028152703699089 0 -0.040680337297949107 -0.044828160184948659 0 -0.035100768686935242 -0.040967622168720935 0 -0.039716216624162616 -0.035476199032728216 0 -0.040337914074398101 -0.039028152703699089 0 -0.043255455226945266 -0.037880081709785254 0 -0.048488419497359381 -0.044486935987854137 0 -0.049522178105480472 -0.044727265665230879 0 -0.048712538459193912 -0.042583861153957236 0 -0.040680337297949107 -0.044828160184948659 0 -0.046310115708178577 -0.039776241514697441 0 -0.04292368013681741 -0.040226029263142289 0 -0.040337914074398101 -0.039028152703699089 0 -0.040109512679627764 -0.04130923287790552 0 -0.04292368013681741 -0.040226029263142289 0 -0.040337914074398101 -0.039028152703699089 0 -0.043255455226945266 -0.037880081709785254 0 -0.040337914074398101 -0.039028152703699089 0 -0.037889249611711716 -0.040755012917651733 0 -0.040109512679627764 -0.04130923287790552 0 -0.037424588686466663 -0.037776434653101883 0 -0.040337914074398101 -0.039028152703699089 0 -0.037889249611711716 -0.040755012917651733 0 -0.047272903821007205 -0.043970417200788828 0 -0.046861517541363758 -0.040190179267646287 0 -0.047315860098306621 -0.04116593860576645 0 -0.047272903821007205 -0.043970417200788828 0 -0.048712538459193912 -0.042583861153957236 0 -0.046861517541363758 -0.040190179267646287 0 -0.048488419497359381 -0.044486935987854137 0 -0.047272903821007205 -0.043970417200788828 0 -0.048712538459193912 -0.042583861153957236 0 -0.046310115708178577 -0.039776241514697441 0 -0.046692338550544721 -0.04034598365339935 0 -0.04292368013681741 -0.040226029263142289 0 -0.043255455226945266 -0.037880081709785254 0 -0.046861517541363758 -0.040190179267646287 0 -0.046861517541363758 -0.040190179267646287 0 -0.047315860098306621 -0.04116593860576645 0 -0.047339744057800809 -0.039951568590196107 0 -0.047315860098306621 -0.04116593860576645 0 -0.046567291076447324 -0.041951450632415406 0 -0.047612429928726878 -0.040138081518325291 0 -0.047315860098306621 -0.04116593860576645 0 -0.047612429928726878 -0.040138081518325291 0 -0.048163529678331957 -0.039324945252170306 0 -0.046567291076447324 -0.041951450632415406 0 -0.047612429928726878 -0.040138081518325291 0 -0.047941218614829161 -0.039076732971158476 0 -0.051095163517095019 -0.038350489888316026 0 -0.049999070483478625 -0.038814214816492616 0 -0.050363413747625527 -0.040664341683910261 0 -0.048336677743705689 -0.042136730690608901 0 -0.049536965651200943 -0.03881428062173032 0 -0.050238200121603113 -0.042377260823721133 0 -0.051095163517095019 -0.038350489888316026 0 -0.050363413747625527 -0.040664341683910261 0 -0.049999070483478625 -0.038814214816492616 0 -0.050363413747625527 -0.040664341683910261 0 -0.049995504267390453 -0.043507747959302748 0 -0.048671246253562506 -0.046117877218132132 0 -0.050238200121603113 -0.042377260823721133 0 -0.049995504267390453 -0.043507747959302748 0 -0.050238200121603113 -0.042377260823721133 0 -0.050363413747625527 -0.040664341683910261 0 -0.049995504267390453 -0.043507747959302748 0 -0.048671246253562506 -0.046117877218132132 0 -0.050238200121603113 -0.042377260823721133 0 -0.047435374461389103 -0.045552932005310659 0 -0.047272903821007205 -0.043970417200788828 0 -0.047315860098306621 -0.04116593860576645 0 -0.047435374461389103 -0.045552932005310659 0 -0.047315860098306621 -0.04116593860576645 0 -0.046567291076447324 -0.041951450632415406 0 -0.047435374461389103 -0.045552932005310659 0 -0.046641563490896043 -0.046842030869396117 0 -0.047272903821007205 -0.043970417200788828 0 -0.047435374461389103 -0.045552932005310659 0 -0.048336677743705689 -0.042136730690608901 0 -0.047639890938873421 -0.045127996800021497 0 -0.026560589349537748 -0.048744724365837704 0 -0.027284258858223869 -0.047771811929037553 0 -0.025156160425838889 -0.050279483843244731 0 -0.026560589349537748 -0.048744724365837704 0 -0.028660744134447379 -0.047832616822369479 0 -0.028343741856346652 -0.048148245776920895 0 -0.028660744134447379 -0.047832616822369479 0 -0.027284258858223869 -0.047771811929037553 0 -0.03023093096706583 -0.046939969923769899 0 -0.026560589349537748 -0.048744724365837704 0 -0.028660744134447379 -0.047832616822369479 0 -0.027284258858223869 -0.047771811929037553 0 -0.027244975036589552 -0.049578532532190335 0 -0.025049302899804182 -0.050118880866599019 0 -0.025877038968186411 -0.050392927340654953 0 -0.027068602957392284 -0.051345842787209932 0 -0.024738592530963166 -0.050228949925422352 0 -0.025877038968186411 -0.050392927340654953 0 -0.027134499422232991 -0.049999427312988308 0 -0.024272919447093783 -0.049998896501922165 0 -0.025877038968186411 -0.050392927340654953 0 -0.027134499422232991 -0.049999427312988308 0 -0.028683194649570747 -0.050266460777474986 0 -0.025877038968186411 -0.050392927340654953 0 -0.027068602957392284 -0.051345842787209932 0 -0.028683194649570747 -0.050266460777474986 0 -0.028683194649570747 -0.050266460777474986 0 -0.030699592048140815 -0.049250368467023714 0 -0.029820565459483212 -0.050397826748721272 0 -0.027068602957392284 -0.051345842787209932 0 -0.028683194649570747 -0.050266460777474986 0 -0.029820565459483212 -0.050397826748721272 0 -0.027134499422232991 -0.049999427312988308 0 -0.028683194649570747 -0.050266460777474986 0 -0.029993655090822857 -0.049996676837687881 0 -0.029993655090822857 -0.049996676837687881 0 -0.030699592048140815 -0.049250368467023714 0 -0.031235659685732345 -0.048499685392647637 0 -0.028683194649570747 -0.050266460777474986 0 -0.029993655090822857 -0.049996676837687881 0 -0.030699592048140815 -0.049250368467023714 0 -0.030699592048140815 -0.049250368467023714 0 -0.029820565459483212 -0.050397826748721272 0 -0.031870236832893653 -0.048094920978213995 0 -0.028660744134447379 -0.047832616822369479 0 -0.031265578374390347 -0.047536179487593838 0 -0.028343741856346652 -0.048148245776920895 0 -0.029935440967239275 -0.048665394102470269 0 -0.031603052698560202 -0.048172588156454726 0 -0.027244975036589552 -0.049578532532190335 0 -0.029935440967239275 -0.048665394102470269 0 -0.028660744134447379 -0.047832616822369479 0 -0.03023093096706583 -0.046939969923769899 0 -0.031265578374390347 -0.047536179487593838 0 -0.03023093096706583 -0.046939969923769899 0 -0.031265578374390347 -0.047536179487593838 0 -0.031870236832893653 -0.048094920978213995 0 -0.029995224076789052 -0.050000318096160401 0 -0.03284488657424179 -0.051196052300165842 0 -0.037115426848953165 -0.049997785549383229 0 -0.031265578374390347 -0.047536179487593838 0 -0.03234667281381258 -0.047354777089442843 0 -0.031870236832893653 -0.048094920978213995 0 -0.03234667281381258 -0.047354777089442843 0 -0.032181334997945045 -0.048183033614077171 0 -0.032418930625720467 -0.046838337622199903 0 -0.03234667281381258 -0.047354777089442843 0 -0.032181334997945045 -0.048183033614077171 0 -0.031870236832893653 -0.048094920978213995 0 -0.032181334997945045 -0.048183033614077171 0 -0.031760653132416806 -0.048210011613957868 0 -0.031870236832893653 -0.048094920978213995 0 -0.032181334997945045 -0.048183033614077171 0 -0.031760653132416806 -0.048210011613957868 0 -0.033501087752698319 -0.047012150048933714 0 -0.030699592048140815 -0.049250368467023714 0 -0.031760653132416806 -0.048210011613957868 0 -0.031870236832893653 -0.048094920978213995 0 -0.030699592048140815 -0.049250368467023714 0 -0.031760653132416806 -0.048210011613957868 0 -0.031235659685732345 -0.048499685392647637 0 -0.029995609425911045 -0.049999940956009153 0 -0.032128970906078469 -0.049852618146599574 0 -0.032128970906078469 -0.049852618146599574 0 -0.034747700087582357 -0.049421193383475635 0 -0.031760653132416806 -0.048210011613957868 0 -0.031235659685732345 -0.048499685392647637 0 -0.033501087752698319 -0.047012150048933714 0 -0.03284488657424179 -0.051196052300165842 0 -0.035891266502256998 -0.051764359969264942 0 -0.037115426848953165 -0.049997785549383229 0 -0.038997957161955817 -0.05075973787599812 0 -0.035891266502256998 -0.051764359969264942 0 -0.037115426848953165 -0.049997785549383229 0 -0.038854241153831043 -0.049662782710318015 0 -0.034747700087582357 -0.049421193383475635 0 -0.038997957161955817 -0.05075973787599812 0 -0.039391684540004836 -0.051623194222539311 0 -0.035891266502256998 -0.051764359969264942 0 -0.038336390855998936 -0.047782084871031479 0 -0.033501087752698319 -0.047012150048933714 0 -0.034509524846712929 -0.048323844514524511 0 -0.032181334997945045 -0.048183033614077171 0 -0.033501087752698319 -0.047012150048933714 0 -0.034509524846712929 -0.048323844514524511 0 -0.032383733627518597 -0.048217810762781164 0 -0.033590152325116925 -0.048660537992154085 0 -0.032181334997945045 -0.048183033614077171 0 -0.034509524846712929 -0.048323844514524511 0 -0.034613657315715078 -0.050492132205532607 0 -0.038336390855998936 -0.047782084871031479 0 -0.034509524846712929 -0.048323844514524511 0 -0.034613657315715078 -0.050492132205532607 0 -0.038336390855998936 -0.047782084871031479 0 -0.03795910918820633 -0.052520210868112441 0 -0.034613657315715078 -0.050492132205532607 0 -0.034816754737817722 -0.049496324658716929 0 -0.033590152325116925 -0.048660537992154085 0 -0.03234667281381258 -0.047354777089442843 0 -0.032418930625720467 -0.046838337622199903 0 -0.032833559062632266 -0.04611953915046374 0 -0.03243772138569586 -0.045864962366510567 0 -0.032418930625720467 -0.046838337622199903 0 -0.032833559062632266 -0.04611953915046374 0 -0.032833559062632266 -0.04611953915046374 0 -0.033676390217780253 -0.044454452532994446 0 -0.033021425774702913 -0.045737140387704302 0 -0.032833559062632266 -0.04611953915046374 0 -0.032715180415866893 -0.044995935792765965 0 -0.033676390217780253 -0.044454452532994446 0 -0.03243772138569586 -0.045864962366510567 0 -0.032833559062632266 -0.04611953915046374 0 -0.032715180415866893 -0.044995935792765965 0 -0.032528839835577403 -0.043908657619958269 0 -0.032715180415866893 -0.044995935792765965 0 -0.033676390217780253 -0.044454452532994446 0 -0.032528839835577403 -0.043908657619958269 0 -0.034491897825519709 -0.042076387144557754 0 -0.033676390217780253 -0.044454452532994446 0 -0.037424588686466663 -0.037776434653101883 0 -0.037889249611711716 -0.040755012917651733 0 -0.034491897825519709 -0.042076387144557754 0 -0.035100768686935242 -0.040967622168720935 0 -0.03451523548788666 -0.041805877001696072 0 -0.037889249611711716 -0.040755012917651733 0 -0.034491897825519709 -0.042076387144557754 0 -0.037023914267058422 -0.042405853856843763 0 -0.034000619458146177 -0.04363736499411898 0 -0.033676390217780253 -0.044454452532994446 0 -0.033288712405165517 -0.045072453796466627 0 -0.034491897825519709 -0.042076387144557754 0 -0.034000619458146177 -0.04363736499411898 0 -0.035008626226275451 -0.043259280226472893 0 -0.034491897825519709 -0.042076387144557754 0 -0.034000619458146177 -0.04363736499411898 0 -0.033676390217780253 -0.044454452532994446 0 -0.033676390217780253 -0.044454452532994446 0 -0.033288712405165517 -0.045072453796466627 0 -0.033021425774702913 -0.045737140387704302 0 -0.033288712405165517 -0.045072453796466627 0 -0.032669688773961973 -0.046157587984627935 0 -0.033021425774702913 -0.045737140387704302 0 -0.034000619458146177 -0.04363736499411898 0 -0.033288712405165517 -0.045072453796466627 0 -0.033554509588544598 -0.044543354803025043 0 -0.033288712405165517 -0.045072453796466627 0 -0.03310678016857569 -0.045399509569562034 0 -0.033554509588544598 -0.044543354803025043 0 -0.03310678016857569 -0.045399509569562034 0 -0.0331271338603632 -0.045795593713645985 0 -0.033318001636311295 -0.045294477317617383 0 -0.03310678016857569 -0.045399509569562034 0 -0.033318001636311295 -0.045294477317617383 0 -0.033554509588544598 -0.044543354803025043 0 -0.03310678016857569 -0.045399509569562034 0 -0.032669688773961973 -0.046157587984627935 0 -0.032648792857888298 -0.045821043897573847 0 -0.033288712405165517 -0.045072453796466627 0 -0.03310678016857569 -0.045399509569562034 0 -0.032669688773961973 -0.046157587984627935 0 -0.032669688773961973 -0.046157587984627935 0 -0.032504161252627076 -0.046816595647128749 0 -0.032000458161885688 -0.04723036175005068 0 -0.032669688773961973 -0.046157587984627935 0 -0.033021425774702913 -0.045737140387704302 0 -0.032504161252627076 -0.046816595647128749 0 -0.032833559062632266 -0.04611953915046374 0 -0.033021425774702913 -0.045737140387704302 0 -0.032504161252627076 -0.046816595647128749 0 -0.03234667281381258 -0.047354777089442843 0 -0.032833559062632266 -0.04611953915046374 0 -0.032504161252627076 -0.046816595647128749 0 -0.031265578374390347 -0.047536179487593838 0 -0.03234667281381258 -0.047354777089442843 0 -0.032504161252627076 -0.046816595647128749 0 -0.031265578374390347 -0.047536179487593838 0 -0.029694132927095621 -0.047968803525039759 0 -0.028343741856346652 -0.048148245776920895 0 -0.031265578374390347 -0.047536179487593838 0 -0.032504161252627076 -0.046816595647128749 0 -0.032000458161885688 -0.04723036175005068 0 -0.029694132927095621 -0.047968803525039759 0 -0.032000458161885688 -0.04723036175005068 0 -0.029021628691138897 -0.049503039465443141 0 -0.031265578374390347 -0.047536179487593838 0 -0.029694132927095621 -0.047968803525039759 0 -0.032000458161885688 -0.04723036175005068 0 -0.032669688773961973 -0.046157587984627935 0 -0.032000458161885688 -0.04723036175005068 0 -0.032648792857888298 -0.045821043897573847 0 -0.03310678016857569 -0.045399509569562034 0 -0.032648792857888298 -0.045821043897573847 0 -0.0331271338603632 -0.045795593713645985 0 -0.032648792857888298 -0.045821043897573847 0 -0.032484490315229472 -0.046085606815706837 0 -0.0331271338603632 -0.045795593713645985 0 -0.032648792857888298 -0.045821043897573847 0 -0.032484490315229472 -0.046085606815706837 0 -0.032397342668209948 -0.045470996789900665 0 -0.031826536751270611 -0.047256392436537321 0 -0.030642520070556057 -0.047471947722832787 0 -0.032000458161885688 -0.04723036175005068 0 -0.032648792857888298 -0.045821043897573847 0 -0.032397342668209948 -0.045470996789900665 0 -0.029021628691138897 -0.049503039465443141 0 -0.02704640995204596 -0.049563842241674379 0 -0.027779561779912438 -0.048612355477951306 0 -0.032484490315229472 -0.046085606815706837 0 -0.032397342668209948 -0.045470996789900665 0 -0.031338807475645422 -0.046703804643210792 0 -0.032397342668209948 -0.045470996789900665 0 -0.02989910174577232 -0.045797599355815441 0 -0.031338807475645422 -0.046703804643210792 0 -0.030642520070556057 -0.047471947722832787 0 -0.028516842897736157 -0.047726564415765019 0 -0.02704640995204596 -0.049563842241674379 0 -0.027779561779912438 -0.048612355477951306 0 -0.026660417502387283 -0.048462649678550643 0 -0.027779561779912438 -0.048612355477951306 0 -0.027080636222347614 -0.048498883482191633 0 -0.026660417502387283 -0.048462649678550643 0 -0.029694132927095621 -0.047968803525039759 0 -0.029021628691138897 -0.049503039465443141 0 -0.027779561779912438 -0.048612355477951306 0 -0.029694132927095621 -0.047968803525039759 0 -0.027779561779912438 -0.048612355477951306 0 -0.028343741856346652 -0.048148245776920895 0 -0.027779561779912438 -0.048612355477951306 0 -0.028343741856346652 -0.048148245776920895 0 -0.027080636222347614 -0.048498883482191633 0 -0.026560589349537748 -0.048744724365837704 0 -0.027080636222347614 -0.048498883482191633 0 -0.026485082334503654 -0.04872462181885201 0 -0.026560589349537748 -0.048744724365837704 0 -0.028343741856346652 -0.048148245776920895 0 -0.027080636222347614 -0.048498883482191633 0 -0.027877319979479016 -0.042070658952805276 0 -0.027961429719099845 -0.042284528502824915 0 -0.028200733987604195 -0.042330775166894159 0 -0.025773918820108221 -0.036076072370714481 0 -0.024485582582425072 -0.036256238802728824 0 -0.025907542940831835 -0.037183723718333395 0 -0.02711054388337095 -0.036575858982581033 0 -0.02701309401270818 -0.039680051846746674 0 -0.02711054388337095 -0.036575858982581033 0 -0.030699548029738025 -0.043098377208945146 0 -0.029017721680830156 -0.035292446528519997 0 -0.02853751726478591 -0.036000490661003665 0 -0.028232019950242722 -0.035259319078910022 0 -0.027877319979479016 -0.042070658952805276 0 -0.027961429719099845 -0.042284528502824915 0 -0.027750487033424115 -0.042280367003015157 0 -0.029539929405283421 -0.045689351177463068 0 -0.030699548029738025 -0.043098377208945146 0 -0.027961429719099845 -0.042284528502824915 0 -0.02801294803114731 -0.042456766563696444 0 -0.027750487033424115 -0.042280367003015157 0 -0.030878831119781222 -0.048740049200179332 0 -0.031704250068583871 -0.048379191311393226 0 -0.03192974083486582 -0.049357956633667162 0 -0.028200733987604195 -0.042330775166894159 0 -0.02801294803114731 -0.042456766563696444 0 -0.02825680681168239 -0.042622126667874842 0 -0.027961429719099845 -0.042284528502824915 0 -0.028200733987604195 -0.042330775166894159 0 -0.02801294803114731 -0.042456766563696444 0 -0.031189024380060517 -0.048625683939183637 0 -0.028228546081141784 -0.047126970980704501 0 -0.029427312636506185 -0.047964921478221643 0 -0.031097663140265831 -0.048166230227210158 0 -0.028360740071794167 -0.04996720157624706 0 -0.029539929405283421 -0.045689351177463068 0 -0.028228546081141784 -0.047126970980704501 0 -0.030878831119781222 -0.048740049200179332 0 -0.031097663140265831 -0.048166230227210158 0 -0.030161279847092045 -0.048338687956477937 0 -0.02989910174577232 -0.045797599355815441 0 -0.029427312636506185 -0.047964921478221643 0 -0.031338807475645422 -0.046703804643210792 0 -0.031338807475645422 -0.046703804643210792 0 -0.031097663140265831 -0.048166230227210158 0 -0.032351136581136621 -0.047014292438494601 0 -0.029427312636506185 -0.047964921478221643 0 -0.031338807475645422 -0.046703804643210792 0 -0.031097663140265831 -0.048166230227210158 0 -0.031097663140265831 -0.048166230227210158 0 -0.031704250068583871 -0.048379191311393226 0 -0.032351136581136621 -0.047014292438494601 0 -0.030878831119781222 -0.048740049200179332 0 -0.031097663140265831 -0.048166230227210158 0 -0.031704250068583871 -0.048379191311393226 0 -0.032351136581136621 -0.047014292438494601 0 -0.033560935731344096 -0.046297594195362772 0 -0.032746956785337976 -0.048339322160324279 0 -0.031704250068583871 -0.048379191311393226 0 -0.032351136581136621 -0.047014292438494601 0 -0.032746956785337976 -0.048339322160324279 0 -0.033697784750491372 -0.046371366147879609 0 -0.033506146690962572 -0.046830159995478779 0 -0.032484490315229472 -0.046085606815706837 0 -0.031338807475645422 -0.046703804643210792 0 -0.032351136581136621 -0.047014292438494601 0 -0.032484490315229472 -0.046085606815706837 0 -0.032351136581136621 -0.047014292438494601 0 -0.0331271338603632 -0.045795593713645985 0 -0.032351136581136621 -0.047014292438494601 0 -0.0331271338603632 -0.045795593713645985 0 -0.033560935731344096 -0.046297594195362772 0 -0.0331271338603632 -0.045795593713645985 0 -0.033560935731344096 -0.046297594195362772 0 -0.033318001636311295 -0.045294477317617383 0 -0.033560935731344096 -0.046297594195362772 0 -0.033736346902032338 -0.045312168360633169 0 -0.033398947138303721 -0.045168336275474112 0 -0.033560935731344096 -0.046297594195362772 0 -0.033736346902032338 -0.045312168360633169 0 -0.034813360839548543 -0.04517687081072011 0 -0.033736346902032338 -0.045312168360633169 0 -0.034326419642419913 -0.044590914755506465 0 -0.03357839097501461 -0.04488917898758165 0 -0.034326419642419913 -0.044590914755506465 0 -0.033791306188493131 -0.043992341999411808 0 -0.03357839097501461 -0.04488917898758165 0 -0.033736346902032338 -0.045312168360633169 0 -0.034326419642419913 -0.044590914755506465 0 -0.034813360839548543 -0.04517687081072011 0 -0.034326419642419913 -0.044590914755506465 0 -0.034813360839548543 -0.04517687081072011 0 -0.03534492523740998 -0.044432534867947626 0 -0.033506146690962572 -0.046830159995478779 0 -0.030699548029738025 -0.043098377208945146 0 -0.031704250068583871 -0.048379191311393226 0 -0.032746956785337976 -0.048339322160324279 0 -0.03192974083486582 -0.049357956633667162 0 -0.02853751726478591 -0.036000490661003665 0 -0.028232019950242722 -0.035259319078910022 0 -0.027383082984503322 -0.035205165423434319 0 -0.030699548029738025 -0.043098377208945146 0 -0.031122530182400861 -0.039111336632108709 0 -0.034326419642419913 -0.044590914755506465 0 -0.03534492523740998 -0.044432534867947626 0 -0.034639747319886845 -0.043770423404553623 0 -0.029017721680830156 -0.035292446528519997 0 -0.028232019950242722 -0.035259319078910022 0 -0.027895566516034576 -0.034598463126856174 0 -0.02711054388337095 -0.036575858982581033 0 -0.027247367067519408 -0.0340105478850296 0 -0.028232019950242722 -0.035259319078910022 0 -0.027383082984503322 -0.035205165423434319 0 -0.027895566516034576 -0.034598463126856174 0 -0.034326419642419913 -0.044590914755506465 0 -0.034639747319886845 -0.043770423404553623 0 -0.033791306188493131 -0.043992341999411808 0 -0.034639747319886845 -0.043770423404553623 0 -0.033791306188493131 -0.043992341999411808 0 -0.033925879753568984 -0.041269760683249709 0 -0.033791306188493131 -0.043992341999411808 0 -0.032311627926572231 -0.044817183281811279 0 -0.033925879753568984 -0.041269760683249709 0 -0.031122530182400861 -0.039111336632108709 0 -0.030090059286682638 -0.037884161369876039 0 -0.033791306188493131 -0.043992341999411808 0 -0.032311627926572231 -0.044817183281811279 0 -0.03357839097501461 -0.04488917898758165 0 -0.032214396450606995 -0.044770579598169977 0 -0.029796342246426022 -0.043094043175870775 0 -0.032311627926572231 -0.044817183281811279 0 -0.03406439432662562 -0.044442208658837787 0 -0.03454419730660567 -0.044887073882267814 0 -0.032311627926572231 -0.044817183281811279 0 -0.033386177271369083 -0.044759703876237962 0 -0.03406439432662562 -0.044442208658837787 0 -0.032311627926572231 -0.044817183281811279 0 -0.033386177271369083 -0.044759703876237962 0 -0.03357839097501461 -0.04488917898758165 0 -0.033736346902032338 -0.045312168360633169 0 -0.03357839097501461 -0.04488917898758165 0 -0.033398947138303721 -0.045168336275474112 0 -0.033386177271369083 -0.044759703876237962 0 -0.03357839097501461 -0.04488917898758165 0 -0.033398947138303721 -0.045168336275474112 0 -0.033398947138303721 -0.045168336275474112 0 -0.033318001636311295 -0.045294477317617383 0 -0.033554509588544598 -0.044543354803025043 0 -0.033560935731344096 -0.046297594195362772 0 -0.033398947138303721 -0.045168336275474112 0 -0.033318001636311295 -0.045294477317617383 0 -0.033398947138303721 -0.045168336275474112 0 -0.033554509588544598 -0.044543354803025043 0 -0.033850642479188967 -0.044285481049267279 0 -0.034000619458146177 -0.04363736499411898 0 -0.033554509588544598 -0.044543354803025043 0 -0.033850642479188967 -0.044285481049267279 0 -0.033386177271369083 -0.044759703876237962 0 -0.033398947138303721 -0.045168336275474112 0 -0.033850642479188967 -0.044285481049267279 0 -0.033386177271369083 -0.044759703876237962 0 -0.03406439432662562 -0.044442208658837787 0 -0.033850642479188967 -0.044285481049267279 0 -0.033850642479188967 -0.044285481049267279 0 -0.034825029433475242 -0.043906754855233016 0 -0.035008626226275451 -0.043259280226472893 0 -0.03406439432662562 -0.044442208658837787 0 -0.034825029433475242 -0.043906754855233016 0 -0.035677093053202394 -0.044287584708003314 0 -0.03406439432662562 -0.044442208658837787 0 -0.033850642479188967 -0.044285481049267279 0 -0.034825029433475242 -0.043906754855233016 0 -0.034000619458146177 -0.04363736499411898 0 -0.033850642479188967 -0.044285481049267279 0 -0.035008626226275451 -0.043259280226472893 0 -0.035008626226275451 -0.043259280226472893 0 -0.037023914267058422 -0.042405853856843763 0 -0.037079947799376685 -0.043436637993355502 0 -0.034491897825519709 -0.042076387144557754 0 -0.035008626226275451 -0.043259280226472893 0 -0.037023914267058422 -0.042405853856843763 0 -0.034825029433475242 -0.043906754855233016 0 -0.035008626226275451 -0.043259280226472893 0 -0.037079947799376685 -0.043436637993355502 0 -0.034825029433475242 -0.043906754855233016 0 -0.037079947799376685 -0.043436637993355502 0 -0.035677093053202394 -0.044287584708003314 0 -0.038131870052807652 -0.044367879550328379 0 -0.035677093053202394 -0.044287584708003314 0 -0.036087704065699895 -0.045191196961555845 0 -0.037079947799376685 -0.043436637993355502 0 -0.038131870052807652 -0.044367879550328379 0 -0.035677093053202394 -0.044287584708003314 0 -0.03406439432662562 -0.044442208658837787 0 -0.035677093053202394 -0.044287584708003314 0 -0.03454419730660567 -0.044887073882267814 0 -0.035677093053202394 -0.044287584708003314 0 -0.03454419730660567 -0.044887073882267814 0 -0.036087704065699895 -0.045191196961555845 0 -0.03454419730660567 -0.044887073882267814 0 -0.036087704065699895 -0.045191196961555845 0 -0.03489301168764377 -0.045885704497110102 0 -0.032311627926572231 -0.044817183281811279 0 -0.03489301168764377 -0.045885704497110102 0 -0.034915136730652177 -0.047923146836734903 0 -0.032311627926572231 -0.044817183281811279 0 -0.03454419730660567 -0.044887073882267814 0 -0.03489301168764377 -0.045885704497110102 0 -0.036087704065699895 -0.045191196961555845 0 -0.03489301168764377 -0.045885704497110102 0 -0.036610851201390356 -0.046765823790909447 0 -0.036087704065699895 -0.045191196961555845 0 -0.038303360878512986 -0.045720977665561109 0 -0.036610851201390356 -0.046765823790909447 0 -0.038303360878512986 -0.045720977665561109 0 -0.036610851201390356 -0.046765823790909447 0 -0.03913596825305566 -0.047669319330524693 0 -0.038131870052807652 -0.044367879550328379 0 -0.036087704065699895 -0.045191196961555845 0 -0.038303360878512986 -0.045720977665561109 0 -0.036871503015989363 -0.048078128985253592 0 -0.0371394024139097 -0.049476286891575481 0 -0.03913596825305566 -0.047669319330524693 0 -0.036871503015989363 -0.048078128985253592 0 -0.036610851201390356 -0.046765823790909447 0 -0.03913596825305566 -0.047669319330524693 0 -0.03489301168764377 -0.045885704497110102 0 -0.036610851201390356 -0.046765823790909447 0 -0.034915136730652177 -0.047923146836734903 0 -0.036871503015989363 -0.048078128985253592 0 -0.036610851201390356 -0.046765823790909447 0 -0.034915136730652177 -0.047923146836734903 0 -0.025813125125742856 -0.038424697968372827 0 -0.025816469292425027 -0.034631774133919963 0 -0.027177941345013959 -0.035860683043144909 0 -0.036871503015989363 -0.048078128985253592 0 -0.034915136730652177 -0.047923146836734903 0 -0.0371394024139097 -0.049476286891575481 0 -0.025813125125742856 -0.038424697968372827 0 -0.025816469292425027 -0.034631774133919963 0 -0.023906246519280253 -0.034511380767314061 0 -0.029796342246426022 -0.043094043175870775 0 -0.037108202496820279 -0.03964253960824532 0 -0.025816469292425027 -0.034631774133919963 0 -0.026240875936647881 -0.03369147160831043 0 -0.026767816154525791 -0.034356398731167075 0 -0.025816469292425027 -0.034631774133919963 0 -0.023906246519280253 -0.034511380767314061 0 -0.025525143381936347 -0.033443925345647781 0 -0.037108202496820279 -0.03964253960824532 0 -0.042659607637341092 -0.046048775943709062 0 -0.038631649100863599 -0.030624854178511279 0 -0.039556759466789819 -0.032682777611387333 0 -0.036476092480131103 -0.031716129212399476 0 -0.037108202496820279 -0.03964253960824532 0 -0.041766203093838598 -0.035326273653295319 0 -0.038350489105172851 -0.034198925120286397 0 -0.039556759466789819 -0.032682777611387333 0 -0.036476092480131103 -0.031716129212399476 0 -0.038631649100863599 -0.030624854178511279 0 -0.036476092480131103 -0.031716129212399476 0 -0.036476935701717131 -0.028300037534121796 0 -0.038631649100863599 -0.030624854178511279 0 -0.040750026057054987 -0.031186336572392091 0 -0.038541289551514951 -0.028347207757973027 0 -0.038631649100863599 -0.030624854178511279 0 -0.039556759466789819 -0.032682777611387333 0 -0.040750026057054987 -0.031186336572392091 0 -0.032493955158219262 -0.031697471583266051 0 -0.037938290721271056 -0.027616651428884541 0 -0.025525143381936347 -0.033443925345647781 0 -0.026240875936647881 -0.03369147160831043 0 -0.026276970631335689 -0.032894104687698503 0 -0.032771977604169451 -0.033230206715126595 0 -0.032493955158219262 -0.031697471583266051 0 -0.037108202496820279 -0.03964253960824532 0 -0.032771977604169451 -0.033230206715126595 0 -0.025816469292425027 -0.034631774133919963 0 -0.025525143381936347 -0.033443925345647781 0 -0.026240875936647881 -0.03369147160831043 0 -0.026240875936647881 -0.03369147160831043 0 -0.026601759710897815 -0.033583466466299221 0 -0.026767816154525791 -0.034356398731167075 0 -0.026601759710897815 -0.033583466466299221 0 -0.026776226742469735 -0.033839087239666971 0 -0.026767816154525791 -0.034356398731167075 0 -0.026240875936647881 -0.03369147160831043 0 -0.026601759710897815 -0.033583466466299221 0 -0.026276970631335689 -0.032894104687698503 0 -0.02717071490950863 -0.032122860751573806 0 -0.032493955158219262 -0.031697471583266051 0 -0.026601759710897815 -0.033583466466299221 0 -0.026238175387371925 -0.033096029673557494 0 -0.026713160021678891 -0.032897760842890728 0 -0.032493955158219262 -0.031697471583266051 0 -0.032304623805587206 -0.029290321293818769 0 -0.026238175387371925 -0.033096029673557494 0 -0.026713160021678891 -0.032897760842890728 0 -0.026874566143609429 -0.031920925701885108 0 -0.026713160021678891 -0.032897760842890728 0 -0.02668520719382764 -0.033461413356660426 0 -0.027617795496123008 -0.032077953506136465 0 -0.026779460668092014 -0.032996068470350783 0 -0.025921241695474963 -0.032753337908003152 0 -0.026601759710897815 -0.033583466466299221 0 -0.026713160021678891 -0.032897760842890728 0 -0.02668520719382764 -0.033461413356660426 0 -0.026601759710897815 -0.033583466466299221 0 -0.02668520719382764 -0.033461413356660426 0 -0.026776226742469735 -0.033839087239666971 0 -0.02668520719382764 -0.033461413356660426 0 -0.026776226742469735 -0.033839087239666971 0 -0.02668842124288261 -0.03375768826509222 0 -0.026776226742469735 -0.033839087239666971 0 -0.026916903200830417 -0.034364556505075743 0 -0.02668842124288261 -0.03375768826509222 0 -0.026916903200830417 -0.034364556505075743 0 -0.026878486599401934 -0.034155706009450781 0 -0.02668842124288261 -0.03375768826509222 0 -0.026917907080886976 -0.034761691471367345 0 -0.026916903200830417 -0.034364556505075743 0 -0.026878486599401934 -0.034155706009450781 0 -0.026776226742469735 -0.033839087239666971 0 -0.026916903200830417 -0.034364556505075743 0 -0.026767816154525791 -0.034356398731167075 0 -0.026916903200830417 -0.034364556505075743 0 -0.026767816154525791 -0.034356398731167075 0 -0.02698507477870743 -0.034952451440376606 0 -0.025816469292425027 -0.034631774133919963 0 -0.026767816154525791 -0.034356398731167075 0 -0.027177941345013959 -0.035860683043144909 0 -0.026767816154525791 -0.034356398731167075 0 -0.027177941345013959 -0.035860683043144909 0 -0.02698507477870743 -0.034952451440376606 0 -0.026917907080886976 -0.034761691471367345 0 -0.027177941345013959 -0.035860683043144909 0 -0.02698507477870743 -0.034952451440376606 0 -0.026917907080886976 -0.034761691471367345 0 -0.026916903200830417 -0.034364556505075743 0 -0.02698507477870743 -0.034952451440376606 0 -0.027177941345013959 -0.035860683043144909 0 -0.029963467099387065 -0.040055539579057317 0 -0.033925879753568984 -0.041269760683249709 0 -0.026917907080886976 -0.034761691471367345 0 -0.027177941345013959 -0.035860683043144909 0 -0.026790449649506193 -0.034512965301956321 0 -0.027311278227427079 -0.035956878511863397 0 -0.030090059286682638 -0.037884161369876039 0 -0.032311627926572231 -0.044817183281811279 0 -0.025813125125742856 -0.038424697968372827 0 -0.029963467099387065 -0.040055539579057317 0 -0.025813125125742856 -0.038424697968372827 0 -0.027177941345013959 -0.035860683043144909 0 -0.029963467099387065 -0.040055539579057317 0 -0.032311627926572231 -0.044817183281811279 0 -0.029963467099387065 -0.040055539579057317 0 -0.033925879753568984 -0.041269760683249709 0 -0.026790449649506193 -0.034512965301956321 0 -0.027199257883894951 -0.034619903038355923 0 -0.026878486599401934 -0.034155706009450781 0 -0.026917907080886976 -0.034761691471367345 0 -0.026790449649506193 -0.034512965301956321 0 -0.026878486599401934 -0.034155706009450781 0 -0.027383082984503322 -0.035205165423434319 0 -0.026790449649506193 -0.034512965301956321 0 -0.027199257883894951 -0.034619903038355923 0 -0.027199257883894951 -0.034619903038355923 0 -0.027895566516034576 -0.034598463126856174 0 -0.026878486599401934 -0.034155706009450781 0 -0.027247367067519408 -0.0340105478850296 0 -0.02693999907365198 -0.034171947410148285 0 -0.027383082984503322 -0.035205165423434319 0 -0.027199257883894951 -0.034619903038355923 0 -0.027895566516034576 -0.034598463126856174 0 -0.026601670979180061 -0.0337753954371229 0 -0.026616415079506895 -0.033766943100025891 0 -0.026591962776182334 -0.033745746857606659 0 -0.026616415079506895 -0.033766943100025891 0 -0.026590736841097432 -0.033793764605475826 0 -0.026591962776182334 -0.033745746857606659 0 -0.026590736841097432 -0.033793764605475826 0 -0.026514094727681296 -0.033527381228991661 0 -0.026590248709160099 -0.033695601764097853 0 -0.026590736841097432 -0.033793764605475826 0 -0.026590248709160099 -0.033695601764097853 0 -0.026591962776182334 -0.033745746857606659 0 -0.026616415079506895 -0.033766943100025891 0 -0.026590736841097432 -0.033793764605475826 0 -0.026878486599401934 -0.034155706009450781 0 -0.026590736841097432 -0.033793764605475826 0 -0.026878486599401934 -0.034155706009450781 0 -0.02668842124288261 -0.03375768826509222 0 -0.02668520719382764 -0.033461413356660426 0 -0.02668842124288261 -0.03375768826509222 0 -0.026140119145143907 -0.033195000000171997 0 -0.026590736841097432 -0.033793764605475826 0 -0.02668842124288261 -0.03375768826509222 0 -0.026451682446613549 -0.033577872178981963 0 -0.02668842124288261 -0.03375768826509222 0 -0.026140119145143907 -0.033195000000171997 0 -0.026451682446613549 -0.033577872178981963 0 -0.02668520719382764 -0.033461413356660426 0 -0.026140119145143907 -0.033195000000171997 0 -0.025204350033102046 -0.032392961325448014 0 -0.026281804913700264 -0.033177043777618355 0 -0.026614591331786355 -0.033184629372325671 0 -0.026113004678646485 -0.032510985947693194 0 -0.026281804913700264 -0.033177043777618355 0 -0.026113004678646485 -0.032510985947693194 0 -0.025797953177351091 -0.032540233773747637 0 -0.026140119145143907 -0.033195000000171997 0 -0.026281804913700264 -0.033177043777618355 0 -0.025797953177351091 -0.032540233773747637 0 -0.026140119145143907 -0.033195000000171997 0 -0.026281804913700264 -0.033177043777618355 0 -0.026451682446613549 -0.033577872178981963 0 -0.026281804913700264 -0.033177043777618355 0 -0.026514094727681296 -0.033527381228991661 0 -0.026451682446613549 -0.033577872178981963 0 -0.026590736841097432 -0.033793764605475826 0 -0.026514094727681296 -0.033527381228991661 0 -0.026451682446613549 -0.033577872178981963 0 -0.026514094727681296 -0.033527381228991661 0 -0.026614591331786355 -0.033184629372325671 0 -0.026641270074597281 -0.033583689483041627 0 -0.026514094727681296 -0.033527381228991661 0 -0.026641270074597281 -0.033583689483041627 0 -0.026590248709160099 -0.033695601764097853 0 -0.026281804913700264 -0.033177043777618355 0 -0.026514094727681296 -0.033527381228991661 0 -0.026614591331786355 -0.033184629372325671 0 -0.026614591331786355 -0.033184629372325671 0 -0.026754049787080927 -0.033370652625878003 0 -0.026641270074597281 -0.033583689483041627 0 -0.026614591331786355 -0.033184629372325671 0 -0.026754049787080927 -0.033370652625878003 0 -0.026964354247057711 -0.03302847500339072 0 -0.026754049787080927 -0.033370652625878003 0 -0.026964354247057711 -0.03302847500339072 0 -0.026751960533062256 -0.033521243713772624 0 -0.026754049787080927 -0.033370652625878003 0 -0.026675457756751359 -0.033451027962160179 0 -0.026751960533062256 -0.033521243713772624 0 -0.026675457756751359 -0.033451027962160179 0 -0.026641270074597281 -0.033583689483041627 0 -0.026508644205988426 -0.033658073928869971 0 -0.026754049787080927 -0.033370652625878003 0 -0.026675457756751359 -0.033451027962160179 0 -0.026641270074597281 -0.033583689483041627 0 -0.025908429420059942 -0.034177071614707413 0 -0.026464132232911212 -0.03376295899925396 0 -0.025387013275797832 -0.034971347034234955 0 -0.026641180234590823 -0.034505482546077153 0 -0.026508644205988426 -0.033658073928869971 0 -0.026641270074597281 -0.033583689483041627 0 -0.026613258772563736 -0.033718276446029254 0 -0.026508644205988426 -0.033658073928869971 0 -0.026590248709160099 -0.033695601764097853 0 -0.026591962776182334 -0.033745746857606659 0 -0.026613258772563736 -0.033718276446029254 0 -0.026641270074597281 -0.033583689483041627 0 -0.026590248709160099 -0.033695601764097853 0 -0.026613258772563736 -0.033718276446029254 0 -0.02711054388337095 -0.036575858982581033 0 -0.025908429420059942 -0.034177071614707413 0 -0.026601670979180061 -0.0337753954371229 0 -0.026591962776182334 -0.033745746857606659 0 -0.026613258772563736 -0.033718276446029254 0 -0.025773918820108221 -0.036076072370714481 0 -0.025387013275797832 -0.034971347034234955 0 -0.026722959909910891 -0.035350759770550653 0 -0.025773918820108221 -0.036076072370714481 0 -0.024485582582425072 -0.036256238802728824 0 -0.025387013275797832 -0.034971347034234955 0 -0.050422910424616038 -0.037776009627200437 0 -0.04851376419802772 -0.040048205410676295 0 -0.049025180855496016 -0.038550750372145254 0 -0.050422910424616038 -0.037776009627200437 0 -0.04851376419802772 -0.040048205410676295 0 -0.049788783561456197 -0.04135743035549265 0 -0.050570555289586476 -0.037847651434665522 0 -0.050690235694929947 -0.037612851336298082 0 -0.04851376419802772 -0.040048205410676295 0 -0.047698944915581916 -0.039932928471580732 0 -0.046434107733441053 -0.04205097428058574 0 -0.043827191699664557 -0.043718806429609666 0 -0.046903471635056135 -0.037708426122245335 0 -0.04851376419802772 -0.040048205410676295 0 -0.046434107733441053 -0.04205097428058574 0 -0.049173697254810217 -0.043219662691335044 0 -0.052027920865416834 -0.034276361414074807 0 -0.051015293045516955 -0.03274926840987652 0 -0.05236154395081416 -0.03251092019990072 0 -0.04851376419802772 -0.040048205410676295 0 -0.049788783561456197 -0.04135743035549265 0 -0.049173697254810217 -0.043219662691335044 0 -0.050690235694929947 -0.037612851336298082 0 -0.046903471635056135 -0.037708426122245335 0 -0.052027920865416834 -0.034276361414074807 0 -0.051015293045516955 -0.03274926840987652 0 -0.050122385665995119 -0.033978024830868633 0 -0.051015293045516955 -0.03274926840987652 0 -0.050122385665995119 -0.033978024830868633 0 -0.050409155991456622 -0.032264694599018928 0 -0.050122385665995119 -0.033978024830868633 0 -0.049998278375422193 -0.031257261647844682 0 -0.049999661699675728 -0.03334078374410241 0 -0.050122385665995119 -0.033978024830868633 0 -0.049998278375422193 -0.031257261647844682 0 -0.050409155991456622 -0.032264694599018928 0 -0.049902333753615045 -0.035887978738588254 0 -0.049999661699675728 -0.03334078374410241 0 -0.049995979457692546 -0.035431493747134016 0 -0.050122385665995119 -0.033978024830868633 0 -0.049902333753615045 -0.035887978738588254 0 -0.049999661699675728 -0.03334078374410241 0 -0.050422910424616038 -0.037776009627200437 0 -0.050122385665995119 -0.033978024830868633 0 -0.049902333753615045 -0.035887978738588254 0 -0.050422910424616038 -0.037776009627200437 0 -0.052027920865416834 -0.034276361414074807 0 -0.050122385665995119 -0.033978024830868633 0 -0.051095163517095019 -0.038350489888316026 0 -0.049999070483478625 -0.038814214816492616 0 -0.050000222493743217 -0.035427236119719263 0 -0.050422910424616038 -0.037776009627200437 0 -0.049902333753615045 -0.035887978738588254 0 -0.049120317492757443 -0.037829903560366293 0 -0.049902333753615045 -0.035887978738588254 0 -0.049120317492757443 -0.037829903560366293 0 -0.049995979457692546 -0.035431493747134016 0 -0.049536965651200943 -0.03881428062173032 0 -0.04999994955838552 -0.035428566489056429 0 -0.047941218614829161 -0.039076732971158476 0 -0.049120317492757443 -0.037829903560366293 0 -0.049995979457692546 -0.035431493747134016 0 -0.047612429928726878 -0.040138081518325291 0 -0.047941218614829161 -0.039076732971158476 0 -0.049120317492757443 -0.037829903560366293 0 -0.049120317492757443 -0.037829903560366293 0 -0.048163529678331957 -0.039324945252170306 0 -0.049025180855496016 -0.038550750372145254 0 -0.047612429928726878 -0.040138081518325291 0 -0.049120317492757443 -0.037829903560366293 0 -0.048163529678331957 -0.039324945252170306 0 -0.050422910424616038 -0.037776009627200437 0 -0.049120317492757443 -0.037829903560366293 0 -0.049025180855496016 -0.038550750372145254 0 -0.048163529678331957 -0.039324945252170306 0 -0.049025180855496016 -0.038550750372145254 0 -0.047698944915581916 -0.039932928471580732 0 -0.04851376419802772 -0.040048205410676295 0 -0.049025180855496016 -0.038550750372145254 0 -0.047698944915581916 -0.039932928471580732 0 -0.048163529678331957 -0.039324945252170306 0 -0.047698944915581916 -0.039932928471580732 0 -0.047339744057800809 -0.039951568590196107 0 -0.047315860098306621 -0.04116593860576645 0 -0.048163529678331957 -0.039324945252170306 0 -0.047339744057800809 -0.039951568590196107 0 -0.046861517541363758 -0.040190179267646287 0 -0.047339744057800809 -0.039951568590196107 0 -0.045846837235484821 -0.041123229048570228 0 -0.046861517541363758 -0.040190179267646287 0 -0.045846837235484821 -0.041123229048570228 0 -0.043043641591020226 -0.041778847841342365 0 -0.04292368013681741 -0.040226029263142289 0 -0.046861517541363758 -0.040190179267646287 0 -0.043043641591020226 -0.041778847841342365 0 -0.045846837235484821 -0.041123229048570228 0 -0.043043641591020226 -0.041778847841342365 0 -0.043427413805378581 -0.043296039440033053 0 -0.047698944915581916 -0.039932928471580732 0 -0.047339744057800809 -0.039951568590196107 0 -0.045846837235484821 -0.041123229048570228 0 -0.037023914267058422 -0.042405853856843763 0 -0.037079947799376685 -0.043436637993355502 0 -0.039390280440712307 -0.042571673699008855 0 -0.037889249611711716 -0.040755012917651733 0 -0.037023914267058422 -0.042405853856843763 0 -0.040109512679627764 -0.04130923287790552 0 -0.037023914267058422 -0.042405853856843763 0 -0.040109512679627764 -0.04130923287790552 0 -0.039390280440712307 -0.042571673699008855 0 -0.040109512679627764 -0.04130923287790552 0 -0.043043641591020226 -0.041778847841342365 0 -0.039390280440712307 -0.042571673699008855 0 -0.04292368013681741 -0.040226029263142289 0 -0.040109512679627764 -0.04130923287790552 0 -0.043043641591020226 -0.041778847841342365 0 -0.043043641591020226 -0.041778847841342365 0 -0.040554114797924888 -0.043388054355458124 0 -0.043427413805378581 -0.043296039440033053 0 -0.043043641591020226 -0.041778847841342365 0 -0.039390280440712307 -0.042571673699008855 0 -0.040554114797924888 -0.043388054355458124 0 -0.037079947799376685 -0.043436637993355502 0 -0.038131870052807652 -0.044367879550328379 0 -0.040554114797924888 -0.043388054355458124 0 -0.037079947799376685 -0.043436637993355502 0 -0.039390280440712307 -0.042571673699008855 0 -0.040554114797924888 -0.043388054355458124 0 -0.038131870052807652 -0.044367879550328379 0 -0.040554114797924888 -0.043388054355458124 0 -0.042496501504159963 -0.04450310206583926 0 -0.040554114797924888 -0.043388054355458124 0 -0.042496501504159963 -0.04450310206583926 0 -0.043427413805378581 -0.043296039440033053 0 -0.042496501504159963 -0.04450310206583926 0 -0.043427413805378581 -0.043296039440033053 0 -0.043389853549921066 -0.043623120088869698 0 -0.042496501504159963 -0.04450310206583926 0 -0.043389853549921066 -0.043623120088869698 0 -0.043497487621479466 -0.042877619723037275 0 -0.042496501504159963 -0.04450310206583926 0 -0.045121569374589658 -0.043056156234295553 0 -0.043497487621479466 -0.042877619723037275 0 -0.038131870052807652 -0.044367879550328379 0 -0.038303360878512986 -0.045720977665561109 0 -0.042496501504159963 -0.04450310206583926 0 -0.042478398587679246 -0.044293833421478954 0 -0.042659607637341092 -0.046048775943709062 0 -0.038303360878512986 -0.045720977665561109 0 -0.042496501504159963 -0.04450310206583926 0 -0.03913596825305566 -0.047669319330524693 0 -0.047698944915581916 -0.039932928471580732 0 -0.045846837235484821 -0.041123229048570228 0 -0.046434107733441053 -0.04205097428058574 0 -0.043427413805378581 -0.043296039440033053 0 -0.043389853549921066 -0.043623120088869698 0 -0.042498250015450108 -0.043986052069728811 0 -0.045846837235484821 -0.041123229048570228 0 -0.043427413805378581 -0.043296039440033053 0 -0.046434107733441053 -0.04205097428058574 0 -0.043524454475781064 -0.042910507521203928 0 -0.043827191699664557 -0.043718806429609666 0 -0.043389853549921066 -0.043623120088869698 0 -0.042498250015450108 -0.043986052069728811 0 -0.043974840364911345 -0.042154954663023388 0 -0.04152997066198217 -0.040591978478431809 0 -0.043974840364911345 -0.042154954663023388 0 -0.044109191685873871 -0.037812899834281009 0 -0.042498250015450108 -0.043986052069728811 0 -0.04152997066198217 -0.040591978478431809 0 -0.043974840364911345 -0.042154954663023388 0 -0.043974840364911345 -0.042154954663023388 0 -0.042819174703893403 -0.041176581059528622 0 -0.043497487621479466 -0.042877619723037275 0 -0.043389853549921066 -0.043623120088869698 0 -0.043974840364911345 -0.042154954663023388 0 -0.043497487621479466 -0.042877619723037275 0 -0.043974840364911345 -0.042154954663023388 0 -0.048633349711387538 -0.037352141110295556 0 -0.044109191685873871 -0.037812899834281009 0 -0.048633349711387538 -0.037352141110295556 0 -0.044109191685873871 -0.037812899834281009 0 -0.047136909944633043 -0.033549205375846838 0 -0.044312719699921038 -0.041704033561739053 0 -0.045681925801253048 -0.039135005975082751 0 -0.044109191685873871 -0.037812899834281009 0 -0.043429706344690851 -0.034279519172035311 0 -0.041618283845613835 -0.037050131248076656 0 -0.04152997066198217 -0.040591978478431809 0 -0.044109191685873871 -0.037812899834281009 0 -0.041618283845613835 -0.037050131248076656 0 -0.045121569374589658 -0.043056156234295553 0 -0.043497487621479466 -0.042877619723037275 0 -0.0447655066711522 -0.041072057280514974 0 -0.042819174703893403 -0.041176581059528622 0 -0.043497487621479466 -0.042877619723037275 0 -0.0447655066711522 -0.041072057280514974 0 -0.047015262532492087 -0.041235909929484699 0 -0.045121569374589658 -0.043056156234295553 0 -0.0447655066711522 -0.041072057280514974 0 -0.0447655066711522 -0.041072057280514974 0 -0.046058347236990135 -0.038417386503765805 0 -0.043205833926135744 -0.03819774347086461 0 -0.047015262532492087 -0.041235909929484699 0 -0.0447655066711522 -0.041072057280514974 0 -0.046058347236990135 -0.038417386503765805 0 -0.042819174703893403 -0.041176581059528622 0 -0.0447655066711522 -0.041072057280514974 0 -0.043205833926135744 -0.03819774347086461 0 -0.045681925801253048 -0.039135005975082751 0 -0.048023912563371282 -0.034970192879857045 0 -0.051791609647819779 -0.032076649924667709 0 -0.049065568300115124 -0.029568392628644032 0 -0.053877163053748706 -0.026774231482765861 0 -0.048023912563371282 -0.034970192879857045 0 -0.041461927106066374 -0.02920319769732329 0 -0.046058347236990135 -0.038417386503765805 0 -0.043205833926135744 -0.03819774347086461 0 -0.044399377375701023 -0.034731678461343278 0 -0.036476092480131103 -0.031716129212399476 0 -0.034573705239819445 -0.029211725187949348 0 -0.036476935701717131 -0.028300037534121796 0 -0.041766203093838598 -0.035326273653295319 0 -0.041461927106066374 -0.02920319769732329 0 -0.043429706344690851 -0.034279519172035311 0 -0.044899255607594425 -0.029479723537862088 0 -0.040093736274784353 -0.0334428395502432 0 -0.043429706344690851 -0.034279519172035311 0 -0.047136909944633043 -0.033549205375846838 0 -0.044899255607594425 -0.029479723537862088 0 -0.044109191685873871 -0.037812899834281009 0 -0.043429706344690851 -0.034279519172035311 0 -0.047136909944633043 -0.033549205375846838 0 -0.048633349711387538 -0.037352141110295556 0 -0.051791609647819779 -0.032076649924667709 0 -0.047136909944633043 -0.033549205375846838 0 -0.051791609647819779 -0.032076649924667709 0 -0.047136909944633043 -0.033549205375846838 0 -0.049065568300115124 -0.029568392628644032 0 -0.049065568300115124 -0.029568392628644032 0 -0.044899255607594425 -0.029479723537862088 0 -0.050875651766915539 -0.025784346732610593 0 -0.047832774821370008 -0.027571249854485905 0 -0.050722838845586732 -0.02580780065998152 0 -0.047136909944633043 -0.033549205375846838 0 -0.049065568300115124 -0.029568392628644032 0 -0.044899255607594425 -0.029479723537862088 0 -0.047832774821370008 -0.027571249854485905 0 -0.047275891201767943 -0.030386063645687803 0 -0.051275688863028392 -0.025366041657938775 0 -0.051122239544024187 -0.02535179492862949 0 -0.050858935871815537 -0.025826040575690122 0 -0.051275688863028392 -0.025366041657938775 0 -0.051122239544024187 -0.02535179492862949 0 -0.051321878351975075 -0.025039734147898202 0 -0.051122239544024187 -0.02535179492862949 0 -0.051257494063363863 -0.025174923472946881 0 -0.051321878351975075 -0.025039734147898202 0 -0.051122239544024187 -0.02535179492862949 0 -0.051257494063363863 -0.025174923472946881 0 -0.051034399850589995 -0.025483981786222246 0 -0.051275688863028392 -0.025366041657938775 0 -0.050858935871815537 -0.025826040575690122 0 -0.050480562262894095 -0.026582388772467554 0 -0.051257494063363863 -0.025174923472946881 0 -0.051034399850589995 -0.025483981786222246 0 -0.051344590006183459 -0.025259435192304024 0 -0.050858935871815537 -0.025826040575690122 0 -0.051034399850589995 -0.025483981786222246 0 -0.050889153059946318 -0.02632941678439937 0 -0.051122239544024187 -0.02535179492862949 0 -0.050858935871815537 -0.025826040575690122 0 -0.051034399850589995 -0.025483981786222246 0 -0.051034399850589995 -0.025483981786222246 0 -0.051401880715770967 -0.025609574747697664 0 -0.05158376511296809 -0.026286675325755807 0 -0.051034399850589995 -0.025483981786222246 0 -0.051344590006183459 -0.025259435192304024 0 -0.051401880715770967 -0.025609574747697664 0 -0.051336635816267198 -0.02515182603308774 0 -0.051344590006183459 -0.025259435192304024 0 -0.051401880715770967 -0.025609574747697664 0 -0.05025698311155876 -0.026405334192992382 0 -0.050889153059946318 -0.02632941678439937 0 -0.049798769227582709 -0.027257249852690488 0 -0.047275891201767943 -0.030386063645687803 0 -0.048713148860811913 -0.030149806298270583 0 -0.05105578149537645 -0.025594749428291874 0 -0.050246967213141924 -0.026418484035986716 0 -0.051034399850589995 -0.025483981786222246 0 -0.05025698311155876 -0.026405334192992382 0 -0.04930320754109787 -0.026529790699721521 0 -0.05025698311155876 -0.026405334192992382 0 -0.04930320754109787 -0.026529790699721521 0 -0.049798769227582709 -0.027257249852690488 0 -0.04930320754109787 -0.026529790699721521 0 -0.049798769227582709 -0.027257249852690488 0 -0.04888106619995547 -0.027357226458071152 0 -0.047275891201767943 -0.030386063645687803 0 -0.042835480215828205 -0.036719070139308432 0 -0.049735175482321495 -0.025868193085966058 0 -0.047275891201767943 -0.030386063645687803 0 -0.051034399850589995 -0.025483981786222246 0 -0.05025698311155876 -0.026405334192992382 0 -0.050889153059946318 -0.02632941678439937 0 -0.043429706344690851 -0.034279519172035311 0 -0.040093736274784353 -0.0334428395502432 0 -0.041618283845613835 -0.037050131248076656 0 -0.040093736274784353 -0.0334428395502432 0 -0.041618283845613835 -0.037050131248076656 0 -0.038810586407675443 -0.03849876332087903 0 -0.047987566375186405 -0.032805092867022628 0 -0.047806442498261208 -0.033443433376392391 0 -0.047487873541444792 -0.033222360995863127 0 -0.04152997066198217 -0.040591978478431809 0 -0.041618283845613835 -0.037050131248076656 0 -0.038810586407675443 -0.03849876332087903 0 -0.047487873541444792 -0.033222360995863127 0 -0.047626172109836065 -0.03404441873106541 0 -0.047004798299907752 -0.033596651733185295 0 -0.047806442498261208 -0.033443433376392391 0 -0.047487873541444792 -0.033222360995863127 0 -0.047626172109836065 -0.03404441873106541 0 -0.042835480215828205 -0.036719070139308432 0 -0.046903471635056135 -0.037708426122245335 0 -0.046903471635056135 -0.037708426122245335 0 -0.049800729625513289 -0.030755952011155042 0 -0.04152997066198217 -0.040591978478431809 0 -0.038810586407675443 -0.03849876332087903 0 -0.038280680713630957 -0.041965194984332835 0 -0.042498250015450108 -0.043986052069728811 0 -0.04152997066198217 -0.040591978478431809 0 -0.038280680713630957 -0.041965194984332835 0 -0.05000000613642705 -0.031252558645673556 0 -0.052151098876154239 -0.029609639712089107 0 -0.049999948735557749 -0.029286312766770507 0 -0.050002176787327664 -0.031251795964855861 0 -0.049800729625513289 -0.030755952011155042 0 -0.049998278375422193 -0.031257261647844682 0 -0.050409155991456622 -0.032264694599018928 0 -0.050607936298914913 -0.031705837297066941 0 -0.051015293045516955 -0.03274926840987652 0 -0.05236154395081416 -0.03251092019990072 0 -0.050607936298914913 -0.031705837297066941 0 -0.051015293045516955 -0.03274926840987652 0 -0.050409155991456622 -0.032264694599018928 0 -0.050607936298914913 -0.031705837297066941 0 -0.048713148860811913 -0.030149806298270583 0 -0.049800729625513289 -0.030755952011155042 0 -0.049798769227582709 -0.027257249852690488 0 -0.048671759025278795 -0.028110995706127698 0 -0.04888106619995547 -0.027357226458071152 0 -0.04930320754109787 -0.026529790699721521 0 -0.04888106619995547 -0.027357226458071152 0 -0.047772592880520701 -0.027534569595975122 0 -0.048671759025278795 -0.028110995706127698 0 -0.04888106619995547 -0.027357226458071152 0 -0.047772592880520701 -0.027534569595975122 0 -0.052151098876154239 -0.029609639712089107 0 -0.050847724846234996 -0.0287769664808252 0 -0.049999948735557749 -0.029286312766770507 0 -0.049800729625513289 -0.030755952011155042 0 -0.049918683742022345 -0.028269189553406203 0 -0.049918683742022345 -0.028269189553406203 0 -0.050000208662328294 -0.029285399001042465 0 -0.050869202055867244 -0.028754235156127413 0 -0.049999996312989112 -0.029286187912951202 0 -0.049999996483854059 -0.028201958088590957 0 -0.049918683742022345 -0.028269189553406203 0 -0.050000373126653661 -0.028202197480086465 0 -0.049999513182482878 -0.028199637096115678 0 -0.05074576412723894 -0.026786030344779745 0 -0.049999524581133589 -0.025358739061258379 0 -0.050552725659179357 -0.028203860244566812 0 -0.049999513182482878 -0.028199637096115678 0 -0.05074576412723894 -0.026786030344779745 0 -0.05158376511296809 -0.026286675325755807 0 -0.050552725659179357 -0.028203860244566812 0 -0.05074576412723894 -0.026786030344779745 0 -0.05158376511296809 -0.026286675325755807 0 -0.05074576412723894 -0.026786030344779745 0 -0.051170580249741943 -0.025679287366999398 0 -0.050246967213141924 -0.026418484035986716 0 -0.049918683742022345 -0.028269189553406203 0 -0.051336635816267198 -0.02515182603308774 0 -0.051170580249741943 -0.025679287366999398 0 -0.050982766101830577 -0.024249734431408185 0 -0.051401880715770967 -0.025609574747697664 0 -0.05158376511296809 -0.026286675325755807 0 -0.051170580249741943 -0.025679287366999398 0 -0.051336635816267198 -0.02515182603308774 0 -0.051401880715770967 -0.025609574747697664 0 -0.051170580249741943 -0.025679287366999398 0 -0.05074576412723894 -0.026786030344779745 0 -0.051170580249741943 -0.025679287366999398 0 -0.049999524581133589 -0.025358739061258379 0 -0.051170580249741943 -0.025679287366999398 0 -0.049999524581133589 -0.025358739061258379 0 -0.050982766101830577 -0.024249734431408185 0 -0.049999524581133589 -0.025358739061258379 0 -0.050982766101830577 -0.024249734431408185 0 -0.04999941979835127 -0.022515944479115962 0 -0.051336635816267198 -0.02515182603308774 0 -0.050982766101830577 -0.024249734431408185 0 -0.051426805291887305 -0.024485188884796706 0 -0.050982766101830577 -0.024249734431408185 0 -0.051426805291887305 -0.024485188884796706 0 -0.051430271786355106 -0.023604095159538912 0 -0.050982766101830577 -0.024249734431408185 0 -0.051050053355023654 -0.023057345925008649 0 -0.051430271786355106 -0.023604095159538912 0 -0.051370544028830921 -0.02273407377160656 0 -0.051050053355023654 -0.023057345925008649 0 -0.051430271786355106 -0.023604095159538912 0 -0.050982766101830577 -0.024249734431408185 0 -0.051050053355023654 -0.023057345925008649 0 -0.04999941979835127 -0.022515944479115962 0 -0.051050053355023654 -0.023057345925008649 0 -0.04999941979835127 -0.022515944479115962 0 -0.051159072939786054 -0.021708613235417333 0 -0.051257494063363863 -0.025174923472946881 0 -0.051420387634867087 -0.024755690237256347 0 -0.051321878351975075 -0.025039734147898202 0 -0.051516044967573858 -0.024437671649339531 0 -0.051420387634867087 -0.024755690237256347 0 -0.051321878351975075 -0.025039734147898202 0 -0.051257494063363863 -0.025174923472946881 0 -0.051344590006183459 -0.025259435192304024 0 -0.051420387634867087 -0.024755690237256347 0 -0.051516044967573858 -0.024437671649339531 0 -0.051420387634867087 -0.024755690237256347 0 -0.051593994585005382 -0.023967597566057021 0 -0.051420387634867087 -0.024755690237256347 0 -0.051426805291887305 -0.024485188884796706 0 -0.051593994585005382 -0.023967597566057021 0 -0.051344590006183459 -0.025259435192304024 0 -0.051420387634867087 -0.024755690237256347 0 -0.051426805291887305 -0.024485188884796706 0 -0.051336635816267198 -0.02515182603308774 0 -0.051344590006183459 -0.025259435192304024 0 -0.051426805291887305 -0.024485188884796706 0 -0.051370544028830921 -0.02273407377160656 0 -0.051430271786355106 -0.023604095159538912 0 -0.051765294547517215 -0.022543648291381262 0 -0.051430271786355106 -0.023604095159538912 0 -0.051593994585005382 -0.023967597566057021 0 -0.051765294547517215 -0.022543648291381262 0 -0.051426805291887305 -0.024485188884796706 0 -0.051430271786355106 -0.023604095159538912 0 -0.051593994585005382 -0.023967597566057021 0 -0.051516044967573858 -0.024437671649339531 0 -0.051773878135676542 -0.023451488222008359 0 -0.051699217866256454 -0.02383939240013919 0 -0.051773878135676542 -0.023451488222008359 0 -0.051593994585005382 -0.023967597566057021 0 -0.051765294547517215 -0.022543648291381262 0 -0.051516044967573858 -0.024437671649339531 0 -0.051773878135676542 -0.023451488222008359 0 -0.051593994585005382 -0.023967597566057021 0 -0.051773878135676542 -0.023451488222008359 0 -0.052016647776330922 -0.022823950461682573 0 -0.051699217866256454 -0.02383939240013919 0 -0.051773878135676542 -0.023451488222008359 0 -0.052016647776330922 -0.022823950461682573 0 -0.051765294547517215 -0.022543648291381262 0 -0.051765294547517215 -0.022543648291381262 0 -0.051949113817780439 -0.020906927465419715 0 -0.051159072939786054 -0.021708613235417333 0 -0.052016647776330922 -0.022823950461682573 0 -0.051765294547517215 -0.022543648291381262 0 -0.051949113817780439 -0.020906927465419715 0 -0.052847257102974915 -0.018476333778730664 0 -0.053088043683067826 -0.018292140666577854 0 -0.052900105145132499 -0.018040774860381685 0 -0.053961879122168668 -0.020639116031357794 0 -0.051949038998105559 -0.019543995647847149 0 -0.053196484220403593 -0.018413565491072675 0 -0.052847257102974915 -0.018476333778730664 0 -0.053088043683067826 -0.018292140666577854 0 -0.053196484220403593 -0.018413565491072675 0 -0.053088043683067826 -0.018292140666577854 0 -0.053218983903830938 -0.018388183963825591 0 -0.04999941979835127 -0.022515944479115962 0 -0.051159072939786054 -0.021708613235417333 0 -0.049999448782286578 -0.0196733207474485 0 -0.051370544028830921 -0.02273407377160656 0 -0.051050053355023654 -0.023057345925008649 0 -0.051159072939786054 -0.021708613235417333 0 -0.051370544028830921 -0.02273407377160656 0 -0.051765294547517215 -0.022543648291381262 0 -0.051159072939786054 -0.021708613235417333 0 -0.051949113817780439 -0.020906927465419715 0 -0.051159072939786054 -0.021708613235417333 0 -0.051264126544940364 -0.020325638163006237 0 -0.051949113817780439 -0.020906927465419715 0 -0.051264126544940364 -0.020325638163006237 0 -0.051061303026024157 -0.018381093330074816 0 -0.051264126544940364 -0.020325638163006237 0 -0.049999448782286578 -0.0196733207474485 0 -0.051061303026024157 -0.018381093330074816 0 -0.051159072939786054 -0.021708613235417333 0 -0.051264126544940364 -0.020325638163006237 0 -0.049999448782286578 -0.0196733207474485 0 -0.049999448782286578 -0.0196733207474485 0 -0.051061303026024157 -0.018381093330074816 0 -0.049999731930994482 -0.016828787270093577 0 -0.051061303026024157 -0.018381093330074816 0 -0.049999731930994482 -0.016828787270093577 0 -0.0512818153603447 -0.016766468116969333 0 -0.049999731930994482 -0.016828787270093577 0 -0.0512818153603447 -0.016766468116969333 0 -0.050995769561273899 -0.0154887788682707 0 -0.051886741473251063 -0.015810001931540068 0 -0.052149490989078624 -0.016690750812977561 0 -0.052757610573914641 -0.016120968076908604 0 -0.052149490989078624 -0.016690750812977561 0 -0.052658201189683042 -0.016729227848923185 0 -0.052757610573914641 -0.016120968076908604 0 -0.0512818153603447 -0.016766468116969333 0 -0.051886741473251063 -0.015810001931540068 0 -0.050995769561273899 -0.0154887788682707 0 -0.0512818153603447 -0.016766468116969333 0 -0.051886741473251063 -0.015810001931540068 0 -0.052149490989078624 -0.016690750812977561 0 -0.0512818153603447 -0.016766468116969333 0 -0.052149490989078624 -0.016690750812977561 0 -0.051896294576157437 -0.017403336995401919 0 -0.052149490989078624 -0.016690750812977561 0 -0.052463510989401059 -0.017270699363773297 0 -0.051896294576157437 -0.017403336995401919 0 -0.052149490989078624 -0.016690750812977561 0 -0.052463510989401059 -0.017270699363773297 0 -0.052658201189683042 -0.016729227848923185 0 -0.052847257102974915 -0.018476333778730664 0 -0.051061303026024157 -0.018381093330074816 0 -0.05234963921147627 -0.017929900995716765 0 -0.051061303026024157 -0.018381093330074816 0 -0.05234963921147627 -0.017929900995716765 0 -0.051896294576157437 -0.017403336995401919 0 -0.051949038998105559 -0.019543995647847149 0 -0.051120263501778555 -0.018516909710404077 0 -0.052463510989401059 -0.017270699363773297 0 -0.05234963921147627 -0.017929900995716765 0 -0.051896294576157437 -0.017403336995401919 0 -0.051061303026024157 -0.018381093330074816 0 -0.0512818153603447 -0.016766468116969333 0 -0.051896294576157437 -0.017403336995401919 0 -0.052847257102974915 -0.018476333778730664 0 -0.05234963921147627 -0.017929900995716765 0 -0.052900105145132499 -0.018040774860381685 0 -0.053088043683067826 -0.018292140666577854 0 -0.052900105145132499 -0.018040774860381685 0 -0.053116527456215652 -0.01792144470476684 0 -0.053116527456215652 -0.01792144470476684 0 -0.053097546143321087 -0.017665715021315639 0 -0.053145565416092506 -0.017614066235416333 0 -0.052900105145132499 -0.018040774860381685 0 -0.053116527456215652 -0.01792144470476684 0 -0.053110349792564647 -0.017646703037631741 0 -0.053116527456215652 -0.01792144470476684 0 -0.053110349792564647 -0.017646703037631741 0 -0.053097546143321087 -0.017665715021315639 0 -0.053110349792564647 -0.017646703037631741 0 -0.052825810274667012 -0.017581021491255875 0 -0.053055029560821802 -0.017364375399609354 0 -0.053110349792564647 -0.017646703037631741 0 -0.053055029560821802 -0.017364375399609354 0 -0.053358036600466938 -0.017402403089898773 0 -0.047149815481799598 -0.015884802557510777 0 -0.046507139334531232 -0.01614264433206453 0 -0.05234963921147627 -0.017929900995716765 0 -0.052900105145132499 -0.018040774860381685 0 -0.052825810274667012 -0.017581021491255875 0 -0.052463510989401059 -0.017270699363773297 0 -0.05234963921147627 -0.017929900995716765 0 -0.052825810274667012 -0.017581021491255875 0 -0.052900105145132499 -0.018040774860381685 0 -0.053110349792564647 -0.017646703037631741 0 -0.052825810274667012 -0.017581021491255875 0 -0.053088043683067826 -0.018292140666577854 0 -0.053116527456215652 -0.01792144470476684 0 -0.053218983903830938 -0.018388183963825591 0 -0.044231247738957133 -0.018439871064582961 0 -0.043245783063126139 -0.021430818333411997 0 -0.053116527456215652 -0.01792144470476684 0 -0.053145565416092506 -0.017614066235416333 0 -0.053218983903830938 -0.018388183963825591 0 -0.033478616080901066 -0.023529392384594498 0 -0.034053089072998331 -0.02369573215836307 0 -0.033881986048648415 -0.024363242915468399 0 -0.0396104291665123 -0.015617427188070495 0 -0.039564006459881763 -0.015544345980438029 0 -0.039969628026263866 -0.01516501925080122 0 -0.044231247738957133 -0.018439871064582961 0 -0.035938424774245491 -0.019778499589026794 0 -0.033478616080901066 -0.023529392384594498 0 -0.033809880581339179 -0.023031935156006558 0 -0.034053089072998331 -0.02369573215836307 0 -0.053473758021417517 -0.016891109718787777 0 -0.052757610573914641 -0.016120968076908604 0 -0.052510812953157363 -0.015001080678443208 0 -0.045144462991928855 -0.013935184545650056 0 -0.049854791154286017 -0.010358673499137005 0 -0.053091893998692831 -0.016757484031759085 0 -0.052896030507465344 -0.017054972793275794 0 -0.053207565125825161 -0.017088417978497816 0 -0.052880272077174419 -0.016661339611427212 0 -0.053091893998692831 -0.016757484031759085 0 -0.052896030507465344 -0.017054972793275794 0 -0.052880272077174419 -0.016661339611427212 0 -0.052658201189683042 -0.016729227848923185 0 -0.052896030507465344 -0.017054972793275794 0 -0.052463510989401059 -0.017270699363773297 0 -0.052825810274667012 -0.017581021491255875 0 -0.052896030507465344 -0.017054972793275794 0 -0.052463510989401059 -0.017270699363773297 0 -0.052658201189683042 -0.016729227848923185 0 -0.052896030507465344 -0.017054972793275794 0 -0.052896030507465344 -0.017054972793275794 0 -0.053055029560821802 -0.017364375399609354 0 -0.053207565125825161 -0.017088417978497816 0 -0.052825810274667012 -0.017581021491255875 0 -0.052896030507465344 -0.017054972793275794 0 -0.053055029560821802 -0.017364375399609354 0 -0.053358036600466938 -0.017402403089898773 0 -0.053207565125825161 -0.017088417978497816 0 -0.053473758021417517 -0.016891109718787777 0 -0.053055029560821802 -0.017364375399609354 0 -0.053358036600466938 -0.017402403089898773 0 -0.053207565125825161 -0.017088417978497816 0 -0.046086803115365824 -0.016904009299961657 0 -0.046113124601544396 -0.016860760638547825 0 -0.046085627292304795 -0.016826307009530663 0 -0.046507139334531232 -0.01614264433206453 0 -0.045144462991928855 -0.013935184545650056 0 -0.046507139334531232 -0.01614264433206453 0 -0.044231247738957133 -0.018439871064582961 0 -0.044231247738957133 -0.018439871064582961 0 -0.045144462991928855 -0.013935184545650056 0 -0.053091893998692831 -0.016757484031759085 0 -0.053207565125825161 -0.017088417978497816 0 -0.053473758021417517 -0.016891109718787777 0 -0.053091893998692831 -0.016757484031759085 0 -0.053473758021417517 -0.016891109718787777 0 -0.052757610573914641 -0.016120968076908604 0 -0.052880272077174419 -0.016661339611427212 0 -0.053091893998692831 -0.016757484031759085 0 -0.052757610573914641 -0.016120968076908604 0 -0.052880272077174419 -0.016661339611427212 0 -0.052658201189683042 -0.016729227848923185 0 -0.052757610573914641 -0.016120968076908604 0 -0.044207629524381897 -0.0037271598669231347 0 -0.044912299058087038 -0.0060988491062263098 0 -0.04355415675628406 -0.0074318829558888922 0 -0.044207629524381897 -0.0037271598669231347 0 -0.044912299058087038 -0.0060988491062263098 0 -0.046608044501120632 -0.0064880636455822253 0 -0.045144462991928855 -0.013935184545650056 0 -0.041276818541822149 -0.010270926981578967 0 -0.044912299058087038 -0.0060988491062263098 0 -0.04355415675628406 -0.0074318829558888922 0 -0.045282592050500323 -0.0069023356596244652 0 -0.04355415675628406 -0.0074318829558888922 0 -0.045282592050500323 -0.0069023356596244652 0 -0.046057700119629896 -0.0078564615120182719 0 -0.044912299058087038 -0.0060988491062263098 0 -0.045282592050500323 -0.0069023356596244652 0 -0.046608044501120632 -0.0064880636455822253 0 -0.045282592050500323 -0.0069023356596244652 0 -0.046057700119629896 -0.0078564615120182719 0 -0.046608044501120632 -0.0064880636455822253 0 -0.039636187188751643 -0.014813771272444853 0 -0.039969628026263866 -0.01516501925080122 0 -0.040030965233548814 -0.014538274253286129 0 -0.039564006459881763 -0.015544345980438029 0 -0.039636187188751643 -0.014813771272444853 0 -0.039969628026263866 -0.01516501925080122 0 -0.039636187188751643 -0.014813771272444853 0 -0.040030965233548814 -0.014538274253286129 0 -0.039829384894469341 -0.013981870866931027 0 -0.039969628026263866 -0.01516501925080122 0 -0.040030965233548814 -0.014538274253286129 0 -0.040395593749552393 -0.014651357737614879 0 -0.041276818541822149 -0.010270926981578967 0 -0.040962905831536757 -0.012850087398306528 0 -0.046057700119629896 -0.0078564615120182719 0 -0.043687492035556774 -0.0096882375795376251 0 -0.042920668028022628 -0.012092058270013903 0 -0.04355415675628406 -0.0074318829558888922 0 -0.043687492035556774 -0.0096882375795376251 0 -0.04210048870398269 -0.011183528154521283 0 -0.04355415675628406 -0.0074318829558888922 0 -0.046057700119629896 -0.0078564615120182719 0 -0.043687492035556774 -0.0096882375795376251 0 -0.047212824132921466 -0.0082979667897677429 0 -0.049063718971072541 -0.0089876930529491882 0 -0.046608044501120632 -0.0064880636455822253 0 -0.047212824132921466 -0.0082979667897677429 0 -0.049063718971072541 -0.0089876930529491882 0 -0.047208754443302137 -0.0095701042188068332 0 -0.046057700119629896 -0.0078564615120182719 0 -0.047212824132921466 -0.0082979667897677429 0 -0.047208754443302137 -0.0095701042188068332 0 -0.050109831492910192 -0.01106241800439221 0 -0.049854791154286017 -0.010358673499137005 0 -0.051344292295889285 -0.013040296130734871 0 -0.051004358192081253 -0.014368778440299108 0 -0.05158022452203842 -0.014741021477497868 0 -0.051344292295889285 -0.013040296130734871 0 -0.049999810838487216 -0.013985587870215971 0 -0.050000033073574403 -0.011142034284863217 0 -0.051344292295889285 -0.013040296130734871 0 -0.049999810838487216 -0.013985587870215971 0 -0.051004358192081253 -0.014368778440299108 0 -0.049999731930994482 -0.016828787270093577 0 -0.049999810838487216 -0.013985587870215971 0 -0.050995769561273899 -0.0154887788682707 0 -0.051004358192081253 -0.014368778440299108 0 -0.050995769561273899 -0.0154887788682707 0 -0.05158022452203842 -0.014741021477497868 0 -0.049999810838487216 -0.013985587870215971 0 -0.051004358192081253 -0.014368778440299108 0 -0.050995769561273899 -0.0154887788682707 0 -0.051886741473251063 -0.015810001931540068 0 -0.052510812953157363 -0.015001080678443208 0 -0.05158022452203842 -0.014741021477497868 0 -0.051344292295889285 -0.013040296130734871 0 -0.052510812953157363 -0.015001080678443208 0 -0.05158022452203842 -0.014741021477497868 0 -0.051886741473251063 -0.015810001931540068 0 -0.050995769561273899 -0.0154887788682707 0 -0.05158022452203842 -0.014741021477497868 0 -0.051886741473251063 -0.015810001931540068 0 -0.052757610573914641 -0.016120968076908604 0 -0.052510812953157363 -0.015001080678443208 0 -0.046057700119629896 -0.0078564615120182719 0 -0.047212824132921466 -0.0082979667897677429 0 -0.046608044501120632 -0.0064880636455822253 0 -0.035057064341102208 -0.02274732113240769 0 -0.034610872557598413 -0.022889492581145435 0 -0.034997540631195638 -0.02334874652318519 0 -0.035057064341102208 -0.02274732113240769 0 -0.034997540631195638 -0.02334874652318519 0 -0.035412540862620599 -0.023352469078057349 0 -0.034400506741257865 -0.023263114969418883 0 -0.035383124723746509 -0.023058738337449911 0 -0.0341344355063831 -0.022311569158657181 0 -0.035412540862620599 -0.023352469078057349 0 -0.03527929436695465 -0.022090066715949153 0 -0.0341344355063831 -0.022311569158657181 0 -0.03527929436695465 -0.022090066715949153 0 -0.034216794818066658 -0.021303290523284842 0 -0.034400506741257865 -0.023263114969418883 0 -0.035794604473899649 -0.017132282722710477 0 -0.0341344355063831 -0.022311569158657181 0 -0.032911846838444482 -0.021149414518817692 0 -0.034216794818066658 -0.021303290523284842 0 -0.034173101832114194 -0.022494362412044961 0 -0.034610872557598413 -0.022889492581145435 0 -0.034564437206414528 -0.021955363890175678 0 -0.035057064341102208 -0.02274732113240769 0 -0.034610872557598413 -0.022889492581145435 0 -0.034564437206414528 -0.021955363890175678 0 -0.040030965233548814 -0.014538274253286129 0 -0.040395593749552393 -0.014651357737614879 0 -0.040316631691793899 -0.014069633486748848 0 -0.037581962872579873 -0.018426293838313328 0 -0.035794604473899649 -0.017132282722710477 0 -0.034173101832114194 -0.022494362412044961 0 -0.034244753670564961 -0.023108466373986735 0 -0.034610872557598413 -0.022889492581145435 0 -0.033809880581339179 -0.023031935156006558 0 -0.034173101832114194 -0.022494362412044961 0 -0.034244753670564961 -0.023108466373986735 0 -0.035938424774245491 -0.019778499589026794 0 -0.037581962872579873 -0.018426293838313328 0 -0.034244753670564961 -0.023108466373986735 0 -0.034610872557598413 -0.022889492581145435 0 -0.034561235497501279 -0.023587936627334112 0 -0.033809880581339179 -0.023031935156006558 0 -0.034244753670564961 -0.023108466373986735 0 -0.034053089072998331 -0.02369573215836307 0 -0.034244753670564961 -0.023108466373986735 0 -0.034561235497501279 -0.023587936627334112 0 -0.034053089072998331 -0.02369573215836307 0 -0.034053089072998331 -0.02369573215836307 0 -0.033881986048648415 -0.024363242915468399 0 -0.034376533430849683 -0.024512052229851061 0 -0.034561235497501279 -0.023587936627334112 0 -0.034053089072998331 -0.02369573215836307 0 -0.034376533430849683 -0.024512052229851061 0 -0.034561235497501279 -0.023587936627334112 0 -0.034931271925235083 -0.024625741517896173 0 -0.034376533430849683 -0.024512052229851061 0 -0.034561235497501279 -0.023587936627334112 0 -0.035149491874022033 -0.024007198363451325 0 -0.034931271925235083 -0.024625741517896173 0 -0.034561235497501279 -0.023587936627334112 0 -0.034997540631195638 -0.02334874652318519 0 -0.035149491874022033 -0.024007198363451325 0 -0.034610872557598413 -0.022889492581145435 0 -0.034561235497501279 -0.023587936627334112 0 -0.034997540631195638 -0.02334874652318519 0 -0.034997540631195638 -0.02334874652318519 0 -0.035149491874022033 -0.024007198363451325 0 -0.035412540862620599 -0.023352469078057349 0 -0.035149491874022033 -0.024007198363451325 0 -0.03532619101681711 -0.024734305533922703 0 -0.035636350326917657 -0.024276672351041979 0 -0.03532619101681711 -0.024734305533922703 0 -0.034931271925235083 -0.024625741517896173 0 -0.035173213170180073 -0.025092657920587975 0 -0.035149491874022033 -0.024007198363451325 0 -0.03532619101681711 -0.024734305533922703 0 -0.034931271925235083 -0.024625741517896173 0 -0.034931271925235083 -0.024625741517896173 0 -0.034754697239294398 -0.025070553140597796 0 -0.035372844927171972 -0.025417431580029366 0 -0.035007003512122062 -0.025453432248219887 0 -0.035325395880359788 -0.025727105690097469 0 -0.034798053531954164 -0.025773942437213277 0 -0.034754697239294398 -0.025070553140597796 0 -0.035007003512122062 -0.025453432248219887 0 -0.034798053531954164 -0.025773942437213277 0 -0.034754697239294398 -0.025070553140597796 0 -0.035007003512122062 -0.025453432248219887 0 -0.035372844927171972 -0.025417431580029366 0 -0.035007003512122062 -0.025453432248219887 0 -0.035372844927171972 -0.025417431580029366 0 -0.035325395880359788 -0.025727105690097469 0 -0.035372844927171972 -0.025417431580029366 0 -0.035638815552357164 -0.025905000285604347 0 -0.035325395880359788 -0.025727105690097469 0 -0.034931271925235083 -0.024625741517896173 0 -0.035372844927171972 -0.025417431580029366 0 -0.03625835027430227 -0.025600754583508075 0 -0.035040231744028309 -0.024732284241069016 0 -0.035505994145888412 -0.025656074421118613 0 -0.034931271925235083 -0.024625741517896173 0 -0.035032529844488951 -0.025682030439067763 0 -0.035173213170180073 -0.025092657920587975 0 -0.035372844927171972 -0.025417431580029366 0 -0.03625835027430227 -0.025600754583508075 0 -0.035638815552357164 -0.025905000285604347 0 -0.035032529844488951 -0.025682030439067763 0 -0.035173213170180073 -0.025092657920587975 0 -0.035507311633106317 -0.025353302520893402 0 -0.033881986048648415 -0.024363242915468399 0 -0.034376533430849683 -0.024512052229851061 0 -0.034324055191900196 -0.025322904842527864 0 -0.034931271925235083 -0.024625741517896173 0 -0.034754697239294398 -0.025070553140597796 0 -0.034376533430849683 -0.024512052229851061 0 -0.034754697239294398 -0.025070553140597796 0 -0.034376533430849683 -0.024512052229851061 0 -0.034324055191900196 -0.025322904842527864 0 -0.044614282781387606 -0.023252539903505686 0 -0.034698378815110904 -0.025425591321125318 0 -0.034754697239294398 -0.025070553140597796 0 -0.034324055191900196 -0.025322904842527864 0 -0.034798053531954164 -0.025773942437213277 0 -0.053196484220403593 -0.018413565491072675 0 -0.053218983903830938 -0.018388183963825591 0 -0.052882958403574751 -0.018452454405033684 0 -0.052016647776330922 -0.022823950461682573 0 -0.051713714314459973 -0.023890775403218305 0 -0.051699217866256454 -0.02383939240013919 0 -0.053961879122168668 -0.020639116031357794 0 -0.044614282781387606 -0.023252539903505686 0 -0.043245783063126139 -0.021430818333411997 0 -0.044614282781387606 -0.023252539903505686 0 -0.051713714314459973 -0.023890775403218305 0 -0.051699217866256454 -0.02383939240013919 0 -0.051372933273392464 -0.024564425935266223 0 -0.051516044967573858 -0.024437671649339531 0 -0.051699217866256454 -0.02383939240013919 0 -0.051372933273392464 -0.024564425935266223 0 -0.051713714314459973 -0.023890775403218305 0 -0.051372933273392464 -0.024564425935266223 0 -0.051506991010982453 -0.024372040946725484 0 -0.044614282781387606 -0.023252539903505686 0 -0.044188304517285185 -0.025424754674955488 0 -0.03683738178768637 -0.026771050317611719 0 -0.036131861909955015 -0.026539984496329033 0 -0.036126004574920163 -0.026205153020572244 0 -0.051372933273392464 -0.024564425935266223 0 -0.050875651766915539 -0.025784346732610593 0 -0.051506991010982453 -0.024372040946725484 0 -0.051372933273392464 -0.024564425935266223 0 -0.050875651766915539 -0.025784346732610593 0 -0.051311054767410755 -0.025073342222946902 0 -0.051275688863028392 -0.025366041657938775 0 -0.050875651766915539 -0.025784346732610593 0 -0.051311054767410755 -0.025073342222946902 0 -0.051516044967573858 -0.024437671649339531 0 -0.051372933273392464 -0.024564425935266223 0 -0.051311054767410755 -0.025073342222946902 0 -0.051516044967573858 -0.024437671649339531 0 -0.051311054767410755 -0.025073342222946902 0 -0.051321878351975075 -0.025039734147898202 0 -0.051275688863028392 -0.025366041657938775 0 -0.051311054767410755 -0.025073342222946902 0 -0.051321878351975075 -0.025039734147898202 0 -0.03625835027430227 -0.025600754583508075 0 -0.035820659377563888 -0.026271060186640036 0 -0.036476935701717131 -0.028300037534121796 0 -0.035820659377563888 -0.026271060186640036 0 -0.035705014059333871 -0.026247643372851348 0 -0.035753805597797984 -0.026073926708990277 0 -0.03625835027430227 -0.025600754583508075 0 -0.035820659377563888 -0.026271060186640036 0 -0.035638815552357164 -0.025905000285604347 0 -0.035820659377563888 -0.026271060186640036 0 -0.035638815552357164 -0.025905000285604347 0 -0.035705014059333871 -0.026247643372851348 0 -0.035325395880359788 -0.025727105690097469 0 -0.034798053531954164 -0.025773942437213277 0 -0.035705014059333871 -0.026247643372851348 0 -0.034698378815110904 -0.025425591321125318 0 -0.035955244662395545 -0.026353295877945465 0 -0.035638815552357164 -0.025905000285604347 0 -0.035325395880359788 -0.025727105690097469 0 -0.035705014059333871 -0.026247643372851348 0 -0.036131861909955015 -0.026539984496329033 0 -0.036126004574920163 -0.026205153020572244 0 -0.035705014059333871 -0.026247643372851348 0 -0.044188304517285185 -0.025424754674955488 0 -0.041461927106066374 -0.02920319769732329 0 -0.049065568300115124 -0.029568392628644032 0 -0.050875651766915539 -0.025784346732610593 0 -0.053877163053748706 -0.026774231482765861 0 -0.050875651766915539 -0.025784346732610593 0 -0.051506991010982453 -0.024372040946725484 0 -0.053877163053748706 -0.026774231482765861 0 -0.036126004574920163 -0.026205153020572244 0 -0.035705014059333871 -0.026247643372851348 0 -0.035753805597797984 -0.026073926708990277 0 -0.035820659377563888 -0.026271060186640036 0 -0.034573705239819445 -0.029211725187949348 0 -0.036476935701717131 -0.028300037534121796 0 -0.034410069275068206 -0.026215020643624798 0 -0.041461927106066374 -0.02920319769732329 0 -0.038631649100863599 -0.030624854178511279 0 -0.036476935701717131 -0.028300037534121796 0 -0.038541289551514951 -0.028347207757973027 0 -0.035505994145888412 -0.025656074421118613 0 -0.037938290721271056 -0.027616651428884541 0 -0.03625835027430227 -0.025600754583508075 0 -0.036476935701717131 -0.028300037534121796 0 -0.038541289551514951 -0.028347207757973027 0 -0.035437959725387269 -0.027011537496306724 0 -0.03548171423601526 -0.025972002421454955 0 -0.035967752598499436 -0.02589070423436985 0 -0.035032529844488951 -0.025682030439067763 0 -0.035437959725387269 -0.027011537496306724 0 -0.03548171423601526 -0.025972002421454955 0 -0.035437959725387269 -0.027011537496306724 0 -0.035967752598499436 -0.02589070423436985 0 -0.036251009688768147 -0.026880411930974575 0 -0.036068776661900649 -0.028522552661592003 0 -0.035437959725387269 -0.027011537496306724 0 -0.036251009688768147 -0.026880411930974575 0 -0.036068776661900649 -0.028522552661592003 0 -0.036251009688768147 -0.026880411930974575 0 -0.037140664287506245 -0.027119516833587126 0 -0.026713160021678891 -0.032897760842890728 0 -0.026874566143609429 -0.031920925701885108 0 -0.027617795496123008 -0.032077953506136465 0 -0.037140664287506245 -0.027119516833587126 0 -0.037285831812144968 -0.025983734466463602 0 -0.037951678890578128 -0.02583847491417433 0 -0.026874566143609429 -0.031920925701885108 0 -0.027617795496123008 -0.032077953506136465 0 -0.028078136566767168 -0.030376684087022286 0 -0.037140664287506245 -0.027119516833587126 0 -0.036684100154274125 -0.026057847655353919 0 -0.037285831812144968 -0.025983734466463602 0 -0.032304623805587206 -0.029290321293818769 0 -0.030192687566977936 -0.028126630962737167 0 -0.035967752598499436 -0.02589070423436985 0 -0.036251009688768147 -0.026880411930974575 0 -0.036684100154274125 -0.026057847655353919 0 -0.036251009688768147 -0.026880411930974575 0 -0.037140664287506245 -0.027119516833587126 0 -0.036684100154274125 -0.026057847655353919 0 -0.035967752598499436 -0.02589070423436985 0 -0.036684100154274125 -0.026057847655353919 0 -0.036490576827613704 -0.025312274235116689 0 -0.036684100154274125 -0.026057847655353919 0 -0.036490576827613704 -0.025312274235116689 0 -0.037073243096154895 -0.025487248318055045 0 -0.036490576827613704 -0.025312274235116689 0 -0.037073243096154895 -0.025487248318055045 0 -0.036976443369350867 -0.024979925900522892 0 -0.037285831812144968 -0.025983734466463602 0 -0.037569703951453065 -0.025508581356691203 0 -0.037951678890578128 -0.02583847491417433 0 -0.037285831812144968 -0.025983734466463602 0 -0.037073243096154895 -0.025487248318055045 0 -0.037569703951453065 -0.025508581356691203 0 -0.036684100154274125 -0.026057847655353919 0 -0.037285831812144968 -0.025983734466463602 0 -0.037073243096154895 -0.025487248318055045 0 -0.037073243096154895 -0.025487248318055045 0 -0.037569703951453065 -0.025508581356691203 0 -0.037309528733074998 -0.025013281050001331 0 -0.037569703951453065 -0.025508581356691203 0 -0.037309528733074998 -0.025013281050001331 0 -0.037757430905416868 -0.024581508624086194 0 -0.037570293192678982 -0.025359301279474725 0 -0.03767653162847498 -0.024794925906554768 0 -0.037073243096154895 -0.025487248318055045 0 -0.037309528733074998 -0.025013281050001331 0 -0.036976443369350867 -0.024979925900522892 0 -0.037309528733074998 -0.025013281050001331 0 -0.036976443369350867 -0.024979925900522892 0 -0.037186311610287202 -0.024503923924118317 0 -0.037309528733074998 -0.025013281050001331 0 -0.037757430905416868 -0.024581508624086194 0 -0.037186311610287202 -0.024503923924118317 0 -0.036490576827613704 -0.025312274235116689 0 -0.036976443369350867 -0.024979925900522892 0 -0.036634927786274959 -0.024517524031882548 0 -0.036490576827613704 -0.025312274235116689 0 -0.036139887947751165 -0.024730633153377014 0 -0.036634927786274959 -0.024517524031882548 0 -0.036976443369350867 -0.024979925900522892 0 -0.036634927786274959 -0.024517524031882548 0 -0.037186311610287202 -0.024503923924118317 0 -0.036490576827613704 -0.025312274235116689 0 -0.036139887947751165 -0.024730633153377014 0 -0.035982896201967186 -0.025234850597655695 0 -0.036139887947751165 -0.024730633153377014 0 -0.035720955814799372 -0.02486477198590898 0 -0.035982896201967186 -0.025234850597655695 0 -0.036139887947751165 -0.024730633153377014 0 -0.035720955814799372 -0.02486477198590898 0 -0.035636350326917657 -0.024276672351041979 0 -0.03532619101681711 -0.024734305533922703 0 -0.035720955814799372 -0.02486477198590898 0 -0.035636350326917657 -0.024276672351041979 0 -0.03532619101681711 -0.024734305533922703 0 -0.035720955814799372 -0.02486477198590898 0 -0.035507311633106317 -0.025353302520893402 0 -0.03532619101681711 -0.024734305533922703 0 -0.035173213170180073 -0.025092657920587975 0 -0.035507311633106317 -0.025353302520893402 0 -0.035720955814799372 -0.02486477198590898 0 -0.035507311633106317 -0.025353302520893402 0 -0.035982896201967186 -0.025234850597655695 0 -0.035032529844488951 -0.025682030439067763 0 -0.03548171423601526 -0.025972002421454955 0 -0.035507311633106317 -0.025353302520893402 0 -0.03548171423601526 -0.025972002421454955 0 -0.035967752598499436 -0.02589070423436985 0 -0.035507311633106317 -0.025353302520893402 0 -0.035967752598499436 -0.02589070423436985 0 -0.036490576827613704 -0.025312274235116689 0 -0.035982896201967186 -0.025234850597655695 0 -0.035967752598499436 -0.02589070423436985 0 -0.035507311633106317 -0.025353302520893402 0 -0.035982896201967186 -0.025234850597655695 0 -0.026760340819352683 -0.031144656947016913 0 -0.02692624490959063 -0.031397102017038159 0 -0.026614591331786355 -0.033184629372325671 0 -0.026964354247057711 -0.03302847500339072 0 -0.026943914642606048 -0.031133356618243943 0 -0.026964354247057711 -0.03302847500339072 0 -0.026943914642606048 -0.031133356618243943 0 -0.026784118800214481 -0.033802761220645287 0 -0.026943914642606048 -0.031133356618243943 0 -0.026084808369404834 -0.031391019624374308 0 -0.026113004678646485 -0.032510985947693194 0 -0.026614591331786355 -0.033184629372325671 0 -0.026943914642606048 -0.031133356618243943 0 -0.026113004678646485 -0.032510985947693194 0 -0.026943914642606048 -0.031133356618243943 0 -0.026084808369404834 -0.031391019624374308 0 -0.025767280229828885 -0.030310418460784607 0 -0.025568202489759606 -0.031580060824160192 0 -0.024712125635634921 -0.030344227321347821 0 -0.025767280229828885 -0.030310418460784607 0 -0.025568202489759606 -0.031580060824160192 0 -0.026084808369404834 -0.031391019624374308 0 -0.025767280229828885 -0.030310418460784607 0 -0.025568202489759606 -0.031580060824160192 0 -0.026084808369404834 -0.031391019624374308 0 -0.026113004678646485 -0.032510985947693194 0 -0.025568202489759606 -0.031580060824160192 0 -0.026113004678646485 -0.032510985947693194 0 -0.025797953177351091 -0.032540233773747637 0 -0.025568202489759606 -0.031580060824160192 0 -0.025204350033102046 -0.032392961325448014 0 -0.025797953177351091 -0.032540233773747637 0 -0.026140119145143907 -0.033195000000171997 0 -0.025204350033102046 -0.032392961325448014 0 -0.025797953177351091 -0.032540233773747637 0 -0.025568202489759606 -0.031580060824160192 0 -0.025204350033102046 -0.032392961325448014 0 -0.024712125635634921 -0.030344227321347821 0 -0.025921241695474963 -0.032753337908003152 0 -0.030192687566977936 -0.028126630962737167 0 -0.030192687566977936 -0.028126630962737167 0 -0.034280020891016859 -0.024561725152913595 0 -0.029458360453439865 -0.0264068506174675 0 -0.029817289471588813 -0.025519463898690878 0 -0.029970558584619392 -0.025707618051817597 0 -0.037569703951453065 -0.025508581356691203 0 -0.037951678890578128 -0.02583847491417433 0 -0.037999591057885189 -0.024885544860781986 0 -0.030192687566977936 -0.028126630962737167 0 -0.027151705486219164 -0.027729958924800166 0 -0.029458360453439865 -0.0264068506174675 0 -0.029710608524294475 -0.025323922267088329 0 -0.029817289471588813 -0.025519463898690878 0 -0.037569703951453065 -0.025508581356691203 0 -0.037503682256856422 -0.024706504358751401 0 -0.037999591057885189 -0.024885544860781986 0 -0.029817289471588813 -0.025519463898690878 0 -0.030531440047952801 -0.025013348662252539 0 -0.03009674091685649 -0.025030841010340726 0 -0.029817289471588813 -0.025519463898690878 0 -0.029970558584619392 -0.025707618051817597 0 -0.030355386462454517 -0.025181348121734882 0 -0.030340426957594362 -0.025185817291453284 0 -0.029092192759420103 -0.025843489914609649 0 -0.025133014685153374 -0.029024971737992743 0 -0.026219456619609609 -0.029136321471557668 0 -0.025779467681510692 -0.02751649775720939 0 -0.029710608524294475 -0.025323922267088329 0 -0.029817289471588813 -0.025519463898690878 0 -0.03009674091685649 -0.025030841010340726 0 -0.027151705486219164 -0.027729958924800166 0 -0.029092192759420103 -0.025843489914609649 0 -0.024712125635634921 -0.030344227321347821 0 -0.025133014685153374 -0.029024971737992743 0 -0.025767280229828885 -0.030310418460784607 0 -0.025133014685153374 -0.029024971737992743 0 -0.025767280229828885 -0.030310418460784607 0 -0.026219456619609609 -0.029136321471557668 0 -0.026943914642606048 -0.031133356618243943 0 -0.026219456619609609 -0.029136321471557668 0 -0.02697875580859355 -0.02929967808519969 0 -0.026943914642606048 -0.031133356618243943 0 -0.025767280229828885 -0.030310418460784607 0 -0.026219456619609609 -0.029136321471557668 0 -0.026219456619609609 -0.029136321471557668 0 -0.026737411504515887 -0.027184717929744966 0 -0.025779467681510692 -0.02751649775720939 0 -0.026219456619609609 -0.029136321471557668 0 -0.026737411504515887 -0.027184717929744966 0 -0.02697875580859355 -0.02929967808519969 0 -0.026665547113921002 -0.027139793352117692 0 -0.026458708260482255 -0.027235316646085164 0 -0.026737411504515887 -0.027184717929744966 0 -0.02697875580859355 -0.02929967808519969 0 -0.027853578564347885 -0.029577637449994337 0 -0.026943914642606048 -0.031133356618243943 0 -0.02697875580859355 -0.02929967808519969 0 -0.027853578564347885 -0.029577637449994337 0 -0.028677731023296505 -0.026085547482485986 0 -0.028273080955173314 -0.022644840376296053 0 -0.031283259982850253 -0.024442541799719771 0 -0.031409180056677768 -0.023592629606318961 0 -0.031991105234894006 -0.023934820797494368 0 -0.033051639779805839 -0.020609213912301423 0 -0.028273080955173314 -0.022644840376296053 0 -0.026737411504515887 -0.027184717929744966 0 -0.026600014051164918 -0.026911450223864646 0 -0.025730568715003309 -0.026490635658360302 0 -0.031283259982850253 -0.024442541799719771 0 -0.0308853757954753 -0.024446758898062273 0 -0.030661977231875505 -0.024821972742921545 0 -0.026737411504515887 -0.027184717929744966 0 -0.026600014051164918 -0.026911450223864646 0 -0.025779467681510692 -0.02751649775720939 0 -0.031283259982850253 -0.024442541799719771 0 -0.03053084805267332 -0.025001270779703787 0 -0.030661977231875505 -0.024821972742921545 0 -0.028677731023296505 -0.026085547482485986 0 -0.029092192759420103 -0.025843489914609649 0 -0.030531440047952801 -0.025013348662252539 0 -0.030661977231875505 -0.024821972742921545 0 -0.030485838031229062 -0.024604648565565827 0 -0.029092192759420103 -0.025843489914609649 0 -0.029888227446021116 -0.025085112809011541 0 -0.0308853757954753 -0.024446758898062273 0 -0.030705956247159969 -0.024069388139948699 0 -0.030485838031229062 -0.024604648565565827 0 -0.0308853757954753 -0.024446758898062273 0 -0.030661977231875505 -0.024821972742921545 0 -0.030485838031229062 -0.024604648565565827 0 -0.030705956247159969 -0.024069388139948699 0 -0.030597118955226203 -0.023641370083800954 0 -0.031409180056677768 -0.023592629606318961 0 -0.031283259982850253 -0.024442541799719771 0 -0.030705956247159969 -0.024069388139948699 0 -0.031409180056677768 -0.023592629606318961 0 -0.031283259982850253 -0.024442541799719771 0 -0.0308853757954753 -0.024446758898062273 0 -0.030705956247159969 -0.024069388139948699 0 -0.030705956247159969 -0.024069388139948699 0 -0.030002808946397948 -0.024253945241145908 0 -0.030485838031229062 -0.024604648565565827 0 -0.034010332446651415 -0.024404457437744564 0 -0.034119140606781541 -0.021939207103331086 0 -0.030002808946397948 -0.024253945241145908 0 -0.030273350080621472 -0.02329594419679374 0 -0.030597118955226203 -0.023641370083800954 0 -0.030705956247159969 -0.024069388139948699 0 -0.030002808946397948 -0.024253945241145908 0 -0.030597118955226203 -0.023641370083800954 0 -0.038147420696269994 -0.023880833333058009 0 -0.037775422475175104 -0.023406729920337727 0 -0.038355148001101742 -0.022761991709282638 0 -0.030002808946397948 -0.024253945241145908 0 -0.030485838031229062 -0.024604648565565827 0 -0.03009674091685649 -0.025030841010340726 0 -0.034280020891016859 -0.024561725152913595 0 -0.034010332446651415 -0.024404457437744564 0 -0.029710608524294475 -0.025323922267088329 0 -0.030002808946397948 -0.024253945241145908 0 -0.03009674091685649 -0.025030841010340726 0 -0.030531440047952801 -0.025013348662252539 0 -0.030485838031229062 -0.024604648565565827 0 -0.03009674091685649 -0.025030841010340726 0 -0.037503682256856422 -0.024706504358751401 0 -0.037999591057885189 -0.024885544860781986 0 -0.037867060914288493 -0.024208233237346465 0 -0.03767653162847498 -0.024794925906554768 0 -0.036411581862556185 -0.02296226894298381 0 -0.037999591057885189 -0.024885544860781986 0 -0.038147420696269994 -0.023880833333058009 0 -0.037867060914288493 -0.024208233237346465 0 -0.037503682256856422 -0.024706504358751401 0 -0.037867060914288493 -0.024208233237346465 0 -0.037529818245714115 -0.023893618075993404 0 -0.03795051301957196 -0.024321838443523518 0 -0.036411581862556185 -0.02296226894298381 0 -0.038147420696269994 -0.023880833333058009 0 -0.037408419200513354 -0.023825541422858802 0 -0.037775422475175104 -0.023406729920337727 0 -0.036411581862556185 -0.02296226894298381 0 -0.034393958615359932 -0.019376231220196959 0 -0.038147420696269994 -0.023880833333058009 0 -0.037867060914288493 -0.024208233237346465 0 -0.037408419200513354 -0.023825541422858802 0 -0.037408419200513354 -0.023825541422858802 0 -0.037775422475175104 -0.023406729920337727 0 -0.037468907622159271 -0.022895350443666251 0 -0.037775422475175104 -0.023406729920337727 0 -0.037468907622159271 -0.022895350443666251 0 -0.038355148001101742 -0.022761991709282638 0 -0.034393958615359932 -0.019376231220196959 0 -0.034119140606781541 -0.021939207103331086 0 -0.033115599021973106 -0.018632626182502419 0 -0.033299511410047326 -0.018402201836993076 0 -0.033408220524611711 -0.018572287576213362 0 -0.033226394849795303 -0.018620550153376745 0 -0.033175587363812931 -0.018212335654702441 0 -0.032940051348463187 -0.018351028733158546 0 -0.033115599021973106 -0.018632626182502419 0 -0.033175587363812931 -0.018212335654702441 0 -0.033299511410047326 -0.018402201836993076 0 -0.034393958615359932 -0.019376231220196959 0 -0.033039221430916921 -0.018002162260383425 0 -0.033299511410047326 -0.018402201836993076 0 -0.0333726564474311 -0.018456658202597866 0 -0.033408220524611711 -0.018572287576213362 0 -0.033175587363812931 -0.018212335654702441 0 -0.033299511410047326 -0.018402201836993076 0 -0.033403091860664431 -0.018365642040103707 0 -0.033299511410047326 -0.018402201836993076 0 -0.0333726564474311 -0.018456658202597866 0 -0.033403091860664431 -0.018365642040103707 0 -0.033403091860664431 -0.018365642040103707 0 -0.033428444458050495 -0.018463813782113415 0 -0.033463263198316176 -0.01851783393065282 0 -0.0333726564474311 -0.018456658202597866 0 -0.033403091860664431 -0.018365642040103707 0 -0.033428444458050495 -0.018463813782113415 0 -0.0333726564474311 -0.018456658202597866 0 -0.033428444458050495 -0.018463813782113415 0 -0.033434892602499953 -0.018492714884648289 0 -0.0333726564474311 -0.018456658202597866 0 -0.033434892602499953 -0.018492714884648289 0 -0.033409594342810767 -0.018539010083749474 0 -0.033428444458050495 -0.018463813782113415 0 -0.033434892602499953 -0.018492714884648289 0 -0.033454455182414286 -0.018495464150719794 0 -0.03340521529370525 -0.01855911504428516 0 -0.033409594342810767 -0.018539010083749474 0 -0.03347287152892519 -0.018493568378831947 0 -0.0333726564474311 -0.018456658202597866 0 -0.033408220524611711 -0.018572287576213362 0 -0.033409594342810767 -0.018539010083749474 0 -0.034119140606781541 -0.021939207103331086 0 -0.032942821811302349 -0.019439230649162486 0 -0.033434892602499953 -0.018492714884648289 0 -0.033409594342810767 -0.018539010083749474 0 -0.03347287152892519 -0.018493568378831947 0 -0.034119140606781541 -0.021939207103331086 0 -0.034184864593506524 -0.021341024161138818 0 -0.030597118955226203 -0.023641370083800954 0 -0.030794902414805782 -0.023224855418399006 0 -0.031409180056677768 -0.023592629606318961 0 -0.032942821811302349 -0.019439230649162486 0 -0.033051639779805839 -0.020609213912301423 0 -0.030273350080621472 -0.02329594419679374 0 -0.030597118955226203 -0.023641370083800954 0 -0.030794902414805782 -0.023224855418399006 0 -0.03340521529370525 -0.01855911504428516 0 -0.033497330323797307 -0.018503738448238924 0 -0.03347287152892519 -0.018493568378831947 0 -0.033477457687231135 -0.018465329261990147 0 -0.03347287152892519 -0.018493568378831947 0 -0.033463263198316176 -0.01851783393065282 0 -0.032942821811302349 -0.019439230649162486 0 -0.033014395748568431 -0.019312726656389709 0 -0.03347287152892519 -0.018493568378831947 0 -0.033454455182414286 -0.018495464150719794 0 -0.033463263198316176 -0.01851783393065282 0 -0.033403091860664431 -0.018365642040103707 0 -0.033463263198316176 -0.01851783393065282 0 -0.033458435306995216 -0.018617386559937089 0 -0.033434892602499953 -0.018492714884648289 0 -0.03347287152892519 -0.018493568378831947 0 -0.033454455182414286 -0.018495464150719794 0 -0.033477457687231135 -0.018465329261990147 0 -0.033458435306995216 -0.018617386559937089 0 -0.033274652952785387 -0.018409662121499828 0 -0.033428444458050495 -0.018463813782113415 0 -0.033454455182414286 -0.018495464150719794 0 -0.033463263198316176 -0.01851783393065282 0 -0.033477457687231135 -0.018465329261990147 0 -0.033463263198316176 -0.01851783393065282 0 -0.033458435306995216 -0.018617386559937089 0 -0.033458435306995216 -0.018617386559937089 0 -0.033274652952785387 -0.018409662121499828 0 -0.033228114601217197 -0.019092590501358503 0 -0.032942821811302349 -0.019439230649162486 0 -0.033637283191494539 -0.018226611452610595 0 -0.034986763622021425 -0.017957506493580438 0 -0.033556135364364456 -0.018164967499337926 0 -0.033798646369463843 -0.017268024152875004 0 -0.033556135364364456 -0.018164967499337926 0 -0.033798646369463843 -0.017268024152875004 0 -0.032580190999824878 -0.017572909262302368 0 -0.035412540862620599 -0.023352469078057349 0 -0.03615983315240856 -0.023980002728197215 0 -0.036187316239989241 -0.023049049380227012 0 -0.03615983315240856 -0.023980002728197215 0 -0.03680591311863151 -0.023884114453649543 0 -0.036187316239989241 -0.023049049380227012 0 -0.035412540862620599 -0.023352469078057349 0 -0.035636350326917657 -0.024276672351041979 0 -0.03615983315240856 -0.023980002728197215 0 -0.035149491874022033 -0.024007198363451325 0 -0.035412540862620599 -0.023352469078057349 0 -0.035636350326917657 -0.024276672351041979 0 -0.036139887947751165 -0.024730633153377014 0 -0.03615983315240856 -0.023980002728197215 0 -0.036634927786274959 -0.024517524031882548 0 -0.036139887947751165 -0.024730633153377014 0 -0.035636350326917657 -0.024276672351041979 0 -0.03615983315240856 -0.023980002728197215 0 -0.03615983315240856 -0.023980002728197215 0 -0.036634927786274959 -0.024517524031882548 0 -0.03680591311863151 -0.023884114453649543 0 -0.036634927786274959 -0.024517524031882548 0 -0.03680591311863151 -0.023884114453649543 0 -0.037186311610287202 -0.024503923924118317 0 -0.037757430905416868 -0.024581508624086194 0 -0.037854703313819682 -0.023729037387006935 0 -0.037343742604276635 -0.023923433229029671 0 -0.037757430905416868 -0.024581508624086194 0 -0.037186311610287202 -0.024503923924118317 0 -0.037343742604276635 -0.023923433229029671 0 -0.03680591311863151 -0.023884114453649543 0 -0.037186311610287202 -0.024503923924118317 0 -0.037343742604276635 -0.023923433229029671 0 -0.03371354272779678 -0.019678208343802111 0 -0.032659090778695485 -0.018642850216938216 0 -0.03287753342413495 -0.018794887401660073 0 -0.03371354272779678 -0.019678208343802111 0 -0.033841684179030079 -0.018673190701045853 0 -0.03287753342413495 -0.018794887401660073 0 -0.036411581862556185 -0.02296226894298381 0 -0.034694125368774531 -0.020523408448285898 0 -0.037854703313819682 -0.023729037387006935 0 -0.037343742604276635 -0.023923433229029671 0 -0.03704759939250514 -0.022895812467196179 0 -0.03680591311863151 -0.023884114453649543 0 -0.03704759939250514 -0.022895812467196179 0 -0.036187316239989241 -0.023049049380227012 0 -0.03680591311863151 -0.023884114453649543 0 -0.037343742604276635 -0.023923433229029671 0 -0.03704759939250514 -0.022895812467196179 0 -0.033226394849795303 -0.018620550153376745 0 -0.03287753342413495 -0.018794887401660073 0 -0.032940051348463187 -0.018351028733158546 0 -0.034393958615359932 -0.019376231220196959 0 -0.032650109559089119 -0.018757294272938606 0 -0.032659090778695485 -0.018642850216938216 0 -0.03287753342413495 -0.018794887401660073 0 -0.032940051348463187 -0.018351028733158546 0 -0.033175587363812931 -0.018212335654702441 0 -0.032940051348463187 -0.018351028733158546 0 -0.032965078975484133 -0.017894873876612299 0 -0.032940051348463187 -0.018351028733158546 0 -0.032621924148207179 -0.017991014313067089 0 -0.032965078975484133 -0.017894873876612299 0 -0.032659090778695485 -0.018642850216938216 0 -0.032940051348463187 -0.018351028733158546 0 -0.032621924148207179 -0.017991014313067089 0 -0.034694125368774531 -0.020523408448285898 0 -0.034244744848507112 -0.019959548932701146 0 -0.032659090778695485 -0.018642850216938216 0 -0.032621924148207179 -0.017991014313067089 0 -0.032186281761454015 -0.018043358545378307 0 -0.03704759939250514 -0.022895812467196179 0 -0.036260109808934064 -0.021909398235516537 0 -0.036187316239989241 -0.023049049380227012 0 -0.035412540862620599 -0.023352469078057349 0 -0.036187316239989241 -0.023049049380227012 0 -0.03527929436695465 -0.022090066715949153 0 -0.036260109808934064 -0.021909398235516537 0 -0.036187316239989241 -0.023049049380227012 0 -0.03527929436695465 -0.022090066715949153 0 -0.036260109808934064 -0.021909398235516537 0 -0.03527929436695465 -0.022090066715949153 0 -0.035267790227907235 -0.020736568865271369 0 -0.034244744848507112 -0.019959548932701146 0 -0.033478474631671813 -0.01936864450331393 0 -0.03168219609719454 -0.017312772309982138 0 -0.032262798493459068 -0.017188705201842878 0 -0.031840216610323956 -0.016494246057242958 0 -0.032186281761454015 -0.018043358545378307 0 -0.03168219609719454 -0.017312772309982138 0 -0.032262798493459068 -0.017188705201842878 0 -0.032621924148207179 -0.017991014313067089 0 -0.032186281761454015 -0.018043358545378307 0 -0.032262798493459068 -0.017188705201842878 0 -0.032621924148207179 -0.017991014313067089 0 -0.032262798493459068 -0.017188705201842878 0 -0.032726037120006095 -0.017335625600895549 0 -0.032621924148207179 -0.017991014313067089 0 -0.032965078975484133 -0.017894873876612299 0 -0.032726037120006095 -0.017335625600895549 0 -0.033001394379796677 -0.017461380913618783 0 -0.032726037120006095 -0.017335625600895549 0 -0.032880048384995413 -0.016789912999293107 0 -0.032965078975484133 -0.017894873876612299 0 -0.033001394379796677 -0.017461380913618783 0 -0.032726037120006095 -0.017335625600895549 0 -0.032726037120006095 -0.017335625600895549 0 -0.032880048384995413 -0.016789912999293107 0 -0.032620002606723694 -0.016329619614360354 0 -0.032262798493459068 -0.017188705201842878 0 -0.032726037120006095 -0.017335625600895549 0 -0.032620002606723694 -0.016329619614360354 0 -0.032880048384995413 -0.016789912999293107 0 -0.033015148172338152 -0.016572651617249842 0 -0.032768260812412596 -0.015765437437511184 0 -0.032880048384995413 -0.016789912999293107 0 -0.032620002606723694 -0.016329619614360354 0 -0.032768260812412596 -0.015765437437511184 0 -0.032620002606723694 -0.016329619614360354 0 -0.032696452384508912 -0.015128969939910423 0 -0.032768260812412596 -0.015765437437511184 0 -0.031870073507842475 -0.015971214619212623 0 -0.03221418300146224 -0.016423751658889728 0 -0.032696452384508912 -0.015128969939910423 0 -0.032620002606723694 -0.016329619614360354 0 -0.03221418300146224 -0.016423751658889728 0 -0.032696452384508912 -0.015128969939910423 0 -0.031870073507842475 -0.015971214619212623 0 -0.031840216610323956 -0.016494246057242958 0 -0.031674142247122068 -0.015680620312987243 0 -0.031870073507842475 -0.015971214619212623 0 -0.031641828272555961 -0.015769551745268878 0 -0.031674142247122068 -0.015680620312987243 0 -0.031870073507842475 -0.015971214619212623 0 -0.031840216610323956 -0.016494246057242958 0 -0.03221418300146224 -0.016423751658889728 0 -0.032262798493459068 -0.017188705201842878 0 -0.031840216610323956 -0.016494246057242958 0 -0.03221418300146224 -0.016423751658889728 0 -0.032262798493459068 -0.017188705201842878 0 -0.032620002606723694 -0.016329619614360354 0 -0.03221418300146224 -0.016423751658889728 0 -0.033441208295815442 -0.018544344833578988 0 -0.033597343489072957 -0.018144913669010828 0 -0.033420771522957089 -0.018951071172189929 0 -0.033597343489072957 -0.018144913669010828 0 -0.033875574839958365 -0.0182863829296997 0 -0.033420771522957089 -0.018951071172189929 0 -0.033458435306995216 -0.018617386559937089 0 -0.033228114601217197 -0.019092590501358503 0 -0.033441208295815442 -0.018544344833578988 0 -0.033228114601217197 -0.019092590501358503 0 -0.033441208295815442 -0.018544344833578988 0 -0.033420771522957089 -0.018951071172189929 0 -0.033403091860664431 -0.018365642040103707 0 -0.033458435306995216 -0.018617386559937089 0 -0.033441208295815442 -0.018544344833578988 0 -0.033403091860664431 -0.018365642040103707 0 -0.033441208295815442 -0.018544344833578988 0 -0.03333018885611503 -0.018047512592298493 0 -0.033441208295815442 -0.018544344833578988 0 -0.033406763544877358 -0.017793653820749138 0 -0.033597343489072957 -0.018144913669010828 0 -0.033441208295815442 -0.018544344833578988 0 -0.03333018885611503 -0.018047512592298493 0 -0.033406763544877358 -0.017793653820749138 0 -0.03333018885611503 -0.018047512592298493 0 -0.033193894380724356 -0.017938886396592333 0 -0.033164102441049274 -0.017393408680192686 0 -0.03333018885611503 -0.018047512592298493 0 -0.033164102441049274 -0.017393408680192686 0 -0.033406763544877358 -0.017793653820749138 0 -0.033403091860664431 -0.018365642040103707 0 -0.03333018885611503 -0.018047512592298493 0 -0.033193894380724356 -0.017938886396592333 0 -0.032965078975484133 -0.017894873876612299 0 -0.033001394379796677 -0.017461380913618783 0 -0.033193894380724356 -0.017938886396592333 0 -0.033175587363812931 -0.018212335654702441 0 -0.033403091860664431 -0.018365642040103707 0 -0.033193894380724356 -0.017938886396592333 0 -0.033175587363812931 -0.018212335654702441 0 -0.032965078975484133 -0.017894873876612299 0 -0.033193894380724356 -0.017938886396592333 0 -0.033001394379796677 -0.017461380913618783 0 -0.033193894380724356 -0.017938886396592333 0 -0.033164102441049274 -0.017393408680192686 0 -0.033001394379796677 -0.017461380913618783 0 -0.032880048384995413 -0.016789912999293107 0 -0.033164102441049274 -0.017393408680192686 0 -0.032880048384995413 -0.016789912999293107 0 -0.033164102441049274 -0.017393408680192686 0 -0.033015148172338152 -0.016572651617249842 0 -0.033164102441049274 -0.017393408680192686 0 -0.033015148172338152 -0.016572651617249842 0 -0.033235880625534446 -0.016806509780503128 0 -0.033015148172338152 -0.016572651617249842 0 -0.033235880625534446 -0.016806509780503128 0 -0.032967825323996329 -0.016236957966386769 0 -0.033164102441049274 -0.017393408680192686 0 -0.033235880625534446 -0.016806509780503128 0 -0.033406763544877358 -0.017793653820749138 0 -0.033406763544877358 -0.017793653820749138 0 -0.033710172492355139 -0.01727588219712756 0 -0.033597343489072957 -0.018144913669010828 0 -0.033235880625534446 -0.016806509780503128 0 -0.033406763544877358 -0.017793653820749138 0 -0.033710172492355139 -0.01727588219712756 0 -0.033235880625534446 -0.016806509780503128 0 -0.033710172492355139 -0.01727588219712756 0 -0.033613756071653143 -0.016575306393202843 0 -0.033710172492355139 -0.01727588219712756 0 -0.03432326335460964 -0.016315366889073406 0 -0.034465153403427408 -0.017134541583830456 0 -0.033710172492355139 -0.01727588219712756 0 -0.033989895264093906 -0.017726141931609613 0 -0.034465153403427408 -0.017134541583830456 0 -0.033710172492355139 -0.01727588219712756 0 -0.033989895264093906 -0.017726141931609613 0 -0.033597343489072957 -0.018144913669010828 0 -0.033989895264093906 -0.017726141931609613 0 -0.033597343489072957 -0.018144913669010828 0 -0.033875574839958365 -0.0182863829296997 0 -0.033586966812948385 -0.015482108362344402 0 -0.03479464665150131 -0.014901992949729957 0 -0.03432326335460964 -0.016315366889073406 0 -0.034844237826542807 -0.014858286755111595 0 -0.035175530584255453 -0.015677548867622845 0 -0.03432326335460964 -0.016315366889073406 0 -0.033364951419182866 -0.015844758937315129 0 -0.034844237826542807 -0.014858286755111595 0 -0.033710172492355139 -0.01727588219712756 0 -0.03432326335460964 -0.016315366889073406 0 -0.033613756071653143 -0.016575306393202843 0 -0.033235880625534446 -0.016806509780503128 0 -0.033613756071653143 -0.016575306393202843 0 -0.033364951419182866 -0.015844758937315129 0 -0.03432326335460964 -0.016315366889073406 0 -0.033613756071653143 -0.016575306393202843 0 -0.033364951419182866 -0.015844758937315129 0 -0.033702910805276577 -0.015175678086411929 0 -0.032867257205859111 -0.015391582595941075 0 -0.032654677902650218 -0.014840030767403476 0 -0.033586966812948385 -0.015482108362344402 0 -0.032906613537135108 -0.015802781171961384 0 -0.033235880625534446 -0.016806509780503128 0 -0.033364951419182866 -0.015844758937315129 0 -0.032967825323996329 -0.016236957966386769 0 -0.032867257205859111 -0.015391582595941075 0 -0.032654677902650218 -0.014840030767403476 0 -0.03268016981636504 -0.015115404267337769 0 -0.032654677902650218 -0.014840030767403476 0 -0.032175356519582254 -0.014415568939849681 0 -0.033328652983843653 -0.01418665826820973 0 -0.032175356519582254 -0.014415568939849681 0 -0.033328652983843653 -0.01418665826820973 0 -0.033319470553943298 -0.012772289246910951 0 -0.033702910805276577 -0.015175678086411929 0 -0.032654677902650218 -0.014840030767403476 0 -0.033328652983843653 -0.01418665826820973 0 -0.033702910805276577 -0.015175678086411929 0 -0.033328652983843653 -0.01418665826820973 0 -0.034188999515057258 -0.014261247941462501 0 -0.033702910805276577 -0.015175678086411929 0 -0.034188999515057258 -0.014261247941462501 0 -0.034844237826542807 -0.014858286755111595 0 -0.033328652983843653 -0.01418665826820973 0 -0.034188999515057258 -0.014261247941462501 0 -0.034395556719057453 -0.012800870503709727 0 -0.033328652983843653 -0.01418665826820973 0 -0.034395556719057453 -0.012800870503709727 0 -0.033319470553943298 -0.012772289246910951 0 -0.034188999515057258 -0.014261247941462501 0 -0.034395556719057453 -0.012800870503709727 0 -0.035126254548802166 -0.013632675363815369 0 -0.034188999515057258 -0.014261247941462501 0 -0.035126254548802166 -0.013632675363815369 0 -0.034844237826542807 -0.014858286755111595 0 -0.033713242457958092 -0.014885001502289908 0 -0.032696452384508912 -0.015128969939910423 0 -0.03340377157119219 -0.015157260778706338 0 -0.032696452384508912 -0.015128969939910423 0 -0.03280793892510548 -0.01508181900774133 0 -0.03340377157119219 -0.015157260778706338 0 -0.033713242457958092 -0.014885001502289908 0 -0.034378828898307061 -0.013961266604293306 0 -0.034620098928796868 -0.015090760243737204 0 -0.033713242457958092 -0.014885001502289908 0 -0.03340377157119219 -0.015157260778706338 0 -0.034620098928796868 -0.015090760243737204 0 -0.033094316764364903 -0.01491343370093086 0 -0.032752576288463189 -0.015064850084136249 0 -0.031870073507842475 -0.015971214619212623 0 -0.031641828272555961 -0.015769551745268878 0 -0.032696452384508912 -0.015128969939910423 0 -0.033713242457958092 -0.014885001502289908 0 -0.034378828898307061 -0.013961266604293306 0 -0.032696452384508912 -0.015128969939910423 0 -0.032696452384508912 -0.015128969939910423 0 -0.032768260812412596 -0.015765437437511184 0 -0.03280793892510548 -0.01508181900774133 0 -0.032867257205859111 -0.015391582595941075 0 -0.032768260812412596 -0.015765437437511184 0 -0.03268016981636504 -0.015115404267337769 0 -0.033015148172338152 -0.016572651617249842 0 -0.032967825323996329 -0.016236957966386769 0 -0.032768260812412596 -0.015765437437511184 0 -0.032906613537135108 -0.015802781171961384 0 -0.032733636041602003 -0.01580092976033615 0 -0.032768260812412596 -0.015765437437511184 0 -0.03268016981636504 -0.015115404267337769 0 -0.03280793892510548 -0.01508181900774133 0 -0.03268016981636504 -0.015115404267337769 0 -0.03280793892510548 -0.01508181900774133 0 -0.032858167705914973 -0.015132224982542469 0 -0.03268016981636504 -0.015115404267337769 0 -0.032858167705914973 -0.015132224982542469 0 -0.032484781142977988 -0.014933191158650409 0 -0.032654677902650218 -0.014840030767403476 0 -0.032175356519582254 -0.014415568939849681 0 -0.032484781142977988 -0.014933191158650409 0 -0.032654677902650218 -0.014840030767403476 0 -0.03268016981636504 -0.015115404267337769 0 -0.032484781142977988 -0.014933191158650409 0 -0.032175356519582254 -0.014415568939849681 0 -0.032608081273471569 -0.015412489946955418 0 -0.032569180746949936 -0.016146962899246307 0 -0.032175356519582254 -0.014415568939849681 0 -0.032484781142977988 -0.014933191158650409 0 -0.032608081273471569 -0.015412489946955418 0 -0.032120418810747224 -0.014502830226642992 0 -0.031695902461427262 -0.014325663841507314 0 -0.032858167705914973 -0.015132224982542469 0 -0.032969371170024499 -0.015576076684240705 0 -0.033378330109413976 -0.015503733293534262 0 -0.032858167705914973 -0.015132224982542469 0 -0.032484781142977988 -0.014933191158650409 0 -0.032969371170024499 -0.015576076684240705 0 -0.032484781142977988 -0.014933191158650409 0 -0.032608081273471569 -0.015412489946955418 0 -0.032969371170024499 -0.015576076684240705 0 -0.032608081273471569 -0.015412489946955418 0 -0.032969371170024499 -0.015576076684240705 0 -0.033022532397516971 -0.015985424690091111 0 -0.032969371170024499 -0.015576076684240705 0 -0.033561595754061389 -0.016096976796715918 0 -0.033022532397516971 -0.015985424690091111 0 -0.032969371170024499 -0.015576076684240705 0 -0.033378330109413976 -0.015503733293534262 0 -0.033561595754061389 -0.016096976796715918 0 -0.033378330109413976 -0.015503733293534262 0 -0.034162599696808911 -0.015719103219337713 0 -0.033561595754061389 -0.016096976796715918 0 -0.032858167705914973 -0.015132224982542469 0 -0.033378330109413976 -0.015503733293534262 0 -0.03340377157119219 -0.015157260778706338 0 -0.03280793892510548 -0.01508181900774133 0 -0.032858167705914973 -0.015132224982542469 0 -0.03340377157119219 -0.015157260778706338 0 -0.033378330109413976 -0.015503733293534262 0 -0.03340377157119219 -0.015157260778706338 0 -0.034162599696808911 -0.015719103219337713 0 -0.03340377157119219 -0.015157260778706338 0 -0.034162599696808911 -0.015719103219337713 0 -0.034620098928796868 -0.015090760243737204 0 -0.034162599696808911 -0.015719103219337713 0 -0.033561595754061389 -0.016096976796715918 0 -0.034101237184272423 -0.016426939661972017 0 -0.034162599696808911 -0.015719103219337713 0 -0.035016631901425725 -0.016311216711242606 0 -0.034101237184272423 -0.016426939661972017 0 -0.034162599696808911 -0.015719103219337713 0 -0.035545125163789576 -0.015640292821257239 0 -0.035016631901425725 -0.016311216711242606 0 -0.035545125163789576 -0.015640292821257239 0 -0.036668792292014599 -0.016047980984328927 0 -0.035016631901425725 -0.016311216711242606 0 -0.035545125163789576 -0.015640292821257239 0 -0.036078172278396894 -0.015055369752803503 0 -0.036652730658829138 -0.015369352254434686 0 -0.035545125163789576 -0.015640292821257239 0 -0.036652730658829138 -0.015369352254434686 0 -0.036668792292014599 -0.016047980984328927 0 -0.034162599696808911 -0.015719103219337713 0 -0.035545125163789576 -0.015640292821257239 0 -0.034620098928796868 -0.015090760243737204 0 -0.035545125163789576 -0.015640292821257239 0 -0.034620098928796868 -0.015090760243737204 0 -0.036078172278396894 -0.015055369752803503 0 -0.034620098928796868 -0.015090760243737204 0 -0.036078172278396894 -0.015055369752803503 0 -0.035386153749361215 -0.014447524705016526 0 -0.036078172278396894 -0.015055369752803503 0 -0.036455630326463061 -0.014314141409159665 0 -0.035386153749361215 -0.014447524705016526 0 -0.036455630326463061 -0.014314141409159665 0 -0.035386153749361215 -0.014447524705016526 0 -0.036001011764348494 -0.013614891060821225 0 -0.034378828898307061 -0.013961266604293306 0 -0.034620098928796868 -0.015090760243737204 0 -0.035386153749361215 -0.014447524705016526 0 -0.033094316764364903 -0.01491343370093086 0 -0.034435885302691531 -0.014938393039476182 0 -0.034378828898307061 -0.013961266604293306 0 -0.035386153749361215 -0.014447524705016526 0 -0.036001011764348494 -0.013614891060821225 0 -0.038013455564890768 -0.014575703199296032 0 -0.037152181171032493 -0.014802263721843579 0 -0.037576056291599658 -0.013664886580546574 0 -0.038013455564890768 -0.014575703199296032 0 -0.037576056291599658 -0.013664886580546574 0 -0.038464956419634565 -0.014273321595575872 0 -0.036455630326463061 -0.014314141409159665 0 -0.037152181171032493 -0.014802263721843579 0 -0.037576056291599658 -0.013664886580546574 0 -0.036455630326463061 -0.014314141409159665 0 -0.036001011764348494 -0.013614891060821225 0 -0.037576056291599658 -0.013664886580546574 0 -0.036078172278396894 -0.015055369752803503 0 -0.036455630326463061 -0.014314141409159665 0 -0.037152181171032493 -0.014802263721843579 0 -0.036078172278396894 -0.015055369752803503 0 -0.037152181171032493 -0.014802263721843579 0 -0.036652730658829138 -0.015369352254434686 0 -0.037152181171032493 -0.014802263721843579 0 -0.037788447377971254 -0.015274717644968358 0 -0.036652730658829138 -0.015369352254434686 0 -0.038013455564890768 -0.014575703199296032 0 -0.037152181171032493 -0.014802263721843579 0 -0.037788447377971254 -0.015274717644968358 0 -0.038013455564890768 -0.014575703199296032 0 -0.037788447377971254 -0.015274717644968358 0 -0.038834268464957154 -0.01464719869353049 0 -0.045776249768375486 -0.0092302086887217551 0 -0.046166686359059676 -0.0097529257396710197 0 -0.046067676302518228 -0.0092529774038795885 0 -0.037788447377971254 -0.015274717644968358 0 -0.036652730658829138 -0.015369352254434686 0 -0.036668792292014599 -0.016047980984328927 0 -0.041155156170283709 -0.012564961498500929 0 -0.041110716041898518 -0.012613222940571472 0 -0.045164044093324987 -0.0096584273921245904 0 -0.046166686359059676 -0.0097529257396710197 0 -0.045858647504482104 -0.010084075955742665 0 -0.045776249768375486 -0.0092302086887217551 0 -0.045164044093324987 -0.0096584273921245904 0 -0.046166686359059676 -0.0097529257396710197 0 -0.050948218148928054 -0.004315791111792055 0 -0.051391773781908179 -0.0041651743721159333 0 -0.051213329201116549 -0.0052753409018637563 0 -0.049277603561423487 -0.0048318152525517492 0 -0.050948218148928054 -0.004315791111792055 0 -0.051213329201116549 -0.0052753409018637563 0 -0.049277603561423487 -0.0048318152525517492 0 -0.050948218148928054 -0.004315791111792055 0 -0.051412712801662916 -0.0039635763013727071 0 -0.051391773781908179 -0.0041651743721159333 0 -0.051620062831550594 -0.0040871527313708607 0 -0.051213329201116549 -0.0052753409018637563 0 -0.051391773781908179 -0.0041651743721159333 0 -0.051435461758565233 -0.0039115815813658755 0 -0.051603843426716312 -0.0041710356531933206 0 -0.051391773781908179 -0.0041651743721159333 0 -0.051355823402931051 -0.0041080436844772306 0 -0.051603843426716312 -0.0041710356531933206 0 -0.051355823402931051 -0.0041080436844772306 0 -0.051412712801662916 -0.0039635763013727071 0 -0.051603843426716312 -0.0041710356531933206 0 -0.04765520409743159 -0.0077427047808643571 0 -0.049183681879632749 -0.005759517396841423 0 -0.050948218148928054 -0.004315791111792055 0 -0.051391773781908179 -0.0041651743721159333 0 -0.051355823402931051 -0.0041080436844772306 0 -0.050948218148928054 -0.004315791111792055 0 -0.051355823402931051 -0.0041080436844772306 0 -0.051412712801662916 -0.0039635763013727071 0 -0.051994894508990031 -0.00069677503274565304 0 -0.050000364423948881 -0.0025193551493725955 0 -0.049999841544617625 0.00035768432484641234 0 -0.051391773781908179 -0.0041651743721159333 0 -0.051620062831550594 -0.0040871527313708607 0 -0.051435461758565233 -0.0039115815813658755 0 -0.051620062831550594 -0.0040871527313708607 0 -0.051435461758565233 -0.0039115815813658755 0 -0.05117400628330656 -0.0036383215240655977 0 -0.051435461758565233 -0.0039115815813658755 0 -0.05117400628330656 -0.0036383215240655977 0 -0.051209756090639991 -0.0039205181033014104 0 -0.05117400628330656 -0.0036383215240655977 0 -0.050884114560468353 -0.0036302328418850584 0 -0.051209756090639991 -0.0039205181033014104 0 -0.051994894508990031 -0.00069677503274565304 0 -0.050000364423948881 -0.0025193551493725955 0 -0.050149789545569229 -0.0027292961309791281 0 -0.05117400628330656 -0.0036383215240655977 0 -0.050884114560468353 -0.0036302328418850584 0 -0.050149789545569229 -0.0027292961309791281 0 -0.051620062831550594 -0.0040871527313708607 0 -0.05117400628330656 -0.0036383215240655977 0 -0.050149789545569229 -0.0027292961309791281 0 -0.051573310704812511 -0.002534276641919595 0 -0.050299898991784893 -0.0028216976860951878 0 -0.050149789545569229 -0.0027292961309791281 0 -0.050853970607418364 -0.0043032548275805113 0 -0.049999694440579841 -0.0053921806626569197 0 -0.050000364423948881 -0.0025193551493725955 0 -0.050149789545569229 -0.0027292961309791281 0 -0.049999694440579841 -0.0053921806626569197 0 -0.050884114560468353 -0.0036302328418850584 0 -0.050149789545569229 -0.0027292961309791281 0 -0.050853970607418364 -0.0043032548275805113 0 -0.050884114560468353 -0.0036302328418850584 0 -0.050853970607418364 -0.0043032548275805113 0 -0.051209756090639991 -0.0039205181033014104 0 -0.050853970607418364 -0.0043032548275805113 0 -0.051505895955579369 -0.0043166416099634369 0 -0.051520059748485988 -0.0053798494218954907 0 -0.051505895955579369 -0.0043166416099634369 0 -0.051520059748485988 -0.0053798494218954907 0 -0.051851577972256382 -0.004840267599620687 0 -0.050853970607418364 -0.0043032548275805113 0 -0.051209756090639991 -0.0039205181033014104 0 -0.051505895955579369 -0.0043166416099634369 0 -0.051435461758565233 -0.0039115815813658755 0 -0.051209756090639991 -0.0039205181033014104 0 -0.051505895955579369 -0.0043166416099634369 0 -0.051520059748485988 -0.0053798494218954907 0 -0.052006859265607677 -0.0055960753538119665 0 -0.051804344599618538 -0.0061586944829158594 0 -0.050853970607418364 -0.0043032548275805113 0 -0.051520059748485988 -0.0053798494218954907 0 -0.049999694440579841 -0.0053921806626569197 0 -0.051520059748485988 -0.0053798494218954907 0 -0.049999694440579841 -0.0053921806626569197 0 -0.051336218735466441 -0.0069170094321115254 0 -0.041155156170283709 -0.012564961498500929 0 -0.045750028445174819 -0.010952612340792579 0 -0.049183681879632749 -0.005759517396841423 0 -0.045750028445174819 -0.010952612340792579 0 -0.051412712801662916 -0.0039635763013727071 0 -0.051603843426716312 -0.0041710356531933206 0 -0.052353499364964591 -0.0050603082441625889 0 -0.045776249768375486 -0.0092302086887217551 0 -0.046067676302518228 -0.0092529774038795885 0 -0.046168263769884636 -0.008836207607662596 0 -0.051603843426716312 -0.0041710356531933206 0 -0.051851577972256382 -0.004840267599620687 0 -0.052353499364964591 -0.0050603082441625889 0 -0.051435461758565233 -0.0039115815813658755 0 -0.051505895955579369 -0.0043166416099634369 0 -0.051603843426716312 -0.0041710356531933206 0 -0.051505895955579369 -0.0043166416099634369 0 -0.051603843426716312 -0.0041710356531933206 0 -0.051851577972256382 -0.004840267599620687 0 -0.051851577972256382 -0.004840267599620687 0 -0.052006859265607677 -0.0055960753538119665 0 -0.052353499364964591 -0.0050603082441625889 0 -0.052006859265607677 -0.0055960753538119665 0 -0.052353499364964591 -0.0050603082441625889 0 -0.052383200662718732 -0.0065876848750779709 0 -0.045750028445174819 -0.010952612340792579 0 -0.050191471794575782 -0.0097611652697546722 0 -0.051520059748485988 -0.0053798494218954907 0 -0.051851577972256382 -0.004840267599620687 0 -0.052006859265607677 -0.0055960753538119665 0 -0.038013455564890768 -0.014575703199296032 0 -0.038834268464957154 -0.01464719869353049 0 -0.038464956419634565 -0.014273321595575872 0 -0.038834268464957154 -0.01464719869353049 0 -0.039227089912274173 -0.014177997144467602 0 -0.040004288899888975 -0.013942684003123602 0 -0.038834268464957154 -0.01464719869353049 0 -0.039227089912274173 -0.014177997144467602 0 -0.038464956419634565 -0.014273321595575872 0 -0.045750028445174819 -0.010952612340792579 0 -0.042784563880078709 -0.014304599498698507 0 -0.046302203956993422 -0.01445083061266785 0 -0.046976464087548138 -0.013641188134498395 0 -0.046492000978726099 -0.013073799246524966 0 -0.052006859265607677 -0.0055960753538119665 0 -0.052383200662718732 -0.0065876848750779709 0 -0.051804344599618538 -0.0061586944829158594 0 -0.040004288899888975 -0.013942684003123602 0 -0.040126389852533383 -0.01376631880089239 0 -0.042920668028022628 -0.012092058270013903 0 -0.046492000978726099 -0.013073799246524966 0 -0.04808292155958982 -0.012675676447367836 0 -0.047154967584977607 -0.011997441938376418 0 -0.046976464087548138 -0.013641188134498395 0 -0.046492000978726099 -0.013073799246524966 0 -0.04808292155958982 -0.012675676447367836 0 -0.040126389852533383 -0.01376631880089239 0 -0.040353933671965207 -0.013431711626281113 0 -0.040346562078607921 -0.013453751677631406 0 -0.040143999295795409 -0.013876059973442689 0 -0.039228641403619931 -0.011883073217230363 0 -0.040126389852533383 -0.01376631880089239 0 -0.038558287085087406 -0.013166514659144273 0 -0.037923970344015429 -0.011622218259114829 0 -0.039227089912274173 -0.014177997144467602 0 -0.038558287085087406 -0.013166514659144273 0 -0.039495104656785539 -0.01388015902588147 0 -0.040126389852533383 -0.01376631880089239 0 -0.038558287085087406 -0.013166514659144273 0 -0.039495104656785539 -0.01388015902588147 0 -0.039227089912274173 -0.014177997144467602 0 -0.040004288899888975 -0.013942684003123602 0 -0.039495104656785539 -0.01388015902588147 0 -0.040004288899888975 -0.013942684003123602 0 -0.040126389852533383 -0.01376631880089239 0 -0.039495104656785539 -0.01388015902588147 0 -0.049999694440579841 -0.0053921806626569197 0 -0.051336218735466441 -0.0069170094321115254 0 -0.049999029512440611 -0.0082674868606419198 0 -0.052383200662718732 -0.0065876848750779709 0 -0.051336218735466441 -0.0069170094321115254 0 -0.051804344599618538 -0.0061586944829158594 0 -0.052383200662718732 -0.0065876848750779709 0 -0.051336218735466441 -0.0069170094321115254 0 -0.051733691638513865 -0.0086871601235549503 0 -0.051520059748485988 -0.0053798494218954907 0 -0.051336218735466441 -0.0069170094321115254 0 -0.051804344599618538 -0.0061586944829158594 0 -0.051336218735466441 -0.0069170094321115254 0 -0.051733691638513865 -0.0086871601235549503 0 -0.050464899989573792 -0.0092475147152438885 0 -0.050191471794575782 -0.0097611652697546722 0 -0.049782800093086901 -0.010750709922224311 0 -0.051336218735466441 -0.0069170094321115254 0 -0.049999029512440611 -0.0082674868606419198 0 -0.050464899989573792 -0.0092475147152438885 0 -0.051733691638513865 -0.0086871601235549503 0 -0.050464899989573792 -0.0092475147152438885 0 -0.050021463672605238 -0.010786564184376075 0 -0.049999029512440611 -0.0082674868606419198 0 -0.050464899989573792 -0.0092475147152438885 0 -0.049999753786149945 -0.011140588690836437 0 -0.050464899989573792 -0.0092475147152438885 0 -0.050021463672605238 -0.010786564184376075 0 -0.049999753786149945 -0.011140588690836437 0 -0.04808292155958982 -0.012675676447367836 0 -0.048218466482002342 -0.010832140959801803 0 -0.047399280569337295 -0.011382024642629676 0 -0.04808292155958982 -0.012675676447367836 0 -0.050021463672605238 -0.010786564184376075 0 -0.048218466482002342 -0.010832140959801803 0 -0.049782800093086901 -0.010750709922224311 0 -0.050052864403468803 -0.010707115636255093 0 -0.04808292155958982 -0.012675676447367836 0 -0.047154967584977607 -0.011997441938376418 0 -0.047399280569337295 -0.011382024642629676 0 -0.048218466482002342 -0.010832140959801803 0 -0.047372813093189192 -0.010659001093395156 0 -0.047399280569337295 -0.011382024642629676 0 -0.048218466482002342 -0.010832140959801803 0 -0.047372813093189192 -0.010659001093395156 0 -0.047208754443302137 -0.0095701042188068332 0 -0.049063718971072541 -0.0089876930529491882 0 -0.047208754443302137 -0.0095701042188068332 0 -0.049110500172871968 -0.010283258958780288 0 -0.050021463672605238 -0.010786564184376075 0 -0.048218466482002342 -0.010832140959801803 0 -0.049110500172871968 -0.010283258958780288 0 -0.048218466482002342 -0.010832140959801803 0 -0.047208754443302137 -0.0095701042188068332 0 -0.049110500172871968 -0.010283258958780288 0 -0.049063718971072541 -0.0089876930529491882 0 -0.049110500172871968 -0.010283258958780288 0 -0.049999753786149945 -0.011140588690836437 0 -0.050109831492910192 -0.01106241800439221 0 -0.050000017014321378 -0.011141819137822952 0 -0.050021463672605238 -0.010786564184376075 0 -0.049110500172871968 -0.010283258958780288 0 -0.049999753786149945 -0.011140588690836437 0 -0.040353933671965207 -0.013431711626281113 0 -0.040178342123565768 -0.013691809113049286 0 -0.039829384894469341 -0.013981870866931027 0 -0.04045374744873835 -0.013420428140000877 0 -0.040962905831536757 -0.012850087398306528 0 -0.040353933671965207 -0.013431711626281113 0 -0.040178342123565768 -0.013691809113049286 0 -0.040346562078607921 -0.013453751677631406 0 -0.042784563880078709 -0.014304599498698507 0 -0.044911373611046058 -0.011040418886477417 0 -0.040353933671965207 -0.013431711626281113 0 -0.042920668028022628 -0.012092058270013903 0 -0.04210048870398269 -0.011183528154521283 0 -0.040126389852533383 -0.01376631880089239 0 -0.040353933671965207 -0.013431711626281113 0 -0.042920668028022628 -0.012092058270013903 0 -0.046492000978726099 -0.013073799246524966 0 -0.047154967584977607 -0.011997441938376418 0 -0.046710378319741078 -0.010848678443655165 0 -0.047154967584977607 -0.011997441938376418 0 -0.047399280569337295 -0.011382024642629676 0 -0.046710378319741078 -0.010848678443655165 0 -0.047372813093189192 -0.010659001093395156 0 -0.047399280569337295 -0.011382024642629676 0 -0.046710378319741078 -0.010848678443655165 0 -0.043687492035556774 -0.0096882375795376251 0 -0.042920668028022628 -0.012092058270013903 0 -0.04210048870398269 -0.011183528154521283 0 -0.046057700119629896 -0.0078564615120182719 0 -0.047208754443302137 -0.0095701042188068332 0 -0.046710378319741078 -0.010848678443655165 0 -0.045968770267181977 -0.0079814128060214963 0 -0.044911373611046058 -0.011040418886477417 0 -0.047372813093189192 -0.010659001093395156 0 -0.047208754443302137 -0.0095701042188068332 0 -0.046710378319741078 -0.010848678443655165 0 -0.040030965233548814 -0.014538274253286129 0 -0.039829384894469341 -0.013981870866931027 0 -0.040316631691793899 -0.014069633486748848 0 -0.040178342123565768 -0.013691809113049286 0 -0.039829384894469341 -0.013981870866931027 0 -0.040316631691793899 -0.014069633486748848 0 -0.040395593749552393 -0.014651357737614879 0 -0.040316631691793899 -0.014069633486748848 0 -0.040784868470440744 -0.01413456445239546 0 -0.039228641403619931 -0.011883073217230363 0 -0.035794604473899649 -0.017132282722710477 0 -0.040316631691793899 -0.014069633486748848 0 -0.040346562078607921 -0.013453751677631406 0 -0.040784868470440744 -0.01413456445239546 0 -0.040178342123565768 -0.013691809113049286 0 -0.040316631691793899 -0.014069633486748848 0 -0.040346562078607921 -0.013453751677631406 0 -0.037923970344015429 -0.011622218259114829 0 -0.035777752164801765 -0.01160456139438046 0 -0.0361595535570041 -0.013222946537479239 0 -0.037923970344015429 -0.011622218259114829 0 -0.035777752164801765 -0.01160456139438046 0 -0.035568170309135949 -0.0096054963697022808 0 -0.035777752164801765 -0.01160456139438046 0 -0.035568170309135949 -0.0096054963697022808 0 -0.034172446323713211 -0.011361292557824613 0 -0.035777752164801765 -0.01160456139438046 0 -0.034172446323713211 -0.011361292557824613 0 -0.034427534747415035 -0.01284498714912749 0 -0.035777752164801765 -0.01160456139438046 0 -0.0361595535570041 -0.013222946537479239 0 -0.034427534747415035 -0.01284498714912749 0 -0.035794604473899649 -0.017132282722710477 0 -0.033860663450725317 -0.015802651597880021 0 -0.035267790227907235 -0.020736568865271369 0 -0.034216794818066658 -0.021303290523284842 0 -0.033501263640296763 -0.020354699531943087 0 -0.032911846838444482 -0.021149414518817692 0 -0.034216794818066658 -0.021303290523284842 0 -0.033501263640296763 -0.020354699531943087 0 -0.035267790227907235 -0.020736568865271369 0 -0.033501263640296763 -0.020354699531943087 0 -0.034092777239820106 -0.019538839761786778 0 -0.03527929436695465 -0.022090066715949153 0 -0.035267790227907235 -0.020736568865271369 0 -0.034216794818066658 -0.021303290523284842 0 -0.033478474631671813 -0.01936864450331393 0 -0.03297635440462976 -0.015964365157175628 0 -0.03168219609719454 -0.017312772309982138 0 -0.031840216610323956 -0.016494246057242958 0 -0.031045511775454494 -0.01646193390563561 0 -0.034172446323713211 -0.011361292557824613 0 -0.032718818990615947 -0.013265302754029087 0 -0.034427534747415035 -0.01284498714912749 0 -0.033860663450725317 -0.015802651597880021 0 -0.03297635440462976 -0.015964365157175628 0 -0.032718818990615947 -0.013265302754029087 0 -0.033268787468286286 -0.013795604478963419 0 -0.034427534747415035 -0.01284498714912749 0 -0.03297635440462976 -0.015964365157175628 0 -0.032548937431910931 -0.014942602864805475 0 -0.032744156219947078 -0.013376279087256325 0 -0.033268787468286286 -0.013795604478963419 0 -0.032971995968471106 -0.014878656940808995 0 -0.032744156219947078 -0.013376279087256325 0 -0.031674142247122068 -0.015680620312987243 0 -0.032971995968471106 -0.014878656940808995 0 -0.033268787468286286 -0.013795604478963419 0 -0.034396804067970368 -0.014679967286486942 0 -0.034427534747415035 -0.01284498714912749 0 -0.033268787468286286 -0.013795604478963419 0 -0.032971995968471106 -0.014878656940808995 0 -0.034396804067970368 -0.014679967286486942 0 -0.031840216610323956 -0.016494246057242958 0 -0.031045511775454494 -0.01646193390563561 0 -0.031674142247122068 -0.015680620312987243 0 -0.03297635440462976 -0.015964365157175628 0 -0.031636777670925015 -0.015428589646354579 0 -0.031641828272555961 -0.015769551745268878 0 -0.031674142247122068 -0.015680620312987243 0 -0.032803052534463042 -0.016325851363023489 0 -0.032971995968471106 -0.014878656940808995 0 -0.032803052534463042 -0.016325851363023489 0 -0.034396804067970368 -0.014679967286486942 0 -0.031674142247122068 -0.015680620312987243 0 -0.032971995968471106 -0.014878656940808995 0 -0.032803052534463042 -0.016325851363023489 0 -0.032803052534463042 -0.016325851363023489 0 -0.036228788372065848 -0.015583528931922224 0 -0.034396804067970368 -0.014679967286486942 0 -0.034435885302691531 -0.014938393039476182 0 -0.036870037815616236 -0.014623091222733003 0 -0.039000052376314633 -0.014212257359837352 0 -0.036870037815616236 -0.014623091222733003 0 -0.039227089912274173 -0.014177997144467602 0 -0.038558287085087406 -0.013166514659144273 0 -0.036228788372065848 -0.015583528931922224 0 -0.039227089912274173 -0.014177997144467602 0 -0.037576056291599658 -0.013664886580546574 0 -0.038464956419634565 -0.014273321595575872 0 -0.038558287085087406 -0.013166514659144273 0 -0.036228788372065848 -0.015583528931922224 0 -0.0361595535570041 -0.013222946537479239 0 -0.038558287085087406 -0.013166514659144273 0 -0.037923970344015429 -0.011622218259114829 0 -0.0361595535570041 -0.013222946537479239 0 -0.036228788372065848 -0.015583528931922224 0 -0.034396804067970368 -0.014679967286486942 0 -0.0361595535570041 -0.013222946537479239 0 -0.034396804067970368 -0.014679967286486942 0 -0.0361595535570041 -0.013222946537479239 0 -0.034427534747415035 -0.01284498714912749 0 -0.010352698012850615 -0.032485193071606661 0 -0.010651438361220147 -0.033836313194033588 0 -0.0090704976655043013 -0.03397690777348257 0 -0.0081071994312816604 -0.032606456549219627 0 -0.0090704976655043013 -0.03397690777348257 0 -0.0071966946391039503 -0.034463129099306634 0 -0.010352698012850615 -0.032485193071606661 0 -0.0081071994312816604 -0.032606456549219627 0 -0.0090704976655043013 -0.03397690777348257 0 -0.0090704976655043013 -0.03397690777348257 0 -0.0071966946391039503 -0.034463129099306634 0 -0.0078528836618451288 -0.03559140733515246 0 -0.0090704976655043013 -0.03397690777348257 0 -0.0091354855509605763 -0.03539156614751067 0 -0.008380524392136466 -0.035404444329301642 0 -0.0090711758317915062 -0.033908418984809008 0 -0.0079422866546887457 -0.036035761815175808 0 -0.0090704976655043013 -0.03397690777348257 0 -0.010076038248562819 -0.034922321751745193 0 -0.0091354855509605763 -0.03539156614751067 0 -0.010651438361220147 -0.033836313194033588 0 -0.0090704976655043013 -0.03397690777348257 0 -0.010076038248562819 -0.034922321751745193 0 -0.010651438361220147 -0.033836313194033588 0 -0.010076038248562819 -0.034922321751745193 0 -0.01139510928810477 -0.034922652738629989 0 -0.010076038248562819 -0.034922321751745193 0 -0.01139510928810477 -0.034922652738629989 0 -0.010291793810057997 -0.035711158962813037 0 -0.010651438361220147 -0.033836313194033588 0 -0.01139510928810477 -0.034922652738629989 0 -0.012321316409708617 -0.032804238790636306 0 -0.013828358389530764 -0.032539180486368925 0 -0.01403436245732604 -0.032431177769543518 0 -0.013610642540460783 -0.031913042550369579 0 -0.012634581003036929 -0.034696727847687465 0 -0.01301948031852573 -0.032067830554659033 0 -0.013828358389530764 -0.032539180486368925 0 -0.014009442775854867 -0.032624890284204393 0 -0.01403436245732604 -0.032431177769543518 0 -0.014342655082329514 -0.032738998333586261 0 -0.01403436245732604 -0.032431177769543518 0 -0.014518149528879596 -0.032144183251107232 0 -0.014009442775854867 -0.032624890284204393 0 -0.014342655082329514 -0.032738998333586261 0 -0.01403436245732604 -0.032431177769543518 0 -0.01403436245732604 -0.032431177769543518 0 -0.014518149528879596 -0.032144183251107232 0 -0.013610642540460783 -0.031913042550369579 0 -0.014518149528879596 -0.032144183251107232 0 -0.013610642540460783 -0.031913042550369579 0 -0.014967742696202817 -0.031333582906720198 0 -0.010352698012850615 -0.032485193071606661 0 -0.010651438361220147 -0.033836313194033588 0 -0.012321316409708617 -0.032804238790636306 0 -0.012321316409708617 -0.032804238790636306 0 -0.011364445841180409 -0.031140438643052076 0 -0.013451806086219847 -0.030563011482406918 0 -0.010352698012850615 -0.032485193071606661 0 -0.012321316409708617 -0.032804238790636306 0 -0.011364445841180409 -0.031140438643052076 0 -0.01301948031852573 -0.032067830554659033 0 -0.013422787961468955 -0.030719631178747767 0 -0.013610642540460783 -0.031913042550369579 0 -0.013451806086219847 -0.030563011482406918 0 -0.014967742696202817 -0.031333582906720198 0 -0.011364445841180409 -0.031140438643052076 0 -0.013451806086219847 -0.030563011482406918 0 -0.0110709222020479 -0.029059071666117757 0 -0.0094429708494906481 -0.030867253077569615 0 -0.008825788700226881 -0.0292689928706624 0 -0.0110709222020479 -0.029059071666117757 0 -0.011364445841180409 -0.031140438643052076 0 -0.0094429708494906481 -0.030867253077569615 0 -0.0110709222020479 -0.029059071666117757 0 -0.010352698012850615 -0.032485193071606661 0 -0.011364445841180409 -0.031140438643052076 0 -0.0094429708494906481 -0.030867253077569615 0 -0.0081071994312816604 -0.032606456549219627 0 -0.0094429708494906481 -0.030867253077569615 0 -0.006885366896526102 -0.030823903698332652 0 -0.010352698012850615 -0.032485193071606661 0 -0.0081071994312816604 -0.032606456549219627 0 -0.0094429708494906481 -0.030867253077569615 0 -0.0094429708494906481 -0.030867253077569615 0 -0.006885366896526102 -0.030823903698332652 0 -0.008825788700226881 -0.0292689928706624 0 -0.006885366896526102 -0.030823903698332652 0 -0.008825788700226881 -0.0292689928706624 0 -0.0071116276148565716 -0.02834174131922694 0 -0.0045938600070768165 -0.029449075388608133 0 -0.006885366896526102 -0.030823903698332652 0 -0.0071116276148565716 -0.02834174131922694 0 -0.0040757313015465577 -0.031994123999035319 0 -0.006885366896526102 -0.030823903698332652 0 -0.0059275642000330246 -0.033386079433176723 0 -0.0045938600070768165 -0.029449075388608133 0 -0.0040757313015465577 -0.031994123999035319 0 -0.006885366896526102 -0.030823903698332652 0 -0.00015807836006079598 -0.032538052727563549 0 -0.00067995426996762766 -0.031051482156082267 0 0.0012299651721229656 -0.031028212782028435 0 -0.00015807836006079598 -0.032538052727563549 0 0.0012299651721229656 -0.031028212782028435 0 0.0012459532727528736 -0.03186248728493455 0 -0.0034761821409449905 -0.030768655598589351 0 -0.0010894540740042315 -0.031660665897781555 0 -0.0023024055408579591 -0.032130984097535772 0 -0.00015807836006079598 -0.032538052727563549 0 -0.00067995426996762766 -0.031051482156082267 0 -0.0040757313015465577 -0.031994123999035319 0 -0.0019836904955815543 -0.030749658240442589 0 -0.001736337901867417 -0.032966343911182201 0 -0.0045938600070768165 -0.029449075388608133 0 -0.0040757313015465577 -0.031994123999035319 0 -0.0019836904955815543 -0.030749658240442589 0 -0.0010894540740042315 -0.031660665897781555 0 0.00061480024877827455 -0.032487286324615387 0 -0.001736337901867417 -0.032966343911182201 0 -0.0005260690497895761 -0.034524878345919212 0 0.00076358104967939118 -0.032511867361588745 0 -0.0019836904955815543 -0.030749658240442589 0 -0.001736337901867417 -0.032966343911182201 0 0.00076358104967939118 -0.032511867361588745 0 -0.0040757313015465577 -0.031994123999035319 0 -0.001736337901867417 -0.032966343911182201 0 -0.0034124845615840929 -0.034417639435028215 0 -0.0034124845615840929 -0.034417639435028215 0 -0.0005260690497895761 -0.034524878345919212 0 -0.002318773703176704 -0.035852302539174485 0 -0.001736337901867417 -0.032966343911182201 0 -0.0034124845615840929 -0.034417639435028215 0 -0.0005260690497895761 -0.034524878345919212 0 -0.0081071994312816604 -0.032606456549219627 0 -0.0059275642000330246 -0.033386079433176723 0 -0.0071966946391039503 -0.034463129099306634 0 -0.0081071994312816604 -0.032606456549219627 0 -0.006885366896526102 -0.030823903698332652 0 -0.0059275642000330246 -0.033386079433176723 0 -0.0040757313015465577 -0.031994123999035319 0 -0.0034124845615840929 -0.034417639435028215 0 -0.0059275642000330246 -0.033386079433176723 0 -0.0034124845615840929 -0.034417639435028215 0 -0.0059275642000330246 -0.033386079433176723 0 -0.0055460207920462702 -0.035153142642465524 0 -0.0059275642000330246 -0.033386079433176723 0 -0.0055460207920462702 -0.035153142642465524 0 -0.0071966946391039503 -0.034463129099306634 0 -0.0055460207920462702 -0.035153142642465524 0 -0.0071966946391039503 -0.034463129099306634 0 -0.0066095677745407018 -0.035822355930702411 0 -0.0071966946391039503 -0.034463129099306634 0 -0.0066095677745407018 -0.035822355930702411 0 -0.0078528836618451288 -0.03559140733515246 0 -0.005377654212315312 -0.032282171196481323 0 -0.0079422866546887457 -0.036035761815175808 0 -0.0066095677745407018 -0.035822355930702411 0 -0.0067726520442643089 -0.037238530749956152 0 -0.0078528836618451288 -0.03559140733515246 0 -0.0066095677745407018 -0.035822355930702411 0 -0.0055910674882079722 -0.036388525662150117 0 -0.0067726520442643089 -0.037238530749956152 0 -0.0055460207920462702 -0.035153142642465524 0 -0.0066095677745407018 -0.035822355930702411 0 -0.0055910674882079722 -0.036388525662150117 0 -0.0055460207920462702 -0.035153142642465524 0 -0.0041089985473927197 -0.036187426273743772 0 -0.0055910674882079722 -0.036388525662150117 0 -0.0034124845615840929 -0.034417639435028215 0 -0.0055460207920462702 -0.035153142642465524 0 -0.0041089985473927197 -0.036187426273743772 0 -0.0041089985473927197 -0.036187426273743772 0 -0.0055910674882079722 -0.036388525662150117 0 -0.0048729314682485828 -0.037569077090170398 0 -0.0041089985473927197 -0.036187426273743772 0 -0.0048729314682485828 -0.037569077090170398 0 -0.0029052484898972933 -0.037817004217966299 0 -4.9251268458280948e-05 -0.030428314120973216 0 -0.00013835247766858156 -0.021140464038094317 0 -0.0019478294609288178 -0.02861420431908384 0 -0.001320559962394191 -0.028758820216411546 0 -0.0022210111291057753 -0.029047262237152788 0 -0.0035124675403276737 -0.03305078891885229 0 -4.9251268458280948e-05 -0.030428314120973216 0 -0.0048398684142539989 -0.026004476652563585 0 -0.0047684021593429491 -0.024107684156510257 0 -0.0059458394050957335 -0.023910211046000971 0 -0.005377654212315312 -0.032282171196481323 0 -0.00013835247766858156 -0.021140464038094317 0 -0.0019478294609288178 -0.02861420431908384 0 -0.0025720956325880149 -0.028494697776276518 0 -0.0022210111291057753 -0.029047262237152788 0 -0.0035124675403276737 -0.03305078891885229 0 -0.005377654212315312 -0.032282171196481323 0 -0.0055910674882079722 -0.036388525662150117 0 -0.0048729314682485828 -0.037569077090170398 0 -0.0067726520442643089 -0.037238530749956152 0 -0.0005260690497895761 -0.034524878345919212 0 -0.00083793938767675019 -0.035593484653974217 0 -0.002318773703176704 -0.035852302539174485 0 -0.00083793938767675019 -0.035593484653974217 0 -0.00055250444818229444 -0.036486825063882782 0 -1.4346207227472796e-05 -0.035520437780417607 0 -0.0005260690497895761 -0.034524878345919212 0 -0.00083793938767675019 -0.035593484653974217 0 -1.4346207227472796e-05 -0.035520437780417607 0 -0.00083793938767675019 -0.035593484653974217 0 -0.002318773703176704 -0.035852302539174485 0 -0.00055250444818229444 -0.036486825063882782 0 -0.0034124845615840929 -0.034417639435028215 0 -0.0041089985473927197 -0.036187426273743772 0 -0.002318773703176704 -0.035852302539174485 0 -0.0041089985473927197 -0.036187426273743772 0 -0.002318773703176704 -0.035852302539174485 0 -0.0029052484898972933 -0.037817004217966299 0 0.0036171842681425128 -0.018012394450822537 0 0.0031560573362607847 -0.017993857345909477 0 0.0034861040485031089 -0.017737406514542035 0 -4.9251268458280948e-05 -0.030428314120973216 0 0.0012092410797773995 -0.027543811336325663 0 -0.002318773703176704 -0.035852302539174485 0 -0.0029052484898972933 -0.037817004217966299 0 -0.00055250444818229444 -0.036486825063882782 0 -0.0015917506783752775 -0.036828568790457088 0 -0.00068220798561627837 -0.037107296084169884 0 -0.00055250444818229444 -0.036486825063882782 0 -4.9251268458280948e-05 -0.030428314120973216 0 -0.0020583255106511496 -0.037918150207539462 0 0.0031290308566723976 -0.017630549522249718 0 0.0034861040485031089 -0.017737406514542035 0 0.0036817308764371787 -0.017381697449084008 0 0.0031560573362607847 -0.017993857345909477 0 0.0031290308566723976 -0.017630549522249718 0 0.0026106207469824539 -0.017926486141690484 0 0.0040597841812522453 -0.017210490545441409 0 0.003557457464246253 -0.017451405093531023 0 0.0031560573362607847 -0.017993857345909477 0 0.0031290308566723976 -0.017630549522249718 0 0.0034861040485031089 -0.017737406514542035 0 0.0034861040485031089 -0.017737406514542035 0 0.003761771305121894 -0.017653802063055044 0 0.0036817308764371787 -0.017381697449084008 0 0.0036171842681425128 -0.018012394450822537 0 0.0034861040485031089 -0.017737406514542035 0 0.003761771305121894 -0.017653802063055044 0 0.0036817308764371787 -0.017381697449084008 0 0.0039082823243232773 -0.017462498850446262 0 0.0036370751759462949 -0.01734222438239658 0 -0.00012020193606307423 -0.015287251641913252 0 0.00070793307271883345 -0.014238743430938948 0 0.0036817308764371787 -0.017381697449084008 0 0.0041492750513319717 -0.017431630831208328 0 0.0036370751759462949 -0.01734222438239658 0 0.0042972350182820572 -0.017183291109828754 0 0.0036817308764371787 -0.017381697449084008 0 0.0041600091420420388 -0.017391403046823229 0 0.0036817308764371787 -0.017381697449084008 0 0.0041600091420420388 -0.017391403046823229 0 0.0041492750513319717 -0.017431630831208328 0 0.0041600091420420388 -0.017391403046823229 0 0.0041492750513319717 -0.017431630831208328 0 0.0043946060936949985 -0.017480935944242128 0 0.0041492750513319717 -0.017431630831208328 0 0.0043946060936949985 -0.017480935944242128 0 0.0045557717475833513 -0.017568444566762802 0 0.0041600091420420388 -0.017391403046823229 0 0.0043946060936949985 -0.017480935944242128 0 0.0045485988660662752 -0.017438142992840591 0 0.0042972350182820572 -0.017183291109828754 0 0.0041600091420420388 -0.017391403046823229 0 0.0045485988660662752 -0.017438142992840591 0 0.00041846373432428714 -0.01885689201350672 0 -0.00041507374787500505 -0.019165107911369425 0 -0.0014344543091494939 -0.01729983197281363 0 -0.0021127726921873475 -0.019881097340526212 0 -0.00012020193606307423 -0.015287251641913252 0 -0.00012612373971883017 -0.014258276620478133 0 -0.0012568622777295296 -0.013269790374299886 0 -0.00022912051784286771 -0.013191369389498948 0 -0.0021127726921873475 -0.019881097340526212 0 -0.0048532370856537331 -0.018495581888005926 0 -0.00012612373971883017 -0.014258276620478133 0 -0.00022912051784286771 -0.013191369389498948 0 0.00089500792981542059 -0.013882228042956085 0 -0.002697335684301666 -0.021014437343743191 0 -0.0021127726921873475 -0.019881097340526212 0 -0.0047684021593429491 -0.024107684156510257 0 -0.0053009249794578371 -0.023654450492854556 0 -0.0039758028749284089 -0.023160682071830429 0 -0.0047684021593429491 -0.024107684156510257 0 -0.005287024995198627 -0.023666044175462066 0 -0.0059458394050957335 -0.023910211046000971 0 -0.0021127726921873475 -0.019881097340526212 0 -0.00013835247766858156 -0.021140464038094317 0 0.003761771305121894 -0.017653802063055044 0 0.0036817308764371787 -0.017381697449084008 0 0.0039082823243232773 -0.017462498850446262 0 0.0036171842681425128 -0.018012394450822537 0 0.003761771305121894 -0.017653802063055044 0 0.004055239176845896 -0.017723937858794721 0 0.003761771305121894 -0.017653802063055044 0 0.004055239176845896 -0.017723937858794721 0 0.0039082823243232773 -0.017462498850446262 0 -0.00013835247766858156 -0.021140464038094317 0 -0.00012020193606307423 -0.015287251641913252 0 -0.0012319843098214484 -0.012638647842932017 0 -0.0029075778945847237 -0.011118766101449623 0 -0.001951736051994075 -0.011266772145176997 0 -0.0012568622777295296 -0.013269790374299886 0 -0.0009308630892026047 -0.011850856122562746 0 -0.00022912051784286771 -0.013191369389498948 0 -0.0012568622777295296 -0.013269790374299886 0 -0.0009308630892026047 -0.011850856122562746 0 -0.0020582568036605106 -0.011692393916031612 0 -0.00012020193606307423 -0.015287251641913252 0 -0.0022558036352528011 -0.011061903663285291 0 -0.0009308630892026047 -0.011850856122562746 0 -0.00022912051784286771 -0.013191369389498948 0 0.00017084735751937238 -0.012202721046230443 0 -0.0031958261151233442 -0.012811174721924369 0 -0.0048532370856537331 -0.018495581888005926 0 -0.00022912051784286771 -0.013191369389498948 0 0.00017084735751937238 -0.012202721046230443 0 0.00089500792981542059 -0.013882228042956085 0 -0.005754168456604326 -0.014041737655475539 0 -0.0050700206779903008 -0.013742978827990457 0 -0.0060381135833793304 -0.013274426989694197 0 -0.0065498128675733035 -0.013852801984945991 0 -0.005754168456604326 -0.014041737655475539 0 -0.0060817777879733689 -0.014907206376774805 0 -0.0065498128675733035 -0.013852801984945991 0 -0.005754168456604326 -0.014041737655475539 0 -0.0060381135833793304 -0.013274426989694197 0 -0.005754168456604326 -0.014041737655475539 0 -0.0048689704118003441 -0.014441398048048377 0 -0.0060817777879733689 -0.014907206376774805 0 -0.005754168456604326 -0.014041737655475539 0 -0.0050700206779903008 -0.013742978827990457 0 -0.0048689704118003441 -0.014441398048048377 0 -0.0064042113339669885 -0.0090660199920462557 0 -0.0061353622060070266 -0.009114165492160679 0 -0.0063622309370272405 -0.008890946361515481 0 -0.0064042113339669885 -0.0090660199920462557 0 -0.0064406285836449096 -0.0092372553570732388 0 -0.0061353622060070266 -0.009114165492160679 0 -0.0064042113339669885 -0.0090660199920462557 0 -0.0064918904295822154 -0.0090314145815317982 0 -0.0064406285836449096 -0.0092372553570732388 0 -0.0064042113339669885 -0.0090660199920462557 0 -0.0064476498926319681 -0.0089785796604974454 0 -0.0063622309370272405 -0.008890946361515481 0 -0.0065616510990695017 -0.010172844260637063 0 -0.0060326676294073147 -0.010849139193175919 0 -0.0060326676294073147 -0.010849139193175919 0 -0.007919015458592726 -0.017364456801016972 0 -0.012876065486883064 -0.022580417258795036 0 -0.012413592455553166 -0.024246898734674432 0 -0.012097034216828079 -0.022866322269766252 0 -0.007919015458592726 -0.017364456801016972 0 -0.010323461737523215 -0.030004311955713903 0 -0.0066277118486791093 -0.021014035188423024 0 -0.0074619415488638942 -0.023901168761425329 0 -0.0052304087654515526 -0.02577793231470665 0 -0.0066277118486791093 -0.021014035188423024 0 -0.0074619415488638942 -0.023901168761425329 0 -0.0099590548772499204 -0.022259182546141867 0 -0.007919015458592726 -0.017364456801016972 0 -0.0048532370856537331 -0.018495581888005926 0 -0.0076510729484808573 -0.036691632702222768 0 -0.0085035557351100053 -0.036288677010082093 0 -0.0089730449870889066 -0.036408848390954852 0 -0.0048398684142539989 -0.026004476652563585 0 -0.0047684021593429491 -0.024107684156510257 0 -0.0027545861285074779 -0.02648551247465045 0 -0.0048532370856537331 -0.018495581888005926 0 -0.0071890950840408207 -0.03023435277856679 0 -0.0047684021593429491 -0.024107684156510257 0 -0.0039758028749284089 -0.023160682071830429 0 -0.0027545861285074779 -0.02648551247465045 0 -0.005377654212315312 -0.032282171196481323 0 -0.0071443146348830686 -0.031591975341871206 0 -0.0039758028749284089 -0.023160682071830429 0 -0.0027545861285074779 -0.02648551247465045 0 -0.0025419988856783 -0.026426951599847558 0 -0.0074619415488638942 -0.023901168761425329 0 -0.0099590548772499204 -0.022259182546141867 0 -0.008029175670606601 -0.026553676787314958 0 -0.0074619415488638942 -0.023901168761425329 0 -0.0052304087654515526 -0.02577793231470665 0 -0.008029175670606601 -0.026553676787314958 0 -0.010323461737523215 -0.030004311955713903 0 -0.0071890950840408207 -0.03023435277856679 0 -0.010656316726672835 -0.036906184599224484 0 -0.0097134758107476453 -0.036226640462026755 0 -0.0091861320742980881 -0.036510708997737298 0 -0.01139510928810477 -0.034922652738629989 0 -0.010656316726672835 -0.036906184599224484 0 -0.010291793810057997 -0.035711158962813037 0 -0.0097134758107476453 -0.036226640462026755 0 -0.0097283929114244921 -0.035644664374759223 0 -0.0091995293163145333 -0.036124310618562139 0 -0.010656316726672835 -0.036906184599224484 0 -0.0097134758107476453 -0.036226640462026755 0 -0.010291793810057997 -0.035711158962813037 0 -0.010076038248562819 -0.034922321751745193 0 -0.010291793810057997 -0.035711158962813037 0 -0.0097283929114244921 -0.035644664374759223 0 -0.010076038248562819 -0.034922321751745193 0 -0.0097283929114244921 -0.035644664374759223 0 -0.0091354855509605763 -0.03539156614751067 0 -0.0097134758107476453 -0.036226640462026755 0 -0.010291793810057997 -0.035711158962813037 0 -0.0097283929114244921 -0.035644664374759223 0 -0.0097283929114244921 -0.035644664374759223 0 -0.0091354855509605763 -0.03539156614751067 0 -0.0091995293163145333 -0.036124310618562139 0 -0.0076510729484808573 -0.036691632702222768 0 -0.008380524392136466 -0.035404444329301642 0 -0.0085035557351100053 -0.036288677010082093 0 -0.0091354855509605763 -0.03539156614751067 0 -0.008380524392136466 -0.035404444329301642 0 -0.0085035557351100053 -0.036288677010082093 0 -0.0091354855509605763 -0.03539156614751067 0 -0.0085035557351100053 -0.036288677010082093 0 -0.0091995293163145333 -0.036124310618562139 0 -0.0088330484516044739 -0.033413339524722002 0 -0.0071443146348830686 -0.031591975341871206 0 -0.0085035557351100053 -0.036288677010082093 0 -0.0090334292834925757 -0.036465070469974152 0 -0.0091995293163145333 -0.036124310618562139 0 -0.0071443146348830686 -0.031591975341871206 0 -0.0071890950840408207 -0.03023435277856679 0 -0.0090334292834925757 -0.036465070469974152 0 -0.0091861320742980881 -0.036510708997737298 0 -0.0091995293163145333 -0.036124310618562139 0 -0.0097134758107476453 -0.036226640462026755 0 -0.0091861320742980881 -0.036510708997737298 0 -0.0091995293163145333 -0.036124310618562139 0 -0.014009442775854867 -0.032624890284204393 0 -0.014342655082329514 -0.032738998333586261 0 -0.01386514898422685 -0.032744544379628593 0 -0.014280719544164161 -0.032546611299155877 0 -0.014248665511812418 -0.032417969814497676 0 -0.015563020910279396 -0.031059509276656665 0 -0.015151334498059376 -0.032485975070566442 0 -0.01386514898422685 -0.032744544379628593 0 -0.015151334498059376 -0.032485975070566442 0 -0.015257529912241309 -0.033672308372139421 0 -0.016475169193617877 -0.031783911868077601 0 -0.015563020910279396 -0.031059509276656665 0 -0.015151334498059376 -0.032485975070566442 0 -0.016475169193617877 -0.031783911868077601 0 -0.013828358389530764 -0.032539180486368925 0 -0.014009442775854867 -0.032624890284204393 0 -0.01386514898422685 -0.032744544379628593 0 -0.012634581003036929 -0.034696727847687465 0 -0.010323461737523215 -0.030004311955713903 0 -0.013828358389530764 -0.032539180486368925 0 -0.013436563980356498 -0.03299847090922995 0 -0.01386514898422685 -0.032744544379628593 0 -0.013436563980356498 -0.03299847090922995 0 -0.01386514898422685 -0.032744544379628593 0 -0.015257529912241309 -0.033672308372139421 0 -0.010323461737523215 -0.030004311955713903 0 -0.017452615124951536 -0.026606866729693628 0 -0.012413592455553166 -0.024246898734674432 0 -0.0109149596797469 -0.02380665346408329 0 -0.011285767222444704 -0.022971798693197962 0 -0.015151334498059376 -0.032485975070566442 0 -0.01386514898422685 -0.032744544379628593 0 -0.015257529912241309 -0.033672308372139421 0 -0.021995572328536619 -0.024935436897862165 0 -0.021639818078126153 -0.025625536457333668 0 -0.022365185729541413 -0.025629169191814585 0 -0.017452615124951536 -0.026606866729693628 0 -0.016103750490854069 -0.024633240129601216 0 -0.021639818078126153 -0.025625536457333668 0 -0.022046687540863228 -0.026022810212154239 0 -0.022365185729541413 -0.025629169191814585 0 -0.012413592455553166 -0.024246898734674432 0 -0.011285767222444704 -0.022971798693197962 0 -0.012097034216828079 -0.022866322269766252 0 -0.012876065486883064 -0.022580417258795036 0 -0.012097034216828079 -0.022866322269766252 0 -0.011664476127631008 -0.022118712372985141 0 -0.007919015458592726 -0.017364456801016972 0 -0.011229542379780461 -0.016506213446580195 0 -0.011285767222444704 -0.022971798693197962 0 -0.012097034216828079 -0.022866322269766252 0 -0.011664476127631008 -0.022118712372985141 0 -0.016103750490854069 -0.024633240129601216 0 -0.011229542379780461 -0.016506213446580195 0 -0.011229542379780461 -0.016506213446580195 0 -0.015133202452811637 -0.01781324660558507 0 -0.021250241720562505 -0.026241383137852337 0 -0.022046687540863228 -0.026022810212154239 0 -0.022142841048438798 -0.026554252983986826 0 -0.021639818078126153 -0.025625536457333668 0 -0.021250241720562505 -0.026241383137852337 0 -0.022046687540863228 -0.026022810212154239 0 -0.022820904472467377 -0.026062327260764885 0 -0.02295851844645843 -0.026778216037063103 0 -0.022142841048438798 -0.026554252983986826 0 -0.022046687540863228 -0.026022810212154239 0 -0.022820904472467377 -0.026062327260764885 0 -0.022142841048438798 -0.026554252983986826 0 -0.022046687540863228 -0.026022810212154239 0 -0.022820904472467377 -0.026062327260764885 0 -0.022365185729541413 -0.025629169191814585 0 -0.021995572328536619 -0.024935436897862165 0 -0.022365185729541413 -0.025629169191814585 0 -0.02328471066577123 -0.025437512565199275 0 -0.022820904472467377 -0.026062327260764885 0 -0.022365185729541413 -0.025629169191814585 0 -0.02328471066577123 -0.025437512565199275 0 -0.02328471066577123 -0.025437512565199275 0 -0.023915800903709612 -0.025963097382329294 0 -0.024001600854625708 -0.025250894367582325 0 -0.022820904472467377 -0.026062327260764885 0 -0.02328471066577123 -0.025437512565199275 0 -0.023915800903709612 -0.025963097382329294 0 -0.019968381314812791 -0.018411201054609416 0 -0.015447632032578311 -0.011792525568949306 0 -0.022820904472467377 -0.026062327260764885 0 -0.023915800903709612 -0.025963097382329294 0 -0.02295851844645843 -0.026778216037063103 0 -0.014665559676273844 -0.0094070319629367839 0 -0.014850541787653307 -0.0085015935747439139 0 -0.015752114165743458 -0.0081977422247822996 0 -0.014400742099163954 -0.0086435261143146987 0 -0.014665559676273844 -0.0094070319629367839 0 -0.014850541787653307 -0.0085015935747439139 0 -0.014665559676273844 -0.0094070319629367839 0 -0.013962772314008607 -0.0089802656087664325 0 -0.013669706708889312 -0.0095355337462537781 0 -0.014400742099163954 -0.0086435261143146987 0 -0.014665559676273844 -0.0094070319629367839 0 -0.013962772314008607 -0.0089802656087664325 0 -0.013376762191515353 -0.0089219107563321097 0 -0.013708933564759418 -0.0083822725257215371 0 -0.01336860475022468 -0.0084834535559687591 0 -0.013376762191515353 -0.0089219107563321097 0 -0.013122414602041771 -0.008487423147139685 0 -0.01336860475022468 -0.0084834535559687591 0 -0.013376762191515353 -0.0089219107563321097 0 -0.013962772314008607 -0.0089802656087664325 0 -0.013708933564759418 -0.0083822725257215371 0 -0.014400742099163954 -0.0086435261143146987 0 -0.013962772314008607 -0.0089802656087664325 0 -0.013708933564759418 -0.0083822725257215371 0 -0.013376762191515353 -0.0089219107563321097 0 -0.013669706708889312 -0.0095355337462537781 0 -0.013166375919054465 -0.0094305365635708859 0 -0.013376762191515353 -0.0089219107563321097 0 -0.013962772314008607 -0.0089802656087664325 0 -0.013669706708889312 -0.0095355337462537781 0 -0.014665559676273844 -0.0094070319629367839 0 -0.013669706708889312 -0.0095355337462537781 0 -0.013807806081622171 -0.010545544495204172 0 -0.013669706708889312 -0.0095355337462537781 0 -0.013807806081622171 -0.010545544495204172 0 -0.013332363463338525 -0.0099444261622765092 0 -0.013669706708889312 -0.0095355337462537781 0 -0.013166375919054465 -0.0094305365635708859 0 -0.013332363463338525 -0.0099444261622765092 0 -0.023915800903709612 -0.025963097382329294 0 -0.024001600854625708 -0.025250894367582325 0 -0.02479613494142488 -0.025304838810824383 0 -0.019968381314812791 -0.018411201054609416 0 -0.018088463826244298 -0.018387538671180783 0 -0.024001600854625708 -0.025250894367582325 0 -0.024490802837660544 -0.024910054194579825 0 -0.02407647583222397 -0.024649364380624646 0 -0.024001600854625708 -0.025250894367582325 0 -0.024490802837660544 -0.024910054194579825 0 -0.02479613494142488 -0.025304838810824383 0 -0.024490802837660544 -0.024910054194579825 0 -0.02479613494142488 -0.025304838810824383 0 -0.025206359163440099 -0.02464076774671985 0 -0.024490802837660544 -0.024910054194579825 0 -0.025206359163440099 -0.02464076774671985 0 -0.024672675694645096 -0.024486679120885677 0 -0.025206359163440099 -0.02464076774671985 0 -0.024672675694645096 -0.024486679120885677 0 -0.025239209757862875 -0.024234217903755122 0 -0.024490802837660544 -0.024910054194579825 0 -0.024672675694645096 -0.024486679120885677 0 -0.02407647583222397 -0.024649364380624646 0 -0.024672675694645096 -0.024486679120885677 0 -0.02407647583222397 -0.024649364380624646 0 -0.024484508170655495 -0.024206388796467321 0 -0.02407647583222397 -0.024649364380624646 0 -0.023579615997082033 -0.024424026243594067 0 -0.02338688515852759 -0.024973122057585 0 -0.023579615997082033 -0.024424026243594067 0 -0.022962564532112793 -0.024584104331972566 0 -0.02338688515852759 -0.024973122057585 0 -0.02407647583222397 -0.024649364380624646 0 -0.023579615997082033 -0.024424026243594067 0 -0.024043716129284007 -0.024125831292182001 0 -0.022525024014234247 -0.025371753592623867 0 -0.022962564532112793 -0.024584104331972566 0 -0.02338688515852759 -0.024973122057585 0 -0.017452615124951536 -0.026606866729693628 0 -0.019994084078318698 -0.028389684877993409 0 -0.022525024014234247 -0.025371753592623867 0 -0.02328471066577123 -0.025437512565199275 0 -0.02338688515852759 -0.024973122057585 0 -0.017452615124951536 -0.026606866729693628 0 -0.02502653176270872 -0.025370370001415454 0 -0.024001600854625708 -0.025250894367582325 0 -0.02407647583222397 -0.024649364380624646 0 -0.02338688515852759 -0.024973122057585 0 -0.02328471066577123 -0.025437512565199275 0 -0.024001600854625708 -0.025250894367582325 0 -0.02338688515852759 -0.024973122057585 0 -0.034844237826542807 -0.014858286755111595 0 -0.036384270013730492 -0.013155111175207054 0 -0.036103910544149312 -0.015137014593428156 0 -0.035126254548802166 -0.013632675363815369 0 -0.034844237826542807 -0.014858286755111595 0 -0.036384270013730492 -0.013155111175207054 0 -0.035850376631307156 -0.011273013510283066 0 -0.036621321585963179 -0.011983595586917401 0 -0.036817566488942723 -0.011096954604788547 0 -0.036621321585963179 -0.011983595586917401 0 -0.03665518636668811 -0.012759778239473885 0 -0.035693079162748151 -0.012974763088544622 0 -0.036113397896787351 -0.012181448634841678 0 -0.035859313940000158 -0.01411788845369003 0 -0.035850376631307156 -0.011273013510283066 0 -0.036621321585963179 -0.011983595586917401 0 -0.035693079162748151 -0.012974763088544622 0 -0.036621321585963179 -0.011983595586917401 0 -0.037146899429987251 -0.011670890955240945 0 -0.037621531555081709 -0.012618979026080102 0 -0.036621321585963179 -0.011983595586917401 0 -0.03665518636668811 -0.012759778239473885 0 -0.037621531555081709 -0.012618979026080102 0 -0.036621321585963179 -0.011983595586917401 0 -0.036817566488942723 -0.011096954604788547 0 -0.037146899429987251 -0.011670890955240945 0 -0.036817566488942723 -0.011096954604788547 0 -0.037146899429987251 -0.011670890955240945 0 -0.037561596073715932 -0.011065200588104233 0 -0.037146899429987251 -0.011670890955240945 0 -0.037566469558465265 -0.011256623572278758 0 -0.037561596073715932 -0.011065200588104233 0 -0.029081370215885912 -0.01050560272744566 0 -0.032986506695442508 -0.010675650652950893 0 -0.013376762191515353 -0.0089219107563321097 0 -0.01307248539129637 -0.0089652969930581455 0 -0.013122414602041771 -0.008487423147139685 0 -0.012735521122476922 -0.0089168654178801432 0 -0.01307248539129637 -0.0089652969930581455 0 -0.013122414602041771 -0.008487423147139685 0 -0.013376762191515353 -0.0089219107563321097 0 -0.01307248539129637 -0.0089652969930581455 0 -0.013166375919054465 -0.0094305365635708859 0 -0.012735521122476922 -0.0089168654178801432 0 -0.01307248539129637 -0.0089652969930581455 0 -0.013166375919054465 -0.0094305365635708859 0 -0.029081370215885912 -0.01050560272744566 0 -0.024877093073074796 -0.010636732383446867 0 -0.013807806081622171 -0.010545544495204172 0 -0.01284544590703735 -0.010227566677511098 0 -0.013332363463338525 -0.0099444261622765092 0 -0.013166375919054465 -0.0094305365635708859 0 -0.01284544590703735 -0.010227566677511098 0 -0.013332363463338525 -0.0099444261622765092 0 -0.037146899429987251 -0.011670890955240945 0 -0.037566469558465265 -0.011256623572278758 0 -0.037621531555081709 -0.012618979026080102 0 -0.012735521122476922 -0.0089168654178801432 0 -0.013166375919054465 -0.0094305365635708859 0 -0.01284544590703735 -0.010227566677511098 0 -0.024877093073074796 -0.010636732383446867 0 -0.025512672930131913 -0.016311262469190926 0 -0.037621531555081709 -0.012618979026080102 0 -0.037645165984108775 -0.014666862041041489 0 -0.037090559806507079 -0.014198930895436024 0 -0.013807806081622171 -0.010545544495204172 0 -0.01284544590703735 -0.010227566677511098 0 -0.01300697720089615 -0.011694168187647352 0 -0.018088463826244298 -0.018387538671180783 0 -0.025512672930131913 -0.016311262469190926 0 -0.02479613494142488 -0.025304838810824383 0 -0.025206359163440099 -0.02464076774671985 0 -0.025795778289943411 -0.024440044596786854 0 -0.024243946212199947 -0.025776708132804117 0 -0.029059778541620521 -0.021132666462348192 0 -0.025206359163440099 -0.02464076774671985 0 -0.025795778289943411 -0.024440044596786854 0 -0.025819514549153558 -0.023824231305600612 0 -0.025206359163440099 -0.02464076774671985 0 -0.0257937365332566 -0.024187740363184843 0 -0.025239209757862875 -0.024234217903755122 0 -0.037598042835004709 -0.014714674115443149 0 -0.037306681572403737 -0.01507821279295586 0 -0.037656575751561817 -0.0156614527570028 0 -0.025512672930131913 -0.016311262469190926 0 -0.029059778541620521 -0.021132666462348192 0 -0.025512672930131913 -0.016311262469190926 0 -0.032305671714108801 -0.012762177411819984 0 -0.037090559806507079 -0.014198930895436024 0 -0.036862549181550623 -0.014858620621587397 0 -0.036416509207430572 -0.014314181343150642 0 -0.037645165984108775 -0.014666862041041489 0 -0.037090559806507079 -0.014198930895436024 0 -0.037306681572403737 -0.01507821279295586 0 -0.037090559806507079 -0.014198930895436024 0 -0.036862549181550623 -0.014858620621587397 0 -0.037306681572403737 -0.01507821279295586 0 -0.036862549181550623 -0.014858620621587397 0 -0.037306681572403737 -0.01507821279295586 0 -0.036975740470660858 -0.015411565245654592 0 -0.036416509207430572 -0.014314181343150642 0 -0.03577716015758213 -0.015161954229155271 0 -0.036529871875780461 -0.015306034794257614 0 -0.036862549181550623 -0.014858620621587397 0 -0.036416509207430572 -0.014314181343150642 0 -0.036529871875780461 -0.015306034794257614 0 -0.037090559806507079 -0.014198930895436024 0 -0.036416509207430572 -0.014314181343150642 0 -0.036674605184963537 -0.013460914491712352 0 -0.037621531555081709 -0.012618979026080102 0 -0.037090559806507079 -0.014198930895436024 0 -0.036674605184963537 -0.013460914491712352 0 -0.03665518636668811 -0.012759778239473885 0 -0.037621531555081709 -0.012618979026080102 0 -0.036674605184963537 -0.013460914491712352 0 -0.03665518636668811 -0.012759778239473885 0 -0.036674605184963537 -0.013460914491712352 0 -0.035693079162748151 -0.012974763088544622 0 -0.036416509207430572 -0.014314181343150642 0 -0.036674605184963537 -0.013460914491712352 0 -0.035693079162748151 -0.012974763088544622 0 -0.036103910544149312 -0.015137014593428156 0 -0.035443485523449239 -0.016400748327461103 0 -0.036026262257589023 -0.016923586009298705 0 -0.035859313940000158 -0.01411788845369003 0 -0.036335724938566717 -0.015715009839548145 0 -0.036416509207430572 -0.014314181343150642 0 -0.035693079162748151 -0.012974763088544622 0 -0.03577716015758213 -0.015161954229155271 0 -0.03432326335460964 -0.016315366889073406 0 -0.035443485523449239 -0.016400748327461103 0 -0.034465153403427408 -0.017134541583830456 0 -0.03432326335460964 -0.016315366889073406 0 -0.035443485523449239 -0.016400748327461103 0 -0.035175530584255453 -0.015677548867622845 0 -0.034844237826542807 -0.014858286755111595 0 -0.036103910544149312 -0.015137014593428156 0 -0.035175530584255453 -0.015677548867622845 0 -0.036103910544149312 -0.015137014593428156 0 -0.035443485523449239 -0.016400748327461103 0 -0.035175530584255453 -0.015677548867622845 0 -0.033875574839958365 -0.0182863829296997 0 -0.034347979945130995 -0.017713588156837743 0 -0.034434913505813659 -0.01811686708544644 0 -0.033875574839958365 -0.0182863829296997 0 -0.034434913505813659 -0.01811686708544644 0 -0.033771223824136651 -0.018815533776050997 0 -0.033989895264093906 -0.017726141931609613 0 -0.033875574839958365 -0.0182863829296997 0 -0.034347979945130995 -0.017713588156837743 0 -0.034347979945130995 -0.017713588156837743 0 -0.034465153403427408 -0.017134541583830456 0 -0.035014192536203061 -0.01741577552869809 0 -0.033989895264093906 -0.017726141931609613 0 -0.034347979945130995 -0.017713588156837743 0 -0.034465153403427408 -0.017134541583830456 0 -0.035443485523449239 -0.016400748327461103 0 -0.034465153403427408 -0.017134541583830456 0 -0.035014192536203061 -0.01741577552869809 0 -0.036335724938566717 -0.015715009839548145 0 -0.033082773555040058 -0.019891648305966 0 -0.03535561605338116 -0.016572332031303989 0 -0.035529265515727361 -0.017261582148176274 0 -0.035443485523449239 -0.016400748327461103 0 -0.036026262257589023 -0.016923586009298705 0 -0.035698993033986923 -0.017765611772461474 0 -0.036026262257589023 -0.016923586009298705 0 -0.035698993033986923 -0.017765611772461474 0 -0.036354975733951148 -0.018717006621159119 0 -0.035529265515727361 -0.017261582148176274 0 -0.032953482789783564 -0.020737931747589495 0 -0.035014192536203061 -0.01741577552869809 0 -0.034434913505813659 -0.01811686708544644 0 -0.035060486248036482 -0.018615673598022124 0 -0.035698993033986923 -0.017765611772461474 0 -0.036354975733951148 -0.018717006621159119 0 -0.036003350185775163 -0.019149249212013667 0 -0.034347979945130995 -0.017713588156837743 0 -0.035014192536203061 -0.01741577552869809 0 -0.034434913505813659 -0.01811686708544644 0 -0.033082773555040058 -0.019891648305966 0 -0.032953482789783564 -0.020737931747589495 0 -0.033082773555040058 -0.019891648305966 0 -0.029059778541620521 -0.021132666462348192 0 -0.028286017243280174 -0.022266886162310734 0 -0.02808904682457183 -0.022313026964621962 0 -0.028004044032600737 -0.022564072302950211 0 -0.02808904682457183 -0.022313026964621962 0 -0.027960395809679031 -0.022274793152580245 0 -0.028113619604194527 -0.022043576498052983 0 -0.028286017243280174 -0.022266886162310734 0 -0.02808904682457183 -0.022313026964621962 0 -0.028113619604194527 -0.022043576498052983 0 -0.03577716015758213 -0.015161954229155271 0 -0.036172853724193481 -0.017568466303897478 0 -0.036539876216161962 -0.016144920196315218 0 -0.036172853724193481 -0.017568466303897478 0 -0.036539876216161962 -0.016144920196315218 0 -0.037656575751561817 -0.0156614527570028 0 -0.03577716015758213 -0.015161954229155271 0 -0.036539876216161962 -0.016144920196315218 0 -0.036529871875780461 -0.015306034794257614 0 -0.036539876216161962 -0.016144920196315218 0 -0.036529871875780461 -0.015306034794257614 0 -0.036975740470660858 -0.015411565245654592 0 -0.037306681572403737 -0.01507821279295586 0 -0.036975740470660858 -0.015411565245654592 0 -0.037656575751561817 -0.0156614527570028 0 -0.036539876216161962 -0.016144920196315218 0 -0.036975740470660858 -0.015411565245654592 0 -0.037656575751561817 -0.0156614527570028 0 -0.036862549181550623 -0.014858620621587397 0 -0.036529871875780461 -0.015306034794257614 0 -0.036975740470660858 -0.015411565245654592 0 -0.0257937365332566 -0.024187740363184843 0 -0.025418161752988434 -0.023859960527090503 0 -0.025239209757862875 -0.024234217903755122 0 -0.025418161752988434 -0.023859960527090503 0 -0.026058893349057623 -0.023384606276757876 0 -0.025107113729459167 -0.02347340416729457 0 -0.02808904682457183 -0.022313026964621962 0 -0.028004044032600737 -0.022564072302950211 0 -0.027960395809679031 -0.022274793152580245 0 -0.029059778541620521 -0.021132666462348192 0 -0.026825766460334986 -0.023270606339529279 0 -0.0257937365332566 -0.024187740363184843 0 -0.025418161752988434 -0.023859960527090503 0 -0.026058893349057623 -0.023384606276757876 0 -0.027960395809679031 -0.022274793152580245 0 -0.027643168504984966 -0.021612202563010312 0 -0.027971741820351597 -0.021912921414713547 0 -0.026825766460334986 -0.023270606339529279 0 -0.027004598823265513 -0.021726012164518443 0 -0.026058893349057623 -0.023384606276757876 0 -0.025646459688788356 -0.022883110550664987 0 -0.025107113729459167 -0.02347340416729457 0 -0.026058893349057623 -0.023384606276757876 0 -0.025646459688788356 -0.022883110550664987 0 -0.0264913468647789 -0.022253212985608808 0 -0.027643168504984966 -0.021612202563010312 0 -0.027679870783270784 -0.021037729339046889 0 -0.026516974924175131 -0.020293050888451174 0 -0.025646459688788356 -0.022883110550664987 0 -0.025792571632521213 -0.022241266159865755 0 -0.0264913468647789 -0.022253212985608808 0 -0.025792571632521213 -0.022241266159865755 0 -0.0264913468647789 -0.022253212985608808 0 -0.025858922660330002 -0.021443168046848048 0 -0.027643168504984966 -0.021612202563010312 0 -0.028289592809985303 -0.021679836976264678 0 -0.027971741820351597 -0.021912921414713547 0 -0.027643168504984966 -0.021612202563010312 0 -0.027679870783270784 -0.021037729339046889 0 -0.028289592809985303 -0.021679836976264678 0 -0.029608437039388039 -0.021461469902466234 0 -0.02901840825999575 -0.020048925906553133 0 -0.028884831538934317 -0.021779344204187614 0 -0.028289592809985303 -0.021679836976264678 0 -0.028931575189908215 -0.020158832360957959 0 -0.027679870783270784 -0.021037729339046889 0 -0.028289592809985303 -0.021679836976264678 0 -0.028931575189908215 -0.020158832360957959 0 -0.028888275078187767 -0.023597987640548504 0 -0.028289592809985303 -0.021679836976264678 0 -0.029295277778159892 -0.023070787292239762 0 -0.033082773555040058 -0.019891648305966 0 -0.027480236448350067 -0.022751234146495575 0 -0.028884831538934317 -0.021779344204187614 0 -0.028289592809985303 -0.021679836976264678 0 -0.029295277778159892 -0.023070787292239762 0 -0.028286017243280174 -0.022266886162310734 0 -0.028289592809985303 -0.021679836976264678 0 -0.028113619604194527 -0.022043576498052983 0 -0.028289592809985303 -0.021679836976264678 0 -0.027971741820351597 -0.021912921414713547 0 -0.028113619604194527 -0.022043576498052983 0 -0.027960395809679031 -0.022274793152580245 0 -0.027971741820351597 -0.021912921414713547 0 -0.028113619604194527 -0.022043576498052983 0 -0.030227578004988785 -0.020712692766327132 0 -0.030907250908688611 -0.02306934853617652 0 -0.032988633889508054 -0.019942038584968787 0 -0.029608437039388039 -0.021461469902466234 0 -0.032953482789783564 -0.020737931747589495 0 -0.035060486248036482 -0.018615673598022124 0 -0.032988633889508054 -0.019942038584968787 0 -0.033771223824136651 -0.018815533776050997 0 -0.032953482789783564 -0.020737931747589495 0 -0.033078816384317672 -0.020062709506631533 0 -0.034434913505813659 -0.01811686708544644 0 -0.035060486248036482 -0.018615673598022124 0 -0.033771223824136651 -0.018815533776050997 0 -0.030227578004988785 -0.020712692766327132 0 -0.031286034911153553 -0.019610720853984111 0 -0.028931575189908215 -0.020158832360957959 0 -0.030227578004988785 -0.020712692766327132 0 -0.032988633889508054 -0.019942038584968787 0 -0.031286034911153553 -0.019610720853984111 0 -0.032988633889508054 -0.019942038584968787 0 -0.032475627179286447 -0.019327617377391859 0 -0.031286034911153553 -0.019610720853984111 0 -0.033228114601217197 -0.019092590501358503 0 -0.032988633889508054 -0.019942038584968787 0 -0.033420771522957089 -0.018951071172189929 0 -0.033228114601217197 -0.019092590501358503 0 -0.032988633889508054 -0.019942038584968787 0 -0.032475627179286447 -0.019327617377391859 0 -0.032988633889508054 -0.019942038584968787 0 -0.033420771522957089 -0.018951071172189929 0 -0.033771223824136651 -0.018815533776050997 0 -0.033875574839958365 -0.0182863829296997 0 -0.033420771522957089 -0.018951071172189929 0 -0.033771223824136651 -0.018815533776050997 0 -0.022449534876758225 -0.02506909620621937 0 -0.02366888658100082 -0.024173754630115032 0 -0.023620698740154749 -0.022969423829925787 0 -0.023493616348413297 -0.023704607122224147 0 -0.024409024308947973 -0.023733702540540486 0 -0.024145722312660139 -0.023310706549501597 0 -0.019525156172857976 -0.027793360897280545 0 -0.024577874644812994 -0.023212477870459641 0 -0.014518149528879596 -0.032144183251107232 0 -0.015601820923875059 -0.032370224777191946 0 -0.014967742696202817 -0.031333582906720198 0 -0.023579615997082033 -0.024424026243594067 0 -0.022962564532112793 -0.024584104331972566 0 -0.023493616348413297 -0.023704607122224147 0 -0.014342655082329514 -0.032738998333586261 0 -0.014518149528879596 -0.032144183251107232 0 -0.015601820923875059 -0.032370224777191946 0 -0.015563020910279396 -0.031059509276656665 0 -0.016475169193617877 -0.031783911868077601 0 -0.017735067858466552 -0.029365267321743545 0 -0.014280719544164161 -0.032546611299155877 0 -0.019525156172857976 -0.027793360897280545 0 -0.019994084078318698 -0.028389684877993409 0 -0.019525156172857976 -0.027793360897280545 0 -0.023579615997082033 -0.024424026243594067 0 -0.023493616348413297 -0.023704607122224147 0 -0.024043716129284007 -0.024125831292182001 0 -0.023493616348413297 -0.023704607122224147 0 -0.024043716129284007 -0.024125831292182001 0 -0.024409024308947973 -0.023733702540540486 0 -0.02407647583222397 -0.024649364380624646 0 -0.024043716129284007 -0.024125831292182001 0 -0.024484508170655495 -0.024206388796467321 0 -0.024484508170655495 -0.024206388796467321 0 -0.02490892300954663 -0.023989031493829274 0 -0.024409024308947973 -0.023733702540540486 0 -0.024043716129284007 -0.024125831292182001 0 -0.024484508170655495 -0.024206388796467321 0 -0.024409024308947973 -0.023733702540540486 0 -0.024672675694645096 -0.024486679120885677 0 -0.024484508170655495 -0.024206388796467321 0 -0.02490892300954663 -0.023989031493829274 0 -0.024672675694645096 -0.024486679120885677 0 -0.025239209757862875 -0.024234217903755122 0 -0.02490892300954663 -0.023989031493829274 0 -0.025418161752988434 -0.023859960527090503 0 -0.025239209757862875 -0.024234217903755122 0 -0.02490892300954663 -0.023989031493829274 0 -0.025418161752988434 -0.023859960527090503 0 -0.02490892300954663 -0.023989031493829274 0 -0.025107113729459167 -0.02347340416729457 0 -0.02490892300954663 -0.023989031493829274 0 -0.025107113729459167 -0.02347340416729457 0 -0.024409024308947973 -0.023733702540540486 0 -0.025107113729459167 -0.02347340416729457 0 -0.024409024308947973 -0.023733702540540486 0 -0.024624907276206715 -0.023360654288256809 0 -0.024409024308947973 -0.023733702540540486 0 -0.024624907276206715 -0.023360654288256809 0 -0.024145722312660139 -0.023310706549501597 0 -0.024774939504131854 -0.023055369816804342 0 -0.025214651952040472 -0.022313596045610638 0 -0.023620698740154749 -0.022969423829925787 0 -0.02366888658100082 -0.024173754630115032 0 -0.024774939504131854 -0.023055369816804342 0 -0.023620698740154749 -0.022969423829925787 0 -0.024577874644812994 -0.023212477870459641 0 -0.024424583730787475 -0.023331137938481926 0 -0.024624907276206715 -0.023360654288256809 0 -0.024145722312660139 -0.023310706549501597 0 -0.024774939504131854 -0.023055369816804342 0 -0.025646459688788356 -0.022883110550664987 0 -0.025107113729459167 -0.02347340416729457 0 -0.024774939504131854 -0.023055369816804342 0 -0.025646459688788356 -0.022883110550664987 0 -0.024774939504131854 -0.023055369816804342 0 -0.025214651952040472 -0.022313596045610638 0 -0.025107113729459167 -0.02347340416729457 0 -0.024624907276206715 -0.023360654288256809 0 -0.024774939504131854 -0.023055369816804342 0 -0.025214651952040472 -0.022313596045610638 0 -0.025096316345347626 -0.02131290549053667 0 -0.025858922660330002 -0.021443168046848048 0 -0.025646459688788356 -0.022883110550664987 0 -0.025792571632521213 -0.022241266159865755 0 -0.025214651952040472 -0.022313596045610638 0 -0.025792571632521213 -0.022241266159865755 0 -0.025214651952040472 -0.022313596045610638 0 -0.025858922660330002 -0.021443168046848048 0 -0.0201686538385949 -0.027074463634667673 0 -0.021730157029358519 -0.025224919789825655 0 -0.025214651952040472 -0.022313596045610638 0 -0.023620698740154749 -0.022969423829925787 0 -0.025096316345347626 -0.02131290549053667 0 -0.015824155828961482 -0.030243127728617893 0 -0.016904303440574659 -0.030768277132555571 0 -0.018257362931184847 -0.029113456438719047 0 -0.015824155828961482 -0.030243127728617893 0 -0.016904303440574659 -0.030768277132555571 0 -0.014967742696202817 -0.031333582906720198 0 -0.019525156172857976 -0.027793360897280545 0 -0.0201686538385949 -0.027074463634667673 0 -0.015601820923875059 -0.032370224777191946 0 -0.016904303440574659 -0.030768277132555571 0 -0.014967742696202817 -0.031333582906720198 0 -0.013451806086219847 -0.030563011482406918 0 -0.015824155828961482 -0.030243127728617893 0 -0.014967742696202817 -0.031333582906720198 0 -0.013451806086219847 -0.030563011482406918 0 -0.015824155828961482 -0.030243127728617893 0 -0.015550968691656938 -0.02917652325187085 0 -0.015550968691656938 -0.02917652325187085 0 -0.015470551982417155 -0.027456556442156103 0 -0.013333871192330577 -0.028287765017432083 0 -0.015550968691656938 -0.02917652325187085 0 -0.01725860970800398 -0.02815101279283307 0 -0.015470551982417155 -0.027456556442156103 0 -0.015550968691656938 -0.02917652325187085 0 -0.01725860970800398 -0.02815101279283307 0 -0.018257362931184847 -0.029113456438719047 0 -0.015824155828961482 -0.030243127728617893 0 -0.015550968691656938 -0.02917652325187085 0 -0.018257362931184847 -0.029113456438719047 0 -0.025096316345347626 -0.02131290549053667 0 -0.025858922660330002 -0.021443168046848048 0 -0.026266834136627823 -0.020947688857957374 0 -0.021730157029358519 -0.025224919789825655 0 -0.023165524615194322 -0.024734927167811029 0 -0.025096316345347626 -0.02131290549053667 0 -0.026734106160430527 -0.021668089357429719 0 -0.026266834136627823 -0.020947688857957374 0 -0.01725860970800398 -0.02815101279283307 0 -0.018257362931184847 -0.029113456438719047 0 -0.019737123996419779 -0.027689405695686113 0 -0.017746359476912096 -0.026805611289842143 0 -0.019737123996419779 -0.027689405695686113 0 -0.019769614809259782 -0.025872189546931462 0 -0.01725860970800398 -0.02815101279283307 0 -0.017746359476912096 -0.026805611289842143 0 -0.019737123996419779 -0.027689405695686113 0 -0.019737123996419779 -0.027689405695686113 0 -0.019769614809259782 -0.025872189546931462 0 -0.021579788529766563 -0.025985434288376637 0 -0.017746359476912096 -0.026805611289842143 0 -0.019769614809259782 -0.025872189546931462 0 -0.018195568921555418 -0.025063109922253843 0 -0.017746359476912096 -0.026805611289842143 0 -0.015609967039421994 -0.025842391657230051 0 -0.018195568921555418 -0.025063109922253843 0 -0.015609967039421994 -0.025842391657230051 0 -0.015470551982417155 -0.027456556442156103 0 -0.013816316941003168 -0.026771765010178035 0 -0.01725860970800398 -0.02815101279283307 0 -0.017746359476912096 -0.026805611289842143 0 -0.015470551982417155 -0.027456556442156103 0 -0.017746359476912096 -0.026805611289842143 0 -0.015609967039421994 -0.025842391657230051 0 -0.015470551982417155 -0.027456556442156103 0 -0.033556135364364456 -0.018164967499337926 0 -0.032580190999824878 -0.017572909262302368 0 -0.032109462709789385 -0.018521427668000322 0 -0.033798646369463843 -0.017268024152875004 0 -0.032580190999824878 -0.017572909262302368 0 -0.032432764180175037 -0.016493336689366787 0 -0.032580190999824878 -0.017572909262302368 0 -0.03048154808147607 -0.017244144507500999 0 -0.032432764180175037 -0.016493336689366787 0 -0.033637283191494539 -0.018226611452610595 0 -0.032125126122618981 -0.018509841171515114 0 -0.033274652952785387 -0.018409662121499828 0 -0.033228114601217197 -0.019092590501358503 0 -0.032109462709789385 -0.018521427668000322 0 -0.033228114601217197 -0.019092590501358503 0 -0.032475627179286447 -0.019327617377391859 0 -0.032109462709789385 -0.018521427668000322 0 -0.032109462709789385 -0.018521427668000322 0 -0.031286034911153553 -0.019610720853984111 0 -0.030488302699528496 -0.018959970644343866 0 -0.032475627179286447 -0.019327617377391859 0 -0.032109462709789385 -0.018521427668000322 0 -0.031286034911153553 -0.019610720853984111 0 -0.031286034911153553 -0.019610720853984111 0 -0.030488302699528496 -0.018959970644343866 0 -0.028931575189908215 -0.020158832360957959 0 -0.030488302699528496 -0.018959970644343866 0 -0.03048154808147607 -0.017244144507500999 0 -0.028818268364172509 -0.019419156164516359 0 -0.027066278280983007 -0.019049676893838463 0 -0.028273080955173314 -0.022644840376296053 0 -0.032580190999824878 -0.017572909262302368 0 -0.032109462709789385 -0.018521427668000322 0 -0.03048154808147607 -0.017244144507500999 0 -0.032109462709789385 -0.018521427668000322 0 -0.030488302699528496 -0.018959970644343866 0 -0.03048154808147607 -0.017244144507500999 0 -0.027066278280983007 -0.019049676893838463 0 -0.026604108723537061 -0.020023841007732256 0 -0.03048154808147607 -0.017244144507500999 0 -0.028818268364172509 -0.019419156164516359 0 -0.026639007425463421 -0.020052565784953135 0 -0.023688033594561824 -0.021353552651687369 0 -0.026026866753633696 -0.021117187382317618 0 -0.024745569752845226 -0.022678872272830313 0 -0.023688033594561824 -0.021353552651687369 0 -0.026639007425463421 -0.020052565784953135 0 -0.026026866753633696 -0.021117187382317618 0 -0.026026866753633696 -0.021117187382317618 0 -0.02589352930858738 -0.021878447125624399 0 -0.024745569752845226 -0.022678872272830313 0 -0.030488302699528496 -0.018959970644343866 0 -0.028818268364172509 -0.019419156164516359 0 -0.028931575189908215 -0.020158832360957959 0 -0.028818268364172509 -0.019419156164516359 0 -0.028931575189908215 -0.020158832360957959 0 -0.027548121069828263 -0.020362844365579769 0 -0.027679870783270784 -0.021037729339046889 0 -0.028931575189908215 -0.020158832360957959 0 -0.027548121069828263 -0.020362844365579769 0 -0.027679870783270784 -0.021037729339046889 0 -0.027548121069828263 -0.020362844365579769 0 -0.026516974924175131 -0.020293050888451174 0 -0.028818268364172509 -0.019419156164516359 0 -0.027548121069828263 -0.020362844365579769 0 -0.026639007425463421 -0.020052565784953135 0 -0.0264913468647789 -0.022253212985608808 0 -0.025858922660330002 -0.021443168046848048 0 -0.026516974924175131 -0.020293050888451174 0 -0.026516974924175131 -0.020293050888451174 0 -0.026639007425463421 -0.020052565784953135 0 -0.026026866753633696 -0.021117187382317618 0 -0.025858922660330002 -0.021443168046848048 0 -0.026516974924175131 -0.020293050888451174 0 -0.026266834136627823 -0.020947688857957374 0 -0.027004598823265513 -0.021726012164518443 0 -0.026652784131438158 -0.02039835210322551 0 -0.027548121069828263 -0.020362844365579769 0 -0.026516974924175131 -0.020293050888451174 0 -0.026639007425463421 -0.020052565784953135 0 -0.026734106160430527 -0.021668089357429719 0 -0.026266834136627823 -0.020947688857957374 0 -0.02589352930858738 -0.021878447125624399 0 -0.026516974924175131 -0.020293050888451174 0 -0.026266834136627823 -0.020947688857957374 0 -0.026026866753633696 -0.021117187382317618 0 -0.026266834136627823 -0.020947688857957374 0 -0.026026866753633696 -0.021117187382317618 0 -0.02589352930858738 -0.021878447125624399 0 -0.026734106160430527 -0.021668089357429719 0 -0.02589352930858738 -0.021878447125624399 0 -0.025522967487775782 -0.023183040103938943 0 -0.026734106160430527 -0.021668089357429719 0 -0.025522967487775782 -0.023183040103938943 0 -0.025542948264974115 -0.02489623062203291 0 -0.023165524615194322 -0.024734927167811029 0 -0.023549068190289974 -0.02529022032203506 0 -0.02589352930858738 -0.021878447125624399 0 -0.025522967487775782 -0.023183040103938943 0 -0.024745569752845226 -0.022678872272830313 0 -0.025522967487775782 -0.023183040103938943 0 -0.025542948264974115 -0.02489623062203291 0 -0.024388169197196941 -0.024859756046230176 0 -0.025542948264974115 -0.02489623062203291 0 -0.024388169197196941 -0.024859756046230176 0 -0.02421964121826977 -0.025156224381027902 0 -0.025522967487775782 -0.023183040103938943 0 -0.024388169197196941 -0.024859756046230176 0 -0.024745569752845226 -0.022678872272830313 0 -0.024388169197196941 -0.024859756046230176 0 -0.024745569752845226 -0.022678872272830313 0 -0.023139651065628413 -0.023488844702154076 0 -0.023688033594561824 -0.021353552651687369 0 -0.023139651065628413 -0.023488844702154076 0 -0.021994667242498881 -0.022561252415590229 0 -0.023688033594561824 -0.021353552651687369 0 -0.024745569752845226 -0.022678872272830313 0 -0.023139651065628413 -0.023488844702154076 0 -0.024855179841714092 -0.026412586461577691 0 -0.025730568715003309 -0.026490635658360302 0 -0.024592882250103594 -0.025527301416682375 0 -0.02458658409364816 -0.025067462303087994 0 -0.023638664884614694 -0.024739452520657311 0 -0.024388169197196941 -0.024859756046230176 0 -0.024855179841714092 -0.026412586461577691 0 -0.024592882250103594 -0.025527301416682375 0 -0.026600014051164918 -0.026911450223864646 0 -0.025730568715003309 -0.026490635658360302 0 -0.025680221397000561 -0.027140801172571442 0 -0.024855179841714092 -0.026412586461577691 0 -0.025730568715003309 -0.026490635658360302 0 -0.025680221397000561 -0.027140801172571442 0 -0.023638664884614694 -0.024739452520657311 0 -0.028273080955173314 -0.022644840376296053 0 -0.025730568715003309 -0.026490635658360302 0 -0.025258867031454278 -0.024925466784983728 0 -0.024592882250103594 -0.025527301416682375 0 -0.026737411504515887 -0.027184717929744966 0 -0.025730568715003309 -0.026490635658360302 0 -0.025258867031454278 -0.024925466784983728 0 -0.025258867031454278 -0.024925466784983728 0 -0.024592882250103594 -0.025527301416682375 0 -0.024185085012186355 -0.024991467683832168 0 -0.024592882250103594 -0.025527301416682375 0 -0.024185085012186355 -0.024991467683832168 0 -0.02421964121826977 -0.025156224381027902 0 -0.026458708260482255 -0.027235316646085164 0 -0.024858805006101034 -0.026727584569834106 0 -0.025258867031454278 -0.024925466784983728 0 -0.024185085012186355 -0.024991467683832168 0 -0.023592802167900453 -0.024387655326508779 0 -0.024185085012186355 -0.024991467683832168 0 -0.023513331390550927 -0.024828170912303663 0 -0.023592802167900453 -0.024387655326508779 0 -0.025542948264974115 -0.02489623062203291 0 -0.023513331390550927 -0.024828170912303663 0 -0.02421964121826977 -0.025156224381027902 0 -0.024185085012186355 -0.024991467683832168 0 -0.023513331390550927 -0.024828170912303663 0 -0.02421964121826977 -0.025156224381027902 0 -0.024388169197196941 -0.024859756046230176 0 -0.024592882250103594 -0.025527301416682375 0 -0.02421964121826977 -0.025156224381027902 0 -0.021579788529766563 -0.025985434288376637 0 -0.023513331390550927 -0.024828170912303663 0 -0.021288159892913404 -0.025092280367848774 0 -0.023549068190289974 -0.02529022032203506 0 -0.023626349517316361 -0.024757767362859125 0 -0.023513331390550927 -0.024828170912303663 0 -0.022309748127839441 -0.024284746420269523 0 -0.021288159892913404 -0.025092280367848774 0 -0.023513331390550927 -0.024828170912303663 0 -0.022309748127839441 -0.024284746420269523 0 -0.023018462806373596 -0.024673419344913131 0 -0.022309748127839441 -0.024284746420269523 0 -0.023018462806373596 -0.024673419344913131 0 -0.02267005431407542 -0.024956900187978491 0 -0.023018462806373596 -0.024673419344913131 0 -0.022940458891742052 -0.025075577788962581 0 -0.02267005431407542 -0.024956900187978491 0 -0.0231897014004501 -0.025552182568074015 0 -0.025367071712049698 -0.02643506018345498 0 -0.022591469441872264 -0.024731496599304289 0 -0.022940458891742052 -0.025075577788962581 0 -0.0231897014004501 -0.025552182568074015 0 -0.022621012821123852 -0.024983012957848865 0 -0.02478376934696554 -0.030743199780723211 0 -0.023727425505864406 -0.030388709341743349 0 -0.023018462806373596 -0.024673419344913131 0 -0.022940458891742052 -0.025075577788962581 0 -0.0231897014004501 -0.025552182568074015 0 -0.0231897014004501 -0.025552182568074015 0 -0.022621012821123852 -0.024983012957848865 0 -0.022591469441872264 -0.024731496599304289 0 -0.02334882787831314 -0.025679952197541506 0 -0.024858805006101034 -0.026727584569834106 0 -0.0231897014004501 -0.025552182568074015 0 -0.025367071712049698 -0.02643506018345498 0 -0.026017040856732107 -0.029117887922191946 0 -0.023513331390550927 -0.024828170912303663 0 -0.023018462806373596 -0.024673419344913131 0 -0.023592802167900453 -0.024387655326508779 0 -0.023018462806373596 -0.024673419344913131 0 -0.0231897014004501 -0.025552182568074015 0 -0.023592802167900453 -0.024387655326508779 0 -0.027853578564347885 -0.029577637449994337 0 -0.026017040856732107 -0.029117887922191946 0 -0.027562779382750563 -0.029223302053153107 0 -0.02478376934696554 -0.030743199780723211 0 -0.02692624490959063 -0.031397102017038159 0 -0.02457183120807074 -0.035126935701691099 0 -0.026784118800214481 -0.033802761220645287 0 -0.02587463166534705 -0.034086892558019007 0 -0.025367071712049698 -0.02643506018345498 0 -0.026017040856732107 -0.029117887922191946 0 -0.027562779382750563 -0.029223302053153107 0 -0.026964354247057711 -0.03302847500339072 0 -0.026784118800214481 -0.033802761220645287 0 -0.026751960533062256 -0.033521243713772624 0 -0.026943914642606048 -0.031133356618243943 0 -0.027853578564347885 -0.029577637449994337 0 -0.027562779382750563 -0.029223302053153107 0 -0.015436558970006758 -0.023742273173702002 0 -0.017928710134271133 -0.023285434456291165 0 -0.016506806494271123 -0.02189101856883293 0 -0.015093883859084688 -0.021957011035211717 0 -0.013042495990939254 -0.022186802933402524 0 -0.015436558970006758 -0.023742273173702002 0 -0.016506806494271123 -0.02189101856883293 0 -0.01372188185863837 -0.021958563841478648 0 -0.015609967039421994 -0.025842391657230051 0 -0.015436558970006758 -0.023742273173702002 0 -0.012909092058382549 -0.024934246900902901 0 -0.015609967039421994 -0.025842391657230051 0 -0.015436558970006758 -0.023742273173702002 0 -0.018195568921555418 -0.025063109922253843 0 -0.015436558970006758 -0.023742273173702002 0 -0.018195568921555418 -0.025063109922253843 0 -0.017928710134271133 -0.023285434456291165 0 -0.019769614809259782 -0.025872189546931462 0 -0.018195568921555418 -0.025063109922253843 0 -0.019904861203047193 -0.02435355767973588 0 -0.018195568921555418 -0.025063109922253843 0 -0.019904861203047193 -0.02435355767973588 0 -0.017928710134271133 -0.023285434456291165 0 -0.019769614809259782 -0.025872189546931462 0 -0.021288159892913404 -0.025092280367848774 0 -0.019904861203047193 -0.02435355767973588 0 -0.019769614809259782 -0.025872189546931462 0 -0.021579788529766563 -0.025985434288376637 0 -0.021288159892913404 -0.025092280367848774 0 -0.022309748127839441 -0.024284746420269523 0 -0.019904861203047193 -0.02435355767973588 0 -0.019494740613359159 -0.021762760808724118 0 -0.022731347825457209 -0.024395472353350989 0 -0.019434438381406217 -0.023178368571570452 0 -0.022309748127839441 -0.024284746420269523 0 -0.021288159892913404 -0.025092280367848774 0 -0.019904861203047193 -0.02435355767973588 0 -0.019904861203047193 -0.02435355767973588 0 -0.017928710134271133 -0.023285434456291165 0 -0.019494740613359159 -0.021762760808724118 0 -0.017928710134271133 -0.023285434456291165 0 -0.019494740613359159 -0.021762760808724118 0 -0.016506806494271123 -0.02189101856883293 0 -0.019434438381406217 -0.023178368571570452 0 -0.015093883859084688 -0.021957011035211717 0 -0.016451100168306965 -0.022024778891671714 0 -0.016032971043197584 -0.021767456939627786 0 -0.014292392872145824 -0.022281052627963486 0 -0.019434438381406217 -0.023178368571570452 0 -0.019251158253900807 -0.023384125649270584 0 -0.022438308236454676 -0.025226420008228799 0 -0.022545641700566745 -0.025065242809903944 0 -0.022062239815011105 -0.025019576947478306 0 -0.022309748127839441 -0.024284746420269523 0 -0.022573926064909999 -0.025115568948635234 0 -0.02267005431407542 -0.024956900187978491 0 -0.022438308236454676 -0.025226420008228799 0 -0.02267005431407542 -0.024956900187978491 0 -0.022545641700566745 -0.025065242809903944 0 -0.022573926064909999 -0.025115568948635234 0 -0.022438308236454676 -0.025226420008228799 0 -0.02267005431407542 -0.024956900187978491 0 -0.02267005431407542 -0.024956900187978491 0 -0.022675209146758399 -0.025040275392591304 0 -0.022545641700566745 -0.025065242809903944 0 -0.022940458891742052 -0.025075577788962581 0 -0.02267005431407542 -0.024956900187978491 0 -0.022675209146758399 -0.025040275392591304 0 -0.022940458891742052 -0.025075577788962581 0 -0.022675209146758399 -0.025040275392591304 0 -0.022621012821123852 -0.024983012957848865 0 -0.022675209146758399 -0.025040275392591304 0 -0.022545641700566745 -0.025065242809903944 0 -0.022621012821123852 -0.024983012957848865 0 -0.022545641700566745 -0.025065242809903944 0 -0.022621012821123852 -0.024983012957848865 0 -0.022282269683942493 -0.024872968699940309 0 -0.022621012821123852 -0.024983012957848865 0 -0.022282269683942493 -0.024872968699940309 0 -0.022109028667260763 -0.024323033038542035 0 -0.022545641700566745 -0.025065242809903944 0 -0.022062239815011105 -0.025019576947478306 0 -0.022282269683942493 -0.024872968699940309 0 -0.022062239815011105 -0.025019576947478306 0 -0.022282269683942493 -0.024872968699940309 0 -0.021739913157629537 -0.024724547105321956 0 -0.022062239815011105 -0.025019576947478306 0 -0.021037436164123714 -0.025202671888879893 0 -0.021739913157629537 -0.024724547105321956 0 -0.022438308236454676 -0.025226420008228799 0 -0.022062239815011105 -0.025019576947478306 0 -0.021037436164123714 -0.025202671888879893 0 -0.019251158253900807 -0.023384125649270584 0 -0.017424004339942765 -0.022836103303235399 0 -0.016032971043197584 -0.021767456939627786 0 -0.013935045689892544 -0.020580706626545198 0 -0.014292392872145824 -0.022281052627963486 0 -0.014292392872145824 -0.022281052627963486 0 -0.012362400627297184 -0.020932280599999731 0 -0.01227800214520694 -0.022387266497118669 0 -0.013935045689892544 -0.020580706626545198 0 -0.014292392872145824 -0.022281052627963486 0 -0.012362400627297184 -0.020932280599999731 0 -0.017424004339942765 -0.022836103303235399 0 -0.015704576238608312 -0.022312972364938771 0 -0.013935045689892544 -0.020580706626545198 0 -0.012362400627297184 -0.020932280599999731 0 -0.011967343309568402 -0.019488629262718958 0 -0.012362400627297184 -0.020932280599999731 0 -0.011251804254314891 -0.020190637617279069 0 -0.011967343309568402 -0.019488629262718958 0 -0.012362400627297184 -0.020932280599999731 0 -0.011251804254314891 -0.020190637617279069 0 -0.010870785707373227 -0.021034831886212 0 -0.011251804254314891 -0.020190637617279069 0 -0.010223003807752236 -0.020175518187890304 0 -0.010870785707373227 -0.021034831886212 0 -0.010870785707373227 -0.021034831886212 0 -0.01227800214520694 -0.022387266497118669 0 -0.010727904728675557 -0.022290755433427168 0 -0.012362400627297184 -0.020932280599999731 0 -0.010870785707373227 -0.021034831886212 0 -0.01227800214520694 -0.022387266497118669 0 -0.0075798988385088265 -0.02094425260447997 0 -0.0081570457020428457 -0.021591446736075486 0 -0.0072640404453850936 -0.02155458364160355 0 -0.0075798988385088265 -0.02094425260447997 0 -0.0075115263846222144 -0.02018439783044184 0 -0.0083439490199191373 -0.020585682874241833 0 -0.0083439490199191373 -0.020585682874241833 0 -0.0093090608494895838 -0.020971399226302281 0 -0.0081570457020428457 -0.021591446736075486 0 -0.0075798988385088265 -0.02094425260447997 0 -0.0083439490199191373 -0.020585682874241833 0 -0.0081570457020428457 -0.021591446736075486 0 -0.010223003807752236 -0.020175518187890304 0 -0.010870785707373227 -0.021034831886212 0 -0.0093090608494895838 -0.020971399226302281 0 -0.0083439490199191373 -0.020585682874241833 0 -0.0093090608494895838 -0.020971399226302281 0 -0.0092505072855220954 -0.019953241806160205 0 -0.010223003807752236 -0.020175518187890304 0 -0.0093090608494895838 -0.020971399226302281 0 -0.0092505072855220954 -0.019953241806160205 0 -0.010870785707373227 -0.021034831886212 0 -0.0096476283547314162 -0.021744846846022441 0 -0.010727904728675557 -0.022290755433427168 0 -0.010870785707373227 -0.021034831886212 0 -0.0093090608494895838 -0.020971399226302281 0 -0.0089964693924239145 -0.022619740726764374 0 -0.0093090608494895838 -0.020971399226302281 0 -0.0089964693924239145 -0.022619740726764374 0 -0.0081570457020428457 -0.021591446736075486 0 -0.010760749841292164 -0.021092624001293699 0 -0.0093121356551148296 -0.02216954187122195 0 -0.0089964693924239145 -0.022619740726764374 0 -0.0081570457020428457 -0.021591446736075486 0 -0.0073968296743279795 -0.022461007576717273 0 -0.0081570457020428457 -0.021591446736075486 0 -0.0073968296743279795 -0.022461007576717273 0 -0.0072640404453850936 -0.02155458364160355 0 -0.0089964693924239145 -0.022619740726764374 0 -0.0073968296743279795 -0.022461007576717273 0 -0.0072124770609643066 -0.023896128182159474 0 -0.0096476283547314162 -0.021744846846022441 0 -0.0095519444333673036 -0.02298351036694855 0 -0.0072762713214111988 -0.023175320411683683 0 -0.0093121356551148296 -0.02216954187122195 0 -0.0072208621448429846 -0.023564558480501378 0 -0.0095519444333673036 -0.02298351036694855 0 -0.010145161934419221 -0.02441844960342298 0 -0.010727904728675557 -0.022290755433427168 0 -0.0096476283547314162 -0.021744846846022441 0 -0.0095519444333673036 -0.02298351036694855 0 -0.010727904728675557 -0.022290755433427168 0 -0.0072762713214111988 -0.023175320411683683 0 -0.007746422258847324 -0.025825676994935671 0 -0.0064958657528351813 -0.024940476204839683 0 -0.010145161934419221 -0.02441844960342298 0 -0.0072762713214111988 -0.023175320411683683 0 -0.007746422258847324 -0.025825676994935671 0 -0.0095519444333673036 -0.02298351036694855 0 -0.010145161934419221 -0.02441844960342298 0 -0.0072762713214111988 -0.023175320411683683 0 -0.015436558970006758 -0.023742273173702002 0 -0.012467777754823032 -0.023253596715283469 0 -0.01372188185863837 -0.021958563841478648 0 -0.013042495990939254 -0.022186802933402524 0 -0.010855126543173646 -0.022304724706168198 0 -0.012467777754823032 -0.023253596715283469 0 -0.01372188185863837 -0.021958563841478648 0 -0.010727904728675557 -0.022290755433427168 0 -0.010145161934419221 -0.02441844960342298 0 -0.012467777754823032 -0.023253596715283469 0 -0.010727904728675557 -0.022290755433427168 0 -0.010145161934419221 -0.02441844960342298 0 -0.012467777754823032 -0.023253596715283469 0 -0.012909092058382549 -0.024934246900902901 0 -0.015436558970006758 -0.023742273173702002 0 -0.012467777754823032 -0.023253596715283469 0 -0.012909092058382549 -0.024934246900902901 0 -0.015609967039421994 -0.025842391657230051 0 -0.012909092058382549 -0.024934246900902901 0 -0.013816316941003168 -0.026771765010178035 0 -0.013816316941003168 -0.026771765010178035 0 -0.011220350600081853 -0.026971325015780593 0 -0.013333871192330577 -0.028287765017432083 0 -0.015470551982417155 -0.027456556442156103 0 -0.013816316941003168 -0.026771765010178035 0 -0.013333871192330577 -0.028287765017432083 0 -0.012909092058382549 -0.024934246900902901 0 -0.013816316941003168 -0.026771765010178035 0 -0.011220350600081853 -0.026971325015780593 0 -0.010145161934419221 -0.02441844960342298 0 -0.012909092058382549 -0.024934246900902901 0 -0.011220350600081853 -0.026971325015780593 0 -0.010145161934419221 -0.02441844960342298 0 -0.011220350600081853 -0.026971325015780593 0 -0.007746422258847324 -0.025825676994935671 0 -0.007746422258847324 -0.025825676994935671 0 -0.0083131943719155395 -0.029298130796367023 0 -0.0045900559280588468 -0.027779966283141819 0 -0.011034086721916142 -0.027063924093334302 0 -0.008867635574383961 -0.028389645093970576 0 -0.011220350600081853 -0.026971325015780593 0 -0.007746422258847324 -0.025825676994935671 0 -0.0083131943719155395 -0.029298130796367023 0 -0.011220350600081853 -0.026971325015780593 0 -0.0094575948396926658 -0.027526588323620201 0 -0.0110709222020479 -0.029059071666117757 0 -0.008867635574383961 -0.028389645093970576 0 -0.0061299934820816977 -0.02970844313081733 0 -0.0094575948396926658 -0.027526588323620201 0 -0.008825788700226881 -0.0292689928706624 0 -0.0071116276148565716 -0.02834174131922694 0 -0.0094575948396926658 -0.027526588323620201 0 -0.008825788700226881 -0.0292689928706624 0 -0.0110709222020479 -0.029059071666117757 0 -0.011220350600081853 -0.026971325015780593 0 -0.0110709222020479 -0.029059071666117757 0 -0.013333871192330577 -0.028287765017432083 0 -0.013451806086219847 -0.030563011482406918 0 -0.0110709222020479 -0.029059071666117757 0 -0.013333871192330577 -0.028287765017432083 0 -0.013451806086219847 -0.030563011482406918 0 -0.015550968691656938 -0.02917652325187085 0 -0.013333871192330577 -0.028287765017432083 0 -0.00015461406790791526 -0.02911075595785825 0 -0.00067995426996762766 -0.031051482156082267 0 -0.0023286868587431165 -0.02995364181029465 0 -0.00015461406790791526 -0.02911075595785825 0 -0.0023286868587431165 -0.02995364181029465 0 -0.0020315857549220114 -0.028164437697186823 0 -0.00015461406790791526 -0.02911075595785825 0 0.0012299651721229656 -0.031028212782028435 0 0.0015926393245533513 -0.029857722418103506 0 -0.00015461406790791526 -0.02911075595785825 0 -0.00067995426996762766 -0.031051482156082267 0 0.0012299651721229656 -0.031028212782028435 0 -0.0023024055408579591 -0.032130984097535772 0 -0.00067995426996762766 -0.031051482156082267 0 -0.0023286868587431165 -0.02995364181029465 0 -0.0034761821409449905 -0.030768655598589351 0 -0.0061299934820816977 -0.02970844313081733 0 -0.0023024055408579591 -0.032130984097535772 0 -0.0051685962355232677 -0.031088606589533749 0 -0.0023286868587431165 -0.02995364181029465 0 -0.0083131943719155395 -0.029298130796367023 0 -0.0051685962355232677 -0.031088606589533749 0 -0.0045900559280588468 -0.027779966283141819 0 -0.0023286868587431165 -0.02995364181029465 0 -0.0045900559280588468 -0.027779966283141819 0 -0.0020315857549220114 -0.028164437697186823 0 -0.0051685962355232677 -0.031088606589533749 0 -0.0023286868587431165 -0.02995364181029465 0 -0.0045900559280588468 -0.027779966283141819 0 -0.0045900559280588468 -0.027779966283141819 0 -0.0028393417680869937 -0.026886490800301741 0 -0.0020315857549220114 -0.028164437697186823 0 -0.007746422258847324 -0.025825676994935671 0 -0.0045900559280588468 -0.027779966283141819 0 -0.0059917865242905951 -0.025781324720317272 0 -0.0045900559280588468 -0.027779966283141819 0 -0.0059917865242905951 -0.025781324720317272 0 -0.0051267215605717686 -0.025061992406389278 0 -0.0059917865242905951 -0.025781324720317272 0 -0.0064958657528351813 -0.024940476204839683 0 -0.0051267215605717686 -0.025061992406389278 0 -0.007746422258847324 -0.025825676994935671 0 -0.0059917865242905951 -0.025781324720317272 0 -0.0064958657528351813 -0.024940476204839683 0 -0.0045900559280588468 -0.027779966283141819 0 -0.0028393417680869937 -0.026886490800301741 0 -0.0031505862413325775 -0.025533381272224487 0 -0.0045931029447374505 -0.02771905529988896 0 -0.0041149534459575827 -0.02534988140614583 0 -0.0045900559280588468 -0.027779966283141819 0 -0.0051267215605717686 -0.025061992406389278 0 -0.0050351151036391031 -0.02491400342109884 0 -0.0028393417680869937 -0.026886490800301741 0 -0.0031505862413325775 -0.025533381272224487 0 -0.0027374893472926647 -0.026096641419552223 0 -0.0031505862413325775 -0.025533381272224487 0 -0.0027910342544077192 -0.025681176153842848 0 -0.0027374893472926647 -0.026096641419552223 0 -0.0027910342544077192 -0.025681176153842848 0 -0.0027374893472926647 -0.026096641419552223 0 -0.0020955925505051617 -0.025599591974562647 0 -0.0027374893472926647 -0.026096641419552223 0 -0.001179522212439975 -0.026885591834641481 0 -0.0020955925505051617 -0.025599591974562647 0 -0.001179522212439975 -0.026885591834641481 0 -0.00040677353016025432 -0.02549273274496227 0 -0.0020955925505051617 -0.025599591974562647 0 -0.0028393417680869937 -0.026886490800301741 0 -0.0027374893472926647 -0.026096641419552223 0 -0.001179522212439975 -0.026885591834641481 0 -0.00015461406790791526 -0.02911075595785825 0 -0.001179522212439975 -0.026885591834641481 0 -0.0020315857549220114 -0.028164437697186823 0 -0.0028393417680869937 -0.026886490800301741 0 -0.001179522212439975 -0.026885591834641481 0 -0.0020315857549220114 -0.028164437697186823 0 -0.00015461406790791526 -0.02911075595785825 0 -0.001179522212439975 -0.026885591834641481 0 0.0016299307598161468 -0.027389005554794572 0 -0.00015461406790791526 -0.02911075595785825 0 0.0015926393245533513 -0.029857722418103506 0 0.0016299307598161468 -0.027389005554794572 0 -0.001179522212439975 -0.026885591834641481 0 -0.00040677353016025432 -0.02549273274496227 0 0.0016299307598161468 -0.027389005554794572 0 0.0010157342276776588 -0.024521686891461031 0 -0.00040677353016025432 -0.02549273274496227 0 0.0016299307598161468 -0.027389005554794572 0 0.010709861321145056 -0.034728074602443364 0 0.0089883348498401034 -0.034817911783719568 0 0.009817813498219077 -0.034368129596589171 0 0.0061962961192869427 -0.029703114443552857 0 0.0020110507142798956 -0.028880624951827277 0 0.0010157342276776588 -0.024521686891461031 0 -0.00040677353016025432 -0.02549273274496227 0 -0.0017200459721261987 -0.024607340152492101 0 -0.00040677353016025432 -0.02549273274496227 0 -0.0020955925505051617 -0.025599591974562647 0 -0.0017200459721261987 -0.024607340152492101 0 -0.0020955925505051617 -0.025599591974562647 0 -0.0020709525008866872 -0.025141825981160885 0 -0.0024455843468076484 -0.025153793812749677 0 1.0690869436014097e-05 -0.025753258813450097 0 0.0020110507142798956 -0.028880624951827277 0 -0.0021936574179974412 -0.025141725774835026 0 -0.0022772076466995644 -0.024869236410378491 0 -0.0024455843468076484 -0.025153793812749677 0 0.0020110507142798956 -0.028880624951827277 0 -0.0011244580161165428 -0.027850105272628309 0 0.009817813498219077 -0.034368129596589171 0 0.0094418078747320403 -0.033903808603628752 0 0.010128516995791998 -0.034020077436772794 0 0.0089883348498401034 -0.034817911783719568 0 0.009817813498219077 -0.034368129596589171 0 0.0094418078747320403 -0.033903808603628752 0 0.0020110507142798956 -0.028880624951827277 0 0.0037417167870842237 -0.029362299136673712 0 -0.0022772076466995644 -0.024869236410378491 0 -0.002109688095046817 -0.024725224119229727 0 -0.0023770430809803762 -0.024644263091819364 0 -0.0021936574179974412 -0.025141725774835026 0 -0.0022772076466995644 -0.024869236410378491 0 -0.002109688095046817 -0.024725224119229727 0 -0.002109688095046817 -0.024725224119229727 0 -0.0023770430809803762 -0.024644263091819364 0 -0.0022088532304191818 -0.024611046642243103 0 0.0094418078747320403 -0.033903808603628752 0 0.0098965905826981313 -0.033536757521102779 0 0.010128516995791998 -0.034020077436772794 0 0.0094418078747320403 -0.033903808603628752 0 0.0098965905826981313 -0.033536757521102779 0 0.0098057572956890219 -0.032902408716259136 0 0.010322477955116769 -0.033664811233858644 0 0.010750782996400582 -0.033797309045681047 0 0.010497653283012994 -0.0333210865466246 0 0.010709861321145056 -0.034728074602443364 0 0.010750782996400582 -0.033797309045681047 0 0.010128516995791998 -0.034020077436772794 0 0.0098965905826981313 -0.033536757521102779 0 0.010322477955116769 -0.033664811233858644 0 0.010128516995791998 -0.034020077436772794 0 0.010322477955116769 -0.033664811233858644 0 0.010750782996400582 -0.033797309045681047 0 0.010128516995791998 -0.034020077436772794 0 0.010709861321145056 -0.034728074602443364 0 0.009817813498219077 -0.034368129596589171 0 0.010128516995791998 -0.034020077436772794 0 -0.0072762713214111988 -0.023175320411683683 0 -0.0064958657528351813 -0.024940476204839683 0 -0.0051267215605717686 -0.025061992406389278 0 -0.0072208621448429846 -0.023564558480501378 0 -0.0053036079562680371 -0.024972035754490883 0 -0.0072124770609643066 -0.023896128182159474 0 -0.0051267215605717686 -0.025061992406389278 0 -0.0057223519354096522 -0.023969923733899154 0 -0.0050351151036391031 -0.02491400342109884 0 -0.0057223519354096522 -0.023969923733899154 0 -0.0051425277380483568 -0.023127642461954142 0 -0.0031505862413325775 -0.025533381272224487 0 -0.0026897627117561055 -0.02525774168106663 0 -0.0023770430809803762 -0.024644263091819364 0 -0.0041149534459575827 -0.02534988140614583 0 -0.0037331286808612732 -0.024008957735385601 0 -0.0026897627117561055 -0.02525774168106663 0 -0.0024455843468076484 -0.025153793812749677 0 -0.0023770430809803762 -0.024644263091819364 0 -0.0031505862413325775 -0.025533381272224487 0 -0.0027910342544077192 -0.025681176153842848 0 -0.0026897627117561055 -0.02525774168106663 0 -0.0051267215605717686 -0.025061992406389278 0 -0.0050351151036391031 -0.02491400342109884 0 -0.0057223519354096522 -0.023969923733899154 0 -0.0027910342544077192 -0.025681176153842848 0 -0.0020955925505051617 -0.025599591974562647 0 -0.0025662511875595585 -0.025489375596756014 0 -0.0027910342544077192 -0.025681176153842848 0 -0.0026897627117561055 -0.02525774168106663 0 -0.0025662511875595585 -0.025489375596756014 0 -0.0020955925505051617 -0.025599591974562647 0 -0.0025662511875595585 -0.025489375596756014 0 -0.0024455843468076484 -0.025153793812749677 0 -0.0026897627117561055 -0.02525774168106663 0 -0.0025662511875595585 -0.025489375596756014 0 -0.0024455843468076484 -0.025153793812749677 0 -0.0022772076466995644 -0.024869236410378491 0 -0.0024455843468076484 -0.025153793812749677 0 -0.0023770430809803762 -0.024644263091819364 0 -0.0051425277380483568 -0.023127642461954142 0 -0.0061823795566385365 -0.022882926172964928 0 -0.0056945372173304839 -0.022064211136108302 0 -0.0057223519354096522 -0.023969923733899154 0 -0.0051425277380483568 -0.023127642461954142 0 -0.0061823795566385365 -0.022882926172964928 0 -0.0073968296743279795 -0.022461007576717273 0 -0.0072124770609643066 -0.023896128182159474 0 -0.0061823795566385365 -0.022882926172964928 0 -0.0072124770609643066 -0.023896128182159474 0 -0.0057223519354096522 -0.023969923733899154 0 -0.0061823795566385365 -0.022882926172964928 0 -0.0072640404453850936 -0.02155458364160355 0 -0.0064707440676544424 -0.021867730368435603 0 -0.0067627597480067964 -0.020883809597173359 0 -0.0073968296743279795 -0.022461007576717273 0 -0.0072640404453850936 -0.02155458364160355 0 -0.0064707440676544424 -0.021867730368435603 0 -0.0073968296743279795 -0.022461007576717273 0 -0.0061823795566385365 -0.022882926172964928 0 -0.0064707440676544424 -0.021867730368435603 0 -0.0061823795566385365 -0.022882926172964928 0 -0.0064707440676544424 -0.021867730368435603 0 -0.0056945372173304839 -0.022064211136108302 0 -0.0051425277380483568 -0.023127642461954142 0 -0.0056945372173304839 -0.022064211136108302 0 -0.0049032584897913513 -0.021229712267737882 0 -0.0023770430809803762 -0.024644263091819364 0 -0.002114682441310124 -0.024539718094860684 0 -0.0022088532304191818 -0.024611046642243103 0 -0.0037331286808612732 -0.024008957735385601 0 -0.0039142516908795694 -0.022401228735800659 0 -0.0064707440676544424 -0.021867730368435603 0 -0.0056945372173304839 -0.022064211136108302 0 -0.0058629719713531817 -0.021179142234368464 0 -0.0056945372173304839 -0.022064211136108302 0 -0.0049032584897913513 -0.021229712267737882 0 -0.0058629719713531817 -0.021179142234368464 0 -0.0049032584897913513 -0.021229712267737882 0 -0.0054288200637749775 -0.02037066476220508 0 -0.004598472583143825 -0.01940020398110481 0 -0.0049032584897913513 -0.021229712267737882 0 -0.0054288200637749775 -0.02037066476220508 0 -0.0058629719713531817 -0.021179142234368464 0 -0.0054288200637749775 -0.02037066476220508 0 -0.0060305248119131337 -0.020371572608758857 0 -0.0058629719713531817 -0.021179142234368464 0 -0.0064707440676544424 -0.021867730368435603 0 -0.0058629719713531817 -0.021179142234368464 0 -0.0067627597480067964 -0.020883809597173359 0 -0.0060305248119131337 -0.020371572608758857 0 -0.0058629719713531817 -0.021179142234368464 0 -0.0067627597480067964 -0.020883809597173359 0 -0.0060305248119131337 -0.020371572608758857 0 -0.0067627597480067964 -0.020883809597173359 0 -0.0067197204156706665 -0.019918521785480724 0 -0.0075798988385088265 -0.02094425260447997 0 -0.0075115263846222144 -0.02018439783044184 0 -0.0067627597480067964 -0.020883809597173359 0 -0.0075115263846222144 -0.02018439783044184 0 -0.0067627597480067964 -0.020883809597173359 0 -0.0067197204156706665 -0.019918521785480724 0 -0.0075798988385088265 -0.02094425260447997 0 -0.0072640404453850936 -0.02155458364160355 0 -0.0067627597480067964 -0.020883809597173359 0 0.010501593003309365 -0.032905348340622496 0 0.010497653283012994 -0.0333210865466246 0 0.010018299803090755 -0.033162930204569965 0 0.010501593003309365 -0.032905348340622496 0 0.010883882621046084 -0.03290948108485172 0 0.010497653283012994 -0.0333210865466246 0 0.010883882621046084 -0.03290948108485172 0 0.010497653283012994 -0.0333210865466246 0 0.011116752946185995 -0.033242742229892625 0 0.010750782996400582 -0.033797309045681047 0 0.010497653283012994 -0.0333210865466246 0 0.011116752946185995 -0.033242742229892625 0 0.0098965905826981313 -0.033536757521102779 0 0.010322477955116769 -0.033664811233858644 0 0.010497653283012994 -0.0333210865466246 0 -0.002114682441310124 -0.024539718094860684 0 -0.0022088532304191818 -0.024611046642243103 0 -0.002111626183820554 -0.024564956230206346 0 0.0089750403389235907 -0.033635285558422268 0 0.0073463690552463953 -0.030369178448309019 0 0.0098965905826981313 -0.033536757521102779 0 0.010497653283012994 -0.0333210865466246 0 0.010018299803090755 -0.033162930204569965 0 0.0037417167870842237 -0.029362299136673712 0 0.0073463690552463953 -0.030369178448309019 0 -0.0020750817596391856 -0.024593272046172954 0 -0.002111626183820554 -0.024564956230206346 0 -0.0020822027150830431 -0.024554669044233646 0 -0.0020750817596391856 -0.024593272046172954 0 -0.0022088532304191818 -0.024611046642243103 0 -0.002111626183820554 -0.024564956230206346 0 -0.002109688095046817 -0.024725224119229727 0 -0.0020750817596391856 -0.024593272046172954 0 -0.0022088532304191818 -0.024611046642243103 0 -0.002114682441310124 -0.024539718094860684 0 -0.0020822027150830431 -0.024554669044233646 0 -0.0020320643679306253 -0.024574920911403838 0 -0.0039142516908795694 -0.022401228735800659 0 0.00071847658582362779 -0.024781217282258738 0 0.0073463690552463953 -0.030369178448309019 0 0.0107487995861749 -0.032480601626869547 0 0.0073463690552463953 -0.030369178448309019 0 0.0043454591526661361 -0.028474368125397758 0 0.010665364019640571 -0.032035149027593836 0 0.010690449519032948 -0.031932855240007565 0 0.010791434309702067 -0.031935780069700888 0 -0.002114682441310124 -0.024539718094860684 0 -0.002111626183820554 -0.024564956230206346 0 -0.0020822027150830431 -0.024554669044233646 0 0.010501593003309365 -0.032905348340622496 0 0.010018299803090755 -0.033162930204569965 0 0.010546139909764395 -0.032397942194615635 0 0.010546139909764395 -0.032397942194615635 0 0.010747478859739321 -0.032666140118356127 0 0.011062368664566304 -0.032463358791054268 0 0.010501593003309365 -0.032905348340622496 0 0.010546139909764395 -0.032397942194615635 0 0.010747478859739321 -0.032666140118356127 0 0.010501593003309365 -0.032905348340622496 0 0.010883882621046084 -0.03290948108485172 0 0.010747478859739321 -0.032666140118356127 0 0.010883882621046084 -0.03290948108485172 0 0.010747478859739321 -0.032666140118356127 0 0.011062368664566304 -0.032463358791054268 0 0.010883882621046084 -0.03290948108485172 0 0.011062368664566304 -0.032463358791054268 0 0.011408293558780569 -0.032736684050270311 0 0.010546139909764395 -0.032397942194615635 0 0.011062368664566304 -0.032463358791054268 0 0.011148388826336337 -0.032110067845397459 0 0.011062368664566304 -0.032463358791054268 0 0.011148388826336337 -0.032110067845397459 0 0.01153705675347446 -0.032220568212011767 0 0.010546139909764395 -0.032397942194615635 0 0.011148388826336337 -0.032110067845397459 0 0.011026514666041628 -0.03170055630425591 0 0.0107487995861749 -0.032480601626869547 0 0.010963511558720123 -0.031635529937851459 0 0.011148388826336337 -0.032110067845397459 0 0.011026514666041628 -0.03170055630425591 0 0.011536143655692633 -0.031809189566978091 0 0.0043454591526661361 -0.028474368125397758 0 0.00071847658582362779 -0.024781217282258738 0 0.010791434309702067 -0.031935780069700888 0 0.011026514666041628 -0.03170055630425591 0 0.01063470315810826 -0.031716728858790809 0 0.010690449519032948 -0.031932855240007565 0 0.010791434309702067 -0.031935780069700888 0 0.01063470315810826 -0.031716728858790809 0 0.00071847658582362779 -0.024781217282258738 0 0.0052566128687995088 -0.028811510506136524 0 -0.004598472583143825 -0.01940020398110481 0 -0.0048880957428964217 -0.018141995392846898 0 -0.0055013321402380385 -0.018830924843687261 0 0.00071847658582362779 -0.024781217282258738 0 -0.0026738767505592293 -0.020312372049055005 0 -0.00056234358527397998 -0.021895538302943419 0 -4.6646104191894093e-05 -0.02515253831732471 0 -0.0018077174703629792 -0.027226371533223964 0 0.011026514666041628 -0.03170055630425591 0 0.01063470315810826 -0.031716728858790809 0 0.010837313921022291 -0.030995548253677355 0 0.011026514666041628 -0.03170055630425591 0 0.011384322501921642 -0.031414892819652977 0 0.010837313921022291 -0.030995548253677355 0 0.011026514666041628 -0.03170055630425591 0 0.011384322501921642 -0.031414892819652977 0 0.011536143655692633 -0.031809189566978091 0 0.010837313921022291 -0.030995548253677355 0 0.011622120128423083 -0.031121576291893206 0 0.011802081094289412 -0.030578805892205921 0 0.011384322501921642 -0.031414892819652977 0 0.010837313921022291 -0.030995548253677355 0 0.011622120128423083 -0.031121576291893206 0 -0.0026738767505592293 -0.020312372049055005 0 -0.0053360617531345118 -0.026494819136947134 0 -4.6646104191894093e-05 -0.02515253831732471 0 -0.0018077174703629792 -0.027226371533223964 0 0.00049447523907861636 -0.02845579988541995 0 -0.0018077174703629792 -0.027226371533223964 0 8.6192795176047598e-05 -0.028588645892882257 0 0.00049447523907861636 -0.02845579988541995 0 0.0052566128687995088 -0.028811510506136524 0 0.003362477503040607 -0.034289399111665113 0 -0.0018077174703629792 -0.027226371533223964 0 8.6192795176047598e-05 -0.028588645892882257 0 -0.0029867781177253493 -0.032671592097624984 0 8.6192795176047598e-05 -0.028588645892882257 0 0.00079907510704668337 -0.030311102015784065 0 -0.0029867781177253493 -0.032671592097624984 0 -0.0044330370521890126 -0.026422212501619365 0 -0.0053360617531345118 -0.026494819136947134 0 0.010837313921022291 -0.030995548253677355 0 0.011072742400281315 -0.029885390477233608 0 0.011802081094289412 -0.030578805892205921 0 -0.013289318897150244 -0.047147814585289084 0 -0.013078608775042938 -0.047401670221628091 0 -0.013373655264570228 -0.047611971910544622 0 -0.013078608775042938 -0.047401670221628091 0 -0.013373655264570228 -0.047611971910544622 0 -0.012972512345158697 -0.047905386420337537 0 -0.0089330013035879806 -0.032271509559962101 0 -0.0077794967643189314 -0.031642557110505364 0 -0.0076651735139985711 -0.032281134208989828 0 -0.013289318897150244 -0.047147814585289084 0 -0.013373655264570228 -0.047611971910544622 0 -0.01379739444468618 -0.04745883282068538 0 -0.013373655264570228 -0.047611971910544622 0 -0.01379739444468618 -0.04745883282068538 0 -0.013505684977803113 -0.047857332631524807 0 -0.012485656216996118 -0.040774491954770821 0 -0.0063862654037122575 -0.038680164524014876 0 8.6192795176047598e-05 -0.028588645892882257 0 0.00079907510704668337 -0.030311102015784065 0 0.00049083280236436242 -0.02847195666520462 0 -0.0063862654037122575 -0.038680164524014876 0 -0.0053360617531345118 -0.026494819136947134 0 -0.0053360617531345118 -0.026494819136947134 0 -0.0071210728859036152 -0.024698239057072607 0 -0.005126593396145635 -0.016949932068240608 0 -0.0063640865769279218 -0.01718200856727584 0 -0.0059046000647177905 -0.018075152190028424 0 -0.0048880957428964217 -0.018141995392846898 0 -0.005126593396145635 -0.016949932068240608 0 -0.0059046000647177905 -0.018075152190028424 0 -0.0089330013035879806 -0.032271509559962101 0 -0.0076651735139985711 -0.032281134208989828 0 -0.0088746496740920028 -0.032594641972803116 0 -0.0089330013035879806 -0.032271509559962101 0 -0.0088746496740920028 -0.032594641972803116 0 -0.010110776876032979 -0.032845727643162612 0 -0.013289318897150244 -0.047147814585289084 0 -0.013078608775042938 -0.047401670221628091 0 -0.012902247760013074 -0.046882045481150665 0 -0.0071210728859036152 -0.024698239057072607 0 -0.011492743384011175 -0.029454404994505131 0 -0.0063640865769279218 -0.01718200856727584 0 -0.0069795836826990624 -0.018259131628631409 0 -0.0059046000647177905 -0.018075152190028424 0 -0.0063640865769279218 -0.01718200856727584 0 -0.0069795836826990624 -0.018259131628631409 0 -0.0077030477149526051 -0.017425152373558236 0 -0.012485656216996118 -0.040774491954770821 0 -0.011492743384011175 -0.029454404994505131 0 -0.0069795836826990624 -0.018259131628631409 0 -0.0063521016245363235 -0.018983959062357149 0 -0.0059046000647177905 -0.018075152190028424 0 -0.0069795836826990624 -0.018259131628631409 0 -0.0063521016245363235 -0.018983959062357149 0 -0.0073930246989194681 -0.019276900568604732 0 -0.0048880957428964217 -0.018141995392846898 0 -0.0059046000647177905 -0.018075152190028424 0 -0.0055013321402380385 -0.018830924843687261 0 -0.0063521016245363235 -0.018983959062357149 0 -0.0059046000647177905 -0.018075152190028424 0 -0.0055013321402380385 -0.018830924843687261 0 -0.0054288200637749775 -0.02037066476220508 0 -0.004598472583143825 -0.01940020398110481 0 -0.0057614668711577126 -0.019684159353032742 0 -0.004598472583143825 -0.01940020398110481 0 -0.0055013321402380385 -0.018830924843687261 0 -0.0057614668711577126 -0.019684159353032742 0 -0.0063521016245363235 -0.018983959062357149 0 -0.0055013321402380385 -0.018830924843687261 0 -0.0057614668711577126 -0.019684159353032742 0 -0.0054288200637749775 -0.02037066476220508 0 -0.0060305248119131337 -0.020371572608758857 0 -0.0057614668711577126 -0.019684159353032742 0 -0.0063521016245363235 -0.018983959062357149 0 -0.0073930246989194681 -0.019276900568604732 0 -0.0067197204156706665 -0.019918521785480724 0 -0.0063521016245363235 -0.018983959062357149 0 -0.0057614668711577126 -0.019684159353032742 0 -0.0067197204156706665 -0.019918521785480724 0 -0.0060305248119131337 -0.020371572608758857 0 -0.0057614668711577126 -0.019684159353032742 0 -0.0067197204156706665 -0.019918521785480724 0 -0.0075115263846222144 -0.02018439783044184 0 -0.0073930246989194681 -0.019276900568604732 0 -0.0067197204156706665 -0.019918521785480724 0 -0.0075115263846222144 -0.02018439783044184 0 -0.0073930246989194681 -0.019276900568604732 0 -0.0083064274809884642 -0.01961788556866292 0 -0.0075115263846222144 -0.02018439783044184 0 -0.0083439490199191373 -0.020585682874241833 0 -0.0083064274809884642 -0.01961788556866292 0 -0.0073930246989194681 -0.019276900568604732 0 -0.0083064274809884642 -0.01961788556866292 0 -0.0082268996974558146 -0.018671208994695598 0 -0.0083064274809884642 -0.01961788556866292 0 -0.0090965560643449794 -0.019136649898069329 0 -0.0082268996974558146 -0.018671208994695598 0 -0.0083439490199191373 -0.020585682874241833 0 -0.0083064274809884642 -0.01961788556866292 0 -0.0092505072855220954 -0.019953241806160205 0 -0.0083064274809884642 -0.01961788556866292 0 -0.0092505072855220954 -0.019953241806160205 0 -0.0090965560643449794 -0.019136649898069329 0 -0.010223003807752236 -0.020175518187890304 0 -0.0092505072855220954 -0.019953241806160205 0 -0.0098131440162974714 -0.019425764228673273 0 -0.0098131440162974714 -0.019425764228673273 0 -0.0090965560643449794 -0.019136649898069329 0 -0.0098131134789564214 -0.018371151967809429 0 -0.0092505072855220954 -0.019953241806160205 0 -0.0098131440162974714 -0.019425764228673273 0 -0.0090965560643449794 -0.019136649898069329 0 -0.016969568075890472 -0.023699715209136482 0 -0.017295706726192187 -0.023124875069545164 0 -0.014651948430381973 -0.022688731221534544 0 -0.012950205311364666 -0.01947543157197186 0 -0.011492743384011175 -0.029454404994505131 0 -0.0090965560643449794 -0.019136649898069329 0 -0.0098131134789564214 -0.018371151967809429 0 -0.0082268996974558146 -0.018671208994695598 0 -0.0069795836826990624 -0.018259131628631409 0 -0.0082268996974558146 -0.018671208994695598 0 -0.0077030477149526051 -0.017425152373558236 0 -0.0098131134789564214 -0.018371151967809429 0 -0.0082268996974558146 -0.018671208994695598 0 -0.0077030477149526051 -0.017425152373558236 0 -0.0069795836826990624 -0.018259131628631409 0 -0.0073930246989194681 -0.019276900568604732 0 -0.0082268996974558146 -0.018671208994695598 0 -0.019514215117314087 -0.024160629368281544 0 -0.019168868046712625 -0.024612369080697163 0 -0.020043210800506334 -0.024256930615992652 0 -0.019514215117314087 -0.024160629368281544 0 -0.019168868046712625 -0.024612369080697163 0 -0.019173280186906956 -0.024014839852343518 0 -0.019514215117314087 -0.024160629368281544 0 -0.019663501128769089 -0.023750444404363778 0 -0.020043210800506334 -0.024256930615992652 0 -0.019168868046712625 -0.024612369080697163 0 -0.018518500343321049 -0.023797562144444111 0 -0.019173280186906956 -0.024014839852343518 0 -0.011251804254314891 -0.020190637617279069 0 -0.011967343309568402 -0.019488629262718958 0 -0.010628590231615958 -0.019449739838342396 0 -0.012950205311364666 -0.01947543157197186 0 -0.015704576238608312 -0.022312972364938771 0 -0.0098131134789564214 -0.018371151967809429 0 -0.011967343309568402 -0.019488629262718958 0 -0.010628590231615958 -0.019449739838342396 0 -0.019168868046712625 -0.024612369080697163 0 -0.017985762873083934 -0.02381876691159995 0 -0.018518500343321049 -0.023797562144444111 0 -0.011251804254314891 -0.020190637617279069 0 -0.010223003807752236 -0.020175518187890304 0 -0.010628590231615958 -0.019449739838342396 0 -0.010223003807752236 -0.020175518187890304 0 -0.0098131440162974714 -0.019425764228673273 0 -0.010628590231615958 -0.019449739838342396 0 -0.0098131440162974714 -0.019425764228673273 0 -0.0098131134789564214 -0.018371151967809429 0 -0.010628590231615958 -0.019449739838342396 0 -0.017295706726192187 -0.023124875069545164 0 -0.018518500343321049 -0.023797562144444111 0 -0.019722879882255406 -0.02362828114044746 0 -0.015688542665580545 -0.035815973849345525 0 -0.016639913718420416 -0.035461053276752662 0 -0.016969568075890472 -0.023699715209136482 0 -0.019168868046712625 -0.024612369080697163 0 -0.017985762873083934 -0.02381876691159995 0 -0.016969568075890472 -0.023699715209136482 0 -0.017295706726192187 -0.023124875069545164 0 -0.017985762873083934 -0.02381876691159995 0 -0.017295706726192187 -0.023124875069545164 0 -0.017985762873083934 -0.02381876691159995 0 -0.018518500343321049 -0.023797562144444111 0 -0.013559577074439935 -0.046945795878044094 0 -0.013493396823696635 -0.046680017712877962 0 -0.01376328523831446 -0.046601861000167333 0 -0.012858188135436462 -0.046872672166769554 0 -0.013559577074439935 -0.046945795878044094 0 -0.013237596121194673 -0.046782156391755418 0 -0.018518500343321049 -0.023797562144444111 0 -0.019173280186906956 -0.024014839852343518 0 -0.019722879882255406 -0.02362828114044746 0 -0.013559577074439935 -0.046945795878044094 0 -0.013493396823696635 -0.046680017712877962 0 -0.013237596121194673 -0.046782156391755418 0 -0.019716331817363139 -0.023645540108964212 0 -0.019663501128769089 -0.023750444404363778 0 -0.020043210800506334 -0.024256930615992652 0 -0.016639913718420416 -0.035461053276752662 0 -0.01715351424424702 -0.034172673621819437 0 -0.019173280186906956 -0.024014839852343518 0 -0.019722879882255406 -0.02362828114044746 0 -0.019663501128769089 -0.023750444404363778 0 -0.019514215117314087 -0.024160629368281544 0 -0.019173280186906956 -0.024014839852343518 0 -0.019663501128769089 -0.023750444404363778 0 -0.013493396823696635 -0.046680017712877962 0 -0.013237596121194673 -0.046782156391755418 0 -0.013400965093533754 -0.046316530973624134 0 -0.013493396823696635 -0.046680017712877962 0 -0.013400965093533754 -0.046316530973624134 0 -0.01376328523831446 -0.046601861000167333 0 -0.012967068625104976 -0.046112157912182226 0 -0.017341899308232038 -0.043153869132889044 0 -0.013237596121194673 -0.046782156391755418 0 -0.012939277086332126 -0.046753435142747657 0 -0.013400965093533754 -0.046316530973624134 0 -0.012858188135436462 -0.046872672166769554 0 -0.013237596121194673 -0.046782156391755418 0 -0.012934242346187111 -0.046819536563762434 0 -0.013237596121194673 -0.046782156391755418 0 -0.012934242346187111 -0.046819536563762434 0 -0.012939277086332126 -0.046753435142747657 0 -0.012934242346187111 -0.046819536563762434 0 -0.012939277086332126 -0.046753435142747657 0 -0.012824838113329148 -0.046911436689131863 0 -0.012939277086332126 -0.046753435142747657 0 -0.013400965093533754 -0.046316530973624134 0 -0.01290463632592052 -0.046911105061093687 0 -0.012939277086332126 -0.046753435142747657 0 -0.012743715372362211 -0.047146750667807415 0 -0.01290463632592052 -0.046911105061093687 0 -0.013400965093533754 -0.046316530973624134 0 -0.013308266431666721 -0.046413766466549752 0 -0.013585882546062902 -0.04569046516388562 0 -0.013400965093533754 -0.046316530973624134 0 -0.013308266431666721 -0.046413766466549752 0 -0.01290463632592052 -0.046911105061093687 0 -0.012902247760013074 -0.046882045481150665 0 -0.012821833282646843 -0.047063398860419034 0 -0.012866413344425854 -0.04731502901929921 0 -0.012902247760013074 -0.046882045481150665 0 -0.012824838113329148 -0.046911436689131863 0 -0.012821833282646843 -0.047063398860419034 0 -0.012858188135436462 -0.046872672166769554 0 -0.012902247760013074 -0.046882045481150665 0 -0.012824838113329148 -0.046911436689131863 0 -0.015688542665580545 -0.035815973849345525 0 -0.011492743384011175 -0.029454404994505131 0 -0.012858188135436462 -0.046872672166769554 0 -0.012934242346187111 -0.046819536563762434 0 -0.012824838113329148 -0.046911436689131863 0 -0.012824838113329148 -0.046911436689131863 0 -0.012743715372362211 -0.047146750667807415 0 -0.012821833282646843 -0.047063398860419034 0 -0.012939277086332126 -0.046753435142747657 0 -0.012824838113329148 -0.046911436689131863 0 -0.012743715372362211 -0.047146750667807415 0 -0.013078608775042938 -0.047401670221628091 0 -0.012902247760013074 -0.046882045481150665 0 -0.012866413344425854 -0.04731502901929921 0 -0.012743715372362211 -0.047146750667807415 0 -0.012866413344425854 -0.04731502901929921 0 -0.012758798037818195 -0.047754029138375328 0 -0.012743715372362211 -0.047146750667807415 0 -0.012821833282646843 -0.047063398860419034 0 -0.012866413344425854 -0.04731502901929921 0 -0.013078608775042938 -0.047401670221628091 0 -0.012866413344425854 -0.04731502901929921 0 -0.012972512345158697 -0.047905386420337537 0 -0.012866413344425854 -0.04731502901929921 0 -0.012758798037818195 -0.047754029138375328 0 -0.012972512345158697 -0.047905386420337537 0 -0.012758798037818195 -0.047754029138375328 0 -0.012659608485247857 -0.048557578449836242 0 -0.012972512345158697 -0.047905386420337537 0 -0.012758798037818195 -0.047754029138375328 0 -0.012503880865078202 -0.048162068215531026 0 -0.012659608485247857 -0.048557578449836242 0 -0.012743715372362211 -0.047146750667807415 0 -0.012758798037818195 -0.047754029138375328 0 -0.012503880865078202 -0.048162068215531026 0 -0.012743715372362211 -0.047146750667807415 0 -0.012503880865078202 -0.048162068215531026 0 -0.01290463632592052 -0.046911105061093687 0 -0.012503880865078202 -0.048162068215531026 0 -0.012342395611737165 -0.049483475326707139 0 -0.012535049673142354 -0.050193993896036765 0 -0.012503880865078202 -0.048162068215531026 0 -0.012342395611737165 -0.049483475326707139 0 -0.012659608485247857 -0.048557578449836242 0 -0.012659608485247857 -0.048557578449836242 0 -0.012345908865593955 -0.049478907732444517 0 -0.012818475337547453 -0.048826852752703737 0 -0.012342395611737165 -0.049483475326707139 0 -0.012659608485247857 -0.048557578449836242 0 -0.012345908865593955 -0.049478907732444517 0 -0.012659608485247857 -0.048557578449836242 0 -0.012972512345158697 -0.047905386420337537 0 -0.012818475337547453 -0.048826852752703737 0 -0.013308266431666721 -0.046413766466549752 0 -0.01290463632592052 -0.046911105061093687 0 -0.01309157335526831 -0.046666639543169956 0 -0.012503880865078202 -0.048162068215531026 0 -0.01290463632592052 -0.046911105061093687 0 -0.01309157335526831 -0.046666639543169956 0 -0.012342395611737165 -0.049483475326707139 0 -0.012535049673142354 -0.050193993896036765 0 -0.012603124023546821 -0.050067068757423894 0 -0.012706849846895373 -0.048180323665657332 0 -0.01295792967677324 -0.04842523818332882 0 -0.013308266431666721 -0.046413766466549752 0 -0.01309157335526831 -0.046666639543169956 0 -0.013340349528766756 -0.046448956265264039 0 -0.01295792967677324 -0.04842523818332882 0 -0.013563706016806704 -0.048628873186177778 0 -0.012535049673142354 -0.050193993896036765 0 -0.013137642620158416 -0.050369647127064439 0 -0.013873333430141667 -0.051082355897776807 0 -0.012535049673142354 -0.050193993896036765 0 -0.013137642620158416 -0.050369647127064439 0 -0.012603124023546821 -0.050067068757423894 0 -0.013137642620158416 -0.050369647127064439 0 -0.013362265419588029 -0.050116775095274665 0 -0.013839612702878952 -0.05051090700202486 0 -0.013137642620158416 -0.050369647127064439 0 -0.012869699002191787 -0.050131340667476917 0 -0.013362265419588029 -0.050116775095274665 0 -0.013137642620158416 -0.050369647127064439 0 -0.012869699002191787 -0.050131340667476917 0 -0.012603124023546821 -0.050067068757423894 0 -0.012342395611737165 -0.049483475326707139 0 -0.012603124023546821 -0.050067068757423894 0 -0.012464117676391891 -0.049979329085737191 0 -0.012869699002191787 -0.050131340667476917 0 -0.012603124023546821 -0.050067068757423894 0 -0.012464117676391891 -0.049979329085737191 0 -0.012869699002191787 -0.050131340667476917 0 -0.012464117676391891 -0.049979329085737191 0 -0.012703894542594669 -0.050033904134184307 0 -0.012464117676391891 -0.049979329085737191 0 -0.012703894542594669 -0.050033904134184307 0 -0.012128143133634131 -0.049916910316718507 0 -0.012703894542594669 -0.050033904134184307 0 -0.011933827854427969 -0.050010839916087568 0 -0.013102910307333725 -0.04967105834595692 0 -0.012703894542594669 -0.050033904134184307 0 -0.013391261309081156 -0.049846034271528221 0 -0.013102910307333725 -0.04967105834595692 0 -0.012703894542594669 -0.050033904134184307 0 -0.013362265419588029 -0.050116775095274665 0 -0.013391261309081156 -0.049846034271528221 0 -0.012869699002191787 -0.050131340667476917 0 -0.012703894542594669 -0.050033904134184307 0 -0.013362265419588029 -0.050116775095274665 0 -0.013362265419588029 -0.050116775095274665 0 -0.014005687809147625 -0.049973009251857173 0 -0.013391261309081156 -0.049846034271528221 0 -0.012345908865593955 -0.049478907732444517 0 -0.011885607636782185 -0.050031688898070879 0 -0.012338178330144537 -0.049746162350094804 0 -0.012345908865593955 -0.049478907732444517 0 -0.012128143133634131 -0.049916910316718507 0 -0.011885607636782185 -0.050031688898070879 0 -0.012345908865593955 -0.049478907732444517 0 -0.012338178330144537 -0.049746162350094804 0 -0.012818475337547453 -0.048826852752703737 0 -0.012342395611737165 -0.049483475326707139 0 -0.012464117676391891 -0.049979329085737191 0 -0.012128143133634131 -0.049916910316718507 0 -0.012342395611737165 -0.049483475326707139 0 -0.012345908865593955 -0.049478907732444517 0 -0.012128143133634131 -0.049916910316718507 0 -0.012703894542594669 -0.050033904134184307 0 -0.012128143133634131 -0.049916910316718507 0 -0.011933827854427969 -0.050010839916087568 0 -0.012128143133634131 -0.049916910316718507 0 -0.011933827854427969 -0.050010839916087568 0 -0.011885607636782185 -0.050031688898070879 0 -0.011885607636782185 -0.050031688898070879 0 -0.012338178330144537 -0.049746162350094804 0 -0.011531546098726383 -0.050417963446353097 0 -0.011933827854427969 -0.050010839916087568 0 -0.011885607636782185 -0.050031688898070879 0 -0.011470240961401508 -0.050331198188398159 0 -0.012338178330144537 -0.049746162350094804 0 -0.012369620554953185 -0.050188659911455616 0 -0.011531546098726383 -0.050417963446353097 0 -0.012338178330144537 -0.049746162350094804 0 -0.013292410325607604 -0.049203168934345995 0 -0.012369620554953185 -0.050188659911455616 0 -0.012338178330144537 -0.049746162350094804 0 -0.013292410325607604 -0.049203168934345995 0 -0.012818475337547453 -0.048826852752703737 0 -0.0086139505240461038 -0.053045991117649044 0 -0.0079810271400084232 -0.052602806704288255 0 -0.0036300543244669956 -0.055393455314194415 0 -0.0029534456015675287 -0.055492986129798666 0 -0.0033935849338061195 -0.05493324330974618 0 -0.0032071216069991188 -0.055807407534198029 0 -0.0036300543244669956 -0.055393455314194415 0 -0.0029534456015675287 -0.055492986129798666 0 -0.0029534456015675287 -0.055492986129798666 0 -0.0023663363114194841 -0.05528641385313611 0 -0.002714828300836991 -0.055714263916308022 0 -0.0020170910963771588 -0.054970485252097148 0 -0.0013472341877030138 -0.057382025777206101 0 -0.0023663363114194841 -0.05528641385313611 0 -0.002714828300836991 -0.055714263916308022 0 -0.0022727668438483561 -0.055605654491841065 0 -0.002714828300836991 -0.055714263916308022 0 -0.002499712351292455 -0.055787090106621286 0 -0.0022727668438483561 -0.055605654491841065 0 -0.0022962461631313843 -0.05579310934982791 0 -0.002499712351292455 -0.055787090106621286 0 -0.0022727668438483561 -0.055605654491841065 0 -0.0032071216069991188 -0.055807407534198029 0 -0.0029534456015675287 -0.055492986129798666 0 -0.002714828300836991 -0.055714263916308022 0 -0.002714828300836991 -0.055714263916308022 0 -0.0028921337319052238 -0.055954085376818202 0 -0.002636083465399783 -0.055882101874119412 0 -0.0028921337319052238 -0.055954085376818202 0 -0.002636083465399783 -0.055882101874119412 0 -0.0025569129429340591 -0.056045404346411309 0 -0.0032071216069991188 -0.055807407534198029 0 -0.002714828300836991 -0.055714263916308022 0 -0.0028921337319052238 -0.055954085376818202 0 -0.0025254254561527492 -0.056027080419391834 0 -0.0025073330930062867 -0.055941750181193656 0 -0.002058263219008503 -0.055844421794183426 0 -0.0015438905654756722 -0.048865465087957777 0 0.0065357063099088872 -0.042726848993697865 0 -0.0022962461631313843 -0.05579310934982791 0 -0.002499712351292455 -0.055787090106621286 0 -0.0025073330930062867 -0.055941750181193656 0 -0.002499712351292455 -0.055787090106621286 0 -0.002636083465399783 -0.055882101874119412 0 -0.0025073330930062867 -0.055941750181193656 0 -0.002714828300836991 -0.055714263916308022 0 -0.002499712351292455 -0.055787090106621286 0 -0.002636083465399783 -0.055882101874119412 0 -0.002636083465399783 -0.055882101874119412 0 -0.0025569129429340591 -0.056045404346411309 0 -0.0025073330930062867 -0.055941750181193656 0 -0.0015438905654756722 -0.048865465087957777 0 -0.002404956151662912 -0.053319450599114707 0 0.003362477503040607 -0.034289399111665113 0 0.0065357063099088872 -0.042726848993697865 0 0.011072742400281315 -0.029885390477233608 0 0.011802081094289412 -0.030578805892205921 0 0.01192710686828136 -0.029941396355726319 0 0.0023338373339967695 -0.04171909030132722 0 0.0021650206405247887 -0.042397634239592301 0 0.0041746156612616995 -0.041202960812188799 0 -0.0015438905654756722 -0.048865465087957777 0 0.003362477503040607 -0.034289399111665113 0 -0.0028921337319052238 -0.055954085376818202 0 -0.0025569129429340591 -0.056045404346411309 0 -0.0030635405021167423 -0.056154734777414887 0 -0.001235297690645364 -0.041721232683993435 0 -0.0014068025164553312 -0.042440666156732719 0 -0.0034526744974496116 -0.042415674348748454 0 -0.0063862654037122575 -0.038680164524014876 0 0.003362477503040607 -0.034289399111665113 0 -0.0015438905654756722 -0.048865465087957777 0 -0.0048958346919189258 -0.049155027090661996 0 -0.0032649841411191362 -0.043516233560692986 0 -0.0014068025164553312 -0.042440666156732719 0 -0.0034526744974496116 -0.042415674348748454 0 -0.01379739444468618 -0.04745883282068538 0 -0.013752329367278774 -0.048013786902935625 0 -0.013505684977803113 -0.047857332631524807 0 -0.0063862654037122575 -0.038680164524014876 0 -0.0048958346919189258 -0.049155027090661996 0 -0.013373655264570228 -0.047611971910544622 0 -0.013321377524413484 -0.048197670352969832 0 -0.013505684977803113 -0.047857332631524807 0 -0.013752329367278774 -0.048013786902935625 0 -0.013321377524413484 -0.048197670352969832 0 -0.013505684977803113 -0.047857332631524807 0 -0.013373655264570228 -0.047611971910544622 0 -0.013321377524413484 -0.048197670352969832 0 -0.012972512345158697 -0.047905386420337537 0 -0.013321377524413484 -0.048197670352969832 0 -0.012972512345158697 -0.047905386420337537 0 -0.012818475337547453 -0.048826852752703737 0 -0.013292410325607604 -0.049203168934345995 0 -0.013321377524413484 -0.048197670352969832 0 -0.012818475337547453 -0.048826852752703737 0 -0.013292410325607604 -0.049203168934345995 0 -0.013752329367278774 -0.048013786902935625 0 -0.013321377524413484 -0.048197670352969832 0 -0.0086139505240461038 -0.053045991117649044 0 -0.0048958346919189258 -0.049155027090661996 0 -0.0032071216069991188 -0.055807407534198029 0 -0.0028921337319052238 -0.055954085376818202 0 -0.0030635405021167423 -0.056154734777414887 0 -0.025387013275797832 -0.034971347034234955 0 -0.026722959909910891 -0.035350759770550653 0 -0.026641180234590823 -0.034505482546077153 0 -0.026722959909910891 -0.035350759770550653 0 -0.027607785444907662 -0.034870837776345545 0 -0.026641180234590823 -0.034505482546077153 0 -0.027607785444907662 -0.034870837776345545 0 -0.028778167374834886 -0.036115137744415861 0 -0.027273759286548564 -0.036483241832832497 0 -0.026722959909910891 -0.035350759770550653 0 -0.027607785444907662 -0.034870837776345545 0 -0.027273759286548564 -0.036483241832832497 0 -0.027607785444907662 -0.034870837776345545 0 -0.027736834276473048 -0.033765799763041421 0 -0.028705767428054092 -0.034452359856835993 0 -0.027607785444907662 -0.034870837776345545 0 -0.027736834276473048 -0.033765799763041421 0 -0.026977929287070344 -0.033864027405680119 0 -0.027607785444907662 -0.034870837776345545 0 -0.026977929287070344 -0.033864027405680119 0 -0.026641180234590823 -0.034505482546077153 0 -0.026977929287070344 -0.033864027405680119 0 -0.026641180234590823 -0.034505482546077153 0 -0.026508644205988426 -0.033658073928869971 0 -0.026675457756751359 -0.033451027962160179 0 -0.026508644205988426 -0.033658073928869971 0 -0.026655750864286863 -0.033308643308582422 0 -0.026977929287070344 -0.033864027405680119 0 -0.026508644205988426 -0.033658073928869971 0 -0.026655750864286863 -0.033308643308582422 0 -0.026675457756751359 -0.033451027962160179 0 -0.026655750864286863 -0.033308643308582422 0 -0.026751960533062256 -0.033521243713772624 0 -0.026655750864286863 -0.033308643308582422 0 -0.026751960533062256 -0.033521243713772624 0 -0.02587463166534705 -0.034086892558019007 0 -0.026784118800214481 -0.033802761220645287 0 -0.026751960533062256 -0.033521243713772624 0 -0.02587463166534705 -0.034086892558019007 0 -0.02587463166534705 -0.034086892558019007 0 -0.025401694394419326 -0.033544313287235027 0 -0.024167871734487308 -0.034979361053186164 0 -0.026655750864286863 -0.033308643308582422 0 -0.02587463166534705 -0.034086892558019007 0 -0.025401694394419326 -0.033544313287235027 0 -0.026559064591332934 -0.033094542190663372 0 -0.026696183313286378 -0.033268451030353467 0 -0.027736834276473048 -0.033765799763041421 0 -0.026977929287070344 -0.033864027405680119 0 -0.026655750864286863 -0.033308643308582422 0 -0.025495055485121772 -0.032384478748009683 0 -0.026655750864286863 -0.033308643308582422 0 -0.025401694394419326 -0.033544313287235027 0 -0.025495055485121772 -0.032384478748009683 0 -0.025401694394419326 -0.033544313287235027 0 -0.024198081134449996 -0.03297377527224081 0 -0.023230353709668049 -0.036849904015614776 0 -0.024167871734487308 -0.034979361053186164 0 -0.024033694390476174 -0.03640010241694603 0 -0.023775255155878153 -0.034631963166624084 0 -0.024017527920162214 -0.035171363641701307 0 -0.025401694394419326 -0.033544313287235027 0 -0.024198081134449996 -0.03297377527224081 0 -0.024167871734487308 -0.034979361053186164 0 -0.02457183120807074 -0.035126935701691099 0 -0.02587463166534705 -0.034086892558019007 0 -0.024167871734487308 -0.034979361053186164 0 -0.024167871734487308 -0.034979361053186164 0 -0.024161857261838733 -0.035598690266832066 0 -0.024033694390476174 -0.03640010241694603 0 -0.02457183120807074 -0.035126935701691099 0 -0.024167871734487308 -0.034979361053186164 0 -0.024161857261838733 -0.035598690266832066 0 -0.02457183120807074 -0.035126935701691099 0 -0.024169282851929506 -0.035893713827455848 0 -0.024161857261838733 -0.035598690266832066 0 -0.024169282851929506 -0.035893713827455848 0 -0.024161857261838733 -0.035598690266832066 0 -0.024250515402930096 -0.036367550643750614 0 -0.024161857261838733 -0.035598690266832066 0 -0.024250515402930096 -0.036367550643750614 0 -0.024033694390476174 -0.03640010241694603 0 -0.024033694390476174 -0.03640010241694603 0 -0.023881558979234097 -0.037714736114624635 0 -0.024358386919752596 -0.037421682255277124 0 -0.023230353709668049 -0.036849904015614776 0 -0.024033694390476174 -0.03640010241694603 0 -0.023881558979234097 -0.037714736114624635 0 -0.024250515402930096 -0.036367550643750614 0 -0.024033694390476174 -0.03640010241694603 0 -0.024358386919752596 -0.037421682255277124 0 -0.023881558979234097 -0.037714736114624635 0 -0.023857965919423834 -0.038820175556360935 0 -0.024400672480086764 -0.038607794752157712 0 -0.023881558979234097 -0.037714736114624635 0 -0.023086522487402002 -0.038038940590432307 0 -0.023857965919423834 -0.038820175556360935 0 -0.023775255155878153 -0.034631963166624084 0 -0.02413155421850733 -0.036667357693959589 0 -0.023230353709668049 -0.036849904015614776 0 -0.023881558979234097 -0.037714736114624635 0 -0.023086522487402002 -0.038038940590432307 0 -0.025495055485121772 -0.032384478748009683 0 -0.024198081134449996 -0.03297377527224081 0 -0.024186576396260945 -0.031498990393034193 0 -0.026559064591332934 -0.033094542190663372 0 -0.02413155421850733 -0.036667357693959589 0 -0.021256890581123677 -0.040400958638003012 0 -0.021870373632103233 -0.040907948361389987 0 -0.021269955747817225 -0.041344106814812036 0 -0.027607785444907662 -0.034870837776345545 0 -0.028705767428054092 -0.034452359856835993 0 -0.028778167374834886 -0.036115137744415861 0 -0.02413155421850733 -0.036667357693959589 0 -0.025270666293195642 -0.038055400022330488 0 -0.02413155421850733 -0.036667357693959589 0 -0.022718249437562822 -0.040008970994257119 0 -0.022718249437562822 -0.040008970994257119 0 -0.023659061673603942 -0.040257127364671678 0 -0.023857965919423834 -0.038820175556360935 0 -0.024400672480086764 -0.038607794752157712 0 -0.024392566930186634 -0.039472806997321398 0 -0.024400672480086764 -0.038607794752157712 0 -0.024839768613252638 -0.039453343503684658 0 -0.024392566930186634 -0.039472806997321398 0 -0.024400672480086764 -0.038607794752157712 0 -0.024839768613252638 -0.039453343503684658 0 -0.024799151807207095 -0.03845927548284505 0 -0.024839768613252638 -0.039453343503684658 0 -0.024799151807207095 -0.03845927548284505 0 -0.025057212893129507 -0.039088097264905967 0 -0.023881558979234097 -0.037714736114624635 0 -0.024400672480086764 -0.038607794752157712 0 -0.024358386919752596 -0.037421682255277124 0 -0.024400672480086764 -0.038607794752157712 0 -0.024799151807207095 -0.03845927548284505 0 -0.024358386919752596 -0.037421682255277124 0 -0.024358386919752596 -0.037421682255277124 0 -0.024509462591903352 -0.03681741879453701 0 -0.024793769255684359 -0.037576137116591676 0 -0.024250515402930096 -0.036367550643750614 0 -0.024358386919752596 -0.037421682255277124 0 -0.024509462591903352 -0.03681741879453701 0 -0.023727425505864406 -0.030388709341743349 0 -0.022011957891722125 -0.030926954985651661 0 -0.024169282851929506 -0.035893713827455848 0 -0.024250515402930096 -0.036367550643750614 0 -0.024509462591903352 -0.03681741879453701 0 -0.022063991372035411 -0.022987515810912632 0 -0.022011957891722125 -0.030926954985651661 0 -0.022621012821123852 -0.024983012957848865 0 -0.022591469441872264 -0.024731496599304289 0 -0.022356079099613319 -0.024864368725759027 0 -0.024169282851929506 -0.035893713827455848 0 -0.024509462591903352 -0.03681741879453701 0 -0.024987598741456209 -0.036899383373966962 0 -0.022282269683942493 -0.024872968699940309 0 -0.021739913157629537 -0.024724547105321956 0 -0.022109028667260763 -0.024323033038542035 0 -0.024987598741456209 -0.036899383373966962 0 -0.024793769255684359 -0.037576137116591676 0 -0.025288228361137657 -0.038077029221862749 0 -0.024799151807207095 -0.03845927548284505 0 -0.024793769255684359 -0.037576137116591676 0 -0.025288228361137657 -0.038077029221862749 0 -0.024799151807207095 -0.03845927548284505 0 -0.024358386919752596 -0.037421682255277124 0 -0.024793769255684359 -0.037576137116591676 0 -0.024509462591903352 -0.03681741879453701 0 -0.024987598741456209 -0.036899383373966962 0 -0.024793769255684359 -0.037576137116591676 0 -0.018311313724769986 -0.037552621709348102 0 -0.0186754116936836 -0.038059114554077712 0 -0.018778243111542622 -0.037818308618925732 0 -0.022011957891722125 -0.030926954985651661 0 -0.022657303899634506 -0.038578531378367628 0 -0.0186754116936836 -0.038059114554077712 0 -0.018778243111542622 -0.037818308618925732 0 -0.018976704407236734 -0.038110775648286459 0 -0.022011957891722125 -0.030926954985651661 0 -0.019924148924242633 -0.030665640542376697 0 -0.021739913157629537 -0.024724547105321956 0 -0.022109028667260763 -0.024323033038542035 0 -0.021063525651288391 -0.023976102561501077 0 -0.021037436164123714 -0.025202671888879893 0 -0.021739913157629537 -0.024724547105321956 0 -0.021063525651288391 -0.023976102561501077 0 -0.021037436164123714 -0.025202671888879893 0 -0.021063525651288391 -0.023976102561501077 0 -0.020043210800506334 -0.024256930615992652 0 -0.021037436164123714 -0.025202671888879893 0 -0.019168868046712625 -0.024612369080697163 0 -0.020043210800506334 -0.024256930615992652 0 -0.016639913718420416 -0.035461053276752662 0 -0.019924148924242633 -0.030665640542376697 0 -0.019716331817363139 -0.023645540108964212 0 -0.021063525651288391 -0.023976102561501077 0 -0.020043210800506334 -0.024256930615992652 0 -0.016639913718420416 -0.035461053276752662 0 -0.017341899308232038 -0.043153869132889044 0 -0.019291230794845567 -0.038040887887585369 0 -0.018778243111542622 -0.037818308618925732 0 -0.018976704407236734 -0.038110775648286459 0 -0.0186754116936836 -0.038059114554077712 0 -0.018976704407236734 -0.038110775648286459 0 -0.019078078480381941 -0.038554629445477509 0 -0.019291230794845567 -0.038040887887585369 0 -0.018976704407236734 -0.038110775648286459 0 -0.019078078480381941 -0.038554629445477509 0 -0.022657303899634506 -0.038578531378367628 0 -0.017341899308232038 -0.043153869132889044 0 -0.017341899308232038 -0.043153869132889044 0 -0.019768496607474022 -0.04209638175173281 0 -0.025272722375299251 -0.039393949246765925 0 -0.025057212893129507 -0.039088097264905967 0 -0.025000081799420117 -0.03976653218211864 0 -0.024799151807207095 -0.03845927548284505 0 -0.025288228361137657 -0.038077029221862749 0 -0.025057212893129507 -0.039088097264905967 0 -0.025288228361137657 -0.038077029221862749 0 -0.025272722375299251 -0.039393949246765925 0 -0.025057212893129507 -0.039088097264905967 0 -0.024839768613252638 -0.039453343503684658 0 -0.025057212893129507 -0.039088097264905967 0 -0.025000081799420117 -0.03976653218211864 0 -0.013400965093533754 -0.046316530973624134 0 -0.013716256534220546 -0.04501954419701016 0 -0.013585882546062902 -0.04569046516388562 0 -0.011659163383524981 -0.047048920219323206 0 -0.017335377794086011 -0.044122167885375256 0 -0.013308266431666721 -0.046413766466549752 0 -0.013585882546062902 -0.04569046516388562 0 -0.013665558376240252 -0.045620675249849398 0 -0.013308266431666721 -0.046413766466549752 0 -0.013426993134167722 -0.046484746150275057 0 -0.013384335325595346 -0.04646109615062629 0 -0.019768496607474022 -0.04209638175173281 0 -0.017335377794086011 -0.044122167885375256 0 -0.024839768613252638 -0.039453343503684658 0 -0.024894867248400621 -0.039846868683065535 0 -0.024735254974611376 -0.039864614070332142 0 -0.024839768613252638 -0.039453343503684658 0 -0.025000081799420117 -0.03976653218211864 0 -0.024894867248400621 -0.039846868683065535 0 -0.017335377794086011 -0.044122167885375256 0 -0.020754268991863986 -0.044414072991439721 0 -0.014808759083625122 -0.049955782234220009 0 -0.013563706016806704 -0.048628873186177778 0 -0.013425571442789148 -0.046467495082978337 0 -0.013436934508822797 -0.046457101783676694 0 -0.013384335325595346 -0.04646109615062629 0 -0.013488028179318183 -0.046435202651542169 0 -0.013436934508822797 -0.046457101783676694 0 -0.013340349528766756 -0.046448956265264039 0 -0.013426993134167722 -0.046484746150275057 0 -0.013425571442789148 -0.046467495082978337 0 -0.013384335325595346 -0.04646109615062629 0 -0.01519495819080433 -0.051312589620637103 0 -0.013873333430141667 -0.051082355897776807 0 -0.014494682680336603 -0.050843179235906019 0 -0.017335377794086011 -0.044122167885375256 0 -0.016210639563211032 -0.047283626650716559 0 -0.013426993134167722 -0.046484746150275057 0 -0.013425571442789148 -0.046467495082978337 0 -0.013451791361320331 -0.046461592379828102 0 -0.017397948360025454 -0.045366066060589648 0 -0.017772920267568829 -0.044544866351113682 0 -0.018563063764040558 -0.045097882587088328 0 -0.016210639563211032 -0.047283626650716559 0 -0.020754268991863986 -0.044414072991439721 0 -0.013425571442789148 -0.046467495082978337 0 -0.013451791361320331 -0.046461592379828102 0 -0.013436934508822797 -0.046457101783676694 0 -0.016210639563211032 -0.047283626650716559 0 -0.014885728750599408 -0.046557419435173622 0 -0.016210639563211032 -0.047283626650716559 0 -0.014808759083625122 -0.049955782234220009 0 -0.013467035130468506 -0.046480180983641525 0 -0.013488028179318183 -0.046435202651542169 0 -0.013436934508822797 -0.046457101783676694 0 -0.013308266431666721 -0.046413766466549752 0 -0.013384335325595346 -0.04646109615062629 0 -0.013340349528766756 -0.046448956265264039 0 -0.013436934508822797 -0.046457101783676694 0 -0.013384335325595346 -0.04646109615062629 0 -0.013340349528766756 -0.046448956265264039 0 -0.013137642620158416 -0.050369647127064439 0 -0.013873333430141667 -0.051082355897776807 0 -0.013839612702878952 -0.05051090700202486 0 -0.013873333430141667 -0.051082355897776807 0 -0.013839612702878952 -0.05051090700202486 0 -0.014494682680336603 -0.050843179235906019 0 -0.013839612702878952 -0.05051090700202486 0 -0.01445533090247381 -0.050448111307828683 0 -0.014494682680336603 -0.050843179235906019 0 -0.013839612702878952 -0.05051090700202486 0 -0.013859819750554961 -0.050247961493073735 0 -0.01445533090247381 -0.050448111307828683 0 -0.013362265419588029 -0.050116775095274665 0 -0.013839612702878952 -0.05051090700202486 0 -0.013859819750554961 -0.050247961493073735 0 -0.013859819750554961 -0.050247961493073735 0 -0.01445533090247381 -0.050448111307828683 0 -0.014005687809147625 -0.049973009251857173 0 -0.01445533090247381 -0.050448111307828683 0 -0.014005687809147625 -0.049973009251857173 0 -0.014706497062156924 -0.050045953261823012 0 -0.013362265419588029 -0.050116775095274665 0 -0.013859819750554961 -0.050247961493073735 0 -0.014005687809147625 -0.049973009251857173 0 -0.01445533090247381 -0.050448111307828683 0 -0.015232669804756464 -0.050444812737952656 0 -0.014706497062156924 -0.050045953261823012 0 -0.01445533090247381 -0.050448111307828683 0 -0.015232669804756464 -0.050444812737952656 0 -0.015047347482428855 -0.050777374452886971 0 -0.01445533090247381 -0.050448111307828683 0 -0.015047347482428855 -0.050777374452886971 0 -0.014494682680336603 -0.050843179235906019 0 -0.01519495819080433 -0.051312589620637103 0 -0.015047347482428855 -0.050777374452886971 0 -0.014494682680336603 -0.050843179235906019 0 -0.016059153930527825 -0.051348367355248496 0 -0.01590594475021884 -0.050796186724078325 0 -0.016450978145848377 -0.051107121061965848 0 -0.014808759083625122 -0.049955782234220009 0 -0.015821966377841737 -0.051169848624423177 0 -0.015811943602627981 -0.051399812133735595 0 -0.016059153930527825 -0.051348367355248496 0 -0.01590594475021884 -0.050796186724078325 0 -0.01519495819080433 -0.051312589620637103 0 -0.015047347482428855 -0.050777374452886971 0 -0.01590594475021884 -0.050796186724078325 0 -0.016059153930527825 -0.051348367355248496 0 -0.016450978145848377 -0.051107121061965848 0 -0.016338072552250643 -0.051448431720754757 0 -0.015232669804756464 -0.050444812737952656 0 -0.015047347482428855 -0.050777374452886971 0 -0.01590594475021884 -0.050796186724078325 0 -0.01590594475021884 -0.050796186724078325 0 -0.015894867355384527 -0.050415709749661163 0 -0.016703583146943389 -0.050597824590291565 0 -0.015232669804756464 -0.050444812737952656 0 -0.01590594475021884 -0.050796186724078325 0 -0.015894867355384527 -0.050415709749661163 0 -0.015232669804756464 -0.050444812737952656 0 -0.015894867355384527 -0.050415709749661163 0 -0.015364274447336105 -0.05014558738263445 0 -0.016703583146943389 -0.050597824590291565 0 -0.016868490383520823 -0.050912076601937847 0 -0.017144903849436545 -0.050712176753564805 0 -0.01590594475021884 -0.050796186724078325 0 -0.016703583146943389 -0.050597824590291565 0 -0.016450978145848377 -0.051107121061965848 0 -0.016703583146943389 -0.050597824590291565 0 -0.016868490383520823 -0.050912076601937847 0 -0.016450978145848377 -0.051107121061965848 0 -0.016868490383520823 -0.050912076601937847 0 -0.016450978145848377 -0.051107121061965848 0 -0.016737027208210905 -0.05126070073715433 0 -0.016450978145848377 -0.051107121061965848 0 -0.016737027208210905 -0.05126070073715433 0 -0.016338072552250643 -0.051448431720754757 0 -0.016737027208210905 -0.05126070073715433 0 -0.016774583395248559 -0.051637221476256781 0 -0.016338072552250643 -0.051448431720754757 0 -0.016774583395248559 -0.051637221476256781 0 -0.016338072552250643 -0.051448431720754757 0 -0.015980041594840916 -0.051769745194346031 0 -0.016059153930527825 -0.051348367355248496 0 -0.016338072552250643 -0.051448431720754757 0 -0.0160153355674971 -0.051506678469184206 0 -0.018333178039672677 -0.047520005227269103 0 -0.020754268991863986 -0.044414072991439721 0 -0.015876384831605327 -0.051382624943439398 0 -0.016059153930527825 -0.051348367355248496 0 -0.0160153355674971 -0.051506678469184206 0 -0.014808759083625122 -0.049955782234220009 0 -0.015767151866276936 -0.050509362302437653 0 -0.015771836476588776 -0.051605127225790387 0 -0.015876384831605327 -0.051382624943439398 0 -0.0160153355674971 -0.051506678469184206 0 -0.016338072552250643 -0.051448431720754757 0 -0.0160153355674971 -0.051506678469184206 0 -0.015980041594840916 -0.051769745194346031 0 -0.015771836476588776 -0.051605127225790387 0 -0.0160153355674971 -0.051506678469184206 0 -0.015980041594840916 -0.051769745194346031 0 -0.024839768613252638 -0.039453343503684658 0 -0.024735254974611376 -0.039864614070332142 0 -0.024392566930186634 -0.039472806997321398 0 -0.020754268991863986 -0.044414072991439721 0 -0.023659061673603942 -0.040257127364671678 0 -0.022155592417965463 -0.042032645551280057 0 -0.022435311345258599 -0.04139775326751622 0 -0.02183723989038297 -0.041535967195134409 0 -0.022155592417965463 -0.042032645551280057 0 -0.022976727680155885 -0.041843109693191577 0 -0.022435311345258599 -0.04139775326751622 0 -0.021870373632103233 -0.040907948361389987 0 -0.022435311345258599 -0.04139775326751622 0 -0.02183723989038297 -0.041535967195134409 0 -0.021870373632103233 -0.040907948361389987 0 -0.02183723989038297 -0.041535967195134409 0 -0.021269955747817225 -0.041344106814812036 0 -0.028778167374834886 -0.036115137744415861 0 -0.028809294617760838 -0.037788902590682058 0 -0.027273759286548564 -0.036483241832832497 0 -0.02183723989038297 -0.041535967195134409 0 -0.021269955747817225 -0.041344106814812036 0 -0.021299993228544083 -0.042247401288225239 0 -0.025270666293195642 -0.038055400022330488 0 -0.023156179038433984 -0.044132377233175382 0 -0.016774583395248559 -0.051637221476256781 0 -0.017564836585031794 -0.051408939375931842 0 -0.017138233016783883 -0.051190848459048713 0 -0.018333178039672677 -0.047520005227269103 0 -0.023156179038433984 -0.044132377233175382 0 -0.022155592417965463 -0.042032645551280057 0 -0.02183723989038297 -0.041535967195134409 0 -0.021299993228544083 -0.042247401288225239 0 -0.016737027208210905 -0.05126070073715433 0 -0.016774583395248559 -0.051637221476256781 0 -0.017138233016783883 -0.051190848459048713 0 -0.016868490383520823 -0.050912076601937847 0 -0.017138233016783883 -0.051190848459048713 0 -0.017144903849436545 -0.050712176753564805 0 -0.017138233016783883 -0.051190848459048713 0 -0.017144903849436545 -0.050712176753564805 0 -0.017502565246603135 -0.050972578983448542 0 -0.016868490383520823 -0.050912076601937847 0 -0.016737027208210905 -0.05126070073715433 0 -0.017138233016783883 -0.051190848459048713 0 -0.016703583146943389 -0.050597824590291565 0 -0.017144903849436545 -0.050712176753564805 0 -0.017108179780215848 -0.050456406612367111 0 -0.017144903849436545 -0.050712176753564805 0 -0.017458373492852133 -0.050584612830512507 0 -0.017108179780215848 -0.050456406612367111 0 -0.022545847123266967 -0.049621916292161061 0 -0.026001146962013062 -0.047981171838569509 0 -0.024847447536215525 -0.046219381296828239 0 -0.025010978582565929 -0.046723478112781082 0 -0.02566739736225971 -0.046593131523005545 0 -0.024847447536215525 -0.046219381296828239 0 -0.025010978582565929 -0.046723478112781082 0 -0.024926507787018742 -0.04675503917611791 0 -0.022545847123266967 -0.049621916292161061 0 -0.021295125196271972 -0.04943028902852202 0 -0.017144903849436545 -0.050712176753564805 0 -0.017458373492852133 -0.050584612830512507 0 -0.017502565246603135 -0.050972578983448542 0 -0.017564836585031794 -0.051408939375931842 0 -0.017138233016783883 -0.051190848459048713 0 -0.017502565246603135 -0.050972578983448542 0 -0.024968340806737085 -0.046856435884152975 0 -0.025007256485021934 -0.046799451115261598 0 -0.025160665479853933 -0.046796200372362609 0 -0.024968340806737085 -0.046856435884152975 0 -0.024926507787018742 -0.04675503917611791 0 -0.025007256485021934 -0.046799451115261598 0 -0.025010978582565929 -0.046723478112781082 0 -0.024926507787018742 -0.04675503917611791 0 -0.025007256485021934 -0.046799451115261598 0 -0.023156179038433984 -0.044132377233175382 0 -0.021295125196271972 -0.04943028902852202 0 -0.024881766166256182 -0.047427173252597397 0 -0.027047747703559631 -0.04348770678661322 0 -0.025010978582565929 -0.046723478112781082 0 -0.025824153043572551 -0.04723765784679388 0 -0.02566739736225971 -0.046593131523005545 0 -0.025010978582565929 -0.046723478112781082 0 -0.025007256485021934 -0.046799451115261598 0 -0.025160665479853933 -0.046796200372362609 0 -0.024856052205219029 -0.049294863037203138 0 -0.025847092997685357 -0.049366616060384498 0 -0.025615547379475564 -0.049032197548766275 0 -0.025847092997685357 -0.049366616060384498 0 -0.025615547379475564 -0.049032197548766275 0 -0.026356687287832022 -0.048590318072801571 0 -0.02989910174577232 -0.045797599355815441 0 -0.029427312636506185 -0.047964921478221643 0 -0.026356687287832022 -0.048590318072801571 0 -0.025847092997685357 -0.049366616060384498 0 -0.026356687287832022 -0.048590318072801571 0 -0.028360740071794167 -0.04996720157624706 0 -0.029427312636506185 -0.047964921478221643 0 -0.026356687287832022 -0.048590318072801571 0 -0.028360740071794167 -0.04996720157624706 0 -0.025824153043572551 -0.04723765784679388 0 -0.02566739736225971 -0.046593131523005545 0 -0.026574128745020104 -0.047068505421552317 0 -0.026001146962013062 -0.047981171838569509 0 -0.028228546081141784 -0.047126970980704501 0 -0.027047747703559631 -0.04348770678661322 0 -0.028228546081141784 -0.047126970980704501 0 -0.025907542940831835 -0.037183723718333395 0 -0.027297620041451885 -0.038128830020291549 0 -0.027273759286548564 -0.036483241832832497 0 -0.028200733987604195 -0.042330775166894159 0 -0.028498063041124899 -0.042566297958150638 0 -0.02825680681168239 -0.042622126667874842 0 -0.02701309401270818 -0.039680051846746674 0 -0.027047747703559631 -0.04348770678661322 0 -0.023156179038433984 -0.044132377233175382 0 -0.027047747703559631 -0.04348770678661322 0 -0.028809294617760838 -0.037788902590682058 0 -0.027297620041451885 -0.038128830020291549 0 -0.027273759286548564 -0.036483241832832497 0 -0.025773918820108221 -0.036076072370714481 0 -0.026722959909910891 -0.035350759770550653 0 -0.027273759286548564 -0.036483241832832497 0 -0.025773918820108221 -0.036076072370714481 0 -0.025907542940831835 -0.037183723718333395 0 -0.027273759286548564 -0.036483241832832497 0 -0.026485082334503654 -0.04872462181885201 0 -0.026369139489885177 -0.048782209604052711 0 -0.026660417502387283 -0.048462649678550643 0 -0.027080636222347614 -0.048498883482191633 0 -0.026485082334503654 -0.04872462181885201 0 -0.026660417502387283 -0.048462649678550643 0 -0.026369139489885177 -0.048782209604052711 0 -0.026427701059106953 -0.048763653266719019 0 -0.026497416679737831 -0.04892080733665756 0 -0.026369139489885177 -0.048782209604052711 0 -0.026497416679737831 -0.04892080733665756 0 -0.026024381044777452 -0.049092776141077869 0 -0.026485082334503654 -0.04872462181885201 0 -0.026369139489885177 -0.048782209604052711 0 -0.026024381044777452 -0.049092776141077869 0 -0.025331913873927223 -0.047913003344143508 0 -0.026596775303437133 -0.048377546189102949 0 -0.024563921038519291 -0.046977174760423186 0 -0.026660417502387283 -0.048462649678550643 0 -0.024775654534969563 -0.048472879278077946 0 -0.026369139489885177 -0.048782209604052711 0 -0.026427701059106953 -0.048763653266719019 0 -0.026660417502387283 -0.048462649678550643 0 -0.02704640995204596 -0.049563842241674379 0 -0.026660417502387283 -0.048462649678550643 0 -0.026436628942790395 -0.049161169038405367 0 -0.026660417502387283 -0.048462649678550643 0 -0.026436628942790395 -0.049161169038405367 0 -0.025743509829830844 -0.04889198807611829 0 -0.028516842897736157 -0.047726564415765019 0 -0.02657636581902979 -0.048502740961952971 0 -0.02704640995204596 -0.049563842241674379 0 -0.026356687287832022 -0.048590318072801571 0 -0.026436628942790395 -0.049161169038405367 0 -0.026356687287832022 -0.048590318072801571 0 -0.026436628942790395 -0.049161169038405367 0 -0.025910266891336953 -0.048994474066306352 0 -0.025615547379475564 -0.049032197548766275 0 -0.025910266891336953 -0.048994474066306352 0 -0.025178449774812397 -0.04901028267566656 0 -0.025615547379475564 -0.049032197548766275 0 -0.026356687287832022 -0.048590318072801571 0 -0.025910266891336953 -0.048994474066306352 0 -0.026436628942790395 -0.049161169038405367 0 -0.025910266891336953 -0.048994474066306352 0 -0.025743509829830844 -0.04889198807611829 0 -0.025910266891336953 -0.048994474066306352 0 -0.025178449774812397 -0.04901028267566656 0 -0.025743509829830844 -0.04889198807611829 0 -0.025178449774812397 -0.04901028267566656 0 -0.025743509829830844 -0.04889198807611829 0 -0.024775654534969563 -0.048472879278077946 0 -0.026660417502387283 -0.048462649678550643 0 -0.025743509829830844 -0.04889198807611829 0 -0.024775654534969563 -0.048472879278077946 0 -0.025178449774812397 -0.04901028267566656 0 -0.024775654534969563 -0.048472879278077946 0 -0.024267392718755491 -0.048939105197792286 0 -0.023130075592690123 -0.050037805115040065 0 -0.022700296682643936 -0.047759084864332356 0 -0.024775654534969563 -0.048472879278077946 0 -0.024267392718755491 -0.048939105197792286 0 -0.022548769343460635 -0.047867983017441204 0 -0.022545847123266967 -0.049621916292161061 0 -0.023130075592690123 -0.050037805115040065 0 -0.024856052205219029 -0.049294863037203138 0 -0.025178449774812397 -0.04901028267566656 0 -0.024267392718755491 -0.048939105197792286 0 -0.024856052205219029 -0.049294863037203138 0 -0.025615547379475564 -0.049032197548766275 0 -0.025178449774812397 -0.04901028267566656 0 -0.022042626483248534 -0.053735661915764135 0 -0.022012524715927004 -0.050688243805113081 0 -0.019732769991069998 -0.052442611445303343 0 -0.022545847123266967 -0.049621916292161061 0 -0.01830383879987682 -0.051231354024796637 0 -0.022012524715927004 -0.050688243805113081 0 -0.019732769991069998 -0.052442611445303343 0 -0.019558980142255447 -0.05066729194117367 0 -0.019732769991069998 -0.052442611445303343 0 -0.019558980142255447 -0.05066729194117367 0 -0.017161106477718215 -0.050488899334892298 0 -0.022012524715927004 -0.050688243805113081 0 -0.019558980142255447 -0.05066729194117367 0 -0.019277969283970967 -0.049167395314643723 0 -0.019558980142255447 -0.05066729194117367 0 -0.019277969283970967 -0.049167395314643723 0 -0.017161106477718215 -0.050488899334892298 0 -0.022012524715927004 -0.050688243805113081 0 -0.019277969283970967 -0.049167395314643723 0 -0.022548769343460635 -0.047867983017441204 0 -0.019277969283970967 -0.049167395314643723 0 -0.020017470037564041 -0.047765287595259519 0 -0.022548769343460635 -0.047867983017441204 0 -0.019277969283970967 -0.049167395314643723 0 -0.020017470037564041 -0.047765287595259519 0 -0.017813058902968255 -0.048109954247178767 0 -0.020017470037564041 -0.047765287595259519 0 -0.019870609562834259 -0.046121208586240255 0 -0.017813058902968255 -0.048109954247178767 0 -0.020017470037564041 -0.047765287595259519 0 -0.022548769343460635 -0.047867983017441204 0 -0.019870609562834259 -0.046121208586240255 0 -0.024563921038519291 -0.046977174760423186 0 -0.022548769343460635 -0.047867983017441204 0 -0.019870609562834259 -0.046121208586240255 0 -0.025331913873927223 -0.047913003344143508 0 -0.023700008711124747 -0.047465897768565114 0 -0.024563921038519291 -0.046977174760423186 0 -0.024775654534969563 -0.048472879278077946 0 -0.022548769343460635 -0.047867983017441204 0 -0.026427701059106953 -0.048763653266719019 0 -0.026497416679737831 -0.04892080733665756 0 -0.026448177516105145 -0.048978357075741816 0 -0.026497416679737831 -0.04892080733665756 0 -0.026448177516105145 -0.048978357075741816 0 -0.026439044823246393 -0.048898865911597603 0 -0.026448177516105145 -0.048978357075741816 0 -0.026030946485641394 -0.048978533389187305 0 -0.026439044823246393 -0.048898865911597603 0 -0.018668564525201839 -0.049295322477002565 0 -0.023170805569394704 -0.051387243602955504 0 -0.019870609562834259 -0.046121208586240255 0 -0.016166370060064644 -0.046492878167269117 0 -0.01643898535804645 -0.047603598182024427 0 -0.023700008711124747 -0.047465897768565114 0 -0.018668564525201839 -0.049295322477002565 0 -0.01679467050436494 -0.053754592978576814 0 -0.015406414091201049 -0.052602481261749962 0 -0.01602933318276958 -0.052665222769685195 0 -0.014693506495726056 -0.048091283648050182 0 -0.014850249154601022 -0.048025988403052493 0 -0.014576979382861805 -0.048626875025331404 0 -0.018668564525201839 -0.049295322477002565 0 -0.014688882466079243 -0.0505871638168136 0 -0.018668564525201839 -0.049295322477002565 0 -0.014949059483397564 -0.048616022298147356 0 -0.016166370060064644 -0.046492878167269117 0 -0.014850249154601022 -0.048025988403052493 0 -0.01643898535804645 -0.047603598182024427 0 -0.01643898535804645 -0.047603598182024427 0 -0.015790024409941948 -0.048491398714932202 0 -0.017813058902968255 -0.048109954247178767 0 -0.014850249154601022 -0.048025988403052493 0 -0.01643898535804645 -0.047603598182024427 0 -0.015790024409941948 -0.048491398714932202 0 -0.014850249154601022 -0.048025988403052493 0 -0.015790024409941948 -0.048491398714932202 0 -0.014734450419907058 -0.048734881341972 0 -0.015790024409941948 -0.048491398714932202 0 -0.015438946735584073 -0.049247239867680037 0 -0.014734450419907058 -0.048734881341972 0 -0.019870609562834259 -0.046121208586240255 0 -0.01643898535804645 -0.047603598182024427 0 -0.017813058902968255 -0.048109954247178767 0 -0.015790024409941948 -0.048491398714932202 0 -0.017813058902968255 -0.048109954247178767 0 -0.016474298550073499 -0.049368505731440346 0 -0.019277969283970967 -0.049167395314643723 0 -0.017813058902968255 -0.048109954247178767 0 -0.016474298550073499 -0.049368505731440346 0 -0.019277969283970967 -0.049167395314643723 0 -0.017161106477718215 -0.050488899334892298 0 -0.016474298550073499 -0.049368505731440346 0 -0.017161106477718215 -0.050488899334892298 0 -0.016020519101698615 -0.050100649895408758 0 -0.016474298550073499 -0.049368505731440346 0 -0.01830383879987682 -0.051231354024796637 0 -0.017391781166450432 -0.050701349588585368 0 -0.016703583146943389 -0.050597824590291565 0 -0.017108179780215848 -0.050456406612367111 0 -0.017161106477718215 -0.050488899334892298 0 -0.016703583146943389 -0.050597824590291565 0 -0.017161106477718215 -0.050488899334892298 0 -0.016020519101698615 -0.050100649895408758 0 -0.015894867355384527 -0.050415709749661163 0 -0.016703583146943389 -0.050597824590291565 0 -0.016020519101698615 -0.050100649895408758 0 -0.016020519101698615 -0.050100649895408758 0 -0.014920241925160279 -0.049600295801221689 0 -0.015364274447336105 -0.05014558738263445 0 -0.015894867355384527 -0.050415709749661163 0 -0.016020519101698615 -0.050100649895408758 0 -0.015364274447336105 -0.05014558738263445 0 -0.016020519101698615 -0.050100649895408758 0 -0.015438946735584073 -0.049247239867680037 0 -0.014920241925160279 -0.049600295801221689 0 -0.016020519101698615 -0.050100649895408758 0 -0.016474298550073499 -0.049368505731440346 0 -0.015438946735584073 -0.049247239867680037 0 -0.015790024409941948 -0.048491398714932202 0 -0.016474298550073499 -0.049368505731440346 0 -0.015438946735584073 -0.049247239867680037 0 -0.015438946735584073 -0.049247239867680037 0 -0.014850719594414053 -0.049178439841183579 0 -0.014920241925160279 -0.049600295801221689 0 -0.014850719594414053 -0.049178439841183579 0 -0.014920241925160279 -0.049600295801221689 0 -0.014389159655777146 -0.049126054911733927 0 -0.014920241925160279 -0.049600295801221689 0 -0.014706497062156924 -0.050045953261823012 0 -0.015364274447336105 -0.05014558738263445 0 -0.014920241925160279 -0.049600295801221689 0 -0.014706497062156924 -0.050045953261823012 0 -0.014296968588096089 -0.049603262188913554 0 -0.015232669804756464 -0.050444812737952656 0 -0.014706497062156924 -0.050045953261823012 0 -0.015364274447336105 -0.05014558738263445 0 -0.014005687809147625 -0.049973009251857173 0 -0.014296968588096089 -0.049603262188913554 0 -0.013715044136353475 -0.049518601274346048 0 -0.014005687809147625 -0.049973009251857173 0 -0.014706497062156924 -0.050045953261823012 0 -0.014296968588096089 -0.049603262188913554 0 -0.014920241925160279 -0.049600295801221689 0 -0.014296968588096089 -0.049603262188913554 0 -0.014389159655777146 -0.049126054911733927 0 -0.014296968588096089 -0.049603262188913554 0 -0.014032858184025445 -0.049254549742931863 0 -0.013715044136353475 -0.049518601274346048 0 -0.014296968588096089 -0.049603262188913554 0 -0.014389159655777146 -0.049126054911733927 0 -0.014032858184025445 -0.049254549742931863 0 -0.014389159655777146 -0.049126054911733927 0 -0.014319438174146696 -0.048936996957825496 0 -0.01410822243399674 -0.049095555956741414 0 -0.014389159655777146 -0.049126054911733927 0 -0.014032858184025445 -0.049254549742931863 0 -0.01410822243399674 -0.049095555956741414 0 -0.014319438174146696 -0.048936996957825496 0 -0.01410822243399674 -0.049095555956741414 0 -0.014310557124977124 -0.04935604116784631 0 -0.014389159655777146 -0.049126054911733927 0 -0.014319438174146696 -0.048936996957825496 0 -0.014734450419907058 -0.048734881341972 0 -0.014850719594414053 -0.049178439841183579 0 -0.014389159655777146 -0.049126054911733927 0 -0.014734450419907058 -0.048734881341972 0 -0.015438946735584073 -0.049247239867680037 0 -0.014850719594414053 -0.049178439841183579 0 -0.014734450419907058 -0.048734881341972 0 -0.014319438174146696 -0.048936996957825496 0 -0.014734450419907058 -0.048734881341972 0 -0.014542940730882584 -0.04861123639138884 0 -0.014850249154601022 -0.048025988403052493 0 -0.014734450419907058 -0.048734881341972 0 -0.014542940730882584 -0.04861123639138884 0 -0.014850249154601022 -0.048025988403052493 0 -0.014542940730882584 -0.04861123639138884 0 -0.014576979382861805 -0.048626875025331404 0 -0.014542940730882584 -0.04861123639138884 0 -0.014576979382861805 -0.048626875025331404 0 -0.014369130661369436 -0.04908515052777223 0 -0.014576979382861805 -0.048626875025331404 0 -0.014369130661369436 -0.04908515052777223 0 -0.014374216223479003 -0.050179999519589277 0 -0.014369130661369436 -0.04908515052777223 0 -0.014374216223479003 -0.050179999519589277 0 -0.014310557124977124 -0.04935604116784631 0 -0.014319438174146696 -0.048936996957825496 0 -0.014369130661369436 -0.04908515052777223 0 -0.014310557124977124 -0.04935604116784631 0 -0.014319438174146696 -0.048936996957825496 0 -0.014542940730882584 -0.04861123639138884 0 -0.014369130661369436 -0.04908515052777223 0 -0.014374216223479003 -0.050179999519589277 0 -0.015104150409160914 -0.051520016817874201 0 -0.014469147650125176 -0.049928241294084311 0 -0.014688882466079243 -0.0505871638168136 0 -0.014828162231499993 -0.050379594877585414 0 -0.014374216223479003 -0.050179999519589277 0 -0.014469147650125176 -0.049928241294084311 0 -0.014403607011228507 -0.050002618066634016 0 -0.014969579230322197 -0.051432557056759115 0 -0.014535351816344409 -0.050921390212695365 0 -0.015406414091201049 -0.052602481261749962 0 -0.014374216223479003 -0.050179999519589277 0 -0.015104150409160914 -0.051520016817874201 0 -0.015406414091201049 -0.052602481261749962 0 -0.015104150409160914 -0.051520016817874201 0 -0.015485025803497953 -0.052070579811280326 0 -0.015406414091201049 -0.052602481261749962 0 -0.015485025803497953 -0.052070579811280326 0 -0.01602933318276958 -0.052665222769685195 0 -0.015485025803497953 -0.052070579811280326 0 -0.015186100837597874 -0.051939626984679153 0 -0.015902202689484075 -0.052264036502497092 0 -0.015485025803497953 -0.052070579811280326 0 -0.015902202689484075 -0.052264036502497092 0 -0.01602933318276958 -0.052665222769685195 0 -0.015104150409160914 -0.051520016817874201 0 -0.015485025803497953 -0.052070579811280326 0 -0.015186100837597874 -0.051939626984679153 0 -0.015104150409160914 -0.051520016817874201 0 -0.015186100837597874 -0.051939626984679153 0 -0.014471111248613723 -0.051966588971277754 0 -0.015186100837597874 -0.051939626984679153 0 -0.015405824067880285 -0.051421978982703703 0 -0.016560047866051121 -0.052058585350433617 0 -0.015186100837597874 -0.051939626984679153 0 -0.014471111248613723 -0.051966588971277754 0 -0.015405824067880285 -0.051421978982703703 0 -0.014535351816344409 -0.050921390212695365 0 -0.012844308167915723 -0.05080459713293229 0 -0.014471111248613723 -0.051966588971277754 0 -0.014226897978760571 -0.05095249255996713 0 -0.013245296412616519 -0.051106946315408283 0 -0.014226897978760571 -0.05095249255996713 0 -0.012829033281445176 -0.049999552612036154 0 -0.013245296412616519 -0.051106946315408283 0 -0.012826549102046702 -0.050000912289801039 0 -0.012844308167915723 -0.05080459713293229 0 -0.014226897978760571 -0.05095249255996713 0 -0.015405824067880285 -0.051421978982703703 0 -0.015687897921382955 -0.049999557745964936 0 -0.014226897978760571 -0.05095249255996713 0 -0.012829033281445176 -0.049999552612036154 0 -0.015687897921382955 -0.049999557745964936 0 -0.014471111248613723 -0.051966588971277754 0 -0.014226897978760571 -0.05095249255996713 0 -0.015405824067880285 -0.051421978982703703 0 -0.015405824067880285 -0.051421978982703703 0 -0.017199793714211351 -0.0511376163639609 0 -0.016560047866051121 -0.052058585350433617 0 -0.015405824067880285 -0.051421978982703703 0 -0.017199793714211351 -0.0511376163639609 0 -0.015687897921382955 -0.049999557745964936 0 -0.017199793714211351 -0.0511376163639609 0 -0.015687897921382955 -0.049999557745964936 0 -0.018549504680689475 -0.049999113741361581 0 -0.017199793714211351 -0.0511376163639609 0 -0.018549504680689475 -0.049999113741361581 0 -0.019162671752474325 -0.051335342630880056 0 -0.017199793714211351 -0.0511376163639609 0 -0.018078038915756722 -0.052168692073185419 0 -0.019162671752474325 -0.051335342630880056 0 -0.018078038915756722 -0.052168692073185419 0 -0.016560047866051121 -0.052058585350433617 0 -0.017458773387457088 -0.052950110802217863 0 -0.017199793714211351 -0.0511376163639609 0 -0.018078038915756722 -0.052168692073185419 0 -0.016560047866051121 -0.052058585350433617 0 -0.015186100837597874 -0.051939626984679153 0 -0.016560047866051121 -0.052058585350433617 0 -0.015902202689484075 -0.052264036502497092 0 -0.016560047866051121 -0.052058585350433617 0 -0.016593810287083486 -0.052605979084008714 0 -0.017458773387457088 -0.052950110802217863 0 -0.016560047866051121 -0.052058585350433617 0 -0.016593810287083486 -0.052605979084008714 0 -0.015902202689484075 -0.052264036502497092 0 -0.016593810287083486 -0.052605979084008714 0 -0.015902202689484075 -0.052264036502497092 0 -0.01602933318276958 -0.052665222769685195 0 -0.01679467050436494 -0.053754592978576814 0 -0.016593810287083486 -0.052605979084008714 0 -0.01602933318276958 -0.052665222769685195 0 -0.01679467050436494 -0.053754592978576814 0 -0.016593810287083486 -0.052605979084008714 0 -0.017458773387457088 -0.052950110802217863 0 -0.018078038915756722 -0.052168692073185419 0 -0.017458773387457088 -0.052950110802217863 0 -0.01891475990341613 -0.053609826675855787 0 -0.01679467050436494 -0.053754592978576814 0 -0.017458773387457088 -0.052950110802217863 0 -0.01891475990341613 -0.053609826675855787 0 -0.01891475990341613 -0.053609826675855787 0 -0.021689363017801933 -0.052925951302628879 0 -0.019840615716583146 -0.052424875568299112 0 -0.023170805569394704 -0.051387243602955504 0 -0.023986597127802999 -0.051026292349335686 0 -0.018078038915756722 -0.052168692073185419 0 -0.01891475990341613 -0.053609826675855787 0 -0.019840615716583146 -0.052424875568299112 0 -0.026497416679737831 -0.04892080733665756 0 -0.026439044823246393 -0.048898865911597603 0 -0.02656577357390795 -0.049256821281424716 0 -0.026497416679737831 -0.04892080733665756 0 -0.02656577357390795 -0.049256821281424716 0 -0.026024381044777452 -0.049092776141077869 0 -0.021689363017801933 -0.052925951302628879 0 -0.019840615716583146 -0.052424875568299112 0 -0.022163723738162694 -0.050788866198867952 0 -0.019840615716583146 -0.052424875568299112 0 -0.019162671752474325 -0.051335342630880056 0 -0.022163723738162694 -0.050788866198867952 0 -0.018078038915756722 -0.052168692073185419 0 -0.019840615716583146 -0.052424875568299112 0 -0.019162671752474325 -0.051335342630880056 0 -0.018549504680689475 -0.049999113741361581 0 -0.019162671752474325 -0.051335342630880056 0 -0.020505418096540638 -0.050475641097966928 0 -0.018549504680689475 -0.049999113741361581 0 -0.02141163865106431 -0.049998796364194055 0 -0.020505418096540638 -0.050475641097966928 0 -0.02141163865106431 -0.049998796364194055 0 -0.020505418096540638 -0.050475641097966928 0 -0.022971721734038827 -0.050188521880826759 0 -0.020505418096540638 -0.050475641097966928 0 -0.022163723738162694 -0.050788866198867952 0 -0.022971721734038827 -0.050188521880826759 0 -0.019162671752474325 -0.051335342630880056 0 -0.020505418096540638 -0.050475641097966928 0 -0.022163723738162694 -0.050788866198867952 0 -0.022163723738162694 -0.050788866198867952 0 -0.022971721734038827 -0.050188521880826759 0 -0.024738592530963166 -0.050228949925422352 0 -0.027284258858223869 -0.047771811929037553 0 -0.024738592530963166 -0.050228949925422352 0 -0.025156160425838889 -0.050279483843244731 0 -0.022163723738162694 -0.050788866198867952 0 -0.024738592530963166 -0.050228949925422352 0 -0.025156160425838889 -0.050279483843244731 0 -0.02141163865106431 -0.049998796364194055 0 -0.022971721734038827 -0.050188521880826759 0 -0.024272919447093783 -0.049998896501922165 0 -0.022971721734038827 -0.050188521880826759 0 -0.024272919447093783 -0.049998896501922165 0 -0.024738592530963166 -0.050228949925422352 0 -0.025877038968186411 -0.050392927340654953 0 -0.024272919447093783 -0.049998896501922165 0 -0.024738592530963166 -0.050228949925422352 0 -0.021689363017801933 -0.052925951302628879 0 -0.022163723738162694 -0.050788866198867952 0 -0.025156160425838889 -0.050279483843244731 0 -0.023986597127802999 -0.051026292349335686 0 -0.025076167789492475 -0.050410334444914037 0 -0.02656577357390795 -0.049256821281424716 0 -0.025156160425838889 -0.050279483843244731 0 -0.026024381044777452 -0.049092776141077869 0 -0.026560589349537748 -0.048744724365837704 0 -0.025156160425838889 -0.050279483843244731 0 -0.026024381044777452 -0.049092776141077869 0 -0.026560589349537748 -0.048744724365837704 0 -0.026485082334503654 -0.04872462181885201 0 -0.026024381044777452 -0.049092776141077869 0 -0.0054806270734649521 -0.052245708063637535 0 -0.0038055661926164469 -0.053168616523757699 0 -0.0048205085364776291 -0.054581797249147163 0 -0.0054806270734649521 -0.052245708063637535 0 -0.0049921127887591751 -0.051524123706682565 0 -0.0037404655408529081 -0.051899638555581336 0 -0.0054806270734649521 -0.052245708063637535 0 -0.0063727866529190332 -0.051497322531702541 0 -0.0049921127887591751 -0.051524123706682565 0 -0.0054806270734649521 -0.052245708063637535 0 -0.0038055661926164469 -0.053168616523757699 0 -0.0037404655408529081 -0.051899638555581336 0 -0.0078570174924899559 -0.051341262989786217 0 -0.010828933264522491 -0.050903600139027526 0 -0.010534019676888981 -0.050941714012600031 0 -0.0054806270734649521 -0.052245708063637535 0 -0.0078570174924899559 -0.051341262989786217 0 -0.0048205085364776291 -0.054581797249147163 0 -0.0078570174924899559 -0.051341262989786217 0 -0.0078428594451086988 -0.051125588791241572 0 -0.010534019676888981 -0.050941714012600031 0 -0.0079256469871487809 -0.051153432708839389 0 -0.0078609364413200506 -0.052526292377993514 0 -0.0054806270734649521 -0.052245708063637535 0 -0.0063727866529190332 -0.051497322531702541 0 -0.0078570174924899559 -0.051341262989786217 0 -0.0078428594451086988 -0.051125588791241572 0 -0.0062236858956752116 -0.051005486455531712 0 -0.0043814669413357564 -0.050199581887358055 0 -0.0063727866529190332 -0.051497322531702541 0 -0.0071532076715126484 -0.051234146480129729 0 -0.0062236858956752116 -0.051005486455531712 0 -0.011042176992329861 -0.050789743937242754 0 -0.011021837210180289 -0.050817258308655119 0 -0.011001162502039922 -0.050840674700789436 0 -0.0063727866529190332 -0.051497322531702541 0 -0.0078570174924899559 -0.051341262989786217 0 -0.0071532076715126484 -0.051234146480129729 0 -0.0078570174924899559 -0.051341262989786217 0 -0.0071532076715126484 -0.051234146480129729 0 -0.0078428594451086988 -0.051125588791241572 0 -0.0071532076715126484 -0.051234146480129729 0 -0.0078428594451086988 -0.051125588791241572 0 -0.0062236858956752116 -0.051005486455531712 0 -0.011042176992329861 -0.050789743937242754 0 -0.011021837210180289 -0.050817258308655119 0 -0.011030227175878182 -0.050798307965096053 0 -0.0078428594451086988 -0.051125588791241572 0 -0.0043814669413357564 -0.050199581887358055 0 -0.0037255989903938894 -0.048533125537113156 0 -0.0062236858956752116 -0.051005486455531712 0 -0.0043814669413357564 -0.050199581887358055 0 -0.0043999756335118632 -0.051005979271473947 0 -0.0097788800739930151 -0.050854088123268373 0 -0.0052107845677683458 -0.051073714142885737 0 -0.0062236858956752116 -0.051005486455531712 0 -0.0043999756335118632 -0.051005979271473947 0 -0.0049921127887591751 -0.051524123706682565 0 -0.0063727866529190332 -0.051497322531702541 0 -0.0062236858956752116 -0.051005486455531712 0 -0.0049921127887591751 -0.051524123706682565 0 -0.0043999756335118632 -0.051005979271473947 0 -0.0037404655408529081 -0.051899638555581336 0 -0.0030661690127238798 -0.050822342856260694 0 -0.0043999756335118632 -0.051005979271473947 0 -0.0049921127887591751 -0.051524123706682565 0 -0.0037404655408529081 -0.051899638555581336 0 -0.0043814669413357564 -0.050199581887358055 0 -0.0030661690127238798 -0.050822342856260694 0 -0.0022712462869503248 -0.049862437018214939 0 -0.0043814669413357564 -0.050199581887358055 0 -0.0043999756335118632 -0.051005979271473947 0 -0.0030661690127238798 -0.050822342856260694 0 -0.0030661690127238798 -0.050822342856260694 0 -0.0018253831204004824 -0.050668594518379746 0 -0.0019866583070249086 -0.05153919603274399 0 -0.0030661690127238798 -0.050822342856260694 0 -0.0018253831204004824 -0.050668594518379746 0 -0.0022712462869503248 -0.049862437018214939 0 -0.0018253831204004824 -0.050668594518379746 0 -0.0019866583070249086 -0.05153919603274399 0 -0.00062484952859415003 -0.051089992898183167 0 -0.0018253831204004824 -0.050668594518379746 0 -0.00062484952859415003 -0.051089992898183167 0 -0.0011544212064043353 -0.050403002045599873 0 -0.0037404655408529081 -0.051899638555581336 0 -0.0030661690127238798 -0.050822342856260694 0 -0.0019866583070249086 -0.05153919603274399 0 -0.00062484952859415003 -0.051089992898183167 0 -0.00013801520372977636 -0.050612722270580189 0 0.00074619286113529698 -0.051150260323073696 0 -0.0019866583070249086 -0.05153919603274399 0 -0.00062484952859415003 -0.051089992898183167 0 -0.0005894750725680373 -0.051945935213060512 0 -0.00062484952859415003 -0.051089992898183167 0 0.00072349805108002014 -0.051731635712859401 0 -0.0005894750725680373 -0.051945935213060512 0 -0.00062484952859415003 -0.051089992898183167 0 0.00072349805108002014 -0.051731635712859401 0 0.00074619286113529698 -0.051150260323073696 0 -0.0005894750725680373 -0.051945935213060512 0 -0.0019804460923948269 -0.052839450734937218 0 0.0011412982235248373 -0.052895221018568521 0 -0.0040816274538244589 -0.053225671712369201 0 0.0059718814292196928 -0.049807001547516751 0 -0.0019804460923948269 -0.052839450734937218 0 -0.0015615805801270036 -0.053692440214719035 0 -0.0008277163946970238 -0.053021632175033653 0 0.00072349805108002014 -0.051731635712859401 0 -0.0005894750725680373 -0.051945935213060512 0 0.0011412982235248373 -0.052895221018568521 0 -0.0037404655408529081 -0.051899638555581336 0 -0.0019866583070249086 -0.05153919603274399 0 -0.0019804460923948269 -0.052839450734937218 0 -0.0038055661926164469 -0.053168616523757699 0 -0.0037404655408529081 -0.051899638555581336 0 -0.0019804460923948269 -0.052839450734937218 0 -0.0019866583070249086 -0.05153919603274399 0 -0.0005894750725680373 -0.051945935213060512 0 -0.0019804460923948269 -0.052839450734937218 0 -0.0038055661926164469 -0.053168616523757699 0 -0.0019804460923948269 -0.052839450734937218 0 -0.0029591059786597501 -0.054042040673365904 0 -0.0029591059786597501 -0.054042040673365904 0 -0.0022982948298018156 -0.054649451803954432 0 -0.0033935849338061195 -0.05493324330974618 0 -0.0029591059786597501 -0.054042040673365904 0 -0.0015615805801270036 -0.053692440214719035 0 -0.0022982948298018156 -0.054649451803954432 0 -0.0019804460923948269 -0.052839450734937218 0 -0.0029591059786597501 -0.054042040673365904 0 -0.0015615805801270036 -0.053692440214719035 0 -0.0015615805801270036 -0.053692440214719035 0 -0.0022982948298018156 -0.054649451803954432 0 -0.00040265383547490171 -0.054415358201844281 0 -0.0020170910963771588 -0.054970485252097148 0 -0.0022248409669213365 -0.054767289383623262 0 -0.0013853268719730639 -0.055363565032864832 0 -0.0022982948298018156 -0.054649451803954432 0 -0.00040265383547490171 -0.054415358201844281 0 -0.0029534456015675287 -0.055492986129798666 0 -0.0023663363114194841 -0.05528641385313611 0 -0.0022982948298018156 -0.054649451803954432 0 -0.0029534456015675287 -0.055492986129798666 0 -0.0022982948298018156 -0.054649451803954432 0 -0.0033935849338061195 -0.05493324330974618 0 -0.0036300543244669956 -0.055393455314194415 0 -0.0033935849338061195 -0.05493324330974618 0 -0.0048205085364776291 -0.054581797249147163 0 -0.0079810271400084232 -0.052602806704288255 0 -0.0078609364413200506 -0.052526292377993514 0 -0.0029591059786597501 -0.054042040673365904 0 -0.0033935849338061195 -0.05493324330974618 0 -0.0048205085364776291 -0.054581797249147163 0 -0.0038055661926164469 -0.053168616523757699 0 -0.0029591059786597501 -0.054042040673365904 0 -0.0048205085364776291 -0.054581797249147163 0 -0.010828933264522491 -0.050903600139027526 0 -0.011531546098726383 -0.050417963446353097 0 -0.010534019676888981 -0.050941714012600031 0 -0.012369620554953185 -0.050188659911455616 0 -0.010828933264522491 -0.050903600139027526 0 -0.011531546098726383 -0.050417963446353097 0 -0.011531546098726383 -0.050417963446353097 0 -0.011470240961401508 -0.050331198188398159 0 -0.010534019676888981 -0.050941714012600031 0 -0.011885607636782185 -0.050031688898070879 0 -0.011531546098726383 -0.050417963446353097 0 -0.011470240961401508 -0.050331198188398159 0 -0.011933827854427969 -0.050010839916087568 0 -0.011470240961401508 -0.050331198188398159 0 -0.011477820050286565 -0.050299567938255699 0 -0.011933827854427969 -0.050010839916087568 0 -0.011477820050286565 -0.050299567938255699 0 -0.011045072096634152 -0.050571205391147379 0 -0.011924935691621051 -0.050077338278264064 0 -0.012117120337984344 -0.049932876100927594 0 -0.011477820050286565 -0.050299567938255699 0 -0.011045072096634152 -0.050571205391147379 0 -0.011186522656394089 -0.050664731740123176 0 -0.011393711204407251 -0.050410852609607697 0 -0.010839759556577008 -0.050867544496934952 0 -0.011470240961401508 -0.050331198188398159 0 -0.011477820050286565 -0.050299567938255699 0 -0.010534019676888981 -0.050941714012600031 0 -0.014005687809147625 -0.049973009251857173 0 -0.013715044136353475 -0.049518601274346048 0 -0.013391261309081156 -0.049846034271528221 0 -0.013715044136353475 -0.049518601274346048 0 -0.013391261309081156 -0.049846034271528221 0 -0.013102910307333725 -0.04967105834595692 0 -0.013715044136353475 -0.049518601274346048 0 -0.013102910307333725 -0.04967105834595692 0 -0.013437814948620281 -0.049357177816069409 0 -0.011933827854427969 -0.050010839916087568 0 -0.013102910307333725 -0.04967105834595692 0 -0.013177284743216085 -0.049167771899690453 0 -0.013177284743216085 -0.049167771899690453 0 -0.013437814948620281 -0.049357177816069409 0 -0.013752349298816633 -0.0491776745876372 0 -0.013102910307333725 -0.04967105834595692 0 -0.013177284743216085 -0.049167771899690453 0 -0.013437814948620281 -0.049357177816069409 0 -0.013715044136353475 -0.049518601274346048 0 -0.013437814948620281 -0.049357177816069409 0 -0.013752349298816633 -0.0491776745876372 0 -0.014032858184025445 -0.049254549742931863 0 -0.013715044136353475 -0.049518601274346048 0 -0.013752349298816633 -0.0491776745876372 0 -0.013752349298816633 -0.0491776745876372 0 -0.01410822243399674 -0.049095555956741414 0 -0.0141913195927416 -0.049206966250205771 0 -0.014032858184025445 -0.049254549742931863 0 -0.013752349298816633 -0.0491776745876372 0 -0.01410822243399674 -0.049095555956741414 0 -0.012117120337984344 -0.049932876100927594 0 -0.012501505530589877 -0.050052065475932876 0 -0.011045072096634152 -0.050571205391147379 0 -0.01088532817973399 -0.050780758234872943 0 -0.0110332733853628 -0.050724450005909728 0 -0.013177284743216085 -0.049167771899690453 0 -0.013752349298816633 -0.0491776745876372 0 -0.0141913195927416 -0.049206966250205771 0 -0.01410822243399674 -0.049095555956741414 0 -0.0141913195927416 -0.049206966250205771 0 -0.014310557124977124 -0.04935604116784631 0 -0.0141913195927416 -0.049206966250205771 0 -0.014310557124977124 -0.04935604116784631 0 -0.014403607011228507 -0.050002618066634016 0 -0.011042176992329861 -0.050789743937242754 0 -0.011186522656394089 -0.050664731740123176 0 -0.011066368200434657 -0.050758778814241248 0 -0.0097788800739930151 -0.050854088123268373 0 -0.010839759556577008 -0.050867544496934952 0 -0.011186522656394089 -0.050664731740123176 0 -0.0110332733853628 -0.050724450005909728 0 -0.011066368200434657 -0.050758778814241248 0 -0.011045072096634152 -0.050571205391147379 0 -0.011186522656394089 -0.050664731740123176 0 -0.0110332733853628 -0.050724450005909728 0 -0.01088532817973399 -0.050780758234872943 0 -0.0110332733853628 -0.050724450005909728 0 -0.010988190402788912 -0.050817026839255715 0 -0.011066368200434657 -0.050758778814241248 0 -0.011030227175878182 -0.050798307965096053 0 -0.010988190402788912 -0.050817026839255715 0 -0.011042176992329861 -0.050789743937242754 0 -0.011066368200434657 -0.050758778814241248 0 -0.011030227175878182 -0.050798307965096053 0 -0.0110332733853628 -0.050724450005909728 0 -0.011066368200434657 -0.050758778814241248 0 -0.010988190402788912 -0.050817026839255715 0 -0.010988190402788912 -0.050817026839255715 0 -0.010976669970316122 -0.050898028661766681 0 -0.011010151883339377 -0.050837894833774717 0 -0.011030227175878182 -0.050798307965096053 0 -0.010988190402788912 -0.050817026839255715 0 -0.011010151883339377 -0.050837894833774717 0 -0.010988190402788912 -0.050817026839255715 0 -0.010856518350413341 -0.050902455306215275 0 -0.010976669970316122 -0.050898028661766681 0 -0.01088532817973399 -0.050780758234872943 0 -0.010988190402788912 -0.050817026839255715 0 -0.010856518350413341 -0.050902455306215275 0 -0.010856518350413341 -0.050902455306215275 0 -0.010747928728044467 -0.050933039520306075 0 -0.010814743376747048 -0.050951208831321759 0 -0.0094425162390816761 -0.051580922815592685 0 -0.0087856638742444468 -0.052489471599363291 0 -0.010856518350413341 -0.050902455306215275 0 -0.010814743376747048 -0.050951208831321759 0 -0.010976669970316122 -0.050898028661766681 0 -0.014374216223479003 -0.050179999519589277 0 -0.014310557124977124 -0.04935604116784631 0 -0.014403607011228507 -0.050002618066634016 0 -0.012501505530589877 -0.050052065475932876 0 -0.012604985873855775 -0.050369518574649712 0 -0.01088532817973399 -0.050780758234872943 0 -0.010856518350413341 -0.050902455306215275 0 -0.0108111245249794 -0.05094455111758156 0 -0.010856518350413341 -0.050902455306215275 0 -0.0108111245249794 -0.05094455111758156 0 -0.010747928728044467 -0.050933039520306075 0 -0.014469147650125176 -0.049928241294084311 0 -0.014403607011228507 -0.050002618066634016 0 -0.014413240173811763 -0.049880546814058263 0 -0.012604985873855775 -0.050369518574649712 0 -0.012844308167915723 -0.05080459713293229 0 -0.0108111245249794 -0.05094455111758156 0 -0.011085690791576012 -0.050913660624031847 0 -0.010747928728044467 -0.050933039520306075 0 -0.011085690791576012 -0.050913660624031847 0 -0.010747928728044467 -0.050933039520306075 0 -0.01052412741742372 -0.050741065702719759 0 -0.010747928728044467 -0.050933039520306075 0 -0.01052412741742372 -0.050741065702719759 0 -0.010814743376747048 -0.050951208831321759 0 -0.01052412741742372 -0.050741065702719759 0 -0.011131888165846017 -0.050000535072173655 0 -0.0085896804982900608 -0.04999957362139975 0 -0.012844308167915723 -0.05080459713293229 0 -0.011131989799189168 -0.050000310407004672 0 -0.012826603013975479 -0.049999986751996885 0 -0.012206746175228763 -0.051852346081247724 0 -0.011132373556382266 -0.049999995851824061 0 -0.011085690791576012 -0.050913660624031847 0 -0.01052412741742372 -0.050741065702719759 0 -0.011131888165846017 -0.050000535072173655 0 -0.0081364245636788915 -0.052307546858509552 0 -0.0050631991798123525 -0.051742899899982965 0 -0.0059653250390243771 -0.05368863195685937 0 -0.010510826147703366 -0.050795965789336733 0 -0.0094425162390816761 -0.051580922815592685 0 -0.01052412741742372 -0.050741065702719759 0 -0.0081364245636788915 -0.052307546858509552 0 -0.0085896804982900608 -0.04999957362139975 0 -0.0081364245636788915 -0.052307546858509552 0 -0.0085896804982900608 -0.04999957362139975 0 -0.0060459974900390753 -0.049999979331851886 0 -0.0081364245636788915 -0.052307546858509552 0 -0.0060459974900390753 -0.049999979331851886 0 -0.0050631991798123525 -0.051742899899982965 0 -0.0060459974900390753 -0.049999979331851886 0 -0.0035033188730653714 -0.049999808041974028 0 -0.0050631991798123525 -0.051742899899982965 0 -0.0035033188730653714 -0.049999808041974028 0 -0.0050631991798123525 -0.051742899899982965 0 -0.0026341800336845789 -0.051371339434298745 0 -0.0050631991798123525 -0.051742899899982965 0 -0.004035059446937125 -0.053235459846178987 0 -0.0026341800336845789 -0.051371339434298745 0 -0.0050631991798123525 -0.051742899899982965 0 -0.0059653250390243771 -0.05368863195685937 0 -0.004035059446937125 -0.053235459846178987 0 -0.0087856638742444468 -0.052489471599363291 0 -0.0052107845677683458 -0.051073714142885737 0 -0.004035059446937125 -0.053235459846178987 0 -0.0037605446177212836 -0.055178073330658703 0 -0.0021716592400063618 -0.053362272799881483 0 -0.0059653250390243771 -0.05368863195685937 0 -0.004035059446937125 -0.053235459846178987 0 -0.0037605446177212836 -0.055178073330658703 0 -0.0043814669413357564 -0.050199581887358055 0 -0.0037255989903938894 -0.048533125537113156 0 -0.0022712462869503248 -0.049862437018214939 0 -0.0052107845677683458 -0.051073714142885737 0 -0.0033503165643233137 -0.050781314682559746 0 -0.011021837210180289 -0.050817258308655119 0 -0.011001162502039922 -0.050840674700789436 0 -0.011010151883339377 -0.050837894833774717 0 -0.010976669970316122 -0.050898028661766681 0 -0.011001162502039922 -0.050840674700789436 0 -0.011010151883339377 -0.050837894833774717 0 -0.011021837210180289 -0.050817258308655119 0 -0.011030227175878182 -0.050798307965096053 0 -0.011010151883339377 -0.050837894833774717 0 -0.00013801520372977636 -0.050612722270580189 0 6.5465971366774408e-05 -0.05058329140069856 0 0.00078553221213027117 -0.050920971272541769 0 -0.00013801520372977636 -0.050612722270580189 0 -0.0011544212064043353 -0.050403002045599873 0 -0.00057270283136010827 -0.050320011777452892 0 -0.00013801520372977636 -0.050612722270580189 0 0.00078553221213027117 -0.050920971272541769 0 0.00074619286113529698 -0.051150260323073696 0 -0.00062484952859415003 -0.051089992898183167 0 -0.00013801520372977636 -0.050612722270580189 0 -0.0011544212064043353 -0.050403002045599873 0 -0.0021234389826157406 -0.049967059622834972 0 -0.0014251372010709888 -0.050133738434371113 0 -0.00085951505264978193 -0.050171794474848465 0 -0.0018253831204004824 -0.050668594518379746 0 -0.0011544212064043353 -0.050403002045599873 0 -0.0022712462869503248 -0.049862437018214939 0 -0.0011544212064043353 -0.050403002045599873 0 -0.0022712462869503248 -0.049862437018214939 0 -0.0014251372010709888 -0.050133738434371113 0 -0.0021234389826157406 -0.049967059622834972 0 -0.0022712462869503248 -0.049862437018214939 0 -0.0014251372010709888 -0.050133738434371113 0 -0.0011544212064043353 -0.050403002045599873 0 -0.0014251372010709888 -0.050133738434371113 0 -0.00057270283136010827 -0.050320011777452892 0 -0.0014251372010709888 -0.050133738434371113 0 -0.00085951505264978193 -0.050171794474848465 0 -0.00057270283136010827 -0.050320011777452892 0 -0.0052107845677683458 -0.051073714142885737 0 -0.0013486424852639457 -0.051897985646243552 0 -0.00085951505264978193 -0.050171794474848465 0 6.5465971366774408e-05 -0.05058329140069856 0 -0.00057270283136010827 -0.050320011777452892 0 -0.00013801520372977636 -0.050612722270580189 0 6.5465971366774408e-05 -0.05058329140069856 0 -0.00057270283136010827 -0.050320011777452892 0 -0.0013486424852639457 -0.051897985646243552 0 -0.00066348548512452303 -0.051053931655177909 0 -0.00085951505264978193 -0.050171794474848465 0 6.5465971366774408e-05 -0.05058329140069856 0 -0.00048083030916810791 -0.050993711304066103 0 -0.004035059446937125 -0.053235459846178987 0 -0.0021716592400063618 -0.053362272799881483 0 -0.0026341800336845789 -0.051371339434298745 0 -0.0021716592400063618 -0.053362272799881483 0 -0.00048083030916810791 -0.050993711304066103 0 -0.0026341800336845789 -0.051371339434298745 0 -0.0035033188730653714 -0.049999808041974028 0 -0.0026341800336845789 -0.051371339434298745 0 -0.00095866081682422952 -0.04999918526595884 0 -0.00048083030916810791 -0.050993711304066103 0 -0.00095866081682422952 -0.04999918526595884 0 0.0015803403155777698 -0.049999952581980596 0 -0.00048083030916810791 -0.050993711304066103 0 -0.0026341800336845789 -0.051371339434298745 0 -0.00095866081682422952 -0.04999918526595884 0 -0.00048083030916810791 -0.050993711304066103 0 0.0015803403155777698 -0.049999952581980596 0 0.00076032646336479464 -0.050705011960308091 0 0.0015848646210098699 -0.049999736438445019 0 0.0044546465185732464 -0.049999561006456236 0 0.0030313990653352313 -0.0508487940577119 0 0.0015848646210098699 -0.049999736438445019 0 0.0022085135867075524 -0.051148482816066113 0 0.0030313990653352313 -0.0508487940577119 0 0.0015829174700980754 -0.049999883135778266 0 0.0014981402570608041 -0.050882758250833278 0 0.0026972801125760338 -0.051120455364715621 0 0.0022085135867075524 -0.051148482816066113 0 0.0030313990653352313 -0.0508487940577119 0 0.0026972801125760338 -0.051120455364715621 0 0.0022085135867075524 -0.051148482816066113 0 0.002420547015929178 -0.051192084390912204 0 6.5465971366774408e-05 -0.05058329140069856 0 -0.00048083030916810791 -0.050993711304066103 0 0.00076032646336479464 -0.050705011960308091 0 0.0045190054812776059 -0.051060975354713233 0 0.0044546465185732464 -0.049999561006456236 0 0.0073297683080170541 -0.049999709581331972 0 0.0045190054812776059 -0.051060975354713233 0 0.0044546465185732464 -0.049999561006456236 0 0.0030313990653352313 -0.0508487940577119 0 0.0045190054812776059 -0.051060975354713233 0 0.0032470486935669983 -0.05123719267440259 0 0.0036708451156922373 -0.051296480762668198 0 0.0045190054812776059 -0.051060975354713233 0 0.0030313990653352313 -0.0508487940577119 0 0.0032470486935669983 -0.05123719267440259 0 0.0026972801125760338 -0.051120455364715621 0 0.0030313990653352313 -0.0508487940577119 0 0.0032470486935669983 -0.05123719267440259 0 0.0040223952705087853 -0.05121923538003674 0 0.0078847617661347534 -0.051181325741086824 0 0.0045190054812776059 -0.051060975354713233 0 0.0039141816730600193 -0.05130131902760738 0 0.0036708451156922373 -0.051296480762668198 0 0.0045190054812776059 -0.051060975354713233 0 0.0058931620774217985 -0.05344985863116089 0 0.0062355486324469798 -0.053108460938399993 0 0.0045190054812776059 -0.051060975354713233 0 0.0062355486324469798 -0.053108460938399993 0 0.0065656413109080342 -0.051638898678142801 0 0.010888279524440062 -0.047032288615402165 0 0.0084906757319328681 -0.049395430407725628 0 0.011794684289364586 -0.048716753230215799 0 0.006925843066301925 -0.048884461036291571 0 0.01730468966631616 -0.046380349941740631 0 0.0078847617661347534 -0.051181325741086824 0 0.0070982915241603415 -0.052003914380791869 0 0.0039141816730600193 -0.05130131902760738 0 0.0036708451156922373 -0.051296480762668198 0 0.0034816094560591038 -0.051519313693861805 0 0.0078847617661347534 -0.051181325741086824 0 0.006925843066301925 -0.048884461036291571 0 0.0032467363483324177 -0.051351256688513591 0 0.0027875644207350845 -0.051312560546158285 0 0.0029770265662426164 -0.051450912911384351 0 0.0036708451156922373 -0.051296480762668198 0 0.0034816094560591038 -0.051519313693861805 0 0.0032467363483324177 -0.051351256688513591 0 0.0034816094560591038 -0.051519313693861805 0 0.0032467363483324177 -0.051351256688513591 0 0.0029770265662426164 -0.051450912911384351 0 0.0032470486935669983 -0.05123719267440259 0 0.0036708451156922373 -0.051296480762668198 0 0.0032467363483324177 -0.051351256688513591 0 0.0032470486935669983 -0.05123719267440259 0 0.0032467363483324177 -0.051351256688513591 0 0.0027875644207350845 -0.051312560546158285 0 0.0032470486935669983 -0.05123719267440259 0 0.0027875644207350845 -0.051312560546158285 0 0.002420547015929178 -0.051192084390912204 0 0.006925843066301925 -0.048884461036291571 0 0.0053032531292705768 -0.048590885063858898 0 0.011483758390522198 -0.044359867525409859 0 0.0082862818997585224 -0.045729931002730081 0 0.011167632801611508 -0.045863886312960692 0 0.0033332732649837345 -0.051495665240387116 0 0.0029770265662426164 -0.051450912911384351 0 0.002085225610371169 -0.051578209417027378 0 0.0029770265662426164 -0.051450912911384351 0 0.0022566899992775748 -0.05133463864612027 0 0.002085225610371169 -0.051578209417027378 0 0.0027875644207350845 -0.051312560546158285 0 0.0029770265662426164 -0.051450912911384351 0 0.0022566899992775748 -0.05133463864612027 0 0.006925843066301925 -0.048884461036291571 0 0.0033390382510106653 -0.050362925463514126 0 0.011483758390522198 -0.044359867525409859 0 0.012502136984149839 -0.045570981150004908 0 0.013035457549062771 -0.044503277412368064 0 0.011483758390522198 -0.044359867525409859 0 0.012502136984149839 -0.045570981150004908 0 0.011167632801611508 -0.045863886312960692 0 0.0014981402570608041 -0.050882758250833278 0 0.0015119512317895599 -0.051196171602314947 0 6.5465971366774408e-05 -0.05058329140069856 0 0.00076032646336479464 -0.050705011960308091 0 0.0015246073212083436 -0.051085130671160883 0 0.0022085135867075524 -0.051148482816066113 0 0.002420547015929178 -0.051192084390912204 0 0.0015246073212083436 -0.051085130671160883 0 0.0026972801125760338 -0.051120455364715621 0 0.0032470486935669983 -0.05123719267440259 0 0.002420547015929178 -0.051192084390912204 0 0.0027875644207350845 -0.051312560546158285 0 0.002420547015929178 -0.051192084390912204 0 0.0022566899992775748 -0.05133463864612027 0 0.002420547015929178 -0.051192084390912204 0 0.0022566899992775748 -0.05133463864612027 0 0.0015246073212083436 -0.051085130671160883 0 0.0015246073212083436 -0.051085130671160883 0 0.0017177756252948074 -0.051360855390809874 0 0.002085225610371169 -0.051578209417027378 0 0.0022566899992775748 -0.05133463864612027 0 0.0015246073212083436 -0.051085130671160883 0 0.002085225610371169 -0.051578209417027378 0 6.5465971366774408e-05 -0.05058329140069856 0 0.0015246073212083436 -0.051085130671160883 0 0.00078553221213027117 -0.050920971272541769 0 0.0015246073212083436 -0.051085130671160883 0 0.00078553221213027117 -0.050920971272541769 0 0.0017177756252948074 -0.051360855390809874 0 0.00078553221213027117 -0.050920971272541769 0 0.00074619286113529698 -0.051150260323073696 0 0.0017177756252948074 -0.051360855390809874 0 0.0017177756252948074 -0.051360855390809874 0 0.0013714663196166548 -0.051420248221203453 0 0.0023556277415194265 -0.051371045880279596 0 0.00072349805108002014 -0.051731635712859401 0 0.00074619286113529698 -0.051150260323073696 0 0.0013714663196166548 -0.051420248221203453 0 0.00074619286113529698 -0.051150260323073696 0 0.0017177756252948074 -0.051360855390809874 0 0.0013714663196166548 -0.051420248221203453 0 0.0034480386102134068 -0.051195893884452989 0 0.0059718814292196928 -0.049807001547516751 0 0.00072349805108002014 -0.051731635712859401 0 0.0013714663196166548 -0.051420248221203453 0 0.00041625488395344675 -0.052226740812001411 0 0.0013714663196166548 -0.051420248221203453 0 0.0023556277415194265 -0.051371045880279596 0 0.00041625488395344675 -0.052226740812001411 0 0.0023556277415194265 -0.051371045880279596 0 0.00041625488395344675 -0.052226740812001411 0 0.0086453563511835717 -0.050647042761620055 0 0.019652221832872858 -0.046734445150038689 0 0.017177665326827577 -0.04669254396040174 0 0.018169886011596283 -0.045422348213182119 0 0.0059718814292196928 -0.049807001547516751 0 0.013703673801735457 -0.048553882169936939 0 0.0023556277415194265 -0.051371045880279596 0 0.0082862818997585224 -0.045729931002730081 0 0.0086453563511835717 -0.050647042761620055 0 0.0017177756252948074 -0.051360855390809874 0 0.0023556277415194265 -0.051371045880279596 0 0.002085225610371169 -0.051578209417027378 0 0.0024385998777889297 -0.051291857513128827 0 0.0053032531292705768 -0.048590885063858898 0 0.0082862818997585224 -0.045729931002730081 0 0.011167632801611508 -0.045863886312960692 0 0.010921208199720039 -0.047404823037573027 0 0.0082862818997585224 -0.045729931002730081 0 0.010921208199720039 -0.047404823037573027 0 0.0086453563511835717 -0.050647042761620055 0 0.011167632801611508 -0.045863886312960692 0 0.010921208199720039 -0.047404823037573027 0 0.012514051851966385 -0.046549272725120661 0 0.012502136984149839 -0.045570981150004908 0 0.011167632801611508 -0.045863886312960692 0 0.012514051851966385 -0.046549272725120661 0 0.010921208199720039 -0.047404823037573027 0 0.012514051851966385 -0.046549272725120661 0 0.013699399207877341 -0.047119304918092346 0 0.013041159879097167 -0.047354825247854553 0 0.013703673801735457 -0.048553882169936939 0 0.010921208199720039 -0.047404823037573027 0 0.013699399207877341 -0.047119304918092346 0 0.0086453563511835717 -0.050647042761620055 0 0.017177665326827577 -0.04669254396040174 0 0.015652397642384047 -0.045055331767838769 0 0.017051237654299788 -0.044968341096975686 0 0.013699399207877341 -0.047119304918092346 0 0.017177665326827577 -0.04669254396040174 0 0.015652397642384047 -0.045055331767838769 0 0.015652397642384047 -0.045055331767838769 0 0.017051237654299788 -0.044968341096975686 0 0.016435512526609786 -0.043822012702372709 0 0.013699399207877341 -0.047119304918092346 0 0.015652397642384047 -0.045055331767838769 0 0.01441878536703246 -0.043907802957502698 0 0.015652397642384047 -0.045055331767838769 0 0.01441878536703246 -0.043907802957502698 0 0.015461377358566546 -0.043448253004333033 0 0.015461377358566546 -0.043448253004333033 0 0.016094825512773216 -0.042905553361733302 0 0.015498702092813161 -0.042406598021755178 0 0.015461377358566546 -0.043448253004333033 0 0.014679228507788803 -0.042758520237303053 0 0.015498702092813161 -0.042406598021755178 0 0.01441878536703246 -0.043907802957502698 0 0.015461377358566546 -0.043448253004333033 0 0.014679228507788803 -0.042758520237303053 0 0.017051237654299788 -0.044968341096975686 0 0.016435512526609786 -0.043822012702372709 0 0.017738568132822409 -0.043861102556293129 0 0.015652397642384047 -0.045055331767838769 0 0.015461377358566546 -0.043448253004333033 0 0.016435512526609786 -0.043822012702372709 0 0.015461377358566546 -0.043448253004333033 0 0.016435512526609786 -0.043822012702372709 0 0.016094825512773216 -0.042905553361733302 0 0.016435512526609786 -0.043822012702372709 0 0.016924430362273105 -0.042658568665231038 0 0.016094825512773216 -0.042905553361733302 0 0.016435512526609786 -0.043822012702372709 0 0.017738568132822409 -0.043861102556293129 0 0.016924430362273105 -0.042658568665231038 0 0.017738568132822409 -0.043861102556293129 0 0.019099098792080875 -0.044569785004723417 0 0.018169886011596283 -0.045422348213182119 0 0.017738568132822409 -0.043861102556293129 0 0.019099098792080875 -0.044569785004723417 0 0.018369855548873167 -0.042230639461315909 0 -0.0013853268719730639 -0.055363565032864832 0 -0.00040265383547490171 -0.054415358201844281 0 -0.0001102091135819252 -0.055391415739262546 0 0.0097707439166221412 -0.049435185467832238 0 0.0085456211088555389 -0.049718423660609155 0 0.019652221832872858 -0.046734445150038689 0 0.019099098792080875 -0.044569785004723417 0 0.018169886011596283 -0.045422348213182119 0 -0.0015615805801270036 -0.053692440214719035 0 -0.0008277163946970238 -0.053021632175033653 0 -0.00040265383547490171 -0.054415358201844281 0 0.0059718814292196928 -0.049807001547516751 0 0.0097707439166221412 -0.049435185467832238 0 0.017177665326827577 -0.04669254396040174 0 0.017051237654299788 -0.044968341096975686 0 0.018169886011596283 -0.045422348213182119 0 0.017051237654299788 -0.044968341096975686 0 0.017738568132822409 -0.043861102556293129 0 0.018169886011596283 -0.045422348213182119 0 0.035980552995213078 -0.036804620312414639 0 0.034390520626001571 -0.038434778336904368 0 0.036986317366132372 -0.039924034688742088 0 0.035980552995213078 -0.036804620312414639 0 0.034390520626001571 -0.038434778336904368 0 0.033104765842803377 -0.035577081456858117 0 0.034390520626001571 -0.038434778336904368 0 0.033104765842803377 -0.035577081456858117 0 0.032101540996745656 -0.038984702368248837 0 0.035980552995213078 -0.036804620312414639 0 0.033104765842803377 -0.035577081456858117 0 0.034801238694382633 -0.033567679335544741 0 0.022895449108365433 -0.040470036494926538 0 0.020432422753189634 -0.036157790379496443 0 0.0098138033745510545 -0.044327565107996673 0 0.012811871320657878 -0.041650729244260561 0 0.0062930777776713017 -0.038726168865490199 0 0.0098138033745510545 -0.044327565107996673 0 0.012811871320657878 -0.041650729244260561 0 0.013095223311727886 -0.044554333777002325 0 0.01441878536703246 -0.043907802957502698 0 0.013879820676881203 -0.042604918787705295 0 0.013095223311727886 -0.044554333777002325 0 0.01441878536703246 -0.043907802957502698 0 0.014679228507788803 -0.042758520237303053 0 0.013879820676881203 -0.042604918787705295 0 0.012811871320657878 -0.041650729244260561 0 0.013879820676881203 -0.042604918787705295 0 0.013095223311727886 -0.044554333777002325 0 0.013699399207877341 -0.047119304918092346 0 0.01441878536703246 -0.043907802957502698 0 0.013095223311727886 -0.044554333777002325 0 0.013699399207877341 -0.047119304918092346 0 0.013095223311727886 -0.044554333777002325 0 0.012337404272744512 -0.046823512743517821 0 0.0098138033745510545 -0.044327565107996673 0 0.013095223311727886 -0.044554333777002325 0 0.012337404272744512 -0.046823512743517821 0 0.022895449108365433 -0.040470036494926538 0 0.024471861681063748 -0.043210815999926065 0 0.013699399207877341 -0.047119304918092346 0 0.012337404272744512 -0.046823512743517821 0 0.013360387495475474 -0.04664984773148368 0 0.012514051851966385 -0.046549272725120661 0 0.013699399207877341 -0.047119304918092346 0 0.013360387495475474 -0.04664984773148368 0 0.012502136984149839 -0.045570981150004908 0 0.012514051851966385 -0.046549272725120661 0 0.013360387495475474 -0.04664984773148368 0 0.024471861681063748 -0.043210815999926065 0 0.026526972006756997 -0.044605217367652966 0 0.036986317366132372 -0.039924034688742088 0 0.037807558524073116 -0.042609222985935662 0 0.035839676928540842 -0.043404433821791009 0 0.036986317366132372 -0.039924034688742088 0 0.033907904648967827 -0.041110968258553281 0 0.035839676928540842 -0.043404433821791009 0 0.034390520626001571 -0.038434778336904368 0 0.036986317366132372 -0.039924034688742088 0 0.033907904648967827 -0.041110968258553281 0 0.034390520626001571 -0.038434778336904368 0 0.033907904648967827 -0.041110968258553281 0 0.032101540996745656 -0.038984702368248837 0 0.033907904648967827 -0.041110968258553281 0 0.033167739934891999 -0.043873022271732315 0 0.031737483860612654 -0.042393295228599338 0 0.033907904648967827 -0.041110968258553281 0 0.033167739934891999 -0.043873022271732315 0 0.035839676928540842 -0.043404433821791009 0 0.033167739934891999 -0.043873022271732315 0 0.035839676928540842 -0.043404433821791009 0 0.034360245560806336 -0.046295121964624798 0 0.035839676928540842 -0.043404433821791009 0 0.034360245560806336 -0.046295121964624798 0 0.03667424556502568 -0.045498921881518571 0 0.022819869577656308 -0.049657939482556403 0 0.023558866400157585 -0.049759228655392111 0 0.022819869577656308 -0.049657939482556403 0 0.020729518963320037 -0.051289732360817908 0 0.033167739934891999 -0.043873022271732315 0 0.034360245560806336 -0.046295121964624798 0 0.032195240124264425 -0.045539007422633802 0 0.034360245560806336 -0.046295121964624798 0 0.03187999452507944 -0.046988935575846345 0 0.032195240124264425 -0.045539007422633802 0 0.012502136984149839 -0.045570981150004908 0 0.013360387495475474 -0.04664984773148368 0 0.013035457549062771 -0.044503277412368064 0 0.037807558524073116 -0.042609222985935662 0 0.037253578193579689 -0.044097486177210939 0 0.038567762891446665 -0.044825235821145067 0 0.026526972006756997 -0.044605217367652966 0 0.01730468966631616 -0.046380349941740631 0 0.037807558524073116 -0.042609222985935662 0 0.035839676928540842 -0.043404433821791009 0 0.037253578193579689 -0.044097486177210939 0 0.035839676928540842 -0.043404433821791009 0 0.037253578193579689 -0.044097486177210939 0 0.03667424556502568 -0.045498921881518571 0 0.037253578193579689 -0.044097486177210939 0 0.03667424556502568 -0.045498921881518571 0 0.038567762891446665 -0.044825235821145067 0 0.023558866400157585 -0.049759228655392111 0 0.01730468966631616 -0.046380349941740631 0 0.0087670755285000502 -0.053769718950419987 0 0.006507183254883136 -0.054261594554130543 0 0.0073313572333733208 -0.052974655399702884 0 0.0059777305661770008 -0.053381026629906778 0 0.0062355486324469798 -0.053108460938399993 0 0.006507183254883136 -0.054261594554130543 0 0.0078847617661347534 -0.051181325741086824 0 0.01730468966631616 -0.046380349941740631 0 0.0062355486324469798 -0.053108460938399993 0 0.006507183254883136 -0.054261594554130543 0 0.0073313572333733208 -0.052974655399702884 0 0.0062355486324469798 -0.053108460938399993 0 0.0065656413109080342 -0.051638898678142801 0 0.0073313572333733208 -0.052974655399702884 0 0.0065656413109080342 -0.051638898678142801 0 0.0073313572333733208 -0.052974655399702884 0 0.0079659984150375132 -0.051819648605680786 0 0.0087670755285000502 -0.053769718950419987 0 0.0079659984150375132 -0.051819648605680786 0 0.0098856214717322789 -0.05204010580398704 0 0.0087670755285000502 -0.053769718950419987 0 0.0073313572333733208 -0.052974655399702884 0 0.0079659984150375132 -0.051819648605680786 0 0.0079659984150375132 -0.051819648605680786 0 0.0073297683080170541 -0.049999709581331972 0 0.010203050108222519 -0.049999979099427126 0 0.0079659984150375132 -0.051819648605680786 0 0.0098856214717322789 -0.05204010580398704 0 0.010203050108222519 -0.049999979099427126 0 0.0045190054812776059 -0.051060975354713233 0 0.0065656413109080342 -0.051638898678142801 0 0.0073297683080170541 -0.049999709581331972 0 0.0065656413109080342 -0.051638898678142801 0 0.0079659984150375132 -0.051819648605680786 0 0.0073297683080170541 -0.049999709581331972 0 0.012306903531427096 -0.052079668125204169 0 0.01156281517680355 -0.051404220037390258 0 0.013625225205893111 -0.051426982756255436 0 0.010910137174714056 -0.053291403769909915 0 0.012306903531427096 -0.052079668125204169 0 0.013062154074934986 -0.052835992968095741 0 0.010910137174714056 -0.053291403769909915 0 0.012306903531427096 -0.052079668125204169 0 0.01156281517680355 -0.051404220037390258 0 0.010910137174714056 -0.053291403769909915 0 0.0087670755285000502 -0.053769718950419987 0 0.0098856214717322789 -0.05204010580398704 0 0.010910137174714056 -0.053291403769909915 0 0.0098856214717322789 -0.05204010580398704 0 0.01156281517680355 -0.051404220037390258 0 0.0098856214717322789 -0.05204010580398704 0 0.010203050108222519 -0.049999979099427126 0 0.01156281517680355 -0.051404220037390258 0 0.010203050108222519 -0.049999979099427126 0 0.01156281517680355 -0.051404220037390258 0 0.013076667297051611 -0.049999763283307928 0 0.01156281517680355 -0.051404220037390258 0 0.013076667297051611 -0.049999763283307928 0 0.013625225205893111 -0.051426982756255436 0 0.013076667297051611 -0.049999763283307928 0 0.013625225205893111 -0.051426982756255436 0 0.015001104118424372 -0.051025293537616909 0 0.020729518963320037 -0.051289732360817908 0 0.012414902639462601 -0.052794942353975492 0 0.013379193574189251 -0.052271247188306967 0 0.013062154074934986 -0.052835992968095741 0 0.01495304613233636 -0.052220888272129867 0 0.012306903531427096 -0.052079668125204169 0 0.013625225205893111 -0.051426982756255436 0 0.013379193574189251 -0.052271247188306967 0 0.013625225205893111 -0.051426982756255436 0 0.013379193574189251 -0.052271247188306967 0 0.01495304613233636 -0.052220888272129867 0 0.012306903531427096 -0.052079668125204169 0 0.013379193574189251 -0.052271247188306967 0 0.013062154074934986 -0.052835992968095741 0 0.01495304613233636 -0.052220888272129867 0 0.017083349624518587 -0.051708829417660029 0 0.015833489086566729 -0.053234388850102926 0 0.01495304613233636 -0.052220888272129867 0 0.015001104118424372 -0.051025293537616909 0 0.017083349624518587 -0.051708829417660029 0 0.013625225205893111 -0.051426982756255436 0 0.01495304613233636 -0.052220888272129867 0 0.015001104118424372 -0.051025293537616909 0 0.013076667297051611 -0.049999763283307928 0 0.015001104118424372 -0.051025293537616909 0 0.015950315786031084 -0.049999689633417603 0 0.015950315786031084 -0.049999689633417603 0 0.018317388583902989 -0.051023058069662619 0 0.017083349624518587 -0.051708829417660029 0 0.015001104118424372 -0.051025293537616909 0 0.015950315786031084 -0.049999689633417603 0 0.017083349624518587 -0.051708829417660029 0 0.015950315786031084 -0.049999689633417603 0 0.018317388583902989 -0.051023058069662619 0 0.018823515764670642 -0.049999576714656963 0 0.017083349624518587 -0.051708829417660029 0 0.017824868132000144 -0.052643115217075397 0 0.01939818170161911 -0.052175041164966983 0 0.018317388583902989 -0.051023058069662619 0 0.017083349624518587 -0.051708829417660029 0 0.01939818170161911 -0.052175041164966983 0 0.017083349624518587 -0.051708829417660029 0 0.017824868132000144 -0.052643115217075397 0 0.015833489086566729 -0.053234388850102926 0 0.017824868132000144 -0.052643115217075397 0 0.018780542707799035 -0.053509462718887714 0 0.015833489086566729 -0.053234388850102926 0 0.022583196147258691 -0.049402427611398195 0 0.022899580217490313 -0.049470804567811839 0 0.018780542707799035 -0.053509462718887714 0 0.01939818170161911 -0.052175041164966983 0 0.019741491870706871 -0.05285506399288039 0 0.017824868132000144 -0.052643115217075397 0 0.018780542707799035 -0.053509462718887714 0 0.01939818170161911 -0.052175041164966983 0 0.026685277083078485 -0.045460905203657684 0 0.025492317099671823 -0.044464170245989282 0 0.028289257708208268 -0.043655757329207623 0 0.026685277083078485 -0.045460905203657684 0 0.028607396679941409 -0.044876655815254275 0 0.02928633967833259 -0.046011349830393393 0 0.026685277083078485 -0.045460905203657684 0 0.028607396679941409 -0.044876655815254275 0 0.028289257708208268 -0.043655757329207623 0 0.028607396679941409 -0.044876655815254275 0 0.03008165579707572 -0.044403741366753471 0 0.028289257708208268 -0.043655757329207623 0 0.028607396679941409 -0.044876655815254275 0 0.03008165579707572 -0.044403741366753471 0 0.02928633967833259 -0.046011349830393393 0 0.03008165579707572 -0.044403741366753471 0 0.031607192410375982 -0.044343696663179624 0 0.031737483860612654 -0.042393295228599338 0 0.033167739934891999 -0.043873022271732315 0 0.031607192410375982 -0.044343696663179624 0 0.031737483860612654 -0.042393295228599338 0 0.033167739934891999 -0.043873022271732315 0 0.031607192410375982 -0.044343696663179624 0 0.032195240124264425 -0.045539007422633802 0 0.03008165579707572 -0.044403741366753471 0 0.031607192410375982 -0.044343696663179624 0 0.030884145155454724 -0.045361309008335585 0 0.020729518963320037 -0.051289732360817908 0 0.022899580217490313 -0.049470804567811839 0 0.03187999452507944 -0.046988935575846345 0 0.031047653079447596 -0.045981402823215993 0 0.02928633967833259 -0.046011349830393393 0 0.031047653079447596 -0.045981402823215993 0 0.030884145155454724 -0.045361309008335585 0 0.032195240124264425 -0.045539007422633802 0 0.031607192410375982 -0.044343696663179624 0 0.030884145155454724 -0.045361309008335585 0 0.032195240124264425 -0.045539007422633802 0 0.03187999452507944 -0.046988935575846345 0 0.031047653079447596 -0.045981402823215993 0 0.032195240124264425 -0.045539007422633802 0 0.013712355316595107 -0.052485838619398442 0 0.01495304613233636 -0.052220888272129867 0 0.015833489086566729 -0.053234388850102926 0 0.031047653079447596 -0.045981402823215993 0 0.030884145155454724 -0.045361309008335585 0 0.02928633967833259 -0.046011349830393393 0 0.03008165579707572 -0.044403741366753471 0 0.030884145155454724 -0.045361309008335585 0 0.02928633967833259 -0.046011349830393393 0 0.023400981554493386 -0.05107521030077572 0 0.024240719889165225 -0.051902353856708022 0 0.02520334345550505 -0.051220397487178874 0 0.023400981554493386 -0.05107521030077572 0 0.022977617131696972 -0.051854687749658269 0 0.024240719889165225 -0.051902353856708022 0 0.0245698639888032 -0.049999337758839121 0 0.023400981554493386 -0.05107521030077572 0 0.02520334345550505 -0.051220397487178874 0 0.0245698639888032 -0.049999337758839121 0 0.023400981554493386 -0.05107521030077572 0 0.021696373214913009 -0.049999534545681866 0 0.023400981554493386 -0.05107521030077572 0 0.021531737251880276 -0.05178146417822703 0 0.022977617131696972 -0.051854687749658269 0 0.023400981554493386 -0.05107521030077572 0 0.021531737251880276 -0.05178146417822703 0 0.021696373214913009 -0.049999534545681866 0 0.021531737251880276 -0.05178146417822703 0 0.021696373214913009 -0.049999534545681866 0 0.020153417336901687 -0.051059753907789072 0 0.021696373214913009 -0.049999534545681866 0 0.018823515764670642 -0.049999576714656963 0 0.020153417336901687 -0.051059753907789072 0 0.018317388583902989 -0.051023058069662619 0 0.018823515764670642 -0.049999576714656963 0 0.020153417336901687 -0.051059753907789072 0 0.021531737251880276 -0.05178146417822703 0 0.020153417336901687 -0.051059753907789072 0 0.01939818170161911 -0.052175041164966983 0 0.018317388583902989 -0.051023058069662619 0 0.020153417336901687 -0.051059753907789072 0 0.01939818170161911 -0.052175041164966983 0 0.01939818170161911 -0.052175041164966983 0 0.020483764955893914 -0.052488092664562086 0 0.019741491870706871 -0.05285506399288039 0 0.021531737251880276 -0.05178146417822703 0 0.01939818170161911 -0.052175041164966983 0 0.020483764955893914 -0.052488092664562086 0 0.022583196147258691 -0.049402427611398195 0 0.021915908479850758 -0.048025264697266395 0 0.018780542707799035 -0.053509462718887714 0 0.019741491870706871 -0.05285506399288039 0 0.020767844539423107 -0.051600461293555555 0 0.026685277083078485 -0.045460905203657684 0 0.025492317099671823 -0.044464170245989282 0 0.02360778716485953 -0.044959768969668634 0 0.019741491870706871 -0.05285506399288039 0 0.020515187484249787 -0.052302418617429479 0 0.020767844539423107 -0.051600461293555555 0 0.020483764955893914 -0.052488092664562086 0 0.019741491870706871 -0.05285506399288039 0 0.020515187484249787 -0.052302418617429479 0 0.020483764955893914 -0.052488092664562086 0 0.020515187484249787 -0.052302418617429479 0 0.02128414708635154 -0.052625836283757818 0 0.020515187484249787 -0.052302418617429479 0 0.02128414708635154 -0.052625836283757818 0 0.021812531280874525 -0.053615129134228126 0 0.020855106928385676 -0.051996977457406786 0 0.021292281626115468 -0.051177706360862732 0 0.020515187484249787 -0.052302418617429479 0 0.020767844539423107 -0.051600461293555555 0 0.020044233061304959 -0.048370733044169653 0 0.021531737251880276 -0.05178146417822703 0 0.02128414708635154 -0.052625836283757818 0 0.022774228889763309 -0.052699581439185031 0 0.021531737251880276 -0.05178146417822703 0 0.020483764955893914 -0.052488092664562086 0 0.02128414708635154 -0.052625836283757818 0 0.021531737251880276 -0.05178146417822703 0 0.022977617131696972 -0.051854687749658269 0 0.022774228889763309 -0.052699581439185031 0 0.022977617131696972 -0.051854687749658269 0 0.022774228889763309 -0.052699581439185031 0 0.024240719889165225 -0.051902353856708022 0 0.021812531280874525 -0.053615129134228126 0 0.022774228889763309 -0.052699581439185031 0 0.023420855407802095 -0.054188492042706191 0 0.02128414708635154 -0.052625836283757818 0 0.021812531280874525 -0.053615129134228126 0 0.022774228889763309 -0.052699581439185031 0 0.024822655559967509 -0.052766605967868203 0 0.023420855407802095 -0.054188492042706191 0 0.025489184765328229 -0.054780820465918936 0 0.022774228889763309 -0.052699581439185031 0 0.024822655559967509 -0.052766605967868203 0 0.023420855407802095 -0.054188492042706191 0 0.022774228889763309 -0.052699581439185031 0 0.024822655559967509 -0.052766605967868203 0 0.024240719889165225 -0.051902353856708022 0 0.016830014621090763 -0.043524931383479369 0 0.016559697666719289 -0.040510186504313254 0 0.015003720097173842 -0.045268252293277675 0 0.017801490868824103 -0.041903018297485675 0 0.016830014621090763 -0.043524931383479369 0 0.016559697666719289 -0.040510186504313254 0 0.017801490868824103 -0.041903018297485675 0 0.016830014621090763 -0.043524931383479369 0 0.01840161890780467 -0.043444091527048465 0 0.016830014621090763 -0.043524931383479369 0 0.01768716929532288 -0.046102452806713157 0 0.015003720097173842 -0.045268252293277675 0 0.019456739193122938 -0.050157160226732958 0 0.026847636097518363 -0.047581859034006878 0 0.016830014621090763 -0.043524931383479369 0 0.01768716929532288 -0.046102452806713157 0 0.01840161890780467 -0.043444091527048465 0 0.01768716929532288 -0.046102452806713157 0 0.019745877067032711 -0.045211947498963082 0 0.01840161890780467 -0.043444091527048465 0 0.021292281626115468 -0.051177706360862732 0 0.019456739193122938 -0.050157160226732958 0 0.020044233061304959 -0.048370733044169653 0 0.01768716929532288 -0.046102452806713157 0 0.019745877067032711 -0.045211947498963082 0 0.019745877067032711 -0.045211947498963082 0 0.020113687563233399 -0.042171351223108784 0 0.021534772815677141 -0.04278635739018212 0 0.01840161890780467 -0.043444091527048465 0 0.018881484091112979 -0.041557208925469082 0 0.020113687563233399 -0.042171351223108784 0 0.019745877067032711 -0.045211947498963082 0 0.01840161890780467 -0.043444091527048465 0 0.020113687563233399 -0.042171351223108784 0 0.017801490868824103 -0.041903018297485675 0 0.01840161890780467 -0.043444091527048465 0 0.018881484091112979 -0.041557208925469082 0 0.017801490868824103 -0.041903018297485675 0 0.018881484091112979 -0.041557208925469082 0 0.018397654967385383 -0.040431939919750214 0 0.018881484091112979 -0.041557208925469082 0 0.020113687563233399 -0.042171351223108784 0 0.02005335640535235 -0.039843615134363054 0 0.020113687563233399 -0.042171351223108784 0 0.021915556826514304 -0.040788428775576799 0 0.021534772815677141 -0.04278635739018212 0 0.020113687563233399 -0.042171351223108784 0 0.021915556826514304 -0.040788428775576799 0 0.02005335640535235 -0.039843615134363054 0 0.021915556826514304 -0.040788428775576799 0 0.021534772815677141 -0.04278635739018212 0 0.023116545425223518 -0.04214296677695277 0 0.021915556826514304 -0.040788428775576799 0 0.023116545425223518 -0.04214296677695277 0 0.023657075781024602 -0.040645521994126826 0 0.021534772815677141 -0.04278635739018212 0 0.022721983573400772 -0.043781666612344554 0 0.023116545425223518 -0.04214296677695277 0 0.019745877067032711 -0.045211947498963082 0 0.021534772815677141 -0.04278635739018212 0 0.022721983573400772 -0.043781666612344554 0 0.021915908479850758 -0.048025264697266395 0 0.019455940722147205 -0.045467652951847751 0 0.020767844539423107 -0.051600461293555555 0 0.020044233061304959 -0.048370733044169653 0 0.019745877067032711 -0.045211947498963082 0 0.02360778716485953 -0.044959768969668634 0 0.019745877067032711 -0.045211947498963082 0 0.022721983573400772 -0.043781666612344554 0 0.022721983573400772 -0.043781666612344554 0 0.023704322011221239 -0.044048392807783873 0 0.024424108442999595 -0.043236187291811133 0 0.022721983573400772 -0.043781666612344554 0 0.024424108442999595 -0.043236187291811133 0 0.023116545425223518 -0.04214296677695277 0 0.02360778716485953 -0.044959768969668634 0 0.022721983573400772 -0.043781666612344554 0 0.023704322011221239 -0.044048392807783873 0 0.023704322011221239 -0.044048392807783873 0 0.024303772898033388 -0.04418713720563891 0 0.024424108442999595 -0.043236187291811133 0 0.02360778716485953 -0.044959768969668634 0 0.023704322011221239 -0.044048392807783873 0 0.024303772898033388 -0.04418713720563891 0 0.025492317099671823 -0.044464170245989282 0 0.02360778716485953 -0.044959768969668634 0 0.024303772898033388 -0.04418713720563891 0 0.025492317099671823 -0.044464170245989282 0 0.024303772898033388 -0.04418713720563891 0 0.024424108442999595 -0.043236187291811133 0 0.024424108442999595 -0.043236187291811133 0 0.024874869633127284 -0.041000453010840987 0 0.026317598716332588 -0.042365891056760918 0 0.024424108442999595 -0.043236187291811133 0 0.023116545425223518 -0.04214296677695277 0 0.024874869633127284 -0.041000453010840987 0 0.023116545425223518 -0.04214296677695277 0 0.023657075781024602 -0.040645521994126826 0 0.024874869633127284 -0.041000453010840987 0 0.023657075781024602 -0.040645521994126826 0 0.024874869633127284 -0.041000453010840987 0 0.0246382652381207 -0.038887996751063206 0 0.023657075781024602 -0.040645521994126826 0 0.0246382652381207 -0.038887996751063206 0 0.02281745250580676 -0.039529326407857654 0 0.023373189839711494 -0.038121635544679594 0 0.0246382652381207 -0.038887996751063206 0 0.02281745250580676 -0.039529326407857654 0 0.0246382652381207 -0.038887996751063206 0 0.024133556456146132 -0.036448986934615485 0 0.026506531616637928 -0.037408965886938726 0 0.024133556456146132 -0.036448986934615485 0 0.022006848226148665 -0.035725064865369631 0 0.022841228910621701 -0.034135146381204691 0 0.023373189839711494 -0.038121635544679594 0 0.024133556456146132 -0.036448986934615485 0 0.022351120012662002 -0.037215634169976752 0 0.023373189839711494 -0.038121635544679594 0 0.0246382652381207 -0.038887996751063206 0 0.024133556456146132 -0.036448986934615485 0 0.022006848226148665 -0.035725064865369631 0 0.020712068744062315 -0.037071770594644907 0 0.021013971310923064 -0.034474477077014135 0 0.024133556456146132 -0.036448986934615485 0 0.022351120012662002 -0.037215634169976752 0 0.022006848226148665 -0.035725064865369631 0 0.022351120012662002 -0.037215634169976752 0 0.022006848226148665 -0.035725064865369631 0 0.020712068744062315 -0.037071770594644907 0 0.022351120012662002 -0.037215634169976752 0 0.020712068744062315 -0.037071770594644907 0 0.021741959020286136 -0.038639899924405391 0 0.020712068744062315 -0.037071770594644907 0 0.021741959020286136 -0.038639899924405391 0 0.02005335640535235 -0.039843615134363054 0 0.023373189839711494 -0.038121635544679594 0 0.021741959020286136 -0.038639899924405391 0 0.02281745250580676 -0.039529326407857654 0 0.023373189839711494 -0.038121635544679594 0 0.022351120012662002 -0.037215634169976752 0 0.021741959020286136 -0.038639899924405391 0 0.021915556826514304 -0.040788428775576799 0 0.023657075781024602 -0.040645521994126826 0 0.02281745250580676 -0.039529326407857654 0 0.021915556826514304 -0.040788428775576799 0 0.021741959020286136 -0.038639899924405391 0 0.02281745250580676 -0.039529326407857654 0 0.021915556826514304 -0.040788428775576799 0 0.021741959020286136 -0.038639899924405391 0 0.02005335640535235 -0.039843615134363054 0 0.020712068744062315 -0.037071770594644907 0 0.02005335640535235 -0.039843615134363054 0 0.018934299177433486 -0.038720468406310569 0 0.02005335640535235 -0.039843615134363054 0 0.018397654967385383 -0.040431939919750214 0 0.018934299177433486 -0.038720468406310569 0 0.018881484091112979 -0.041557208925469082 0 0.02005335640535235 -0.039843615134363054 0 0.018397654967385383 -0.040431939919750214 0 0.020712068744062315 -0.037071770594644907 0 0.018857569131327009 -0.035769699042599301 0 0.021013971310923064 -0.034474477077014135 0 0.020712068744062315 -0.037071770594644907 0 0.018934299177433486 -0.038720468406310569 0 0.018857569131327009 -0.035769699042599301 0 0.039950169614275721 -0.037496805732213742 0 0.039577409952514436 -0.03775064960519612 0 0.040323622145841349 -0.038299329862662448 0 0.028628799037309909 -0.037012239641449271 0 0.028428593924602924 -0.039175133357218603 0 0.039950169614275721 -0.037496805732213742 0 0.039577409952514436 -0.03775064960519612 0 0.039633603744947545 -0.037461433184817858 0 0.018934299177433486 -0.038720468406310569 0 0.018857569131327009 -0.035769699042599301 0 0.016559697666719289 -0.040510186504313254 0 0.017801490868824103 -0.041903018297485675 0 0.018397654967385383 -0.040431939919750214 0 0.016559697666719289 -0.040510186504313254 0 0.018397654967385383 -0.040431939919750214 0 0.018934299177433486 -0.038720468406310569 0 0.016559697666719289 -0.040510186504313254 0 0.033907904648967827 -0.041110968258553281 0 0.032101540996745656 -0.038984702368248837 0 0.031737483860612654 -0.042393295228599338 0 0.029946303815157022 -0.040492290299962763 0 0.032101540996745656 -0.038984702368248837 0 0.030264856172448094 -0.036629868691106571 0 0.029946303815157022 -0.040492290299962763 0 0.032101540996745656 -0.038984702368248837 0 0.031737483860612654 -0.042393295228599338 0 0.03008165579707572 -0.044403741366753471 0 0.029946303815157022 -0.040492290299962763 0 0.031737483860612654 -0.042393295228599338 0 0.03012001160297547 -0.04418012329312368 0 0.03035958765420697 -0.041156708267254961 0 0.03008165579707572 -0.044403741366753471 0 0.030748954517576029 -0.041815916525869849 0 0.028289257708208268 -0.043655757329207623 0 0.028289257708208268 -0.043655757329207623 0 0.026317598716332588 -0.042365891056760918 0 0.028262309404953237 -0.041643398161387755 0 0.030748954517576029 -0.041815916525869849 0 0.028289257708208268 -0.043655757329207623 0 0.028262309404953237 -0.041643398161387755 0 0.025492317099671823 -0.044464170245989282 0 0.028289257708208268 -0.043655757329207623 0 0.026317598716332588 -0.042365891056760918 0 0.025492317099671823 -0.044464170245989282 0 0.024424108442999595 -0.043236187291811133 0 0.026317598716332588 -0.042365891056760918 0 0.026317598716332588 -0.042365891056760918 0 0.028262309404953237 -0.041643398161387755 0 0.026550251450312395 -0.040124006578323372 0 0.024874869633127284 -0.041000453010840987 0 0.026317598716332588 -0.042365891056760918 0 0.026550251450312395 -0.040124006578323372 0 0.028262309404953237 -0.041643398161387755 0 0.028622123181796421 -0.039122051584858063 0 0.026550251450312395 -0.040124006578323372 0 0.030748954517576029 -0.041815916525869849 0 0.028262309404953237 -0.041643398161387755 0 0.028622123181796421 -0.039122051584858063 0 0.028622123181796421 -0.039122051584858063 0 0.02823536943192537 -0.035798540588243166 0 0.031368858536860729 -0.037833785322150516 0 0.0246382652381207 -0.038887996751063206 0 0.026550251450312395 -0.040124006578323372 0 0.026506531616637928 -0.037408965886938726 0 0.028622123181796421 -0.039122051584858063 0 0.026550251450312395 -0.040124006578323372 0 0.026506531616637928 -0.037408965886938726 0 0.024874869633127284 -0.041000453010840987 0 0.0246382652381207 -0.038887996751063206 0 0.026550251450312395 -0.040124006578323372 0 0.026506531616637928 -0.037408965886938726 0 0.02823536943192537 -0.035798540588243166 0 0.026002396344091433 -0.035117978115870224 0 0.024133556456146132 -0.036448986934615485 0 0.026506531616637928 -0.037408965886938726 0 0.026002396344091433 -0.035117978115870224 0 0.028622123181796421 -0.039122051584858063 0 0.026506531616637928 -0.037408965886938726 0 0.02823536943192537 -0.035798540588243166 0 0.030264856172448094 -0.036629868691106571 0 0.031641444504639425 -0.034610037770322379 0 0.03130996704764151 -0.032941813458651763 0 0.02823536943192537 -0.035798540588243166 0 0.031368858536860729 -0.037833785322150516 0 0.02973867385613526 -0.034053535460091967 0 0.031368858536860729 -0.037833785322150516 0 0.03130996704764151 -0.032941813458651763 0 0.02973867385613526 -0.034053535460091967 0 0.030826779287086516 -0.037182709024234255 0 0.031227850401196623 -0.033258457788392808 0 0.03035958765420697 -0.041156708267254961 0 0.030826779287086516 -0.037182709024234255 0 0.030748954517576029 -0.041815916525869849 0 0.028622123181796421 -0.039122051584858063 0 0.031368858536860729 -0.037833785322150516 0 0.033104765842803377 -0.035577081456858117 0 0.032101540996745656 -0.038984702368248837 0 0.030264856172448094 -0.036629868691106571 0 0.033104765842803377 -0.035577081456858117 0 0.030264856172448094 -0.036629868691106571 0 0.031641444504639425 -0.034610037770322379 0 0.033104765842803377 -0.035577081456858117 0 0.031641444504639425 -0.034610037770322379 0 0.032476454084910601 -0.03343906971958175 0 0.033104765842803377 -0.035577081456858117 0 0.032476454084910601 -0.03343906971958175 0 0.033534360183798927 -0.033141857868847067 0 0.031641444504639425 -0.034610037770322379 0 0.03185692287021747 -0.033342060402990287 0 0.03130996704764151 -0.032941813458651763 0 0.031641444504639425 -0.034610037770322379 0 0.032476454084910601 -0.03343906971958175 0 0.03185692287021747 -0.033342060402990287 0 0.03185692287021747 -0.033342060402990287 0 0.032036669595019281 -0.032372054946962395 0 0.03130996704764151 -0.032941813458651763 0 0.032476454084910601 -0.03343906971958175 0 0.03185692287021747 -0.033342060402990287 0 0.032036669595019281 -0.032372054946962395 0 0.032036669595019281 -0.032372054946962395 0 0.03151471214513777 -0.031901467479672291 0 0.03130996704764151 -0.032941813458651763 0 0.032476454084910601 -0.03343906971958175 0 0.032851291816265976 -0.032135405230149482 0 0.033534360183798927 -0.033141857868847067 0 0.032036669595019281 -0.032372054946962395 0 0.032851291816265976 -0.032135405230149482 0 0.032354374714223547 -0.031508214073762149 0 0.032476454084910601 -0.03343906971958175 0 0.032036669595019281 -0.032372054946962395 0 0.032851291816265976 -0.032135405230149482 0 0.031927622263753626 -0.030767989727725407 0 0.03301071997214565 -0.030610576981053447 0 0.03077110040346278 -0.029488820370095831 0 0.032851291816265976 -0.032135405230149482 0 0.032846170980851366 -0.031204585549792097 0 0.032354374714223547 -0.031508214073762149 0 0.032036669595019281 -0.032372054946962395 0 0.032354374714223547 -0.031508214073762149 0 0.031952251112089762 -0.031469768327602732 0 0.032846170980851366 -0.031204585549792097 0 0.032354374714223547 -0.031508214073762149 0 0.031927622263753626 -0.030767989727725407 0 0.032036669595019281 -0.032372054946962395 0 0.031952251112089762 -0.031469768327602732 0 0.03151471214513777 -0.031901467479672291 0 0.031952251112089762 -0.031469768327602732 0 0.031927622263753626 -0.030767989727725407 0 0.031458317385471703 -0.031130124230125837 0 0.032354374714223547 -0.031508214073762149 0 0.031952251112089762 -0.031469768327602732 0 0.031927622263753626 -0.030767989727725407 0 0.032846170980851366 -0.031204585549792097 0 0.031927622263753626 -0.030767989727725407 0 0.03301071997214565 -0.030610576981053447 0 0.031088477655490582 -0.03048484044046083 0 0.030680585066122017 -0.029885047955138321 0 0.03077110040346278 -0.029488820370095831 0 0.031927622263753626 -0.030767989727725407 0 0.031088477655490582 -0.03048484044046083 0 0.031458317385471703 -0.031130124230125837 0 0.031927622263753626 -0.030767989727725407 0 0.031088477655490582 -0.03048484044046083 0 0.03077110040346278 -0.029488820370095831 0 0.031088477655490582 -0.03048484044046083 0 0.031458317385471703 -0.031130124230125837 0 0.030684068736914226 -0.031857088198439618 0 0.031952251112089762 -0.031469768327602732 0 0.031458317385471703 -0.031130124230125837 0 0.03151471214513777 -0.031901467479672291 0 0.031458317385471703 -0.031130124230125837 0 0.030684068736914226 -0.031857088198439618 0 0.03151471214513777 -0.031901467479672291 0 0.031088477655490582 -0.03048484044046083 0 0.030684068736914226 -0.031857088198439618 0 0.030680585066122017 -0.029885047955138321 0 0.030684068736914226 -0.031857088198439618 0 0.03130996704764151 -0.032941813458651763 0 0.02973867385613526 -0.034053535460091967 0 0.030684068736914226 -0.031857088198439618 0 0.03151471214513777 -0.031901467479672291 0 0.03130996704764151 -0.032941813458651763 0 0.02823536943192537 -0.035798540588243166 0 0.02973867385613526 -0.034053535460091967 0 0.027341678513735129 -0.03217397856135492 0 0.030684068736914226 -0.031857088198439618 0 0.02973867385613526 -0.034053535460091967 0 0.027341678513735129 -0.03217397856135492 0 0.02823536943192537 -0.035798540588243166 0 0.026002396344091433 -0.035117978115870224 0 0.027341678513735129 -0.03217397856135492 0 0.026002396344091433 -0.035117978115870224 0 0.027341678513735129 -0.03217397856135492 0 0.024679264126445732 -0.033841210247056955 0 0.029426679205516466 -0.030883825754113824 0 0.027579895478741009 -0.03004044507194345 0 0.027341678513735129 -0.03217397856135492 0 0.024679264126445732 -0.033841210247056955 0 0.024416372244737909 -0.031913019658748577 0 0.030820912084235187 -0.029329581453184726 0 0.031650483669060071 -0.028918043910573916 0 0.032142407583657412 -0.028491134734789543 0 0.030724513129670381 -0.031674510424249784 0 0.029426679205516466 -0.030883825754113824 0 0.030820912084235187 -0.029329581453184726 0 0.030680585066122017 -0.029885047955138321 0 0.030907284563439382 -0.029259554483184402 0 0.030684068736914226 -0.031857088198439618 0 0.030820912084235187 -0.029329581453184726 0 0.030680585066122017 -0.029885047955138321 0 0.030680585066122017 -0.029885047955138321 0 0.030907284563439382 -0.029259554483184402 0 0.03077110040346278 -0.029488820370095831 0 0.030907284563439382 -0.029259554483184402 0 0.030649851534396557 -0.029377957389372041 0 0.03077110040346278 -0.029488820370095831 0 0.030820912084235187 -0.029329581453184726 0 0.030907284563439382 -0.029259554483184402 0 0.031650483669060071 -0.028918043910573916 0 0.031650483669060071 -0.028918043910573916 0 0.031422232532724748 -0.029091824323753592 0 0.032326161155698391 -0.02880448367029792 0 0.030907284563439382 -0.029259554483184402 0 0.031650483669060071 -0.028918043910573916 0 0.031422232532724748 -0.029091824323753592 0 0.031422232532724748 -0.029091824323753592 0 0.030757649181540607 -0.029383022984549725 0 0.030841954028116045 -0.029640086647868276 0 0.031422232532724748 -0.029091824323753592 0 0.032536409459143073 -0.029153366393488492 0 0.030841954028116045 -0.029640086647868276 0 0.031422232532724748 -0.029091824323753592 0 0.032326161155698391 -0.02880448367029792 0 0.032536409459143073 -0.029153366393488492 0 0.030907284563439382 -0.029259554483184402 0 0.030757649181540607 -0.029383022984549725 0 0.030649851534396557 -0.029377957389372041 0 0.030907284563439382 -0.029259554483184402 0 0.031422232532724748 -0.029091824323753592 0 0.030757649181540607 -0.029383022984549725 0 0.030757649181540607 -0.029383022984549725 0 0.030649851534396557 -0.029377957389372041 0 0.03031312858698039 -0.029532779112700396 0 0.02738695257066253 -0.028039370169027925 0 0.028353490033870745 -0.029432882354727664 0 0.030649851534396557 -0.029377957389372041 0 0.030704766502655967 -0.029424015209579726 0 0.03031312858698039 -0.029532779112700396 0 0.024684460590871673 -0.027499228556009229 0 0.026114699167346034 -0.028818526147692668 0 0.02478455516823682 -0.028642565319822427 0 0.024684460590871673 -0.027499228556009229 0 0.024287810156257094 -0.02744249327651032 0 0.02478455516823682 -0.028642565319822427 0 0.023543144491194518 -0.029438238836492516 0 0.024202289541516112 -0.030215994552748954 0 0.022629534412018964 -0.031741221360769602 0 0.022348531026343467 -0.031789940892559154 0 0.02337845127497962 -0.03146417818864717 0 0.022629534412018964 -0.031741221360769602 0 0.022348531026343467 -0.031789940892559154 0 0.022201208749270535 -0.03185660550116437 0 0.028713597832244385 -0.030193277763113376 0 0.032070069643532123 -0.029634369946939697 0 0.022348531026343467 -0.031789940892559154 0 0.021850313691007924 -0.03169891208725515 0 0.021953448497811074 -0.031810746750420928 0 0.023543144491194518 -0.029438238836492516 0 0.019682778845142194 -0.031443081942656582 0 0.024022992837786972 -0.026890234682395951 0 0.024287810156257094 -0.02744249327651032 0 0.023888599327096107 -0.0268636925560191 0 0.030661472496407011 -0.029422469945862215 0 0.030704766502655967 -0.029424015209579726 0 0.03077110040346278 -0.029488820370095831 0 0.028713597832244385 -0.030193277763113376 0 0.02738695257066253 -0.028039370169027925 0 0.024022992837786972 -0.026890234682395951 0 0.024684460590871673 -0.027499228556009229 0 0.024287810156257094 -0.02744249327651032 0 0.022348531026343467 -0.031789940892559154 0 0.022094613938300724 -0.031852045404074346 0 0.022201208749270535 -0.03185660550116437 0 0.022348531026343467 -0.031789940892559154 0 0.021953448497811074 -0.031810746750420928 0 0.022094613938300724 -0.031852045404074346 0 0.030649851534396557 -0.029377957389372041 0 0.030704766502655967 -0.029424015209579726 0 0.03077110040346278 -0.029488820370095831 0 0.044825304889334672 -0.032679963618636898 0 0.044211573515980609 -0.033107126428383586 0 0.043859638024813942 -0.032233029632919026 0 0.044815125953948265 -0.03343897858131302 0 0.044825304889334672 -0.032679963618636898 0 0.044211573515980609 -0.033107126428383586 0 0.044815125953948265 -0.03343897858131302 0 0.044211573515980609 -0.033107126428383586 0 0.043927754285700886 -0.034300913306394405 0 0.043583935917985428 -0.035076662277927426 0 0.041277634302151214 -0.03599540999740395 0 0.039633603744947545 -0.037461433184817858 0 0.039803639445807927 -0.03709804048722299 0 0.039121424309817368 -0.03744269339839091 0 0.039950169614275721 -0.037496805732213742 0 0.039633603744947545 -0.037461433184817858 0 0.039803639445807927 -0.03709804048722299 0 0.018857569131327009 -0.035769699042599301 0 0.02109710321013231 -0.031733961852549251 0 0.021013971310923064 -0.034474477077014135 0 0.039950169614275721 -0.037496805732213742 0 0.039803639445807927 -0.03709804048722299 0 0.040185389695099237 -0.036808836208269434 0 0.028628799037309909 -0.037012239641449271 0 0.035464770382970405 -0.033587971751071088 0 0.044815125953948265 -0.03343897858131302 0 0.045362697914195192 -0.0329799459416006 0 0.044825304889334672 -0.032679963618636898 0 0.036127291366307421 -0.032014390741031712 0 0.04350862452707667 -0.031534884336341516 0 0.043583935917985428 -0.035076662277927426 0 0.035464770382970405 -0.033587971751071088 0 0.045362697914195192 -0.0329799459416006 0 0.04539847825926116 -0.032889835283630688 0 0.044825304889334672 -0.032679963618636898 0 0.02109710321013231 -0.031733961852549251 0 0.02207572962661402 -0.032767821086841044 0 0.021013971310923064 -0.034474477077014135 0 0.032784298679033853 -0.028490054990242521 0 0.032142407583657412 -0.028491134734789543 0 0.032752098684259032 -0.028725317633200784 0 0.021721240045736695 -0.031370884188660388 0 0.02207572962661402 -0.032767821086841044 0 0.024416372244737909 -0.031913019658748577 0 0.032784298679033853 -0.028490054990242521 0 0.032841648134305901 -0.028505093823311321 0 0.032752098684259032 -0.028725317633200784 0 0.035413604024103956 -0.032053580307469812 0 0.034516701314982377 -0.03262750084062465 0 0.034870858679818907 -0.031944057863585847 0 0.030908788876607033 -0.032059583137905731 0 0.035464770382970405 -0.033587971751071088 0 0.030908788876607033 -0.032059583137905731 0 0.036127291366307421 -0.032014390741031712 0 0.035464770382970405 -0.033587971751071088 0 0.036127291366307421 -0.032014390741031712 0 0.021721240045736695 -0.031370884188660388 0 0.02109710321013231 -0.031733961852549251 0 0.02207572962661402 -0.032767821086841044 0 0.022006848226148665 -0.035725064865369631 0 0.021013971310923064 -0.034474477077014135 0 0.022841228910621701 -0.034135146381204691 0 0.02207572962661402 -0.032767821086841044 0 0.021013971310923064 -0.034474477077014135 0 0.022841228910621701 -0.034135146381204691 0 0.024133556456146132 -0.036448986934615485 0 0.022841228910621701 -0.034135146381204691 0 0.024679264126445732 -0.033841210247056955 0 0.024133556456146132 -0.036448986934615485 0 0.026002396344091433 -0.035117978115870224 0 0.024679264126445732 -0.033841210247056955 0 0.022841228910621701 -0.034135146381204691 0 0.024679264126445732 -0.033841210247056955 0 0.024416372244737909 -0.031913019658748577 0 0.030908788876607033 -0.032059583137905731 0 0.027579895478741009 -0.03004044507194345 0 0.02207572962661402 -0.032767821086841044 0 0.022841228910621701 -0.034135146381204691 0 0.024416372244737909 -0.031913019658748577 0 0.032142407583657412 -0.028491134734789543 0 0.032596441319378215 -0.028664928361541556 0 0.032752098684259032 -0.028725317633200784 0 0.031650483669060071 -0.028918043910573916 0 0.032142407583657412 -0.028491134734789543 0 0.032596441319378215 -0.028664928361541556 0 0.032596441319378215 -0.028664928361541556 0 0.03343321019021863 -0.028566830553241756 0 0.03283911098261523 -0.028625703939303557 0 0.032596441319378215 -0.028664928361541556 0 0.032326161155698391 -0.02880448367029792 0 0.03343321019021863 -0.028566830553241756 0 0.031650483669060071 -0.028918043910573916 0 0.032596441319378215 -0.028664928361541556 0 0.032326161155698391 -0.02880448367029792 0 0.032326161155698391 -0.02880448367029792 0 0.032536409459143073 -0.029153366393488492 0 0.03343321019021863 -0.028566830553241756 0 0.032536409459143073 -0.029153366393488492 0 0.03343321019021863 -0.028566830553241756 0 0.034645600266321075 -0.029411653449852027 0 0.034758321014020266 -0.028192750425228941 0 0.035970071710582259 -0.02840286434781477 0 0.034645600266321075 -0.029411653449852027 0 0.03343321019021863 -0.028566830553241756 0 0.034758321014020266 -0.028192750425228941 0 0.034645600266321075 -0.029411653449852027 0 0.034758321014020266 -0.028192750425228941 0 0.034704736584151755 -0.026948623981270983 0 0.035970071710582259 -0.02840286434781477 0 0.033577830145400903 -0.028393639429617271 0 0.034644892511240685 -0.028986290561446665 0 0.03343321019021863 -0.028566830553241756 0 0.034758321014020266 -0.028192750425228941 0 0.034704736584151755 -0.026948623981270983 0 0.03238362756431571 -0.028803628061129249 0 0.034644892511240685 -0.028986290561446665 0 0.036127291366307421 -0.032014390741031712 0 0.034644892511240685 -0.028986290561446665 0 0.036698988490236416 -0.029446813540342846 0 0.039297236136471118 -0.030754005182904248 0 0.03967800895074515 -0.030051922640075023 0 0.036698988490236416 -0.029446813540342846 0 0.035927103164045661 -0.030876633376796483 0 0.039297236136471118 -0.030754005182904248 0 0.034704736584151755 -0.026948623981270983 0 0.037107588193864484 -0.027297775993066969 0 0.035970071710582259 -0.02840286434781477 0 0.034644892511240685 -0.028986290561446665 0 0.038124701274270298 -0.028937045674890874 0 0.037107588193864484 -0.027297775993066969 0 0.035970071710582259 -0.02840286434781477 0 0.038032910605010579 -0.028687608753299555 0 0.035970071710582259 -0.02840286434781477 0 0.038032910605010579 -0.028687608753299555 0 0.036782195998607672 -0.029290137493462667 0 0.038124701274270298 -0.028937045674890874 0 0.041515804378495058 -0.03027134658339049 0 0.04350862452707667 -0.031534884336341516 0 0.041515804378495058 -0.03027134658339049 0 0.037107588193864484 -0.027297775993066969 0 0.038032910605010579 -0.028687608753299555 0 0.038857672371909825 -0.027963165378275829 0 0.039297236136471118 -0.030754005182904248 0 0.03967800895074515 -0.030051922640075023 0 0.042571972493263326 -0.030612412416893699 0 0.037373273736250046 -0.029779355279620254 0 0.038085462591304166 -0.029439475908350558 0 0.038272144365686461 -0.029701093651737683 0 0.038032910605010579 -0.028687608753299555 0 0.038085462591304166 -0.029439475908350558 0 0.036782195998607672 -0.029290137493462667 0 0.037373273736250046 -0.029779355279620254 0 0.038085462591304166 -0.029439475908350558 0 0.036782195998607672 -0.029290137493462667 0 0.037373273736250046 -0.029779355279620254 0 0.036782195998607672 -0.029290137493462667 0 0.036234847851255712 -0.030158220431893649 0 0.037373273736250046 -0.029779355279620254 0 0.036234847851255712 -0.030158220431893649 0 0.037297958768373073 -0.029976005265463426 0 0.036234847851255712 -0.030158220431893649 0 0.034645600266321075 -0.029411653449852027 0 0.034269907530356206 -0.030672482690829447 0 0.036234847851255712 -0.030158220431893649 0 0.034269907530356206 -0.030672482690829447 0 0.035655122354637164 -0.030397198407995273 0 0.035970071710582259 -0.02840286434781477 0 0.036782195998607672 -0.029290137493462667 0 0.034645600266321075 -0.029411653449852027 0 0.036782195998607672 -0.029290137493462667 0 0.036234847851255712 -0.030158220431893649 0 0.034645600266321075 -0.029411653449852027 0 0.034645600266321075 -0.029411653449852027 0 0.034269907530356206 -0.030672482690829447 0 0.032560861799646845 -0.029796557916523605 0 0.032536409459143073 -0.029153366393488492 0 0.034645600266321075 -0.029411653449852027 0 0.032560861799646845 -0.029796557916523605 0 0.034269907530356206 -0.030672482690829447 0 0.035655122354637164 -0.030397198407995273 0 0.035987814358314468 -0.030295448568028727 0 0.034297312340458241 -0.030666252353536927 0 0.033477249972251696 -0.031872847243450325 0 0.036287324852275087 -0.030145683951330677 0 0.035655122354637164 -0.030397198407995273 0 0.035987814358314468 -0.030295448568028727 0 0.036287324852275087 -0.030145683951330677 0 0.035987814358314468 -0.030295448568028727 0 0.036326049416554887 -0.030120621126430634 0 0.036287324852275087 -0.030145683951330677 0 0.036662735412525543 -0.030164197935948798 0 0.037026703538021774 -0.030070602654661292 0 0.036287324852275087 -0.030145683951330677 0 0.036662735412525543 -0.030164197935948798 0 0.035655122354637164 -0.030397198407995273 0 0.036234847851255712 -0.030158220431893649 0 0.036662735412525543 -0.030164197935948798 0 0.035655122354637164 -0.030397198407995273 0 0.036234847851255712 -0.030158220431893649 0 0.036662735412525543 -0.030164197935948798 0 0.037297958768373073 -0.029976005265463426 0 0.036662735412525543 -0.030164197935948798 0 0.037847467053191662 -0.029880635152274633 0 0.037026703538021774 -0.030070602654661292 0 0.036662735412525543 -0.030164197935948798 0 0.037297958768373073 -0.029976005265463426 0 0.037847467053191662 -0.029880635152274633 0 0.037847467053191662 -0.029880635152274633 0 0.038272144365686461 -0.029701093651737683 0 0.038775730765650447 -0.029562176780269581 0 0.037373273736250046 -0.029779355279620254 0 0.037297958768373073 -0.029976005265463426 0 0.038272144365686461 -0.029701093651737683 0 0.037297958768373073 -0.029976005265463426 0 0.037847467053191662 -0.029880635152274633 0 0.038272144365686461 -0.029701093651737683 0 0.023960143392551952 -0.031806092235333878 0 0.02522167578845291 -0.032835121503540378 0 0.023654273798225007 -0.032978634455215955 0 0.025593594828790964 -0.031261574562885523 0 0.023960143392551952 -0.031806092235333878 0 0.02522167578845291 -0.032835121503540378 0 0.023127187966609456 -0.032194426049985757 0 0.023960143392551952 -0.031806092235333878 0 0.023654273798225007 -0.032978634455215955 0 0.023127187966609456 -0.032194426049985757 0 0.023654273798225007 -0.032978634455215955 0 0.022765661185920827 -0.032842888205557717 0 0.023127187966609456 -0.032194426049985757 0 0.023960143392551952 -0.031806092235333878 0 0.022935784979324598 -0.031796223065860045 0 0.023960143392551952 -0.031806092235333878 0 0.022935784979324598 -0.031796223065860045 0 0.02337845127497962 -0.03146417818864717 0 0.023127187966609456 -0.032194426049985757 0 0.022935784979324598 -0.031796223065860045 0 0.022329676414915692 -0.032282044568882437 0 0.022629534412018964 -0.031741221360769602 0 0.022935784979324598 -0.031796223065860045 0 0.022265105547216921 -0.031945212672418476 0 0.022629534412018964 -0.031741221360769602 0 0.022935784979324598 -0.031796223065860045 0 0.02337845127497962 -0.03146417818864717 0 0.025593594828790964 -0.031261574562885523 0 0.026114699167346034 -0.028818526147692668 0 0.02478455516823682 -0.028642565319822427 0 0.025420573908097245 -0.031347997899021693 0 0.024202289541516112 -0.030215994552748954 0 0.025593594828790964 -0.031261574562885523 0 0.023960143392551952 -0.031806092235333878 0 0.02337845127497962 -0.03146417818864717 0 0.028353490033870745 -0.029432882354727664 0 0.029346238191533286 -0.031147741541636909 0 0.030757649181540607 -0.029383022984549725 0 0.03031312858698039 -0.029532779112700396 0 0.030841954028116045 -0.029640086647868276 0 0.03031312858698039 -0.029532779112700396 0 0.030841954028116045 -0.029640086647868276 0 0.029310140450182025 -0.031227450379762555 0 0.030841954028116045 -0.029640086647868276 0 0.032560861799646845 -0.029796557916523605 0 0.029310140450182025 -0.031227450379762555 0 0.032536409459143073 -0.029153366393488492 0 0.030841954028116045 -0.029640086647868276 0 0.032560861799646845 -0.029796557916523605 0 0.034269907530356206 -0.030672482690829447 0 0.032560861799646845 -0.029796557916523605 0 0.029310140450182025 -0.031227450379762555 0 0.034269907530356206 -0.030672482690829447 0 0.029310140450182025 -0.031227450379762555 0 0.030940820889621884 -0.03381357448244976 0 0.025593594828790964 -0.031261574562885523 0 0.029310140450182025 -0.031227450379762555 0 0.02522167578845291 -0.032835121503540378 0 0.025593594828790964 -0.031261574562885523 0 0.026114699167346034 -0.028818526147692668 0 0.029310140450182025 -0.031227450379762555 0 0.029310140450182025 -0.031227450379762555 0 0.027268329935372919 -0.03400121963149895 0 0.02522167578845291 -0.032835121503540378 0 0.029310140450182025 -0.031227450379762555 0 0.027268329935372919 -0.03400121963149895 0 0.030940820889621884 -0.03381357448244976 0 0.033477249972251696 -0.031872847243450325 0 0.032103921626467781 -0.032832042798461879 0 0.027268329935372919 -0.03400121963149895 0 0.030940820889621884 -0.03381357448244976 0 0.027925748631778029 -0.035581522031835809 0 0.035987814358314468 -0.030295448568028727 0 0.036294031242536676 -0.030124060988083956 0 0.036326049416554887 -0.030120621126430634 0 0.027268329935372919 -0.03400121963149895 0 0.025617796159007861 -0.035201083725926147 0 0.027925748631778029 -0.035581522031835809 0 0.027268329935372919 -0.03400121963149895 0 0.025035877263920012 -0.034010102909518454 0 0.025617796159007861 -0.035201083725926147 0 0.025035877263920012 -0.034010102909518454 0 0.023905391170759748 -0.03491284649825864 0 0.025617796159007861 -0.035201083725926147 0 0.025035877263920012 -0.034010102909518454 0 0.023511639215125817 -0.034036755254969062 0 0.023905391170759748 -0.03491284649825864 0 0.027268329935372919 -0.03400121963149895 0 0.025035877263920012 -0.034010102909518454 0 0.02522167578845291 -0.032835121503540378 0 0.025035877263920012 -0.034010102909518454 0 0.02522167578845291 -0.032835121503540378 0 0.023654273798225007 -0.032978634455215955 0 0.023654273798225007 -0.032978634455215955 0 0.022571889593570878 -0.033629524153833565 0 0.022765661185920827 -0.032842888205557717 0 0.025035877263920012 -0.034010102909518454 0 0.023654273798225007 -0.032978634455215955 0 0.023511639215125817 -0.034036755254969062 0 0.023654273798225007 -0.032978634455215955 0 0.023511639215125817 -0.034036755254969062 0 0.022571889593570878 -0.033629524153833565 0 0.023511639215125817 -0.034036755254969062 0 0.022757356081000792 -0.034568824612626184 0 0.022571889593570878 -0.033629524153833565 0 0.023511639215125817 -0.034036755254969062 0 0.022757356081000792 -0.034568824612626184 0 0.023905391170759748 -0.03491284649825864 0 0.022757356081000792 -0.034568824612626184 0 0.021757014907447331 -0.034231897777541154 0 0.022571889593570878 -0.033629524153833565 0 0.021757014907447331 -0.034231897777541154 0 0.021789728886577282 -0.033487908551140463 0 0.022571889593570878 -0.033629524153833565 0 0.021757014907447331 -0.034231897777541154 0 0.021216559588144182 -0.03362284386600816 0 0.021093105668855989 -0.034315529012533763 0 0.021757014907447331 -0.034231897777541154 0 0.021789728886577282 -0.033487908551140463 0 0.021216559588144182 -0.03362284386600816 0 0.021789728886577282 -0.033487908551140463 0 0.021484773283721784 -0.033108845574358191 0 0.021216559588144182 -0.03362284386600816 0 0.021789728886577282 -0.033487908551140463 0 0.022053074459519623 -0.032878822076775269 0 0.021484773283721784 -0.033108845574358191 0 0.022571889593570878 -0.033629524153833565 0 0.022765661185920827 -0.032842888205557717 0 0.022053074459519623 -0.032878822076775269 0 0.021789728886577282 -0.033487908551140463 0 0.022571889593570878 -0.033629524153833565 0 0.022053074459519623 -0.032878822076775269 0 0.022765661185920827 -0.032842888205557717 0 0.022053074459519623 -0.032878822076775269 0 0.022329676414915692 -0.032282044568882437 0 0.022053074459519623 -0.032878822076775269 0 0.021441094057080945 -0.032600934728336445 0 0.022329676414915692 -0.032282044568882437 0 0.023127187966609456 -0.032194426049985757 0 0.022765661185920827 -0.032842888205557717 0 0.022329676414915692 -0.032282044568882437 0 0.021484773283721784 -0.033108845574358191 0 0.021441094057080945 -0.032600934728336445 0 0.021020912156306901 -0.033033182189971248 0 0.022053074459519623 -0.032878822076775269 0 0.021484773283721784 -0.033108845574358191 0 0.021441094057080945 -0.032600934728336445 0 0.021441094057080945 -0.032600934728336445 0 0.021650897772105542 -0.032237333617271158 0 0.022329676414915692 -0.032282044568882437 0 0.021441094057080945 -0.032600934728336445 0 0.021650897772105542 -0.032237333617271158 0 0.021138062759737005 -0.032437960698415286 0 0.022935784979324598 -0.031796223065860045 0 0.022329676414915692 -0.032282044568882437 0 0.022265105547216921 -0.031945212672418476 0 0.021650897772105542 -0.032237333617271158 0 0.022329676414915692 -0.032282044568882437 0 0.022265105547216921 -0.031945212672418476 0 0.020612967528741612 -0.032871090980641358 0 0.02077316361253349 -0.032602181182121201 0 0.020551141466841054 -0.032699991018315104 0 0.020612967528741612 -0.032871090980641358 0 0.020981166101533603 -0.032691562764224413 0 0.02077316361253349 -0.032602181182121201 0 0.020981166101533603 -0.032691562764224413 0 0.021138062759737005 -0.032437960698415286 0 0.02077316361253349 -0.032602181182121201 0 0.021441094057080945 -0.032600934728336445 0 0.020981166101533603 -0.032691562764224413 0 0.021138062759737005 -0.032437960698415286 0 0.020612967528741612 -0.032871090980641358 0 0.020981166101533603 -0.032691562764224413 0 0.021020912156306901 -0.033033182189971248 0 0.021441094057080945 -0.032600934728336445 0 0.020981166101533603 -0.032691562764224413 0 0.021020912156306901 -0.033033182189971248 0 0.020612967528741612 -0.032871090980641358 0 0.02070502116577155 -0.033404124665565096 0 0.020327648731451358 -0.033166643073302603 0 0.020612967528741612 -0.032871090980641358 0 0.021020912156306901 -0.033033182189971248 0 0.02070502116577155 -0.033404124665565096 0 0.02070502116577155 -0.033404124665565096 0 0.020397475087287554 -0.033965177508607738 0 0.020327648731451358 -0.033166643073302603 0 0.021484773283721784 -0.033108845574358191 0 0.021020912156306901 -0.033033182189971248 0 0.021216559588144182 -0.03362284386600816 0 0.02070502116577155 -0.033404124665565096 0 0.021216559588144182 -0.03362284386600816 0 0.020850049727604833 -0.033825190153905976 0 0.021020912156306901 -0.033033182189971248 0 0.02070502116577155 -0.033404124665565096 0 0.021216559588144182 -0.03362284386600816 0 0.021216559588144182 -0.03362284386600816 0 0.020850049727604833 -0.033825190153905976 0 0.021093105668855989 -0.034315529012533763 0 0.020850049727604833 -0.033825190153905976 0 0.020397475087287554 -0.033965177508607738 0 0.021093105668855989 -0.034315529012533763 0 0.02070502116577155 -0.033404124665565096 0 0.020850049727604833 -0.033825190153905976 0 0.020397475087287554 -0.033965177508607738 0 0.020009008595676201 -0.034510350491367234 0 0.019719797403700962 -0.034530573568490847 0 0.019958380365232311 -0.03457235747710001 0 0.012855339899205072 -0.031824119175069353 0 0.012645556910169675 -0.032132511005739016 0 0.012462989984592238 -0.031567878459184517 0 0.012855339899205072 -0.031824119175069353 0 0.012645556910169675 -0.032132511005739016 0 0.012975099474551034 -0.032593082683629149 0 0.016437238634082293 -0.033243929540600958 0 0.01510846390335456 -0.033469901107950048 0 0.012855339899205072 -0.031824119175069353 0 0.012462989984592238 -0.031567878459184517 0 0.012804644535832974 -0.031035074514513591 0 0.016437238634082293 -0.033243929540600958 0 0.01613604026557924 -0.032722991605783125 0 0.019719797403700962 -0.034530573568490847 0 0.019728769069687728 -0.034518859737505084 0 0.019461301865665002 -0.034526325348022413 0 0.020219459489730224 -0.034261907777473677 0 0.020039693671308669 -0.033865868511725725 0 0.020009008595676201 -0.034510350491367234 0 0.019719797403700962 -0.034530573568490847 0 0.019728769069687728 -0.034518859737505084 0 0.011536143655692633 -0.031809189566978091 0 0.012056459893758338 -0.031981928929586109 0 0.011942225324379581 -0.031472475684652043 0 0.011148388826336337 -0.032110067845397459 0 0.011536143655692633 -0.031809189566978091 0 0.01153705675347446 -0.032220568212011767 0 0.011536143655692633 -0.031809189566978091 0 0.01153705675347446 -0.032220568212011767 0 0.012056459893758338 -0.031981928929586109 0 0.01153705675347446 -0.032220568212011767 0 0.012056459893758338 -0.031981928929586109 0 0.011858736630070827 -0.032473119382239811 0 0.012645556910169675 -0.032132511005739016 0 0.012056459893758338 -0.031981928929586109 0 0.012462989984592238 -0.031567878459184517 0 0.012056459893758338 -0.031981928929586109 0 0.012302202582541766 -0.032363582532831323 0 0.011858736630070827 -0.032473119382239811 0 0.012645556910169675 -0.032132511005739016 0 0.012056459893758338 -0.031981928929586109 0 0.012302202582541766 -0.032363582532831323 0 0.012462989984592238 -0.031567878459184517 0 0.011942225324379581 -0.031472475684652043 0 0.01229744551713019 -0.031113122507590307 0 0.012056459893758338 -0.031981928929586109 0 0.012462989984592238 -0.031567878459184517 0 0.011942225324379581 -0.031472475684652043 0 0.011384322501921642 -0.031414892819652977 0 0.011942225324379581 -0.031472475684652043 0 0.011622120128423083 -0.031121576291893206 0 0.011384322501921642 -0.031414892819652977 0 0.011536143655692633 -0.031809189566978091 0 0.011942225324379581 -0.031472475684652043 0 0.011622120128423083 -0.031121576291893206 0 0.01229744551713019 -0.031113122507590307 0 0.011802081094289412 -0.030578805892205921 0 0.011942225324379581 -0.031472475684652043 0 0.011622120128423083 -0.031121576291893206 0 0.01229744551713019 -0.031113122507590307 0 0.01229744551713019 -0.031113122507590307 0 0.012618975542313759 -0.030821035821595899 0 0.011802081094289412 -0.030578805892205921 0 0.012462989984592238 -0.031567878459184517 0 0.01229744551713019 -0.031113122507590307 0 0.012804644535832974 -0.031035074514513591 0 0.01229744551713019 -0.031113122507590307 0 0.012618975542313759 -0.030821035821595899 0 0.012804644535832974 -0.031035074514513591 0 0.013758953456957877 -0.030617665338068995 0 0.013399125933805186 -0.030614907918966677 0 0.012804644535832974 -0.031035074514513591 0 0.013399125933805186 -0.030614907918966677 0 0.012618975542313759 -0.030821035821595899 0 0.012804644535832974 -0.031035074514513591 0 0.016322787322254062 -0.032340581816121636 0 0.01613604026557924 -0.032722991605783125 0 0.013399125933805186 -0.030614907918966677 0 0.012384708705621948 -0.030316858022333484 0 0.012631502798538797 -0.029758942589236004 0 0.013399125933805186 -0.030614907918966677 0 0.012618975542313759 -0.030821035821595899 0 0.012384708705621948 -0.030316858022333484 0 0.012618975542313759 -0.030821035821595899 0 0.012384708705621948 -0.030316858022333484 0 0.011802081094289412 -0.030578805892205921 0 0.012384708705621948 -0.030316858022333484 0 0.011802081094289412 -0.030578805892205921 0 0.01192710686828136 -0.029941396355726319 0 0.020039693671308669 -0.033865868511725725 0 0.019936084904840175 -0.033513456248142823 0 0.019728769069687728 -0.034518859737505084 0 0.019461301865665002 -0.034526325348022413 0 0.019349421347300551 -0.0344350040928737 0 0.019728769069687728 -0.034518859737505084 0 0.019349421347300551 -0.0344350040928737 0 0.019591389994271624 -0.034257853160865791 0 0.018904568596511389 -0.03433199480158465 0 0.019349421347300551 -0.0344350040928737 0 0.019094687083958742 -0.033905300130448901 0 0.018904568596511389 -0.03433199480158465 0 0.019461301865665002 -0.034526325348022413 0 0.019349421347300551 -0.0344350040928737 0 0.019349421347300551 -0.0344350040928737 0 0.019591389994271624 -0.034257853160865791 0 0.019094687083958742 -0.033905300130448901 0 0.020612967528741612 -0.032871090980641358 0 0.020315097069499039 -0.032861309222961307 0 0.020551141466841054 -0.032699991018315104 0 0.020612967528741612 -0.032871090980641358 0 0.020327648731451358 -0.033166643073302603 0 0.020315097069499039 -0.032861309222961307 0 0.020315097069499039 -0.032861309222961307 0 0.020456612006285443 -0.032710362253417141 0 0.020551141466841054 -0.032699991018315104 0 0.019936084904840175 -0.033513456248142823 0 0.019648103335767692 -0.032628038093257247 0 0.020315097069499039 -0.032861309222961307 0 0.019649387971744481 -0.032634404936535237 0 0.020456612006285443 -0.032710362253417141 0 0.019591389994271624 -0.034257853160865791 0 0.019094687083958742 -0.033905300130448901 0 0.019649387971744481 -0.032634404936535237 0 0.019094687083958742 -0.033905300130448901 0 0.019649387971744481 -0.032634404936535237 0 0.018656374063553614 -0.033183511344246901 0 0.019649387971744481 -0.032634404936535237 0 0.018862936555173581 -0.03233972648998823 0 0.02084132689065284 -0.032810610992094688 0 0.019649387971744481 -0.032634404936535237 0 0.020423860211423735 -0.032703827570885281 0 0.02084132689065284 -0.032810610992094688 0 0.019649387971744481 -0.032634404936535237 0 0.020423860211423735 -0.032703827570885281 0 0.020456612006285443 -0.032710362253417141 0 0.020423860211423735 -0.032703827570885281 0 0.020600518958361076 -0.032716462505980239 0 0.02084132689065284 -0.032810610992094688 0 0.020423860211423735 -0.032703827570885281 0 0.020600518958361076 -0.032716462505980239 0 0.020456612006285443 -0.032710362253417141 0 0.020600518958361076 -0.032716462505980239 0 0.020456612006285443 -0.032710362253417141 0 0.020562203977703107 -0.032626388008965071 0 0.011072742400281315 -0.029885390477233608 0 0.01192710686828136 -0.029941396355726319 0 0.012140645354251994 -0.029186712607984631 0 0.01192710686828136 -0.029941396355726319 0 0.012631502798538797 -0.029758942589236004 0 0.012140645354251994 -0.029186712607984631 0 0.012384708705621948 -0.030316858022333484 0 0.01192710686828136 -0.029941396355726319 0 0.012631502798538797 -0.029758942589236004 0 0.013453737886318517 -0.029638832895928027 0 0.0065357063099088872 -0.042726848993697865 0 0.013758953456957877 -0.030617665338068995 0 0.015597466409729746 -0.031190433716469467 0 0.016734082755315086 -0.032409420210952243 0 0.016322787322254062 -0.032340581816121636 0 0.016598041055564311 -0.03219012767435743 0 0.018904568596511389 -0.03433199480158465 0 0.018455278506546526 -0.03349359125114551 0 0.016734082755315086 -0.032409420210952243 0 0.013879802303632444 -0.030974271325563435 0 0.013453737886318517 -0.029638832895928027 0 0.013758953456957877 -0.030617665338068995 0 0.013399125933805186 -0.030614907918966677 0 0.015597466409729746 -0.031190433716469467 0 0.018904568596511389 -0.03433199480158465 0 0.019094687083958742 -0.033905300130448901 0 0.018455278506546526 -0.03349359125114551 0 0.019094687083958742 -0.033905300130448901 0 0.018455278506546526 -0.03349359125114551 0 0.018656374063553614 -0.033183511344246901 0 0.015597466409729746 -0.031190433716469467 0 0.016734082755315086 -0.032409420210952243 0 0.01657883193787903 -0.032461582269665668 0 0.018656374063553614 -0.033183511344246901 0 0.017146202482053053 -0.032007199142358701 0 0.016734082755315086 -0.032409420210952243 0 0.017828950056396346 -0.032477033771325249 0 0.017246109271452495 -0.036553985838199951 0 0.018455278506546526 -0.03349359125114551 0 0.018656374063553614 -0.033183511344246901 0 0.016734082755315086 -0.032409420210952243 0 0.019649387971744481 -0.032634404936535237 0 0.018656374063553614 -0.033183511344246901 0 0.018862936555173581 -0.03233972648998823 0 0.015105724458848566 -0.042428711997358877 0 0.017246109271452495 -0.036553985838199951 0 0.0001418790264060067 -0.055955160861916195 0 -0.00011107235354748362 -0.055993437881920939 0 -0.00012824138659204009 -0.056107927665006635 0 0.017146202482053053 -0.032007199142358701 0 0.016734082755315086 -0.032409420210952243 0 0.01657883193787903 -0.032461582269665668 0 0.016325211567807946 -0.037566995562454179 0 0.016996819518620115 -0.039616405796406864 0 0.0081890932354813199 -0.042470879909576958 0 0.017246109271452495 -0.036553985838199951 0 0.0079880325265125878 -0.043121059644271147 0 0.015105724458848566 -0.042428711997358877 0 0.0079880325265125878 -0.043121059644271147 0 -0.0022962461631313843 -0.05579310934982791 0 -0.0025073330930062867 -0.055941750181193656 0 -0.002058263219008503 -0.055844421794183426 0 -0.0022962461631313843 -0.05579310934982791 0 -0.002058263219008503 -0.055844421794183426 0 -0.0022727668438483561 -0.055605654491841065 0 0.015597466409729746 -0.031190433716469467 0 0.016938859149865031 -0.03234812144727104 0 0.01657883193787903 -0.032461582269665668 0 0.0065357063099088872 -0.042726848993697865 0 0.0079880325265125878 -0.043121059644271147 0 -0.00011107235354748362 -0.055993437881920939 0 -0.00025984852490679709 -0.056153405417904236 0 -0.00012824138659204009 -0.056107927665006635 0 -0.00011107235354748362 -0.055993437881920939 0 -0.00025984852490679709 -0.056153405417904236 0 -0.00022607823888405471 -0.055824243212300818 0 -0.00073127540155543797 -0.055824228850228919 0 -0.00022607823888405471 -0.055824243212300818 0 -0.0001102091135819252 -0.055391415739262546 0 0.0065357063099088872 -0.042726848993697865 0 -0.0013472341877030138 -0.057382025777206101 0 -0.00025984852490679709 -0.056153405417904236 0 -0.00073127540155543797 -0.055824228850228919 0 -0.00022607823888405471 -0.055824243212300818 0 0.015105724458848566 -0.042428711997358877 0 0.0085456211088555389 -0.049718423660609155 0 0.0001418790264060067 -0.055955160861916195 0 -0.00022607823888405471 -0.055824243212300818 0 -0.0001102091135819252 -0.055391415739262546 0 0.017631146122502897 -0.040068350977907737 0 0.017128141269059448 -0.041450036674918832 0 0.018369855548873167 -0.042230639461315909 0 0.0001418790264060067 -0.055955160861916195 0 -0.00011107235354748362 -0.055993437881920939 0 -0.00022607823888405471 -0.055824243212300818 0 0.017128141269059448 -0.041450036674918832 0 0.018369855548873167 -0.042230639461315909 0 0.016924430362273105 -0.042658568665231038 0 0.017738568132822409 -0.043861102556293129 0 0.018369855548873167 -0.042230639461315909 0 0.016924430362273105 -0.042658568665231038 0 -0.0013853268719730639 -0.055363565032864832 0 -0.00073127540155543797 -0.055824228850228919 0 -0.0001102091135819252 -0.055391415739262546 0 0.020739609262757735 -0.033384728732810717 0 0.021410474391910479 -0.033118859249954058 0 0.020631632704065959 -0.034222845082069325 0 0.020739609262757735 -0.033384728732810717 0 0.02084132689065284 -0.032810610992094688 0 0.021410474391910479 -0.033118859249954058 0 0.020739609262757735 -0.033384728732810717 0 0.020631632704065959 -0.034222845082069325 0 0.020479781733482638 -0.033600356960107249 0 0.020739609262757735 -0.033384728732810717 0 0.020479781733482638 -0.033600356960107249 0 0.020536863697685186 -0.032994408263001956 0 0.020600518958361076 -0.032716462505980239 0 0.02084132689065284 -0.032810610992094688 0 0.020536863697685186 -0.032994408263001956 0 0.020739609262757735 -0.033384728732810717 0 0.02084132689065284 -0.032810610992094688 0 0.020536863697685186 -0.032994408263001956 0 0.017631146122502897 -0.040068350977907737 0 0.017128141269059448 -0.041450036674918832 0 0.015877097724319778 -0.041111995799587762 0 0.022223107190272283 -0.032625389422818687 0 0.02084132689065284 -0.032810610992094688 0 0.021410474391910479 -0.033118859249954058 0 0.017246109271452495 -0.036553985838199951 0 0.022329051709517603 -0.031407327762870571 0 0.022247033601412274 -0.032725308307060948 0 0.022223107190272283 -0.032625389422818687 0 0.021410474391910479 -0.033118859249954058 0 0.015105724458848566 -0.042428711997358877 0 0.01987988373224725 -0.036194630230070364 0 0.017128141269059448 -0.041450036674918832 0 0.015877097724319778 -0.041111995799587762 0 0.016154294167726412 -0.042035742693586953 0 0.015877097724319778 -0.041111995799587762 0 0.016154294167726412 -0.042035742693586953 0 0.015395274793472274 -0.041764318292250836 0 0.017128141269059448 -0.041450036674918832 0 0.016154294167726412 -0.042035742693586953 0 0.016924430362273105 -0.042658568665231038 0 0.016154294167726412 -0.042035742693586953 0 0.016924430362273105 -0.042658568665231038 0 0.016094825512773216 -0.042905553361733302 0 0.016154294167726412 -0.042035742693586953 0 0.016094825512773216 -0.042905553361733302 0 0.015498702092813161 -0.042406598021755178 0 0.021410474391910479 -0.033118859249954058 0 0.020631632704065959 -0.034222845082069325 0 0.020607297979827462 -0.035185264877470583 0 0.015877097724319778 -0.041111995799587762 0 0.015395274793472274 -0.041764318292250836 0 0.014245324651413706 -0.042086134195497303 0 0.014679228507788803 -0.042758520237303053 0 0.015498702092813161 -0.042406598021755178 0 0.014926911011701184 -0.042272766572079429 0 0.01987988373224725 -0.036194630230070364 0 0.016838717902281301 -0.038948756789052158 0 0.016154294167726412 -0.042035742693586953 0 0.015498702092813161 -0.042406598021755178 0 0.015395274793472274 -0.041764318292250836 0 0.015498702092813161 -0.042406598021755178 0 0.015395274793472274 -0.041764318292250836 0 0.014926911011701184 -0.042272766572079429 0 0.015395274793472274 -0.041764318292250836 0 0.01477308577303456 -0.042111639485473751 0 0.014245324651413706 -0.042086134195497303 0 0.015395274793472274 -0.041764318292250836 0 0.01477308577303456 -0.042111639485473751 0 0.014926911011701184 -0.042272766572079429 0 0.01477308577303456 -0.042111639485473751 0 0.014471759666120219 -0.042369564742559471 0 0.014245324651413706 -0.042086134195497303 0 0.01477308577303456 -0.042111639485473751 0 0.014471759666120219 -0.042369564742559471 0 0.014926911011701184 -0.042272766572079429 0 0.014679228507788803 -0.042758520237303053 0 0.014471759666120219 -0.042369564742559471 0 0.014926911011701184 -0.042272766572079429 0 0.012811871320657878 -0.041650729244260561 0 0.020607297979827462 -0.035185264877470583 0 0.019948782461874787 -0.034854745727783111 0 0.013879820676881203 -0.042604918787705295 0 0.014471759666120219 -0.042369564742559471 0 0.014245324651413706 -0.042086134195497303 0 0.014679228507788803 -0.042758520237303053 0 0.013879820676881203 -0.042604918787705295 0 0.014471759666120219 -0.042369564742559471 0 0.013159956446042887 -0.041398426929430583 0 0.016838717902281301 -0.038948756789052158 0 0.012811871320657878 -0.041650729244260561 0 0.013879820676881203 -0.042604918787705295 0 0.014245324651413706 -0.042086134195497303 0 0.019948782461874787 -0.034854745727783111 0 0.020343705108872328 -0.034110993406912121 0 0.020293925044786311 -0.033464828803579469 0 0.020631632704065959 -0.034222845082069325 0 0.020607297979827462 -0.035185264877470583 0 0.020358443073230259 -0.034578629982273262 0 0.020607297979827462 -0.035185264877470583 0 0.019948782461874787 -0.034854745727783111 0 0.020358443073230259 -0.034578629982273262 0 0.019948782461874787 -0.034854745727783111 0 0.020343705108872328 -0.034110993406912121 0 0.020358443073230259 -0.034578629982273262 0 0.020631632704065959 -0.034222845082069325 0 0.020343705108872328 -0.034110993406912121 0 0.020358443073230259 -0.034578629982273262 0 0.020631632704065959 -0.034222845082069325 0 0.020343705108872328 -0.034110993406912121 0 0.020479781733482638 -0.033600356960107249 0 0.020479781733482638 -0.033600356960107249 0 0.020293925044786311 -0.033464828803579469 0 0.020536863697685186 -0.032994408263001956 0 0.020343705108872328 -0.034110993406912121 0 0.020479781733482638 -0.033600356960107249 0 0.020293925044786311 -0.033464828803579469 0 0.020293925044786311 -0.033464828803579469 0 0.020421502417908906 -0.032804568965642086 0 0.020302403601692647 -0.033076405086803186 0 0.019948782461874787 -0.034854745727783111 0 0.020293925044786311 -0.033464828803579469 0 0.020302403601692647 -0.033076405086803186 0 0.020421502417908906 -0.032804568965642086 0 0.020536863697685186 -0.032994408263001956 0 0.020562203977703107 -0.032626388008965071 0 0.020293925044786311 -0.033464828803579469 0 0.020421502417908906 -0.032804568965642086 0 0.020536863697685186 -0.032994408263001956 0 0.019948782461874787 -0.034854745727783111 0 0.020302403601692647 -0.033076405086803186 0 0.02060384303969285 -0.032192521969775831 0 0.020554692489839099 -0.032514550946947593 0 0.020302403601692647 -0.033076405086803186 0 0.02060384303969285 -0.032192521969775831 0 0.020421502417908906 -0.032804568965642086 0 0.020554692489839099 -0.032514550946947593 0 0.020302403601692647 -0.033076405086803186 0 0.020649376420782833 -0.034949907449159802 0 0.014066483176014763 -0.033525916895144482 0 0.012811871320657878 -0.041650729244260561 0 0.019948782461874787 -0.034854745727783111 0 0.010220061593020618 -0.034814099887799835 0 0.012811871320657878 -0.041650729244260561 0 0.0062930777776713017 -0.038726168865490199 0 0.010220061593020618 -0.034814099887799835 0 0.033104765842803377 -0.035577081456858117 0 0.033534360183798927 -0.033141857868847067 0 0.034801238694382633 -0.033567679335544741 0 0.033534360183798927 -0.033141857868847067 0 0.034801238694382633 -0.033567679335544741 0 0.03377289588354828 -0.031665828412448645 0 0.032851291816265976 -0.032135405230149482 0 0.033534360183798927 -0.033141857868847067 0 0.03377289588354828 -0.031665828412448645 0 0.020432422753189634 -0.036157790379496443 0 0.019682778845142194 -0.031443081942656582 0 0.034801238694382633 -0.033567679335544741 0 0.03377289588354828 -0.031665828412448645 0 0.033322520664919142 -0.030427574831568677 0 0.021850313691007924 -0.03169891208725515 0 0.021231294418878693 -0.032066366895641359 0 0.021658282501453411 -0.03192177821510804 0 0.032846170980851366 -0.031204585549792097 0 0.03301071997214565 -0.030610576981053447 0 0.03377289588354828 -0.031665828412448645 0 0.032851291816265976 -0.032135405230149482 0 0.032846170980851366 -0.031204585549792097 0 0.03377289588354828 -0.031665828412448645 0 0.028713597832244385 -0.030193277763113376 0 0.033247068793034025 -0.032328074782361306 0 0.032788969103109918 -0.030257858477677924 0 0.03377289588354828 -0.031665828412448645 0 0.033322520664919142 -0.030427574831568677 0 0.028713597832244385 -0.030193277763113376 0 0.019682778845142194 -0.031443081942656582 0 0.0062930777776713017 -0.038726168865490199 0 0.0037031120926985682 -0.033279127934225806 0 0.010220061593020618 -0.034814099887799835 0 0.021850313691007924 -0.03169891208725515 0 0.02060384303969285 -0.032192521969775831 0 0.021231294418878693 -0.032066366895641359 0 0.020554692489839099 -0.032514550946947593 0 0.02060384303969285 -0.032192521969775831 0 0.021231294418878693 -0.032066366895641359 0 0.019682778845142194 -0.031443081942656582 0 0.014066483176014763 -0.033525916895144482 0 0.020554692489839099 -0.032514550946947593 0 0.021231294418878693 -0.032066366895641359 0 0.020932512467473151 -0.03232549512855417 0 0.021231294418878693 -0.032066366895641359 0 0.020932512467473151 -0.03232549512855417 0 0.021442858075384322 -0.032088448903625548 0 0.020932512467473151 -0.03232549512855417 0 0.021442858075384322 -0.032088448903625548 0 0.021236423524485078 -0.032256200999232258 0 0.021850313691007924 -0.03169891208725515 0 0.021953448497811074 -0.031810746750420928 0 0.021658282501453411 -0.03192177821510804 0 0.021953448497811074 -0.031810746750420928 0 0.021658282501453411 -0.03192177821510804 0 0.02184787608491455 -0.031928587662736929 0 0.021442858075384322 -0.032088448903625548 0 0.021658282501453411 -0.03192177821510804 0 0.02184787608491455 -0.031928587662736929 0 0.021231294418878693 -0.032066366895641359 0 0.021442858075384322 -0.032088448903625548 0 0.021658282501453411 -0.03192177821510804 0 0.021442858075384322 -0.032088448903625548 0 0.02184787608491455 -0.031928587662736929 0 0.021773968734588818 -0.032042284242318086 0 0.02184787608491455 -0.031928587662736929 0 0.022094613938300724 -0.031852045404074346 0 0.022201208749270535 -0.03185660550116437 0 0.021953448497811074 -0.031810746750420928 0 0.02184787608491455 -0.031928587662736929 0 0.022094613938300724 -0.031852045404074346 0 0.022201208749270535 -0.03185660550116437 0 0.021773968734588818 -0.032042284242318086 0 0.022265105547216921 -0.031945212672418476 0 0.02184787608491455 -0.031928587662736929 0 0.022201208749270535 -0.03185660550116437 0 0.021773968734588818 -0.032042284242318086 0 0.021650897772105542 -0.032237333617271158 0 0.021773968734588818 -0.032042284242318086 0 0.022265105547216921 -0.031945212672418476 0 0.022629534412018964 -0.031741221360769602 0 0.022201208749270535 -0.03185660550116437 0 0.022265105547216921 -0.031945212672418476 0 0.021650897772105542 -0.032237333617271158 0 0.021773968734588818 -0.032042284242318086 0 0.021236423524485078 -0.032256200999232258 0 0.021442858075384322 -0.032088448903625548 0 0.021773968734588818 -0.032042284242318086 0 0.021236423524485078 -0.032256200999232258 0 0.021650897772105542 -0.032237333617271158 0 0.021236423524485078 -0.032256200999232258 0 0.021138062759737005 -0.032437960698415286 0 0.021236423524485078 -0.032256200999232258 0 0.021138062759737005 -0.032437960698415286 0 0.02087206358107508 -0.032427938396613176 0 0.02087206358107508 -0.032427938396613176 0 0.02077316361253349 -0.032602181182121201 0 0.020652691975546266 -0.032557633925240637 0 0.021138062759737005 -0.032437960698415286 0 0.02087206358107508 -0.032427938396613176 0 0.02077316361253349 -0.032602181182121201 0 0.020456612006285443 -0.032710362253417141 0 0.020551141466841054 -0.032699991018315104 0 0.020652691975546266 -0.032557633925240637 0 0.02077316361253349 -0.032602181182121201 0 0.020551141466841054 -0.032699991018315104 0 0.020652691975546266 -0.032557633925240637 0 0.020652691975546266 -0.032557633925240637 0 0.020562203977703107 -0.032626388008965071 0 0.020607537464598702 -0.0325283124771788 0 0.020456612006285443 -0.032710362253417141 0 0.020652691975546266 -0.032557633925240637 0 0.020562203977703107 -0.032626388008965071 0 0.020600518958361076 -0.032716462505980239 0 0.020536863697685186 -0.032994408263001956 0 0.020562203977703107 -0.032626388008965071 0 0.020421502417908906 -0.032804568965642086 0 0.020562203977703107 -0.032626388008965071 0 0.020607537464598702 -0.0325283124771788 0 0.020421502417908906 -0.032804568965642086 0 0.020554692489839099 -0.032514550946947593 0 0.020607537464598702 -0.0325283124771788 0 0.020554692489839099 -0.032514550946947593 0 0.020932512467473151 -0.03232549512855417 0 0.020607537464598702 -0.0325283124771788 0 0.020932512467473151 -0.03232549512855417 0 0.021236423524485078 -0.032256200999232258 0 0.02087206358107508 -0.032427938396613176 0 0.020932512467473151 -0.03232549512855417 0 0.02087206358107508 -0.032427938396613176 0 0.020607537464598702 -0.0325283124771788 0 0.02087206358107508 -0.032427938396613176 0 0.020652691975546266 -0.032557633925240637 0 0.020607537464598702 -0.0325283124771788 0 0.051418676469544837 -0.039922025728806217 0 0.051546394628948417 -0.038849293186996064 0 0.052395844060950748 -0.040557710139411431 0 0.049366987653540029 -0.037324152331974413 0 0.05054788200515925 -0.039534188100679803 0 0.051679431542671649 -0.040266602699803228 0 0.05054788200515925 -0.039534188100679803 0 0.0514478083491497 -0.040241064919257767 0 0.049999249870022383 -0.039275145024834694 0 0.051240951304425034 -0.041983183882060536 0 0.051679431542671649 -0.040266602699803228 0 0.050022996962057982 -0.039300364253264455 0 0.051418676469544837 -0.039922025728806217 0 0.049999967091109217 -0.039274545733354836 0 0.051035507125360938 -0.039592006054657396 0 0.049999967091109217 -0.039274545733354836 0 0.051035507125360938 -0.039592006054657396 0 0.05097281872768495 -0.038649691130786507 0 0.050540031114486864 -0.039000278630956772 0 0.049366987653540029 -0.037324152331974413 0 0.051418676469544837 -0.039922025728806217 0 0.051035507125360938 -0.039592006054657396 0 0.051546394628948417 -0.038849293186996064 0 0.049366987653540029 -0.037324152331974413 0 0.050546480625453867 -0.036116801230232198 0 0.051035507125360938 -0.039592006054657396 0 0.05097281872768495 -0.038649691130786507 0 0.051691719691771346 -0.038708981206081107 0 0.05097281872768495 -0.038649691130786507 0 0.051691719691771346 -0.038708981206081107 0 0.050878843744297887 -0.036949936958557271 0 0.049999967091109217 -0.039274545733354836 0 0.05097281872768495 -0.038649691130786507 0 0.050878843744297887 -0.036949936958557271 0 0.049366987653540029 -0.037324152331974413 0 0.047804469817728734 -0.034707650267067236 0 0.044378114526152958 -0.036457287621874349 0 0.045906305600367479 -0.036159881349982867 0 0.045151813457774997 -0.035132328080725958 0 0.045906305600367479 -0.036159881349982867 0 0.045018091119532908 -0.03772524326778106 0 0.046861176620312271 -0.037074633366644918 0 0.045906305600367479 -0.036159881349982867 0 0.046861176620312271 -0.037074633366644918 0 0.047497145338127905 -0.035611204058311759 0 0.044378114526152958 -0.036457287621874349 0 0.045906305600367479 -0.036159881349982867 0 0.045018091119532908 -0.03772524326778106 0 0.046197316846142228 -0.038513533278668501 0 0.045018091119532908 -0.03772524326778106 0 0.046861176620312271 -0.037074633366644918 0 0.045170645579032394 -0.041643330055143243 0 0.05054788200515925 -0.039534188100679803 0 0.054566734518767861 -0.042485099308864689 0 0.053245340818378589 -0.042347732882274856 0 0.052655388531574462 -0.041348676016104785 0 0.054566734518767861 -0.042485099308864689 0 0.052549006546810668 -0.041135835428585191 0 0.052655388531574462 -0.041348676016104785 0 0.053245340818378589 -0.042347732882274856 0 0.052258982648193536 -0.04202283597759611 0 0.052655388531574462 -0.041348676016104785 0 0.045170645579032394 -0.041643330055143243 0 0.042172695492980382 -0.037004762977471933 0 0.036909234572372634 -0.040730647801262697 0 0.038855709280470545 -0.039956656852616901 0 0.03848855554600096 -0.037466258511931 0 0.042506334326414916 -0.044560811415762527 0 0.042055194797229925 -0.04350235206385647 0 0.04028840288221746 -0.042913819135354692 0 0.045170645579032394 -0.041643330055143243 0 0.038789624081739686 -0.042390811592380118 0 0.036909234572372634 -0.040730647801262697 0 0.04028840288221746 -0.042913819135354692 0 0.038855709280470545 -0.039956656852616901 0 0.054566734518767861 -0.042485099308864689 0 0.052470193988303694 -0.043272370607518609 0 0.053337792921764833 -0.045081031303475488 0 0.045170645579032394 -0.041643330055143243 0 0.048990605041229193 -0.044871072712368273 0 0.054566734518767861 -0.042485099308864689 0 0.053245340818378589 -0.042347732882274856 0 0.052470193988303694 -0.043272370607518609 0 0.049999249870022383 -0.039275145024834694 0 0.051240951304425034 -0.041983183882060536 0 0.050000971145710046 -0.043361089681047869 0 0.052470193988303694 -0.043272370607518609 0 0.052258982648193536 -0.04202283597759611 0 0.051240951304425034 -0.041983183882060536 0 0.053245340818378589 -0.042347732882274856 0 0.052470193988303694 -0.043272370607518609 0 0.052258982648193536 -0.04202283597759611 0 0.0514478083491497 -0.040241064919257767 0 0.052039475830205226 -0.041351500733772778 0 0.051240951304425034 -0.041983183882060536 0 0.052258982648193536 -0.04202283597759611 0 0.052655388531574462 -0.041348676016104785 0 0.052039475830205226 -0.041351500733772778 0 0.052258982648193536 -0.04202283597759611 0 0.052039475830205226 -0.041351500733772778 0 0.051240951304425034 -0.041983183882060536 0 0.0514478083491497 -0.040241064919257767 0 0.052572177706631654 -0.041144329827372837 0 0.052039475830205226 -0.041351500733772778 0 0.052572177706631654 -0.041144329827372837 0 0.052655388531574462 -0.041348676016104785 0 0.052039475830205226 -0.041351500733772778 0 0.05054788200515925 -0.039534188100679803 0 0.050850389159201349 -0.039986844507642401 0 0.052470193988303694 -0.043272370607518609 0 0.051240951304425034 -0.041983183882060536 0 0.050000971145710046 -0.043361089681047869 0 0.050000971145710046 -0.043361089681047869 0 0.051176071968758743 -0.045813638956344653 0 0.049992521623162339 -0.050001937858359338 0 0.052470193988303694 -0.043272370607518609 0 0.051176071968758743 -0.045813638956344653 0 0.053337792921764833 -0.045081031303475488 0 0.052470193988303694 -0.043272370607518609 0 0.050000971145710046 -0.043361089681047869 0 0.051176071968758743 -0.045813638956344653 0 0.051176071968758743 -0.045813638956344653 0 0.051339080377685774 -0.047819596095478423 0 0.053337792921764833 -0.045081031303475488 0 0.051176071968758743 -0.045813638956344653 0 0.051339080377685774 -0.047819596095478423 0 0.049992521623162339 -0.050001937858359338 0 0.044789032540978206 -0.048909031347543111 0 0.048591547993188072 -0.049999600302140658 0 0.046480159248115577 -0.049998936789858325 0 0.04814350032794236 -0.048012956341645568 0 0.048595564904024266 -0.04999895569519669 0 0.051339080377685774 -0.047819596095478423 0 0.049992521623162339 -0.050001937858359338 0 0.048608929094813132 -0.04999537933996144 0 0.044340418303636053 -0.05058710057519724 0 0.044365171779017207 -0.049999987290090905 0 0.042795778071791857 -0.049999965043874009 0 0.046313551000724165 -0.050005520790997647 0 0.045649156229530641 -0.049640649970329652 0 0.045628162692073121 -0.04881999447806646 0 0.044189814699786015 -0.049471846054441201 0 0.044364940107103228 -0.050000018635468144 0 0.044354260026793088 -0.050678004772329054 0 0.044366922825619076 -0.050000107162577849 0 0.045364567889350733 -0.050127598524928159 0 0.046313551000724165 -0.050005520790997647 0 0.045364567889350733 -0.050127598524928159 0 0.045649156229530641 -0.049640649970329652 0 0.044189814699786015 -0.049471846054441201 0 0.045204906890018215 -0.049708768559416042 0 0.044366922825619076 -0.050000107162577849 0 0.045364567889350733 -0.050127598524928159 0 0.046480159248115577 -0.049998936789858325 0 0.044789032540978206 -0.048909031347543111 0 0.046480159248115577 -0.049998936789858325 0 0.045649156229530641 -0.049640649970329652 0 0.045364567889350733 -0.050127598524928159 0 0.046480159248115577 -0.049998936789858325 0 0.045649156229530641 -0.049640649970329652 0 0.044789032540978206 -0.048909031347543111 0 0.045649156229530641 -0.049640649970329652 0 0.045628162692073121 -0.04881999447806646 0 0.044789032540978206 -0.048909031347543111 0 0.045628162692073121 -0.04881999447806646 0 0.045541699181909902 -0.047424475109789886 0 0.045628162692073121 -0.04881999447806646 0 0.047028741251105288 -0.047100662066004426 0 0.045541699181909902 -0.047424475109789886 0 0.046313551000724165 -0.050005520790997647 0 0.045628162692073121 -0.04881999447806646 0 0.047028741251105288 -0.047100662066004426 0 0.042424749543059512 -0.047474906835697744 0 0.042426707334256915 -0.047162110947929006 0 0.042571252853160269 -0.04738893870864605 0 0.044189814699786015 -0.049471846054441201 0 0.043405107965727892 -0.045510703054789881 0 0.043405107965727892 -0.045510703054789881 0 0.044972769281517076 -0.045655669739342132 0 0.047028741251105288 -0.047100662066004426 0 0.045541699181909902 -0.047424475109789886 0 0.044331358754354913 -0.045348652570339536 0 0.04393482624882581 -0.04465049105027781 0 0.044331358754354913 -0.045348652570339536 0 0.043496839083559086 -0.044337294135348551 0 0.044789032540978206 -0.048909031347543111 0 0.044331358754354913 -0.045348652570339536 0 0.043619879421821772 -0.044081259056112605 0 0.044789032540978206 -0.048909031347543111 0 0.045541699181909902 -0.047424475109789886 0 0.044331358754354913 -0.045348652570339536 0 0.04814350032794236 -0.048012956341645568 0 0.048990605041229193 -0.044871072712368273 0 0.044331358754354913 -0.045348652570339536 0 0.043619879421821772 -0.044081259056112605 0 0.043496839083559086 -0.044337294135348551 0 0.042506334326414916 -0.044560811415762527 0 0.043619879421821772 -0.044081259056112605 0 0.042055194797229925 -0.04350235206385647 0 0.043405107965727892 -0.045510703054789881 0 0.041951144796967037 -0.042938040409086234 0 0.041141750369708491 -0.042696493602396253 0 0.042055194797229925 -0.04350235206385647 0 0.041061835039161221 -0.042971013988160757 0 0.04393482624882581 -0.04465049105027781 0 0.043496839083559086 -0.044337294135348551 0 0.042055194797229925 -0.04350235206385647 0 0.043619879421821772 -0.044081259056112605 0 0.043496839083559086 -0.044337294135348551 0 0.042055194797229925 -0.04350235206385647 0 0.040890686950957232 -0.042825374421182331 0 0.04123801484180542 -0.042026603460544425 0 0.04028840288221746 -0.042913819135354692 0 0.042055194797229925 -0.04350235206385647 0 0.041061835039161221 -0.042971013988160757 0 0.04028840288221746 -0.042913819135354692 0 0.040890686950957232 -0.042825374421182331 0 0.041061835039161221 -0.042971013988160757 0 0.04028840288221746 -0.042913819135354692 0 0.040890686950957232 -0.042825374421182331 0 0.041158656687211949 -0.042977777170341874 0 0.041025708907063752 -0.042906424932486822 0 0.040890686950957232 -0.042825374421182331 0 0.041061835039161221 -0.042971013988160757 0 0.041025708907063752 -0.042906424932486822 0 0.041396482165849693 -0.042812651935832863 0 0.04212970174615005 -0.042323739602236857 0 0.04123801484180542 -0.042026603460544425 0 0.040890686950957232 -0.042825374421182331 0 0.041396482165849693 -0.042812651935832863 0 0.04123801484180542 -0.042026603460544425 0 0.040890686950957232 -0.042825374421182331 0 0.041396482165849693 -0.042812651935832863 0 0.041158656687211949 -0.042977777170341874 0 0.041158656687211949 -0.042977777170341874 0 0.041428314578523508 -0.043180804227486672 0 0.041058421988842915 -0.043140482275827348 0 0.041396482165849693 -0.042812651935832863 0 0.041158656687211949 -0.042977777170341874 0 0.041428314578523508 -0.043180804227486672 0 0.041396482165849693 -0.042812651935832863 0 0.041428314578523508 -0.043180804227486672 0 0.041870480365480078 -0.042976313532349437 0 0.041141750369708491 -0.042696493602396253 0 0.041061835039161221 -0.042971013988160757 0 0.041025708907063752 -0.042906424932486822 0 0.041158656687211949 -0.042977777170341874 0 0.041025708907063752 -0.042906424932486822 0 0.041058421988842915 -0.043140482275827348 0 0.041141750369708491 -0.042696493602396253 0 0.041025708907063752 -0.042906424932486822 0 0.041058421988842915 -0.043140482275827348 0 0.043405107965727892 -0.045510703054789881 0 0.041562131024015847 -0.045071227745523773 0 0.042426707334256915 -0.047162110947929006 0 0.042570880337162435 -0.047238540106546628 0 0.042571252853160269 -0.04738893870864605 0 0.042570880337162435 -0.047238540106546628 0 0.042704103624636412 -0.047308639033657389 0 0.042571252853160269 -0.04738893870864605 0 0.041562131024015847 -0.045071227745523773 0 0.041641088989041432 -0.047003461543550625 0 0.041428314578523508 -0.043180804227486672 0 0.041417942636816842 -0.043541001021084207 0 0.041964458356763316 -0.043456593454240591 0 0.041641088989041432 -0.047003461543550625 0 0.042471492207443784 -0.049433817558906093 0 0.041428314578523508 -0.043180804227486672 0 0.041058421988842915 -0.043140482275827348 0 0.041417942636816842 -0.043541001021084207 0 0.041641088989041432 -0.047003461543550625 0 0.041175172405602409 -0.047675117053724264 0 0.041276432867004657 -0.051930825867054269 0 0.04145615018317847 -0.051058695890316093 0 0.04041863076672178 -0.051532959627424726 0 0.041226486012919727 -0.049999989799828691 0 0.041546937530407557 -0.050165524233033873 0 0.042795778071791857 -0.049999965043874009 0 0.04145615018317847 -0.051058695890316093 0 0.042180090464409715 -0.050708918191445386 0 0.04276814111892277 -0.051289119373756221 0 0.041276432867004657 -0.051930825867054269 0 0.04145615018317847 -0.051058695890316093 0 0.04276814111892277 -0.051289119373756221 0 0.04145615018317847 -0.051058695890316093 0 0.042180090464409715 -0.050708918191445386 0 0.04165274414403989 -0.050609543685265913 0 0.040913312555421702 -0.049977949057071605 0 0.041175172405602409 -0.047675117053724264 0 0.04145615018317847 -0.051058695890316093 0 0.041166479566312489 -0.05020272724144996 0 0.04041863076672178 -0.051532959627424726 0 0.04145615018317847 -0.051058695890316093 0 0.041166479566312489 -0.05020272724144996 0 0.04165274414403989 -0.050609543685265913 0 0.040913312555421702 -0.049977949057071605 0 0.041154252973071896 -0.049996813859273646 0 0.041226486012919727 -0.049999989799828691 0 0.041105527353010277 -0.050212581019843473 0 0.041546937530407557 -0.050165524233033873 0 0.041225246203414542 -0.049999693454183383 0 0.040913312555421702 -0.049977949057071605 0 0.042180090464409715 -0.050708918191445386 0 0.041546937530407557 -0.050165524233033873 0 0.042795778071791857 -0.049999965043874009 0 0.042180090464409715 -0.050708918191445386 0 0.04165274414403989 -0.050609543685265913 0 0.041546937530407557 -0.050165524233033873 0 0.041166479566312489 -0.05020272724144996 0 0.04165274414403989 -0.050609543685265913 0 0.041546937530407557 -0.050165524233033873 0 0.044340418303636053 -0.05058710057519724 0 0.042795778071791857 -0.049999965043874009 0 0.04276814111892277 -0.051289119373756221 0 0.042180090464409715 -0.050708918191445386 0 0.042795778071791857 -0.049999965043874009 0 0.04276814111892277 -0.051289119373756221 0 0.044189814699786015 -0.049471846054441201 0 0.042471492207443784 -0.049433817558906093 0 0.042584308707251523 -0.045287762540221516 0 0.04128440111636629 -0.044720240750409104 0 0.041938520349164198 -0.044658301311071527 0 0.037834709205523238 -0.050514273509366422 0 0.038547486996184155 -0.049999991876645611 0 0.036292554691279691 -0.050657561669036802 0 0.040266701991310279 -0.048724670164360911 0 0.040380454744964857 -0.048716370764645266 0 0.0405898981351797 -0.04887789952610988 0 0.040305982849384733 -0.048138047322537784 0 0.041175172405602409 -0.047675117053724264 0 0.042584308707251523 -0.045287762540221516 0 0.042241589440085769 -0.044575100196872726 0 0.041938520349164198 -0.044658301311071527 0 0.042584308707251523 -0.045287762540221516 0 0.042241589440085769 -0.044575100196872726 0 0.042663021737978868 -0.044661347435722344 0 0.042584308707251523 -0.045287762540221516 0 0.042663021737978868 -0.044661347435722344 0 0.042959875064016495 -0.044862254629491533 0 0.040305982849384733 -0.048138047322537784 0 0.039512669120615483 -0.049211638709410511 0 0.037834709205523238 -0.050514273509366422 0 0.038696623747014873 -0.050435363539040198 0 0.038547486996184155 -0.049999991876645611 0 0.040696489279633118 -0.048697333385013468 0 0.040380454744964857 -0.048716370764645266 0 0.0405898981351797 -0.04887789952610988 0 0.040913312555421702 -0.049977949057071605 0 0.039512669120615483 -0.049211638709410511 0 0.041107212333485223 -0.050209456262175288 0 0.038696623747014873 -0.050435363539040198 0 0.038547486996184155 -0.049999991876645611 0 0.041226380749121286 -0.049999996846615442 0 0.041107212333485223 -0.050209456262175288 0 0.038547486996184155 -0.049999991876645611 0 0.040903111314393809 -0.046230251493962357 0 0.041726333627363547 -0.046598070276554791 0 0.042321257721802868 -0.045537867193011443 0 0.04128440111636629 -0.044720240750409104 0 0.041640419285068689 -0.044062233948412896 0 0.041938520349164198 -0.044658301311071527 0 0.041641088989041432 -0.047003461543550625 0 0.042170229017961698 -0.044113292590915204 0 0.041175172405602409 -0.047675117053724264 0 0.042170229017961698 -0.044113292590915204 0 0.041640419285068689 -0.044062233948412896 0 0.042553648356350851 -0.044196117437018581 0 0.042372803532420969 -0.043684269012856582 0 0.041640419285068689 -0.044062233948412896 0 0.042241589440085769 -0.044575100196872726 0 0.042553648356350851 -0.044196117437018581 0 0.041640419285068689 -0.044062233948412896 0 0.042241589440085769 -0.044575100196872726 0 0.041938520349164198 -0.044658301311071527 0 0.042663021737978868 -0.044661347435722344 0 0.042553648356350851 -0.044196117437018581 0 0.04296671969099327 -0.044412444874577003 0 0.042241589440085769 -0.044575100196872726 0 0.042663021737978868 -0.044661347435722344 0 0.042553648356350851 -0.044196117437018581 0 0.042031762143707643 -0.043800046178529985 0 0.04270796954717631 -0.043473364111788891 0 0.042541103632253344 -0.042896092368225155 0 0.042553648356350851 -0.044196117437018581 0 0.042372803532420969 -0.043684269012856582 0 0.042949607976201634 -0.043835243917201422 0 0.042537557726644012 -0.043604756591962515 0 0.043176182924387532 -0.043299904911668387 0 0.042170229017961698 -0.044113292590915204 0 0.042537557726644012 -0.043604756591962515 0 0.04270796954717631 -0.043473364111788891 0 0.042908025094186238 -0.043087252371962426 0 0.042541103632253344 -0.042896092368225155 0 0.04270796954717631 -0.043473364111788891 0 0.042908025094186238 -0.043087252371962426 0 0.043272208619859406 -0.043266637115805286 0 0.041964458356763316 -0.043456593454240591 0 0.041870480365480078 -0.042976313532349437 0 0.042541103632253344 -0.042896092368225155 0 0.042170229017961698 -0.044113292590915204 0 0.042513745188419827 -0.042791394269046157 0 0.041428314578523508 -0.043180804227486672 0 0.041964458356763316 -0.043456593454240591 0 0.041870480365480078 -0.042976313532349437 0 0.041396482165849693 -0.042812651935832863 0 0.041870480365480078 -0.042976313532349437 0 0.04212970174615005 -0.042323739602236857 0 0.041870480365480078 -0.042976313532349437 0 0.04212970174615005 -0.042323739602236857 0 0.042541103632253344 -0.042896092368225155 0 0.042541103632253344 -0.042896092368225155 0 0.042636838952733278 -0.042357652977408566 0 0.043098696281103417 -0.042423995577085052 0 0.042908025094186238 -0.043087252371962426 0 0.042541103632253344 -0.042896092368225155 0 0.043098696281103417 -0.042423995577085052 0 0.04212970174615005 -0.042323739602236857 0 0.042541103632253344 -0.042896092368225155 0 0.042636838952733278 -0.042357652977408566 0 0.04212970174615005 -0.042323739602236857 0 0.042636838952733278 -0.042357652977408566 0 0.042824807219765969 -0.041751359124867916 0 0.042636838952733278 -0.042357652977408566 0 0.043098696281103417 -0.042423995577085052 0 0.042824807219765969 -0.041751359124867916 0 0.042824807219765969 -0.041751359124867916 0 0.042476461845613656 -0.040931408070812088 0 0.043697121364885953 -0.041227037856357653 0 0.043098696281103417 -0.042423995577085052 0 0.042824807219765969 -0.041751359124867916 0 0.04335555053221074 -0.041920729578134329 0 0.041925418160789638 -0.038805947932185204 0 0.039301334034244795 -0.043595724754570818 0 0.040059103207870733 -0.037862617682986162 0 0.040193314843972865 -0.036288402389688605 0 0.041074285148667997 -0.037069380475062953 0 0.04212970174615005 -0.042323739602236857 0 0.042824807219765969 -0.041751359124867916 0 0.042476461845613656 -0.040931408070812088 0 0.04212970174615005 -0.042323739602236857 0 0.042476461845613656 -0.040931408070812088 0 0.04123801484180542 -0.042026603460544425 0 0.042476461845613656 -0.040931408070812088 0 0.04123801484180542 -0.042026603460544425 0 0.039959290824671707 -0.03962156955755388 0 0.04028840288221746 -0.042913819135354692 0 0.038855709280470545 -0.039956656852616901 0 0.039959290824671707 -0.03962156955755388 0 0.04123801484180542 -0.042026603460544425 0 0.04028840288221746 -0.042913819135354692 0 0.039959290824671707 -0.03962156955755388 0 0.038855709280470545 -0.039956656852616901 0 0.039959290824671707 -0.03962156955755388 0 0.03848855554600096 -0.037466258511931 0 0.040059103207870733 -0.037862617682986162 0 0.039959290824671707 -0.03962156955755388 0 0.039671955159044786 -0.037086128073246814 0 0.041925418160789638 -0.038805947932185204 0 0.039545589340118099 -0.039746879288441846 0 0.039959290824671707 -0.03962156955755388 0 0.039671955159044786 -0.037086128073246814 0 0.03848855554600096 -0.037466258511931 0 0.039671955159044786 -0.037086128073246814 0 0.03848855554600096 -0.037466258511931 0 0.038856088453897854 -0.035735574146994152 0 0.042172695492980382 -0.037004762977471933 0 0.043251979056498253 -0.035612187498017443 0 0.039671955159044786 -0.037086128073246814 0 0.039462204703770681 -0.035724455508140469 0 0.038856088453897854 -0.035735574146994152 0 0.039671955159044786 -0.037086128073246814 0 0.039868768335906732 -0.036261942872343661 0 0.039462204703770681 -0.035724455508140469 0 0.039868768335906732 -0.036261942872343661 0 0.039631743910622616 -0.035270145821972979 0 0.039462204703770681 -0.035724455508140469 0 0.039868768335906732 -0.036261942872343661 0 0.039827513455064203 -0.035636216020651652 0 0.040193314843972865 -0.036288402389688605 0 0.039868768335906732 -0.036261942872343661 0 0.039827513455064203 -0.035636216020651652 0 0.039631743910622616 -0.035270145821972979 0 0.040059103207870733 -0.037862617682986162 0 0.039868768335906732 -0.036261942872343661 0 0.040193314843972865 -0.036288402389688605 0 0.040059103207870733 -0.037862617682986162 0 0.039671955159044786 -0.037086128073246814 0 0.039868768335906732 -0.036261942872343661 0 0.039595412505386139 -0.035649040785478738 0 0.039635802997445332 -0.035717464317668493 0 0.039635027549611818 -0.035614079728054006 0 0.039595412505386139 -0.035649040785478738 0 0.039635027549611818 -0.035614079728054006 0 0.039588813647915305 -0.035423801619317491 0 0.039595412505386139 -0.035649040785478738 0 0.039603530885685169 -0.035549013440593545 0 0.039588813647915305 -0.035423801619317491 0 0.039595412505386139 -0.035649040785478738 0 0.039603530885685169 -0.035549013440593545 0 0.03961335650048739 -0.035687603163748964 0 0.039601297596422086 -0.035742773489432611 0 0.03961335650048739 -0.035687603163748964 0 0.039631233870194418 -0.035837013494458753 0 0.039595412505386139 -0.035649040785478738 0 0.039601297596422086 -0.035742773489432611 0 0.03961335650048739 -0.035687603163748964 0 0.039595412505386139 -0.035649040785478738 0 0.039601297596422086 -0.035742773489432611 0 0.039607483525781778 -0.035734474154515541 0 0.039595412505386139 -0.035649040785478738 0 0.039607483525781778 -0.035734474154515541 0 0.039635802997445332 -0.035717464317668493 0 0.039601297596422086 -0.035742773489432611 0 0.039607483525781778 -0.035734474154515541 0 0.039596053530515651 -0.035793935230835315 0 0.039607483525781778 -0.035734474154515541 0 0.039676036779363266 -0.035712550592185859 0 0.039635201146197993 -0.035723840082734763 0 0.039607483525781778 -0.035734474154515541 0 0.039676036779363266 -0.035712550592185859 0 0.039635802997445332 -0.035717464317668493 0 0.039534353186304265 -0.03642318114764901 0 0.039559578138611086 -0.037002274585981543 0 0.040193314843972865 -0.036288402389688605 0 0.039676036779363266 -0.035712550592185859 0 0.039673845460539835 -0.035496376591731285 0 0.040274303887269172 -0.036261925065786779 0 0.039559578138611086 -0.037002274585981543 0 0.040193314843972865 -0.036288402389688605 0 0.039676036779363266 -0.035712550592185859 0 0.039822495358143473 -0.035887697421617563 0 0.039676036779363266 -0.035712550592185859 0 0.039822495358143473 -0.035887697421617563 0 0.039635802997445332 -0.035717464317668493 0 0.039822495358143473 -0.035887697421617563 0 0.039635802997445332 -0.035717464317668493 0 0.039635027549611818 -0.035614079728054006 0 0.039822495358143473 -0.035887697421617563 0 0.039606958150720531 -0.035226837966017777 0 0.039635027549611818 -0.035614079728054006 0 0.039827513455064203 -0.035636216020651652 0 0.040193314843972865 -0.036288402389688605 0 0.039822495358143473 -0.035887697421617563 0 0.039827513455064203 -0.035636216020651652 0 0.039822495358143473 -0.035887697421617563 0 0.039606958150720531 -0.035226837966017777 0 0.039606958150720531 -0.035226837966017777 0 0.039588813647915305 -0.035423801619317491 0 0.039558121353538374 -0.0350880715137733 0 0.039606958150720531 -0.035226837966017777 0 0.039635027549611818 -0.035614079728054006 0 0.039588813647915305 -0.035423801619317491 0 0.039588813647915305 -0.035423801619317491 0 0.039558121353538374 -0.0350880715137733 0 0.039603765117839765 -0.035391561225739818 0 0.039603530885685169 -0.035549013440593545 0 0.039588813647915305 -0.035423801619317491 0 0.039603765117839765 -0.035391561225739818 0 0.039558121353538374 -0.0350880715137733 0 0.039619646307819958 -0.035164998429189992 0 0.039563866808186639 -0.03464200728018621 0 0.039558121353538374 -0.0350880715137733 0 0.039619646307819958 -0.035164998429189992 0 0.039603765117839765 -0.035391561225739818 0 0.039695518012297079 -0.034974351551147705 0 0.039619646307819958 -0.035164998429189992 0 0.039563866808186639 -0.03464200728018621 0 0.039695518012297079 -0.034974351551147705 0 0.039619646307819958 -0.035164998429189992 0 0.039711679652290548 -0.035337411874610744 0 0.039619646307819958 -0.035164998429189992 0 0.039711679652290548 -0.035337411874610744 0 0.039663918481767618 -0.035469812755325333 0 0.039711679652290548 -0.035337411874610744 0 0.039663918481767618 -0.035469812755325333 0 0.0397369558318445 -0.035559185648664365 0 0.039619646307819958 -0.035164998429189992 0 0.039663918481767618 -0.035469812755325333 0 0.039603765117839765 -0.035391561225739818 0 0.039663918481767618 -0.035469812755325333 0 0.039603765117839765 -0.035391561225739818 0 0.039636461563207277 -0.035589507529936837 0 0.0397941568012153 -0.035249024643977292 0 0.03993193261163288 -0.035470886863735639 0 0.039862031162748293 -0.034862891707092419 0 0.03993193261163288 -0.035470886863735639 0 0.040118146840425542 -0.034928112506522363 0 0.039862031162748293 -0.034862891707092419 0 0.039695518012297079 -0.034974351551147705 0 0.0397941568012153 -0.035249024643977292 0 0.039862031162748293 -0.034862891707092419 0 0.039695518012297079 -0.034974351551147705 0 0.039711679652290548 -0.035337411874610744 0 0.0397941568012153 -0.035249024643977292 0 0.039711679652290548 -0.035337411874610744 0 0.0397941568012153 -0.035249024643977292 0 0.039814215158707242 -0.035533305272371092 0 0.039711679652290548 -0.035337411874610744 0 0.039814215158707242 -0.035533305272371092 0 0.0397369558318445 -0.035559185648664365 0 0.0397941568012153 -0.035249024643977292 0 0.039814215158707242 -0.035533305272371092 0 0.03993193261163288 -0.035470886863735639 0 0.039814215158707242 -0.035533305272371092 0 0.03993193261163288 -0.035470886863735639 0 0.039931140053195362 -0.035785855149364346 0 0.03993193261163288 -0.035470886863735639 0 0.039931140053195362 -0.035785855149364346 0 0.040030051591336394 -0.035874825397056109 0 0.039931140053195362 -0.035785855149364346 0 0.03992837384546756 -0.035906328721548808 0 0.040037356314891755 -0.035971170543336706 0 0.039931140053195362 -0.035785855149364346 0 0.040037356314891755 -0.035971170543336706 0 0.040030051591336394 -0.035874825397056109 0 0.039931140053195362 -0.035785855149364346 0 0.039826418014097774 -0.035765792269646865 0 0.03992837384546756 -0.035906328721548808 0 0.039814215158707242 -0.035533305272371092 0 0.039826418014097774 -0.035765792269646865 0 0.0397369558318445 -0.035559185648664365 0 0.039826418014097774 -0.035765792269646865 0 0.0397369558318445 -0.035559185648664365 0 0.039704979336878991 -0.03568117997782206 0 0.039814215158707242 -0.035533305272371092 0 0.039931140053195362 -0.035785855149364346 0 0.039826418014097774 -0.035765792269646865 0 0.039826418014097774 -0.035765792269646865 0 0.039769231896151065 -0.035821928681381898 0 0.039704979336878991 -0.03568117997782206 0 0.039769231896151065 -0.035821928681381898 0 0.039840172552658086 -0.03590988846380009 0 0.039763805012451296 -0.035918356611221988 0 0.039826418014097774 -0.035765792269646865 0 0.039769231896151065 -0.035821928681381898 0 0.039840172552658086 -0.03590988846380009 0 0.039826418014097774 -0.035765792269646865 0 0.039840172552658086 -0.03590988846380009 0 0.03992837384546756 -0.035906328721548808 0 0.039840172552658086 -0.03590988846380009 0 0.03992837384546756 -0.035906328721548808 0 0.039917696126513517 -0.036001134881040169 0 0.03992837384546756 -0.035906328721548808 0 0.039917696126513517 -0.036001134881040169 0 0.040019898346896246 -0.03599030990672715 0 0.03992837384546756 -0.035906328721548808 0 0.040019898346896246 -0.03599030990672715 0 0.040037356314891755 -0.035971170543336706 0 0.039636461563207277 -0.035589507529936837 0 0.039656854746665457 -0.035729070972482083 0 0.03961335650048739 -0.035687603163748964 0 0.039603530885685169 -0.035549013440593545 0 0.039636461563207277 -0.035589507529936837 0 0.03961335650048739 -0.035687603163748964 0 0.039603530885685169 -0.035549013440593545 0 0.039603765117839765 -0.035391561225739818 0 0.039636461563207277 -0.035589507529936837 0 0.039663918481767618 -0.035469812755325333 0 0.039636461563207277 -0.035589507529936837 0 0.039704979336878991 -0.03568117997782206 0 0.039663918481767618 -0.035469812755325333 0 0.0397369558318445 -0.035559185648664365 0 0.039704979336878991 -0.03568117997782206 0 0.039636461563207277 -0.035589507529936837 0 0.039704979336878991 -0.03568117997782206 0 0.039656854746665457 -0.035729070972482083 0 0.039704979336878991 -0.03568117997782206 0 0.039698436427670347 -0.035821827483267156 0 0.039656854746665457 -0.035729070972482083 0 0.039769231896151065 -0.035821928681381898 0 0.039704979336878991 -0.03568117997782206 0 0.039698436427670347 -0.035821827483267156 0 0.039769231896151065 -0.035821928681381898 0 0.039698436427670347 -0.035821827483267156 0 0.039763805012451296 -0.035918356611221988 0 0.039698436427670347 -0.035821827483267156 0 0.039656854746665457 -0.035729070972482083 0 0.039631233870194418 -0.035837013494458753 0 0.039656854746665457 -0.035729070972482083 0 0.03961335650048739 -0.035687603163748964 0 0.039631233870194418 -0.035837013494458753 0 0.040126274751635341 -0.034946570966704595 0 0.037689651346076374 -0.040428752563737742 0 0.039631233870194418 -0.035837013494458753 0 0.039710873292946397 -0.036005593266359423 0 0.039577782731496855 -0.035885270255356143 0 0.039710873292946397 -0.036005593266359423 0 0.039757582388742552 -0.036193201758782996 0 0.039577782731496855 -0.035885270255356143 0 0.039698436427670347 -0.035821827483267156 0 0.039631233870194418 -0.035837013494458753 0 0.039701604204962986 -0.03591095273526098 0 0.039631233870194418 -0.035837013494458753 0 0.039701604204962986 -0.03591095273526098 0 0.039710873292946397 -0.036005593266359423 0 0.039701604204962986 -0.03591095273526098 0 0.039710873292946397 -0.036005593266359423 0 0.039763805012451296 -0.035918356611221988 0 0.039698436427670347 -0.035821827483267156 0 0.039701604204962986 -0.03591095273526098 0 0.039763805012451296 -0.035918356611221988 0 0.039917696126513517 -0.036001134881040169 0 0.039870708070085456 -0.036091960536345939 0 0.039998053673506014 -0.036076206742633843 0 0.039840172552658086 -0.03590988846380009 0 0.039917696126513517 -0.036001134881040169 0 0.039817571780584912 -0.036003471873831495 0 0.039917696126513517 -0.036001134881040169 0 0.039817571780584912 -0.036003471873831495 0 0.039870708070085456 -0.036091960536345939 0 0.039817571780584912 -0.036003471873831495 0 0.039783608063887213 -0.036073225543357811 0 0.039870708070085456 -0.036091960536345939 0 0.039710873292946397 -0.036005593266359423 0 0.039817571780584912 -0.036003471873831495 0 0.039763805012451296 -0.035918356611221988 0 0.039710873292946397 -0.036005593266359423 0 0.039817571780584912 -0.036003471873831495 0 0.039783608063887213 -0.036073225543357811 0 0.039840172552658086 -0.03590988846380009 0 0.039817571780584912 -0.036003471873831495 0 0.039763805012451296 -0.035918356611221988 0 0.039710873292946397 -0.036005593266359423 0 0.039783608063887213 -0.036073225543357811 0 0.039757582388742552 -0.036193201758782996 0 0.039783608063887213 -0.036073225543357811 0 0.039757582388742552 -0.036193201758782996 0 0.039870708070085456 -0.036091960536345939 0 0.039757582388742552 -0.036193201758782996 0 0.039870708070085456 -0.036091960536345939 0 0.039946897680450608 -0.036222722856809407 0 0.030918939436425534 -0.052361620002104724 0 0.031008395872218809 -0.052338187511355973 0 0.030924820654948979 -0.052360736845200664 0 0.039757582388742552 -0.036193201758782996 0 0.039858239305028818 -0.036498243087832123 0 0.038609861078166295 -0.037001356620742033 0 0.035964049652752676 -0.044149774044926274 0 0.034059766369999293 -0.049909040371536317 0 0.030928629523692158 -0.052354764681258853 0 0.030918939436425534 -0.052361620002104724 0 0.031008395872218809 -0.052338187511355973 0 0.039757582388742552 -0.036193201758782996 0 0.039858239305028818 -0.036498243087832123 0 0.039946897680450608 -0.036222722856809407 0 0.030928629523692158 -0.052354764681258853 0 0.030918939436425534 -0.052361620002104724 0 0.030909406519007556 -0.052353668750971923 0 0.034059766369999293 -0.049909040371536317 0 0.033119906690372798 -0.053218261470135982 0 0.039757582388742552 -0.036193201758782996 0 0.038609861078166295 -0.037001356620742033 0 0.037642554102220199 -0.036296479645311318 0 0.034059766369999293 -0.049909040371536317 0 0.037689651346076374 -0.040428752563737742 0 0.032891633865669463 -0.053571439370824057 0 0.033687187179690797 -0.053192106025196542 0 0.03340158503870376 -0.052903704800868312 0 0.033702636584399183 -0.053156041562132994 0 0.033687187179690797 -0.053192106025196542 0 0.033734479479757648 -0.05319239103280915 0 0.033687187179690797 -0.053192106025196542 0 0.033788123158454267 -0.053184630476390264 0 0.033974717940947238 -0.05297590813689991 0 0.033788123158454267 -0.053184630476390264 0 0.033734479479757648 -0.05319239103280915 0 0.033874776433792206 -0.053253160441093107 0 0.033687187179690797 -0.053192106025196542 0 0.033788123158454267 -0.053184630476390264 0 0.033734479479757648 -0.05319239103280915 0 0.037689651346076374 -0.040428752563737742 0 0.039559578138611086 -0.037002274585981543 0 0.039577782731496855 -0.035885270255356143 0 0.039596053530515651 -0.035793935230835315 0 0.039635201146197993 -0.035723840082734763 0 0.037689651346076374 -0.040428752563737742 0 0.039301334034244795 -0.043595724754570818 0 0.039607483525781778 -0.035734474154515541 0 0.039596053530515651 -0.035793935230835315 0 0.039635201146197993 -0.035723840082734763 0 0.039631233870194418 -0.035837013494458753 0 0.039577782731496855 -0.035885270255356143 0 0.039596053530515651 -0.035793935230835315 0 0.039601297596422086 -0.035742773489432611 0 0.039631233870194418 -0.035837013494458753 0 0.039596053530515651 -0.035793935230835315 0 0.040059103207870733 -0.037862617682986162 0 0.041074285148667997 -0.037069380475062953 0 0.041138695321536453 -0.037619873856554568 0 0.039161226367369045 -0.040208707892041486 0 0.038796144201621537 -0.039890610003853057 0 0.038822511596281181 -0.040197245649152114 0 0.039559578138611086 -0.037002274585981543 0 0.039301334034244795 -0.043595724754570818 0 0.039301334034244795 -0.043595724754570818 0 0.0387216572959872 -0.048742013042788968 0 0.042824807219765969 -0.041751359124867916 0 0.043697121364885953 -0.041227037856357653 0 0.04335555053221074 -0.041920729578134329 0 0.033788123158454267 -0.053184630476390264 0 0.033874776433792206 -0.053253160441093107 0 0.033974717940947238 -0.05297590813689991 0 0.043697121364885953 -0.041227037856357653 0 0.04335555053221074 -0.041920729578134329 0 0.04386467904057862 -0.042374220680911484 0 0.043098696281103417 -0.042423995577085052 0 0.04386467904057862 -0.042374220680911484 0 0.043976299058875415 -0.043732512510465719 0 0.043098696281103417 -0.042423995577085052 0 0.04335555053221074 -0.041920729578134329 0 0.04386467904057862 -0.042374220680911484 0 0.042908025094186238 -0.043087252371962426 0 0.043098696281103417 -0.042423995577085052 0 0.043272208619859406 -0.043266637115805286 0 0.033687187179690797 -0.053192106025196542 0 0.033974717940947238 -0.05297590813689991 0 0.03340158503870376 -0.052903704800868312 0 0.033974717940947238 -0.05297590813689991 0 0.03340158503870376 -0.052903704800868312 0 0.033628452292747413 -0.052522637848851299 0 0.03340158503870376 -0.052903704800868312 0 0.033628452292747413 -0.052522637848851299 0 0.033136964651975208 -0.052497097909092572 0 0.033974717940947238 -0.05297590813689991 0 0.033628452292747413 -0.052522637848851299 0 0.033999790929007255 -0.052010470533996045 0 0.033628452292747413 -0.052522637848851299 0 0.033534384161399811 -0.052093900165780312 0 0.033136964651975208 -0.052497097909092572 0 0.033628452292747413 -0.052522637848851299 0 0.033999790929007255 -0.052010470533996045 0 0.033534384161399811 -0.052093900165780312 0 0.033999790929007255 -0.052010470533996045 0 0.033534384161399811 -0.052093900165780312 0 0.033572531271813796 -0.051382107651799874 0 0.033534384161399811 -0.052093900165780312 0 0.033194732692174343 -0.051871896576136341 0 0.033136964651975208 -0.052497097909092572 0 0.043563153307686522 -0.041924179875313008 0 0.041712194087264336 -0.045818993369054387 0 0.0387216572959872 -0.048742013042788968 0 0.041712194087264336 -0.045818993369054387 0 0.043098696281103417 -0.042423995577085052 0 0.043654797634920695 -0.043669255585025595 0 0.043272208619859406 -0.043266637115805286 0 0.043654797634920695 -0.043669255585025595 0 0.043272208619859406 -0.043266637115805286 0 0.043266847987641265 -0.044163952525886008 0 0.042372803532420969 -0.043684269012856582 0 0.043272208619859406 -0.043266637115805286 0 0.042949607976201634 -0.043835243917201422 0 0.043272208619859406 -0.043266637115805286 0 0.042949607976201634 -0.043835243917201422 0 0.043266847987641265 -0.044163952525886008 0 0.042553648356350851 -0.044196117437018581 0 0.042949607976201634 -0.043835243917201422 0 0.04296671969099327 -0.044412444874577003 0 0.042949607976201634 -0.043835243917201422 0 0.04296671969099327 -0.044412444874577003 0 0.043266847987641265 -0.044163952525886008 0 0.043654797634920695 -0.043669255585025595 0 0.043266847987641265 -0.044163952525886008 0 0.043472734072592778 -0.044970835465056175 0 0.04296671969099327 -0.044412444874577003 0 0.043213979971956328 -0.044712112798840353 0 0.043266847987641265 -0.044163952525886008 0 0.042663021737978868 -0.044661347435722344 0 0.04296671969099327 -0.044412444874577003 0 0.042959875064016495 -0.044862254629491533 0 0.04296671969099327 -0.044412444874577003 0 0.043213979971956328 -0.044712112798840353 0 0.042959875064016495 -0.044862254629491533 0 0.043213979971956328 -0.044712112798840353 0 0.043266847987641265 -0.044163952525886008 0 0.043472734072592778 -0.044970835465056175 0 0.041712194087264336 -0.045818993369054387 0 0.043779780819885296 -0.044333374473486717 0 0.043435407066696637 -0.044919845311454917 0 0.043488039871182646 -0.044946522281569506 0 0.043472734072592778 -0.044970835465056175 0 0.041712194087264336 -0.045818993369054387 0 0.038658584214003186 -0.048278429609525483 0 0.033534384161399811 -0.052093900165780312 0 0.033572531271813796 -0.051382107651799874 0 0.033194732692174343 -0.051871896576136341 0 0.04033131946758732 -0.047832660510156201 0 0.036500608204812136 -0.048305280386488056 0 0.035868600814386142 -0.049999978326412751 0 0.036292554691279691 -0.050657561669036802 0 0.033883346342260867 -0.050881317850787901 0 0.043488039871182646 -0.044946522281569506 0 0.043472734072592778 -0.044970835465056175 0 0.043578550300343272 -0.045002515017124788 0 0.043472734072592778 -0.044970835465056175 0 0.043354273128458298 -0.045111118845394607 0 0.043578550300343272 -0.045002515017124788 0 0.038658584214003186 -0.048278429609525483 0 0.036500608204812136 -0.048305280386488056 0 0.038547486996184155 -0.049999991876645611 0 0.035868600814386142 -0.049999978326412751 0 0.036292554691279691 -0.050657561669036802 0 0.040305982849384733 -0.048138047322537784 0 0.04033131946758732 -0.047832660510156201 0 0.042584308707251523 -0.045287762540221516 0 0.043354273128458298 -0.045111118845394607 0 0.042959875064016495 -0.044862254629491533 0 0.043213979971956328 -0.044712112798840353 0 0.043354273128458298 -0.045111118845394607 0 0.042959875064016495 -0.044862254629491533 0 0.043213979971956328 -0.044712112798840353 0 0.043472734072592778 -0.044970835465056175 0 0.043354273128458298 -0.045111118845394607 0 0.031699849785018448 -0.050683223871360011 0 0.033188339430879413 -0.04999982990859661 0 0.030316892130282928 -0.049999762040963416 0 0.032539914947510504 -0.050705193623196219 0 0.031699849785018448 -0.050683223871360011 0 0.032318796650605101 -0.051169058565259974 0 0.032539914947510504 -0.050705193623196219 0 0.032681505354636001 -0.05093363464210654 0 0.032318796650605101 -0.051169058565259974 0 0.031699849785018448 -0.050683223871360011 0 0.032318796650605101 -0.051169058565259974 0 0.031507983591379699 -0.051166982271629469 0 0.031699849785018448 -0.050683223871360011 0 0.031507983591379699 -0.051166982271629469 0 0.030911294535240871 -0.050808130948610621 0 0.032539914947510504 -0.050705193623196219 0 0.031699849785018448 -0.050683223871360011 0 0.033188339430879413 -0.04999982990859661 0 0.035868600814386142 -0.049999978326412751 0 0.033189676508624172 -0.049999984741548383 0 0.033883346342260867 -0.050881317850787901 0 0.033188339430879413 -0.04999982990859661 0 0.033374346834738201 -0.050669061774262891 0 0.033014415047895269 -0.05070640710980253 0 0.032539914947510504 -0.050705193623196219 0 0.033188339430879413 -0.04999982990859661 0 0.033014415047895269 -0.05070640710980253 0 0.033191338535536082 -0.049999198726776134 0 0.036500608204812136 -0.048305280386488056 0 0.036500608204812136 -0.048305280386488056 0 0.034281010482153054 -0.048991842481195633 0 0.033014415047895269 -0.05070640710980253 0 0.032681505354636001 -0.05093363464210654 0 0.032843517196985833 -0.051146374590321293 0 0.033192589692030865 -0.050693038530403314 0 0.033014415047895269 -0.05070640710980253 0 0.032843517196985833 -0.051146374590321293 0 0.032539914947510504 -0.050705193623196219 0 0.033014415047895269 -0.05070640710980253 0 0.032681505354636001 -0.05093363464210654 0 0.032681505354636001 -0.05093363464210654 0 0.032843517196985833 -0.051146374590321293 0 0.032318796650605101 -0.051169058565259974 0 0.032843517196985833 -0.051146374590321293 0 0.032762497278138014 -0.051570384593079888 0 0.032261318417168582 -0.051587027903312821 0 0.032843517196985833 -0.051146374590321293 0 0.033115256648704253 -0.051336405759308 0 0.032762497278138014 -0.051570384593079888 0 0.033572531271813796 -0.051382107651799874 0 0.033192589692030865 -0.050693038530403314 0 0.033115256648704253 -0.051336405759308 0 0.033192589692030865 -0.050693038530403314 0 0.032843517196985833 -0.051146374590321293 0 0.033115256648704253 -0.051336405759308 0 0.033115256648704253 -0.051336405759308 0 0.032762497278138014 -0.051570384593079888 0 0.033194732692174343 -0.051871896576136341 0 0.033572531271813796 -0.051382107651799874 0 0.033115256648704253 -0.051336405759308 0 0.033194732692174343 -0.051871896576136341 0 0.032762497278138014 -0.051570384593079888 0 0.032261318417168582 -0.051587027903312821 0 0.032588936827274262 -0.052073161744542629 0 0.032762497278138014 -0.051570384593079888 0 0.033194732692174343 -0.051871896576136341 0 0.032588936827274262 -0.052073161744542629 0 0.032261318417168582 -0.051587027903312821 0 0.031679417379415729 -0.051641539417962005 0 0.032033596925762478 -0.051968093387628915 0 0.032843517196985833 -0.051146374590321293 0 0.032261318417168582 -0.051587027903312821 0 0.032318796650605101 -0.051169058565259974 0 0.032261318417168582 -0.051587027903312821 0 0.032318796650605101 -0.051169058565259974 0 0.031679417379415729 -0.051641539417962005 0 0.032318796650605101 -0.051169058565259974 0 0.031507983591379699 -0.051166982271629469 0 0.031679417379415729 -0.051641539417962005 0 0.031507983591379699 -0.051166982271629469 0 0.031679417379415729 -0.051641539417962005 0 0.031229658813319603 -0.051466566083167811 0 0.031679417379415729 -0.051641539417962005 0 0.031476694524939487 -0.052168687424424071 0 0.032033596925762478 -0.051968093387628915 0 0.031476694524939487 -0.052168687424424071 0 0.032033596925762478 -0.051968093387628915 0 0.032151922524106286 -0.05234715618102237 0 0.031476694524939487 -0.052168687424424071 0 0.032151922524106286 -0.05234715618102237 0 0.031873735905401414 -0.053053264057002364 0 0.032033596925762478 -0.051968093387628915 0 0.032151922524106286 -0.05234715618102237 0 0.032588936827274262 -0.052073161744542629 0 0.032261318417168582 -0.051587027903312821 0 0.032033596925762478 -0.051968093387628915 0 0.032588936827274262 -0.052073161744542629 0 0.032151922524106286 -0.05234715618102237 0 0.032588936827274262 -0.052073161744542629 0 0.032536155316435784 -0.052629067851152123 0 0.033194732692174343 -0.051871896576136341 0 0.032588936827274262 -0.052073161744542629 0 0.033136964651975208 -0.052497097909092572 0 0.032588936827274262 -0.052073161744542629 0 0.033136964651975208 -0.052497097909092572 0 0.032536155316435784 -0.052629067851152123 0 0.032891633865669463 -0.053571439370824057 0 0.032770439746471501 -0.052999762242160763 0 0.031873735905401414 -0.053053264057002364 0 0.03340158503870376 -0.052903704800868312 0 0.033136964651975208 -0.052497097909092572 0 0.032770439746471501 -0.052999762242160763 0 0.033136964651975208 -0.052497097909092572 0 0.032536155316435784 -0.052629067851152123 0 0.032770439746471501 -0.052999762242160763 0 0.032891633865669463 -0.053571439370824057 0 0.03340158503870376 -0.052903704800868312 0 0.032770439746471501 -0.052999762242160763 0 0.034059766369999293 -0.049909040371536317 0 0.031241916994001362 -0.052946589077677006 0 0.032536155316435784 -0.052629067851152123 0 0.032770439746471501 -0.052999762242160763 0 0.031873735905401414 -0.053053264057002364 0 0.032151922524106286 -0.05234715618102237 0 0.032536155316435784 -0.052629067851152123 0 0.031873735905401414 -0.053053264057002364 0 0.030918939436425534 -0.052361620002104724 0 0.030924820654948979 -0.052360736845200664 0 0.030876901911688105 -0.052379279611411866 0 0.031241916994001362 -0.052946589077677006 0 0.030823566864698611 -0.05227242397926754 0 0.030924820654948979 -0.052360736845200664 0 0.03079403700685026 -0.052457495891037584 0 0.030876901911688105 -0.052379279611411866 0 0.030924820654948979 -0.052360736845200664 0 0.03079403700685026 -0.052457495891037584 0 0.03075403411968133 -0.052297476641348144 0 0.026755925056188838 -0.050609359491638764 0 0.025556759430357422 -0.051090946205640815 0 0.027190106743229907 -0.051818288455965582 0 0.026755925056188838 -0.050609359491638764 0 0.025556759430357422 -0.051090946205640815 0 0.02580546924261818 -0.048775528085703485 0 0.03079403700685026 -0.052457495891037584 0 0.03075403411968133 -0.052297476641348144 0 0.030281797787274994 -0.051898238567606614 0 0.025556759430357422 -0.051090946205640815 0 0.027190106743229907 -0.051818288455965582 0 0.027529373317003888 -0.051862287610378893 0 0.027483264149428598 -0.052726938334972051 0 0.028930399841762169 -0.051445776411754567 0 0.027190106743229907 -0.051818288455965582 0 0.027529373317003888 -0.051862287610378893 0 0.027293156292678988 -0.05161545933280242 0 0.031476694524939487 -0.052168687424424071 0 0.031873735905401414 -0.053053264057002364 0 0.03075403411968133 -0.052297476641348144 0 0.03075403411968133 -0.052297476641348144 0 0.030970156859737873 -0.051811362439684316 0 0.030281797787274994 -0.051898238567606614 0 0.031476694524939487 -0.052168687424424071 0 0.03075403411968133 -0.052297476641348144 0 0.030970156859737873 -0.051811362439684316 0 0.031679417379415729 -0.051641539417962005 0 0.031476694524939487 -0.052168687424424071 0 0.030970156859737873 -0.051811362439684316 0 0.030748513311204071 -0.051246884609810014 0 0.030281797787274994 -0.051898238567606614 0 0.030242447147001267 -0.050830439405374961 0 0.031679417379415729 -0.051641539417962005 0 0.030970156859737873 -0.051811362439684316 0 0.031229658813319603 -0.051466566083167811 0 0.030970156859737873 -0.051811362439684316 0 0.031229658813319603 -0.051466566083167811 0 0.030748513311204071 -0.051246884609810014 0 0.031507983591379699 -0.051166982271629469 0 0.031229658813319603 -0.051466566083167811 0 0.030748513311204071 -0.051246884609810014 0 0.030970156859737873 -0.051811362439684316 0 0.030748513311204071 -0.051246884609810014 0 0.030281797787274994 -0.051898238567606614 0 0.027529373317003888 -0.051862287610378893 0 0.027293156292678988 -0.05161545933280242 0 0.027529785517816013 -0.051117874095267413 0 0.029139041929381035 -0.050173564765465625 0 0.030316892130282928 -0.049999762040963416 0 0.027441906553078033 -0.049999769193334369 0 0.029139041929381035 -0.050173564765465625 0 0.027441906553078033 -0.049999769193334369 0 0.027529785517816013 -0.051117874095267413 0 0.030281797787274994 -0.051898238567606614 0 0.029139041929381035 -0.050173564765465625 0 0.030242447147001267 -0.050830439405374961 0 0.027529373317003888 -0.051862287610378893 0 0.029139041929381035 -0.050173564765465625 0 0.027529785517816013 -0.051117874095267413 0 0.028930399841762169 -0.051445776411754567 0 0.029061874768269377 -0.050261862164627399 0 0.029139041929381035 -0.050173564765465625 0 0.030316892130282928 -0.049999762040963416 0 0.030242447147001267 -0.050830439405374961 0 0.030316892130282928 -0.049999762040963416 0 0.030911294535240871 -0.050808130948610621 0 0.030242447147001267 -0.050830439405374961 0 0.031699849785018448 -0.050683223871360011 0 0.030316892130282928 -0.049999762040963416 0 0.030911294535240871 -0.050808130948610621 0 0.031507983591379699 -0.051166982271629469 0 0.030748513311204071 -0.051246884609810014 0 0.030911294535240871 -0.050808130948610621 0 0.030748513311204071 -0.051246884609810014 0 0.030911294535240871 -0.050808130948610621 0 0.030242447147001267 -0.050830439405374961 0 0.0245698639888032 -0.049999337758839121 0 0.026341207578112594 -0.05081356096841947 0 0.027441906553078033 -0.049999769193334369 0 0.0245698639888032 -0.049999337758839121 0 0.026341207578112594 -0.05081356096841947 0 0.02520334345550505 -0.051220397487178874 0 0.026341207578112594 -0.05081356096841947 0 0.027441906553078033 -0.049999769193334369 0 0.027529785517816013 -0.051117874095267413 0 0.026341207578112594 -0.05081356096841947 0 0.027529785517816013 -0.051117874095267413 0 0.026765024876578381 -0.051501570588674966 0 0.027293156292678988 -0.05161545933280242 0 0.027529785517816013 -0.051117874095267413 0 0.026765024876578381 -0.051501570588674966 0 0.027190106743229907 -0.051818288455965582 0 0.027293156292678988 -0.05161545933280242 0 0.026765024876578381 -0.051501570588674966 0 0.026341207578112594 -0.05081356096841947 0 0.026765024876578381 -0.051501570588674966 0 0.02520334345550505 -0.051220397487178874 0 0.026765024876578381 -0.051501570588674966 0 0.02520334345550505 -0.051220397487178874 0 0.026315442887705275 -0.051767050665187213 0 0.024240719889165225 -0.051902353856708022 0 0.02520334345550505 -0.051220397487178874 0 0.026315442887705275 -0.051767050665187213 0 0.024822655559967509 -0.052766605967868203 0 0.024240719889165225 -0.051902353856708022 0 0.026315442887705275 -0.051767050665187213 0 0.024822655559967509 -0.052766605967868203 0 0.026315442887705275 -0.051767050665187213 0 0.027528123090430061 -0.051948990988557493 0 0.027190106743229907 -0.051818288455965582 0 0.026765024876578381 -0.051501570588674966 0 0.026315442887705275 -0.051767050665187213 0 0.027190106743229907 -0.051818288455965582 0 0.026315442887705275 -0.051767050665187213 0 0.027528123090430061 -0.051948990988557493 0 0.027528123090430061 -0.051948990988557493 0 0.030954664369636026 -0.048035268459007949 0 0.027812916148100268 -0.049484936938351529 0 0.026755925056188838 -0.050609359491638764 0 0.027190106743229907 -0.051818288455965582 0 0.027528123090430061 -0.051948990988557493 0 0.026755925056188838 -0.050609359491638764 0 0.027528123090430061 -0.051948990988557493 0 0.027812916148100268 -0.049484936938351529 0 0.026755925056188838 -0.050609359491638764 0 0.027812916148100268 -0.049484936938351529 0 0.027038814291770241 -0.048440016681947577 0 0.027657107684751311 -0.05308946756045272 0 0.026847636097518363 -0.047581859034006878 0 0.024822655559967509 -0.052766605967868203 0 0.027528123090430061 -0.051948990988557493 0 0.025489184765328229 -0.054780820465918936 0 0.040323622145841349 -0.038299329862662448 0 0.036564427941761679 -0.047229440173706366 0 0.038047212175406075 -0.040645573018824099 0 0.038047212175406075 -0.040645573018824099 0 0.032938625132198716 -0.044497810935276022 0 0.028954350473678 -0.043635793152825821 0 0.028428593924602924 -0.039175133357218603 0 0.026847636097518363 -0.047581859034006878 0 0.038036816799565096 -0.040473690510817339 0 0.033685887689835506 -0.040839376504878233 0 0.036564427941761679 -0.047229440173706366 0 0.038047212175406075 -0.040645573018824099 0 0.032938625132198716 -0.044497810935276022 0 0.038047212175406075 -0.040645573018824099 0 0.038712981073788857 -0.038025641781785233 0 0.038406573350830607 -0.038868552886623151 0 0.038815452032349443 -0.038261710008151505 0 0.038712981073788857 -0.038025641781785233 0 0.039148761275815021 -0.037992739299855749 0 0.038815452032349443 -0.038261710008151505 0 0.038712981073788857 -0.038025641781785233 0 0.038406573350830607 -0.038868552886623151 0 0.032938625132198716 -0.044497810935276022 0 0.028954350473678 -0.043635793152825821 0 0.028103527367187554 -0.046567663257803545 0 0.036564427941761679 -0.047229440173706366 0 0.032938625132198716 -0.044497810935276022 0 0.028103527367187554 -0.046567663257803545 0 0.030954664369636026 -0.048035268459007949 0 0.028103527367187554 -0.046567663257803545 0 0.027812916148100268 -0.049484936938351529 0 0.026847636097518363 -0.047581859034006878 0 0.030916810847436079 -0.04699347570983925 0 0.028954350473678 -0.043635793152825821 0 0.028103527367187554 -0.046567663257803545 0 0.026447813938961694 -0.046913979783619858 0 0.028103527367187554 -0.046567663257803545 0 0.027812916148100268 -0.049484936938351529 0 0.027038814291770241 -0.048440016681947577 0 0.026755925056188838 -0.050609359491638764 0 0.027038814291770241 -0.048440016681947577 0 0.02580546924261818 -0.048775528085703485 0 0.025556759430357422 -0.051090946205640815 0 0.02580546924261818 -0.048775528085703485 0 0.023524150319617975 -0.046437770180783572 0 0.027038814291770241 -0.048440016681947577 0 0.02580546924261818 -0.048775528085703485 0 0.026447813938961694 -0.046913979783619858 0 0.02580546924261818 -0.048775528085703485 0 0.026447813938961694 -0.046913979783619858 0 0.023524150319617975 -0.046437770180783572 0 0.028103527367187554 -0.046567663257803545 0 0.027038814291770241 -0.048440016681947577 0 0.026447813938961694 -0.046913979783619858 0 0.03079403700685026 -0.052457495891037584 0 0.030876901911688105 -0.052379279611411866 0 0.030939133232955093 -0.052289720682219272 0 0.027483264149428598 -0.052726938334972051 0 0.033758807017105534 -0.043970513167558019 0 0.030928629523692158 -0.052354764681258853 0 0.030939133232955093 -0.052289720682219272 0 0.030909406519007556 -0.052353668750971923 0 0.039858239305028818 -0.036498243087832123 0 0.040165990659190534 -0.036264873728121143 0 0.039946897680450608 -0.036222722856809407 0 0.035964049652752676 -0.044149774044926274 0 0.033758807017105534 -0.043970513167558019 0 0.030918939436425534 -0.052361620002104724 0 0.030876901911688105 -0.052379279611411866 0 0.030909406519007556 -0.052353668750971923 0 0.030876901911688105 -0.052379279611411866 0 0.030939133232955093 -0.052289720682219272 0 0.030909406519007556 -0.052353668750971923 0 0.033758807017105534 -0.043970513167558019 0 0.039514318695987656 -0.035930721021827795 0 0.040165990659190534 -0.036264873728121143 0 0.039998053673506014 -0.036076206742633843 0 0.040055884565723246 -0.035955102368604094 0 0.040165990659190534 -0.036264873728121143 0 0.039946897680450608 -0.036222722856809407 0 0.039998053673506014 -0.036076206742633843 0 0.039870708070085456 -0.036091960536345939 0 0.039946897680450608 -0.036222722856809407 0 0.039998053673506014 -0.036076206742633843 0 0.039998053673506014 -0.036076206742633843 0 0.040019898346896246 -0.03599030990672715 0 0.040055884565723246 -0.035955102368604094 0 0.039917696126513517 -0.036001134881040169 0 0.039998053673506014 -0.036076206742633843 0 0.040019898346896246 -0.03599030990672715 0 0.038712981073788857 -0.038025641781785233 0 0.039319792591302929 -0.037771665044716123 0 0.039148761275815021 -0.037992739299855749 0 0.028954350473678 -0.043635793152825821 0 0.026447813938961694 -0.046913979783619858 0 0.023524150319617975 -0.046437770180783572 0 0.033685887689835506 -0.040839376504878233 0 0.033758807017105534 -0.043970513167558019 0 0.039319792591302929 -0.037771665044716123 0 0.039148761275815021 -0.037992739299855749 0 0.039335730572802818 -0.037979778237912126 0 0.039148761275815021 -0.037992739299855749 0 0.0389965530253467 -0.037956005931480914 0 0.039420135031253994 -0.037602148632177181 0 0.038815452032349443 -0.038261710008151505 0 0.039148761275815021 -0.037992739299855749 0 0.0389965530253467 -0.037956005931480914 0 0.039420135031253994 -0.037602148632177181 0 0.039915604198386793 -0.036944972031856968 0 0.038700671759985247 -0.038207953811709591 0 0.0389965530253467 -0.037956005931480914 0 0.039420135031253994 -0.037602148632177181 0 0.038700671759985247 -0.038207953811709591 0 0.039148761275815021 -0.037992739299855749 0 0.039420135031253994 -0.037602148632177181 0 0.039335730572802818 -0.037979778237912126 0 0.039420135031253994 -0.037602148632177181 0 0.039335730572802818 -0.037979778237912126 0 0.039915604198386793 -0.036944972031856968 0 0.040055884565723246 -0.035955102368604094 0 0.040090575765510006 -0.036070407691135536 0 0.040044611567559368 -0.036406818400780867 0 0.039514318695987656 -0.035930721021827795 0 0.039936244606964995 -0.036900378085093936 0 0.039335730572802818 -0.037979778237912126 0 0.039915604198386793 -0.036944972031856968 0 0.040044611567559368 -0.036406818400780867 0 0.040019898346896246 -0.03599030990672715 0 0.040055884565723246 -0.035955102368604094 0 0.040090575765510006 -0.036070407691135536 0 0.040019898346896246 -0.03599030990672715 0 0.040090575765510006 -0.036070407691135536 0 0.040037356314891755 -0.035971170543336706 0 0.040090575765510006 -0.036070407691135536 0 0.040094917028074349 -0.036072690327732054 0 0.040044611567559368 -0.036406818400780867 0 0.040090575765510006 -0.036070407691135536 0 0.040094917028074349 -0.036072690327732054 0 0.040037356314891755 -0.035971170543336706 0 0.040094917028074349 -0.036072690327732054 0 0.040037356314891755 -0.035971170543336706 0 0.040030051591336394 -0.035874825397056109 0 0.03993193261163288 -0.035470886863735639 0 0.040030051591336394 -0.035874825397056109 0 0.040126439961406114 -0.035564858502901274 0 0.040030051591336394 -0.035874825397056109 0 0.040101233754337974 -0.036005190269743491 0 0.040126439961406114 -0.035564858502901274 0 0.040094917028074349 -0.036072690327732054 0 0.040030051591336394 -0.035874825397056109 0 0.040101233754337974 -0.036005190269743491 0 0.040101233754337974 -0.036005190269743491 0 0.040126439961406114 -0.035564858502901274 0 0.04020557461333249 -0.035876032642537789 0 0.04020557461333249 -0.035876032642537789 0 0.040044611567559368 -0.036406818400780867 0 0.040719533073638292 -0.035413242471507858 0 0.040126439961406114 -0.035564858502901274 0 0.04020557461333249 -0.035876032642537789 0 0.040719533073638292 -0.035413242471507858 0 0.040094917028074349 -0.036072690327732054 0 0.040101233754337974 -0.036005190269743491 0 0.040044611567559368 -0.036406818400780867 0 0.040101233754337974 -0.036005190269743491 0 0.04020557461333249 -0.035876032642537789 0 0.040044611567559368 -0.036406818400780867 0 0.040126439961406114 -0.035564858502901274 0 0.040719533073638292 -0.035413242471507858 0 0.040592992377120711 -0.034730090164419636 0 0.040719533073638292 -0.035413242471507858 0 0.04149446885166154 -0.034599060332795931 0 0.040592992377120711 -0.034730090164419636 0 0.040126439961406114 -0.035564858502901274 0 0.040118146840425542 -0.034928112506522363 0 0.040592992377120711 -0.034730090164419636 0 0.03993193261163288 -0.035470886863735639 0 0.040126439961406114 -0.035564858502901274 0 0.040118146840425542 -0.034928112506522363 0 0.040719533073638292 -0.035413242471507858 0 0.042560301527293717 -0.035428253738770385 0 0.04149446885166154 -0.034599060332795931 0 0.040044611567559368 -0.036406818400780867 0 0.040719533073638292 -0.035413242471507858 0 0.042560301527293717 -0.035428253738770385 0 0.039915604198386793 -0.036944972031856968 0 0.040044611567559368 -0.036406818400780867 0 0.042560301527293717 -0.035428253738770385 0 0.039916169122004935 -0.037011894736316546 0 0.040648237658271219 -0.036726278848499494 0 0.038700671759985247 -0.038207953811709591 0 0.038820868936987635 -0.038056877276956572 0 0.039121424309817368 -0.03744269339839091 0 0.040648237658271219 -0.036726278848499494 0 0.041277634302151214 -0.03599540999740395 0 0.038700671759985247 -0.038207953811709591 0 0.038820868936987635 -0.038056877276956572 0 0.038600727922912359 -0.038308399840359858 0 0.039577409952514436 -0.03775064960519612 0 0.038820868936987635 -0.038056877276956572 0 0.039121424309817368 -0.03744269339839091 0 0.039577409952514436 -0.03775064960519612 0 0.039633603744947545 -0.037461433184817858 0 0.039121424309817368 -0.03744269339839091 0 0.039577409952514436 -0.03775064960519612 0 0.038820868936987635 -0.038056877276956572 0 0.038666077924786324 -0.038472638700319514 0 0.039577409952514436 -0.03775064960519612 0 0.040323622145841349 -0.038299329862662448 0 0.038666077924786324 -0.038472638700319514 0 0.038820868936987635 -0.038056877276956572 0 0.038666077924786324 -0.038472638700319514 0 0.038600727922912359 -0.038308399840359858 0 0.040323622145841349 -0.038299329862662448 0 0.038047212175406075 -0.040645573018824099 0 0.038666077924786324 -0.038472638700319514 0 0.038047212175406075 -0.040645573018824099 0 0.038666077924786324 -0.038472638700319514 0 0.038406573350830607 -0.038868552886623151 0 0.038815452032349443 -0.038261710008151505 0 0.038406573350830607 -0.038868552886623151 0 0.038600727922912359 -0.038308399840359858 0 0.0389965530253467 -0.037956005931480914 0 0.038700671759985247 -0.038207953811709591 0 0.038600727922912359 -0.038308399840359858 0 0.038666077924786324 -0.038472638700319514 0 0.038406573350830607 -0.038868552886623151 0 0.038600727922912359 -0.038308399840359858 0 0.038815452032349443 -0.038261710008151505 0 0.0389965530253467 -0.037956005931480914 0 0.038600727922912359 -0.038308399840359858 0 0.043389715961954171 -0.033056021320009406 0 0.042292135220773762 -0.03363600979657648 0 0.042452795089292443 -0.031964036464380584 0 0.043389715961954171 -0.033056021320009406 0 0.042452795089292443 -0.031964036464380584 0 0.043859638024813942 -0.032233029632919026 0 0.043389715961954171 -0.033056021320009406 0 0.044211573515980609 -0.033107126428383586 0 0.043859638024813942 -0.032233029632919026 0 0.043389715961954171 -0.033056021320009406 0 0.044211573515980609 -0.033107126428383586 0 0.043927754285700886 -0.034300913306394405 0 0.043389715961954171 -0.033056021320009406 0 0.043927754285700886 -0.034300913306394405 0 0.042292135220773762 -0.03363600979657648 0 0.042560301527293717 -0.035428253738770385 0 0.043927754285700886 -0.034300913306394405 0 0.042292135220773762 -0.03363600979657648 0 0.042560301527293717 -0.035428253738770385 0 0.042292135220773762 -0.03363600979657648 0 0.04149446885166154 -0.034599060332795931 0 0.042292135220773762 -0.03363600979657648 0 0.04149446885166154 -0.034599060332795931 0 0.040844241204323214 -0.03344363293724905 0 0.040118146840425542 -0.034928112506522363 0 0.040592992377120711 -0.034730090164419636 0 0.040342005368816478 -0.034140970580165186 0 0.04149446885166154 -0.034599060332795931 0 0.040592992377120711 -0.034730090164419636 0 0.040844241204323214 -0.03344363293724905 0 0.040592992377120711 -0.034730090164419636 0 0.040342005368816478 -0.034140970580165186 0 0.040844241204323214 -0.03344363293724905 0 0.040342005368816478 -0.034140970580165186 0 0.040844241204323214 -0.03344363293724905 0 0.039973733737223738 -0.033293863241380554 0 0.040844241204323214 -0.03344363293724905 0 0.040596270231143955 -0.031288876595391854 0 0.039973733737223738 -0.033293863241380554 0 0.040844241204323214 -0.03344363293724905 0 0.041613161313607809 -0.032561199407016531 0 0.040596270231143955 -0.031288876595391854 0 0.042292135220773762 -0.03363600979657648 0 0.040844241204323214 -0.03344363293724905 0 0.041613161313607809 -0.032561199407016531 0 0.042292135220773762 -0.03363600979657648 0 0.041613161313607809 -0.032561199407016531 0 0.042452795089292443 -0.031964036464380584 0 0.040111102467995888 -0.029060589246035596 0 0.040381607712181036 -0.029750146344612725 0 0.039854926024502836 -0.029324611965102807 0 0.040111102467995888 -0.029060589246035596 0 0.040381607712181036 -0.029750146344612725 0 0.040596270231143955 -0.031288876595391854 0 0.041087071812595112 -0.030555725124421666 0 0.040493330696983861 -0.03112702616302505 0 0.041613161313607809 -0.032561199407016531 0 0.042452795089292443 -0.031964036464380584 0 0.040596270231143955 -0.031288876595391854 0 0.040381607712181036 -0.029750146344612725 0 0.040596270231143955 -0.031288876595391854 0 0.040363810244229213 -0.030105271092483631 0 0.040596270231143955 -0.031288876595391854 0 0.040363810244229213 -0.030105271092483631 0 0.039990300933240776 -0.030902444343069282 0 0.040363810244229213 -0.030105271092483631 0 0.040160350245632942 -0.029593489915707816 0 0.039990300933240776 -0.030902444343069282 0 0.040381607712181036 -0.029750146344612725 0 0.040363810244229213 -0.030105271092483631 0 0.040224775524018735 -0.029516645353512973 0 0.040363810244229213 -0.030105271092483631 0 0.040224775524018735 -0.029516645353512973 0 0.040160350245632942 -0.029593489915707816 0 0.040381607712181036 -0.029750146344612725 0 0.040224775524018735 -0.029516645353512973 0 0.039854926024502836 -0.029324611965102807 0 0.040111102467995888 -0.029060589246035596 0 0.039854926024502836 -0.029324611965102807 0 0.039258900412779227 -0.028823245613266355 0 0.039854926024502836 -0.029324611965102807 0 0.039258900412779227 -0.028823245613266355 0 0.039020698609424857 -0.029211585224496978 0 0.041087071812595112 -0.030555725124421666 0 0.041515804378495058 -0.03027134658339049 0 0.040111102467995888 -0.029060589246035596 0 0.038857672371909825 -0.027963165378275829 0 0.039258900412779227 -0.028823245613266355 0 0.038032910605010579 -0.028687608753299555 0 0.038857672371909825 -0.027963165378275829 0 0.039258900412779227 -0.028823245613266355 0 0.038032910605010579 -0.028687608753299555 0 0.039258900412779227 -0.028823245613266355 0 0.039020698609424857 -0.029211585224496978 0 0.038032910605010579 -0.028687608753299555 0 0.038085462591304166 -0.029439475908350558 0 0.039020698609424857 -0.029211585224496978 0 0.038085462591304166 -0.029439475908350558 0 0.039020698609424857 -0.029211585224496978 0 0.039299366139642092 -0.029417997647603115 0 0.039854926024502836 -0.029324611965102807 0 0.039299366139642092 -0.029417997647603115 0 0.039880616145446031 -0.029374685318988 0 0.039854926024502836 -0.029324611965102807 0 0.039020698609424857 -0.029211585224496978 0 0.039299366139642092 -0.029417997647603115 0 0.039299366139642092 -0.029417997647603115 0 0.039394791379754997 -0.02944153173150986 0 0.039880616145446031 -0.029374685318988 0 0.038085462591304166 -0.029439475908350558 0 0.039299366139642092 -0.029417997647603115 0 0.038272144365686461 -0.029701093651737683 0 0.039299366139642092 -0.029417997647603115 0 0.038272144365686461 -0.029701093651737683 0 0.039394791379754997 -0.02944153173150986 0 0.038272144365686461 -0.029701093651737683 0 0.039394791379754997 -0.02944153173150986 0 0.038775730765650447 -0.029562176780269581 0 0.039394791379754997 -0.02944153173150986 0 0.039457109241072368 -0.029249680623226929 0 0.038775730765650447 -0.029562176780269581 0 0.039457109241072368 -0.029249680623226929 0 0.038775730765650447 -0.029562176780269581 0 0.038869558592236182 -0.02956952854141286 0 0.037847467053191662 -0.029880635152274633 0 0.038775730765650447 -0.029562176780269581 0 0.038869558592236182 -0.02956952854141286 0 0.040892590245968564 -0.028308587122070593 0 0.040126078757412267 -0.028695898349163283 0 0.03984127057734952 -0.029302915041188041 0 0.039928428761300622 -0.029382482581461197 0 0.039990852366799147 -0.028793841987017212 0 0.039457109241072368 -0.029249680623226929 0 0.03984127057734952 -0.029302915041188041 0 0.039990852366799147 -0.028793841987017212 0 0.039394791379754997 -0.02944153173150986 0 0.039457109241072368 -0.029249680623226929 0 0.03984127057734952 -0.029302915041188041 0 0.039394791379754997 -0.02944153173150986 0 0.03984127057734952 -0.029302915041188041 0 0.039880616145446031 -0.029374685318988 0 0.03984127057734952 -0.029302915041188041 0 0.03999750908369977 -0.029296680865474364 0 0.039928428761300622 -0.029382482581461197 0 0.03984127057734952 -0.029302915041188041 0 0.03999750908369977 -0.029296680865474364 0 0.039880616145446031 -0.029374685318988 0 0.03999750908369977 -0.029296680865474364 0 0.039880616145446031 -0.029374685318988 0 0.040091782308997861 -0.029355448046638626 0 0.040224775524018735 -0.029516645353512973 0 0.039854926024502836 -0.029324611965102807 0 0.039880616145446031 -0.029374685318988 0 0.040224775524018735 -0.029516645353512973 0 0.039880616145446031 -0.029374685318988 0 0.040091782308997861 -0.029355448046638626 0 0.040224775524018735 -0.029516645353512973 0 0.040091782308997861 -0.029355448046638626 0 0.040160350245632942 -0.029593489915707816 0 0.040091782308997861 -0.029355448046638626 0 0.04012070998608934 -0.029241373263644843 0 0.040160350245632942 -0.029593489915707816 0 0.040313242709500124 -0.029087124699994072 0 0.040654228341724392 -0.028835359791718942 0 0.040046126936374056 -0.029460533986607241 0 0.04012070998608934 -0.029241373263644843 0 0.040313242709500124 -0.029087124699994072 0 0.040046126936374056 -0.029460533986607241 0 0.04012070998608934 -0.029241373263644843 0 0.040313242709500124 -0.029087124699994072 0 0.040217982669600472 -0.029250283334258342 0 0.040313242709500124 -0.029087124699994072 0 0.040217982669600472 -0.029250283334258342 0 0.040674296074613307 -0.028909122129406668 0 0.03999750908369977 -0.029296680865474364 0 0.04012070998608934 -0.029241373263644843 0 0.040217982669600472 -0.029250283334258342 0 0.03999750908369977 -0.029296680865474364 0 0.040091782308997861 -0.029355448046638626 0 0.04012070998608934 -0.029241373263644843 0 0.03999750908369977 -0.029296680865474364 0 0.040217982669600472 -0.029250283334258342 0 0.039928428761300622 -0.029382482581461197 0 0.040217982669600472 -0.029250283334258342 0 0.040383043093138976 -0.029598650306047521 0 0.040664756546699529 -0.029289232732873566 0 0.042001517196459733 -0.028001297499605778 0 0.040892590245968564 -0.028308587122070593 0 0.043570917985270685 -0.026379511639690979 0 0.041726877179737006 -0.027198893142154189 0 0.043085809689822174 -0.027650914256987701 0 0.040217982669600472 -0.029250283334258342 0 0.040383043093138976 -0.029598650306047521 0 0.039928428761300622 -0.029382482581461197 0 0.045331736513222788 -0.026025544243805692 0 0.046945776687112029 -0.026816198677274403 0 0.045249804231096091 -0.026965823578764429 0 0.042001517196459733 -0.028001297499605778 0 0.043315515780534136 -0.027943691293720048 0 0.043570917985270685 -0.026379511639690979 0 0.045331736513222788 -0.026025544243805692 0 0.045249804231096091 -0.026965823578764429 0 0.040383043093138976 -0.029598650306047521 0 0.041214681505904072 -0.029802343888046052 0 0.040664756546699529 -0.029289232732873566 0 0.041214681505904072 -0.029802343888046052 0 0.041230188018422056 -0.028656518049621729 0 0.042066442172877833 -0.029026035168065591 0 0.041214681505904072 -0.029802343888046052 0 0.040664756546699529 -0.029289232732873566 0 0.041230188018422056 -0.028656518049621729 0 0.041230188018422056 -0.028656518049621729 0 0.041880383376221825 -0.028348561880138699 0 0.042066442172877833 -0.029026035168065591 0 0.041230188018422056 -0.028656518049621729 0 0.041669177283318044 -0.028332949658585994 0 0.041310165193910377 -0.028528428346673587 0 0.041230188018422056 -0.028656518049621729 0 0.040674296074613307 -0.028909122129406668 0 0.041310165193910377 -0.028528428346673587 0 0.041230188018422056 -0.028656518049621729 0 0.041669177283318044 -0.028332949658585994 0 0.041880383376221825 -0.028348561880138699 0 0.040664756546699529 -0.029289232732873566 0 0.041230188018422056 -0.028656518049621729 0 0.040674296074613307 -0.028909122129406668 0 0.040217982669600472 -0.029250283334258342 0 0.040664756546699529 -0.029289232732873566 0 0.040674296074613307 -0.028909122129406668 0 0.040674296074613307 -0.028909122129406668 0 0.041310165193910377 -0.028528428346673587 0 0.040654228341724392 -0.028835359791718942 0 0.040313242709500124 -0.029087124699994072 0 0.040674296074613307 -0.028909122129406668 0 0.040654228341724392 -0.028835359791718942 0 0.041669177283318044 -0.028332949658585994 0 0.041310165193910377 -0.028528428346673587 0 0.041729371672735813 -0.028316690689487025 0 0.041310165193910377 -0.028528428346673587 0 0.041305843169760381 -0.028372856395035284 0 0.040654228341724392 -0.028835359791718942 0 0.041310165193910377 -0.028528428346673587 0 0.041305843169760381 -0.028372856395035284 0 0.04151907556752351 -0.028419047238411745 0 0.039502806701299784 -0.03403675746548588 0 0.039468960848984914 -0.034130584771948795 0 0.039503725732542759 -0.034466714604498759 0 0.039502806701299784 -0.03403675746548588 0 0.039328008807779417 -0.033254701258970419 0 0.039468960848984914 -0.034130584771948795 0 0.039925312407034813 -0.031200303946816298 0 0.040092157385616833 -0.031098714370940535 0 0.041305843169760381 -0.028372856395035284 0 0.040302700248628323 -0.028923173304811409 0 0.040654228341724392 -0.028835359791718942 0 0.040302700248628323 -0.028923173304811409 0 0.040654228341724392 -0.028835359791718942 0 0.040046126936374056 -0.029460533986607241 0 0.040302700248628323 -0.028923173304811409 0 0.040046126936374056 -0.029460533986607241 0 0.039990300933240776 -0.030902444343069282 0 0.04012070998608934 -0.029241373263644843 0 0.040046126936374056 -0.029460533986607241 0 0.040160350245632942 -0.029593489915707816 0 0.040046126936374056 -0.029460533986607241 0 0.040160350245632942 -0.029593489915707816 0 0.039990300933240776 -0.030902444343069282 0 0.039328008807779417 -0.033254701258970419 0 0.039990300933240776 -0.030902444343069282 0 0.03974726440271887 -0.03226740478995592 0 0.040596270231143955 -0.031288876595391854 0 0.039990300933240776 -0.030902444343069282 0 0.03974726440271887 -0.03226740478995592 0 0.039328008807779417 -0.033254701258970419 0 0.03974726440271887 -0.03226740478995592 0 0.039524290135303168 -0.033199722314950414 0 0.040092157385616833 -0.031098714370940535 0 0.040146915441013946 -0.030964949396401424 0 0.039328008807779417 -0.033254701258970419 0 0.039524290135303168 -0.033199722314950414 0 0.039447801758140902 -0.033841242714018595 0 0.039524290135303168 -0.033199722314950414 0 0.039447801758140902 -0.033841242714018595 0 0.039620464586736494 -0.034024098567606333 0 0.040596270231143955 -0.031288876595391854 0 0.03974726440271887 -0.03226740478995592 0 0.039973733737223738 -0.033293863241380554 0 0.03974726440271887 -0.03226740478995592 0 0.039524290135303168 -0.033199722314950414 0 0.039973733737223738 -0.033293863241380554 0 0.039524290135303168 -0.033199722314950414 0 0.039973733737223738 -0.033293863241380554 0 0.039620464586736494 -0.034024098567606333 0 0.040342005368816478 -0.034140970580165186 0 0.039973733737223738 -0.033293863241380554 0 0.039932335882693452 -0.034269105380774684 0 0.039973733737223738 -0.033293863241380554 0 0.039932335882693452 -0.034269105380774684 0 0.039620464586736494 -0.034024098567606333 0 0.039932335882693452 -0.034269105380774684 0 0.039720958715966273 -0.034523694947598563 0 0.039620464586736494 -0.034024098567606333 0 0.039695518012297079 -0.034974351551147705 0 0.039720958715966273 -0.034523694947598563 0 0.039862031162748293 -0.034862891707092419 0 0.039932335882693452 -0.034269105380774684 0 0.039720958715966273 -0.034523694947598563 0 0.039862031162748293 -0.034862891707092419 0 0.040118146840425542 -0.034928112506522363 0 0.040342005368816478 -0.034140970580165186 0 0.039932335882693452 -0.034269105380774684 0 0.040118146840425542 -0.034928112506522363 0 0.039932335882693452 -0.034269105380774684 0 0.039862031162748293 -0.034862891707092419 0 0.039447801758140902 -0.033841242714018595 0 0.039620464586736494 -0.034024098567606333 0 0.039563866808186639 -0.03464200728018621 0 0.039447801758140902 -0.033841242714018595 0 0.039563866808186639 -0.03464200728018621 0 0.039499284005009537 -0.034618752368659834 0 0.039720958715966273 -0.034523694947598563 0 0.039620464586736494 -0.034024098567606333 0 0.039563866808186639 -0.03464200728018621 0 0.039695518012297079 -0.034974351551147705 0 0.039720958715966273 -0.034523694947598563 0 0.039563866808186639 -0.03464200728018621 0 0.039558121353538374 -0.0350880715137733 0 0.039563866808186639 -0.03464200728018621 0 0.039499284005009537 -0.034618752368659834 0 0.039606958150720531 -0.035226837966017777 0 0.039558121353538374 -0.0350880715137733 0 0.039499284005009537 -0.034618752368659834 0 0.039606958150720531 -0.035226837966017777 0 0.039499284005009537 -0.034618752368659834 0 0.039596529319669095 -0.034880836159835171 0 0.039827513455064203 -0.035636216020651652 0 0.039606958150720531 -0.035226837966017777 0 0.039596529319669095 -0.034880836159835171 0 0.039499284005009537 -0.034618752368659834 0 0.039596529319669095 -0.034880836159835171 0 0.039468960848984914 -0.034130584771948795 0 0.039596529319669095 -0.034880836159835171 0 0.039468960848984914 -0.034130584771948795 0 0.039503725732542759 -0.034466714604498759 0 0.039328008807779417 -0.033254701258970419 0 0.039447801758140902 -0.033841242714018595 0 0.039468960848984914 -0.034130584771948795 0 0.039447801758140902 -0.033841242714018595 0 0.039499284005009537 -0.034618752368659834 0 0.039468960848984914 -0.034130584771948795 0 0.039503725732542759 -0.034466714604498759 0 0.039631743910622616 -0.035270145821972979 0 0.039123077237103246 -0.034663203047850748 0 0.039596529319669095 -0.034880836159835171 0 0.039503725732542759 -0.034466714604498759 0 0.039631743910622616 -0.035270145821972979 0 0.039827513455064203 -0.035636216020651652 0 0.039596529319669095 -0.034880836159835171 0 0.039631743910622616 -0.035270145821972979 0 0.039631743910622616 -0.035270145821972979 0 0.039462204703770681 -0.035724455508140469 0 0.039123077237103246 -0.034663203047850748 0 0.039462204703770681 -0.035724455508140469 0 0.038856088453897854 -0.035735574146994152 0 0.039123077237103246 -0.034663203047850748 0 0.043251979056498253 -0.035612187498017443 0 0.0436268313859976 -0.035001816850246323 0 0.047497145338127905 -0.035611204058311759 0 0.047278651779567221 -0.034710084062932724 0 0.046465506871182768 -0.034897532296311061 0 0.047278651779567221 -0.034710084062932724 0 0.04795186446152206 -0.034349048667274264 0 0.047183477920403116 -0.034018661450450668 0 0.047278651779567221 -0.034710084062932724 0 0.047183477920403116 -0.034018661450450668 0 0.046465506871182768 -0.034897532296311061 0 0.04741742540135685 -0.034364034706304149 0 0.046615112898800749 -0.034606722234664399 0 0.047497145338127905 -0.035611204058311759 0 0.047278651779567221 -0.034710084062932724 0 0.04795186446152206 -0.034349048667274264 0 0.04795186446152206 -0.034349048667274264 0 0.04782844354299131 -0.033135594923645727 0 0.048415447417981067 -0.033214350906217972 0 0.04741742540135685 -0.034364034706304149 0 0.04736128096599785 -0.028573533076846732 0 0.04795186446152206 -0.034349048667274264 0 0.047183477920403116 -0.034018661450450668 0 0.04782844354299131 -0.033135594923645727 0 0.050522199422925802 -0.022664383667534968 0 0.047476985367528826 -0.02221814620111839 0 0.04861720178409349 -0.023492727599881733 0 0.047787977851936156 -0.033415608270913312 0 0.047193287590272977 -0.031541581741186292 0 0.049095253499003795 -0.031772829909729662 0 0.049732956504187124 -0.027814695935212339 0 0.04736128096599785 -0.028573533076846732 0 0.047476985367528826 -0.02221814620111839 0 0.04861720178409349 -0.023492727599881733 0 0.047560304121180577 -0.023990739916718823 0 0.042611034140469954 -0.031073264025151339 0 0.042499073271567177 -0.027096610020507401 0 0.043908639770515796 -0.026340223765528751 0 0.043314545121614749 -0.026256253524289598 0 0.043352365264651201 -0.026959494223405697 0 0.04736128096599785 -0.028573533076846732 0 0.042611034140469954 -0.031073264025151339 0 0.0436268313859976 -0.035001816850246323 0 0.042611034140469954 -0.031073264025151339 0 0.039503725732542759 -0.034466714604498759 0 0.039123077237103246 -0.034663203047850748 0 0.03928937223220124 -0.034097434257044507 0 0.039502806701299784 -0.03403675746548588 0 0.039503725732542759 -0.034466714604498759 0 0.03928937223220124 -0.034097434257044507 0 0.041305843169760381 -0.028372856395035284 0 0.041613308167020288 -0.02838135957437337 0 0.04151907556752351 -0.028419047238411745 0 0.041613308167020288 -0.02838135957437337 0 0.04151907556752351 -0.028419047238411745 0 0.04151779316778844 -0.028406044931149389 0 0.039925312407034813 -0.031200303946816298 0 0.042611034140469954 -0.031073264025151339 0 0.042499073271567177 -0.027096610020507401 0 0.042124634506347791 -0.028033187895400817 0 0.04151779316778844 -0.028406044931149389 0 0.041729371672735813 -0.028316690689487025 0 0.04226706139099333 -0.027825854125312563 0 0.041310165193910377 -0.028528428346673587 0 0.04151907556752351 -0.028419047238411745 0 0.041729371672735813 -0.028316690689487025 0 0.04151907556752351 -0.028419047238411745 0 0.04151779316778844 -0.028406044931149389 0 0.041729371672735813 -0.028316690689487025 0 0.042948202556314041 -0.026867004450796719 0 0.043352365264651201 -0.026959494223405697 0 0.04275784299653717 -0.027705429984068282 0 0.043314545121614749 -0.026256253524289598 0 0.042948202556314041 -0.026867004450796719 0 0.043352365264651201 -0.026959494223405697 0 0.04736128096599785 -0.028573533076846732 0 0.044524213374134126 -0.025107550479604373 0 0.045566031417408878 -0.024129180886571736 0 0.045700235125131383 -0.025630568824278735 0 0.046779329202827291 -0.025219790905351147 0 0.045566031417408878 -0.024129180886571736 0 0.045700235125131383 -0.025630568824278735 0 0.044777134978178403 -0.026353001143958995 0 0.045566031417408878 -0.024129180886571736 0 0.044777134978178403 -0.026353001143958995 0 0.04275784299653717 -0.027705429984068282 0 0.044524213374134126 -0.025107550479604373 0 0.042816747306334065 -0.027661865825480407 0 0.045700235125131383 -0.025630568824278735 0 0.045607153265276576 -0.02669207559627302 0 0.046779329202827291 -0.025219790905351147 0 0.045607153265276576 -0.02669207559627302 0 0.047166437355140305 -0.026375787542736884 0 0.046779329202827291 -0.025219790905351147 0 0.045700235125131383 -0.025630568824278735 0 0.044777134978178403 -0.026353001143958995 0 0.045607153265276576 -0.02669207559627302 0 0.044777134978178403 -0.026353001143958995 0 0.044175070471986488 -0.027441314521354062 0 0.045607153265276576 -0.02669207559627302 0 0.044777134978178403 -0.026353001143958995 0 0.044175070471986488 -0.027441314521354062 0 0.04275784299653717 -0.027705429984068282 0 0.044175070471986488 -0.027441314521354062 0 0.045607153265276576 -0.02669207559627302 0 0.044447183313870257 -0.028183508649233791 0 0.044175070471986488 -0.027441314521354062 0 0.043147734277507337 -0.02842446727638016 0 0.044447183313870257 -0.028183508649233791 0 0.045607153265276576 -0.02669207559627302 0 0.046187704587993733 -0.027716635904910438 0 0.047166437355140305 -0.026375787542736884 0 0.045607153265276576 -0.02669207559627302 0 0.044447183313870257 -0.028183508649233791 0 0.046187704587993733 -0.027716635904910438 0 0.042948202556314041 -0.026867004450796719 0 0.04226706139099333 -0.027825854125312563 0 0.04275784299653717 -0.027705429984068282 0 0.041669177283318044 -0.028332949658585994 0 0.041729371672735813 -0.028316690689487025 0 0.04226706139099333 -0.027825854125312563 0 0.041669177283318044 -0.028332949658585994 0 0.04226706139099333 -0.027825854125312563 0 0.041880383376221825 -0.028348561880138699 0 0.04226706139099333 -0.027825854125312563 0 0.04275784299653717 -0.027705429984068282 0 0.042387792194469982 -0.028248231180172171 0 0.044175070471986488 -0.027441314521354062 0 0.04275784299653717 -0.027705429984068282 0 0.043147734277507337 -0.02842446727638016 0 0.04275784299653717 -0.027705429984068282 0 0.042387792194469982 -0.028248231180172171 0 0.043147734277507337 -0.02842446727638016 0 0.042387792194469982 -0.028248231180172171 0 0.041880383376221825 -0.028348561880138699 0 0.042066442172877833 -0.029026035168065591 0 0.04226706139099333 -0.027825854125312563 0 0.042387792194469982 -0.028248231180172171 0 0.041880383376221825 -0.028348561880138699 0 0.042387792194469982 -0.028248231180172171 0 0.042066442172877833 -0.029026035168065591 0 0.043147734277507337 -0.02842446727638016 0 0.043315515780534136 -0.027943691293720048 0 0.045373753224525623 -0.0279893051121714 0 0.041214681505904072 -0.029802343888046052 0 0.042066442172877833 -0.029026035168065591 0 0.043717872489416047 -0.029917728544584656 0 0.042066442172877833 -0.029026035168065591 0 0.043147734277507337 -0.02842446727638016 0 0.043717872489416047 -0.029917728544584656 0 0.043147734277507337 -0.02842446727638016 0 0.044447183313870257 -0.028183508649233791 0 0.043717872489416047 -0.029917728544584656 0 0.045373753224525623 -0.0279893051121714 0 0.047937387160523898 -0.027586216225100716 0 0.044447183313870257 -0.028183508649233791 0 0.046187704587993733 -0.027716635904910438 0 0.043717872489416047 -0.029917728544584656 0 0.047058688110556919 -0.026155004525094224 0 0.047843512604367637 -0.026857907464929744 0 0.048307120807565954 -0.027513875771497887 0 0.046187704587993733 -0.027716635904910438 0 0.043717872489416047 -0.029917728544584656 0 0.048307120807565954 -0.027513875771497887 0 0.047058688110556919 -0.026155004525094224 0 0.046945776687112029 -0.026816198677274403 0 0.047843512604367637 -0.026857907464929744 0 0.046945776687112029 -0.026816198677274403 0 0.047843512604367637 -0.026857907464929744 0 0.047772880050045041 -0.026946110551198926 0 0.045331736513222788 -0.026025544243805692 0 0.047058688110556919 -0.026155004525094224 0 0.046945776687112029 -0.026816198677274403 0 0.048770688772319042 -0.026899475118887729 0 0.04837999772968081 -0.027018745114945685 0 0.04810881418212435 -0.026979000179279535 0 0.048770688772319042 -0.026899475118887729 0 0.04837999772968081 -0.027018745114945685 0 0.04918871699579852 -0.027116574066039151 0 0.048770688772319042 -0.026899475118887729 0 0.04918871699579852 -0.027116574066039151 0 0.049320256633156062 -0.026632564538451788 0 0.047772880050045041 -0.026946110551198926 0 0.04837999772968081 -0.027018745114945685 0 0.04810881418212435 -0.026979000179279535 0 0.047843512604367637 -0.026857907464929744 0 0.047772880050045041 -0.026946110551198926 0 0.04837999772968081 -0.027018745114945685 0 0.047843512604367637 -0.026857907464929744 0 0.04837999772968081 -0.027018745114945685 0 0.048307120807565954 -0.027513875771497887 0 0.046187704587993733 -0.027716635904910438 0 0.047674811821401764 -0.02736280332661618 0 0.048307120807565954 -0.027513875771497887 0 0.047674811821401764 -0.02736280332661618 0 0.048307120807565954 -0.027513875771497887 0 0.049109626109881822 -0.027255669265508584 0 0.048307120807565954 -0.027513875771497887 0 0.04918871699579852 -0.027116574066039151 0 0.049109626109881822 -0.027255669265508584 0 0.04837999772968081 -0.027018745114945685 0 0.048307120807565954 -0.027513875771497887 0 0.04918871699579852 -0.027116574066039151 0 0.04918871699579852 -0.027116574066039151 0 0.049109626109881822 -0.027255669265508584 0 0.049903963545644553 -0.027135491128781147 0 0.049690551377079506 -0.027046682479073353 0 0.050302367815405681 -0.02755495109597204 0 0.049903963545644553 -0.027135491128781147 0 0.049109626109881822 -0.027255669265508584 0 0.049690551377079506 -0.027046682479073353 0 0.049903963545644553 -0.027135491128781147 0 0.047166437355140305 -0.026375787542736884 0 0.046779329202827291 -0.025219790905351147 0 0.048928060769841776 -0.025118235446170964 0 0.047725639122401818 -0.027588569744140545 0 0.049456620602278345 -0.025684075591421267 0 0.047674811821401764 -0.02736280332661618 0 0.049109626109881822 -0.027255669265508584 0 0.049690551377079506 -0.027046682479073353 0 0.047674811821401764 -0.02736280332661618 0 0.047166437355140305 -0.026375787542736884 0 0.048928060769841776 -0.025118235446170964 0 0.046187704587993733 -0.027716635904910438 0 0.047674811821401764 -0.02736280332661618 0 0.047166437355140305 -0.026375787542736884 0 0.046779329202827291 -0.025219790905351147 0 0.047560304121180577 -0.023990739916718823 0 0.048928060769841776 -0.025118235446170964 0 0.047476985367528826 -0.02221814620111839 0 0.045566031417408878 -0.024129180886571736 0 0.047560304121180577 -0.023990739916718823 0 0.045566031417408878 -0.024129180886571736 0 0.046779329202827291 -0.025219790905351147 0 0.047560304121180577 -0.023990739916718823 0 0.04861720178409349 -0.023492727599881733 0 0.047560304121180577 -0.023990739916718823 0 0.048928060769841776 -0.025118235446170964 0 0.050414335436941994 -0.027807415371010915 0 0.049690551377079506 -0.027046682479073353 0 0.050302367815405681 -0.02755495109597204 0 0.049732956504187124 -0.027814695935212339 0 0.049456620602278345 -0.025684075591421267 0 0.050522199422925802 -0.022664383667534968 0 0.04861720178409349 -0.023492727599881733 0 0.048928060769841776 -0.025118235446170964 0 0.050414335436941994 -0.027807415371010915 0 0.050302367815405681 -0.02755495109597204 0 0.050858212409160788 -0.028663751129988667 0 0.050302367815405681 -0.02755495109597204 0 0.050028291598597993 -0.02729246822327348 0 0.050858212409160788 -0.028663751129988667 0 0.050028291598597993 -0.02729246822327348 0 0.049645086482277306 -0.02982707094745881 0 0.050858212409160788 -0.028663751129988667 0 0.05084220465924548 -0.028162417254594476 0 0.050770338126925968 -0.030834537811517328 0 0.05084220465924548 -0.028162417254594476 0 0.050317977575645635 -0.027181870224581225 0 0.050302367815405681 -0.02755495109597204 0 0.050028291598597993 -0.02729246822327348 0 0.049903963545644553 -0.027135491128781147 0 0.050028291598597993 -0.02729246822327348 0 0.049903963545644553 -0.027135491128781147 0 0.050189442258889522 -0.026998880361245221 0 0.04918871699579852 -0.027116574066039151 0 0.049903963545644553 -0.027135491128781147 0 0.050189442258889522 -0.026998880361245221 0 0.051817799717352314 -0.028859438660142935 0 0.050189442258889522 -0.026998880361245221 0 0.050744036952786509 -0.027292076520500721 0 0.050189442258889522 -0.026998880361245221 0 0.050744036952786509 -0.027292076520500721 0 0.049914345224304123 -0.02624428870897608 0 0.04918871699579852 -0.027116574066039151 0 0.050189442258889522 -0.026998880361245221 0 0.049320256633156062 -0.026632564538451788 0 0.050189442258889522 -0.026998880361245221 0 0.049320256633156062 -0.026632564538451788 0 0.049914345224304123 -0.02624428870897608 0 0.049999076009753764 -0.02661617732407761 0 0.050359818069199903 -0.025649677162990565 0 0.049999633283480151 -0.023777042196626963 0 0.050744036952786509 -0.027292076520500721 0 0.049999076009753764 -0.02661617732407761 0 0.050359818069199903 -0.025649677162990565 0 0.050744036952786509 -0.027292076520500721 0 0.050359818069199903 -0.025649677162990565 0 0.049914345224304123 -0.02624428870897608 0 0.050744036952786509 -0.027292076520500721 0 0.049999076009753764 -0.02661617732407761 0 0.049999278879588972 -0.029462634477847204 0 0.050744036952786509 -0.027292076520500721 0 0.049999278879588972 -0.029462634477847204 0 0.050855297589788261 -0.030369972814797065 0 0.051817799717352314 -0.028859438660142935 0 0.050744036952786509 -0.027292076520500721 0 0.050855297589788261 -0.030369972814797065 0 0.051817799717352314 -0.028859438660142935 0 0.050855297589788261 -0.030369972814797065 0 0.051869605023127201 -0.031870493936593081 0 0.049999278879588972 -0.029462634477847204 0 0.050855297589788261 -0.030369972814797065 0 0.049999175373324614 -0.032309828139016283 0 0.050855297589788261 -0.030369972814797065 0 0.049999175373324614 -0.032309828139016283 0 0.050658630647108668 -0.032893678794406654 0 0.050658630647108668 -0.032893678794406654 0 0.049999122151262461 -0.035151277705084312 0 0.050324406307875852 -0.033951987264666118 0 0.049999175373324614 -0.032309828139016283 0 0.050658630647108668 -0.032893678794406654 0 0.049999122151262461 -0.035151277705084312 0 0.050658630647108668 -0.032893678794406654 0 0.051869605023127201 -0.031870493936593081 0 0.050324406307875852 -0.033951987264666118 0 0.050770338126925968 -0.030834537811517328 0 0.050331568240131748 -0.033624559036574804 0 0.050855297589788261 -0.030369972814797065 0 0.050658630647108668 -0.032893678794406654 0 0.051869605023127201 -0.031870493936593081 0 0.049645086482277306 -0.02982707094745881 0 0.050858212409160788 -0.028663751129988667 0 0.051800008345702066 -0.032573964000338677 0 0.053474621725908174 -0.029000095923114221 0 0.050858212409160788 -0.028663751129988667 0 0.051800008345702066 -0.032573964000338677 0 0.049732956504187124 -0.027814695935212339 0 0.051651385366876149 -0.028622537135693665 0 0.047787977851936156 -0.033415608270913312 0 0.047193287590272977 -0.031541581741186292 0 0.046002287482711193 -0.033492774376643712 0 0.049732956504187124 -0.027814695935212339 0 0.048928071675355629 -0.033514208173027943 0 0.049645086482277306 -0.02982707094745881 0 0.051800008345702066 -0.032573964000338677 0 0.050324406307875852 -0.033951987264666118 0 0.046002287482711193 -0.033492774376643712 0 0.046465506871182768 -0.034897532296311061 0 0.045151813457774997 -0.035132328080725958 0 0.048928071675355629 -0.033514208173027943 0 0.047804469817728734 -0.034707650267067236 0 0.051800008345702066 -0.032573964000338677 0 0.050986995895869872 -0.034778629971248094 0 0.050324406307875852 -0.033951987264666118 0 0.047787977851936156 -0.033415608270913312 0 0.046002287482711193 -0.033492774376643712 0 0.046465506871182768 -0.034897532296311061 0 0.045906305600367479 -0.036159881349982867 0 0.047497145338127905 -0.035611204058311759 0 0.046465506871182768 -0.034897532296311061 0 0.045906305600367479 -0.036159881349982867 0 0.046465506871182768 -0.034897532296311061 0 0.045151813457774997 -0.035132328080725958 0 0.049999967091109217 -0.039274545733354836 0 0.050878843744297887 -0.036949936958557271 0 0.049999957061756847 -0.035155527628832589 0 0.050341009013557141 -0.035857464631845498 0 0.050986995895869872 -0.034778629971248094 0 0.049966093224595075 -0.035080172072568382 0 0.050986995895869872 -0.034778629971248094 0 0.049966093224595075 -0.035080172072568382 0 0.050324406307875852 -0.033951987264666118 0 0.050546480625453867 -0.036116801230232198 0 0.050000014644665816 -0.035155429250984839 0 0.049966093224595075 -0.035080172072568382 0 0.049999122151262461 -0.035151277705084312 0 0.050324406307875852 -0.033951987264666118 0 0.051999213189770452 -0.014114058233325498 0 0.050724257728085045 -0.015252917769864619 0 0.050982033094991511 -0.014008321889574987 0 0.051999213189770452 -0.014114058233325498 0 0.050724257728085045 -0.015252917769864619 0 0.051466102413056873 -0.016309154840578956 0 0.049373169161451069 -0.017573070916111849 0 0.049538488550946488 -0.020781370254908525 0 0.050968051954975613 -0.015606941197247988 0 0.050000020404241126 -0.01429165854204738 0 0.049999942356399249 -0.016661882903069383 0 0.050724257728085045 -0.015252917769864619 0 0.050000021844059613 -0.01429118602450255 0 0.050982033094991511 -0.014008321889574987 0 0.050583588374976236 -0.015227738717321174 0 0.050000399325911909 -0.01429232776512822 0 0.050000021844059613 -0.01429118602450255 0 0.050636168692040746 -0.01310814355252945 0 0.049999776321638302 -0.012512335240673878 0 0.050982033094991511 -0.014008321889574987 0 0.050636168692040746 -0.01310814355252945 0 0.051431581464058337 -0.013285610578945747 0 0.050000021844059613 -0.01429118602450255 0 0.050982033094991511 -0.014008321889574987 0 0.050636168692040746 -0.01310814355252945 0 0.050636168692040746 -0.01310814355252945 0 0.049999776321638302 -0.012512335240673878 0 0.050953619553565102 -0.012302551039835744 0 0.050636168692040746 -0.01310814355252945 0 0.051431581464058337 -0.013285610578945747 0 0.050835793833637767 -0.012731599607351552 0 0.050335212905002431 -0.012788929048845363 0 0.049252163683586862 -0.014481277868955932 0 0.049373169161451069 -0.017573070916111849 0 0.046874787161202219 -0.018213922487041841 0 0.051999213189770452 -0.014114058233325498 0 0.051431581464058337 -0.013285610578945747 0 0.052352413770230768 -0.012319951573949117 0 0.051999213189770452 -0.014114058233325498 0 0.050982033094991511 -0.014008321889574987 0 0.051431581464058337 -0.013285610578945747 0 0.046171329741292573 -0.022071178523870718 0 0.04653003328666927 -0.021583200595503439 0 0.04610882694769889 -0.020826135014441496 0 0.04653003328666927 -0.021583200595503439 0 0.046972988832107272 -0.021703465997940961 0 0.047192840126712543 -0.022729652562312918 0 0.046972988832107272 -0.021703465997940961 0 0.046976934352971463 -0.021011510847683903 0 0.046549966397419949 -0.021000460495923304 0 0.04653003328666927 -0.021583200595503439 0 0.046972988832107272 -0.021703465997940961 0 0.046549966397419949 -0.021000460495923304 0 0.046972988832107272 -0.021703465997940961 0 0.047192840126712543 -0.022729652562312918 0 0.047754378119844641 -0.022936003776013823 0 0.046171329741292573 -0.022071178523870718 0 0.04653003328666927 -0.021583200595503439 0 0.047192840126712543 -0.022729652562312918 0 0.046171329741292573 -0.022071178523870718 0 0.047192840126712543 -0.022729652562312918 0 0.047140133793248447 -0.023619804171990846 0 0.047192840126712543 -0.022729652562312918 0 0.047140133793248447 -0.023619804171990846 0 0.047727169673359209 -0.024072955126688202 0 0.047192840126712543 -0.022729652562312918 0 0.047727169673359209 -0.024072955126688202 0 0.047754378119844641 -0.022936003776013823 0 0.047917763465809601 -0.025848350391308481 0 0.047573741268980688 -0.02596982358127858 0 0.04828402225170144 -0.02749056525808893 0 0.048164541924465822 -0.026555393048012191 0 0.047483280524107628 -0.027635454154425688 0 0.04828402225170144 -0.02749056525808893 0 0.048220652331579399 -0.025732030659739277 0 0.048164541924465822 -0.026555393048012191 0 0.047727169673359209 -0.024072955126688202 0 0.047818940625037484 -0.025406449854370062 0 0.048220652331579399 -0.025732030659739277 0 0.047917763465809601 -0.025848350391308481 0 0.048052497359388109 -0.025833777177828435 0 0.047140133793248447 -0.023619804171990846 0 0.047727169673359209 -0.024072955126688202 0 0.047818940625037484 -0.025406449854370062 0 0.048565342668911458 -0.025471012570588224 0 0.048582011457772446 -0.026426516316552545 0 0.049526786815378192 -0.025320047064912587 0 0.047818940625037484 -0.025406449854370062 0 0.048565342668911458 -0.025471012570588224 0 0.048220652331579399 -0.025732030659739277 0 0.049538488550946488 -0.020781370254908525 0 0.050455082626563369 -0.022406426333870074 0 0.047818940625037484 -0.025406449854370062 0 0.048565342668911458 -0.025471012570588224 0 0.048582011457772446 -0.026426516316552545 0 0.048325979051637817 -0.02578113370232793 0 0.049538488550946488 -0.020781370254908525 0 0.046171329741292573 -0.022071178523870718 0 0.047140133793248447 -0.023619804171990846 0 0.046232966018727312 -0.024041577712446069 0 0.047140133793248447 -0.023619804171990846 0 0.047818940625037484 -0.025406449854370062 0 0.046232966018727312 -0.024041577712446069 0 0.050968051954975613 -0.015606941197247988 0 0.051933842912412841 -0.01693399512044088 0 0.049999942356399249 -0.016661882903069383 0 0.051933842912412841 -0.01693399512044088 0 0.049999942356399249 -0.016661882903069383 0 0.050855402889745896 -0.017878735068202832 0 0.050583588374976236 -0.015227738717321174 0 0.049538488550946488 -0.020781370254908525 0 0.051933842912412841 -0.01693399512044088 0 0.050855402889745896 -0.017878735068202832 0 0.05129446387978559 -0.019272169062735902 0 0.049999942356399249 -0.016661882903069383 0 0.050855402889745896 -0.017878735068202832 0 0.050000146982525979 -0.019030612684695504 0 0.050855402889745896 -0.017878735068202832 0 0.050000146982525979 -0.019030612684695504 0 0.05129446387978559 -0.019272169062735902 0 0.050000146982525979 -0.019030612684695504 0 0.05129446387978559 -0.019272169062735902 0 0.049999413523432207 -0.021404535704895974 0 0.048565342668911458 -0.025471012570588224 0 0.048220652331579399 -0.025732030659739277 0 0.048683474652033369 -0.02521858350877227 0 0.048565342668911458 -0.025471012570588224 0 0.049526786815378192 -0.025320047064912587 0 0.048683474652033369 -0.02521858350877227 0 0.049526786815378192 -0.025320047064912587 0 0.048683474652033369 -0.02521858350877227 0 0.049153032134466111 -0.024164228729467437 0 0.049526786815378192 -0.025320047064912587 0 0.049153032134466111 -0.024164228729467437 0 0.04973066624844534 -0.023600119299734261 0 0.048683474652033369 -0.02521858350877227 0 0.049153032134466111 -0.024164228729467437 0 0.048344553638093368 -0.025381199976207202 0 0.048220652331579399 -0.025732030659739277 0 0.048683474652033369 -0.02521858350877227 0 0.048344553638093368 -0.025381199976207202 0 0.049153032134466111 -0.024164228729467437 0 0.048482466787103315 -0.023936079713121627 0 0.048344553638093368 -0.025381199976207202 0 0.049153032134466111 -0.024164228729467437 0 0.049783241647083587 -0.023082241832188134 0 0.048482466787103315 -0.023936079713121627 0 0.049153032134466111 -0.024164228729467437 0 0.049783241647083587 -0.023082241832188134 0 0.04973066624844534 -0.023600119299734261 0 0.050455082626563369 -0.022406426333870074 0 0.050548657265935451 -0.02202420706987156 0 0.05129446387978559 -0.019272169062735902 0 0.049999413523432207 -0.021404535704895974 0 0.050572860470918107 -0.022060718266677243 0 0.049526786815378192 -0.025320047064912587 0 0.04973066624844534 -0.023600119299734261 0 0.050572860470918107 -0.022060718266677243 0 0.049783241647083587 -0.023082241832188134 0 0.04973066624844534 -0.023600119299734261 0 0.050572860470918107 -0.022060718266677243 0 0.049996662914813896 -0.02420194146819445 0 0.049999712008160405 -0.023771469936136061 0 0.049999413523432207 -0.021404535704895974 0 0.050572860470918107 -0.022060718266677243 0 0.050000061405972018 -0.023768490658587584 0 0.050572860470918107 -0.022060718266677243 0 0.050195690858397854 -0.022597400710137477 0 0.050000061405972018 -0.023768490658587584 0 0.049783241647083587 -0.023082241832188134 0 0.050572860470918107 -0.022060718266677243 0 0.050195690858397854 -0.022597400710137477 0 0.049996662914813896 -0.02420194146819445 0 0.049076114503980243 -0.02520921526537228 0 0.049783241647083587 -0.023082241832188134 0 0.050195690858397854 -0.022597400710137477 0 0.048482466787103315 -0.023936079713121627 0 0.050157497036878142 -0.025611843763359524 0 0.04980940458762427 -0.026066858235946053 0 0.049412993986052603 -0.026502059141952063 0 0.050359818069199903 -0.025649677162990565 0 0.049914345224304123 -0.02624428870897608 0 0.04980940458762427 -0.026066858235946053 0 0.050157497036878142 -0.025611843763359524 0 0.050359818069199903 -0.025649677162990565 0 0.04980940458762427 -0.026066858235946053 0 0.050157497036878142 -0.025611843763359524 0 0.050359818069199903 -0.025649677162990565 0 0.049999633283480151 -0.023777042196626963 0 0.048770688772319042 -0.026899475118887729 0 0.049320256633156062 -0.026632564538451788 0 0.048856882800345315 -0.026629836930760997 0 0.049320256633156062 -0.026632564538451788 0 0.049914345224304123 -0.02624428870897608 0 0.048856882800345315 -0.026629836930760997 0 0.049914345224304123 -0.02624428870897608 0 0.04980940458762427 -0.026066858235946053 0 0.048856882800345315 -0.026629836930760997 0 0.04980940458762427 -0.026066858235946053 0 0.048856882800345315 -0.026629836930760997 0 0.049412993986052603 -0.026502059141952063 0 0.048856882800345315 -0.026629836930760997 0 0.048293466128408652 -0.02639035000946717 0 0.049412993986052603 -0.026502059141952063 0 0.048856882800345315 -0.026629836930760997 0 0.048293466128408652 -0.02639035000946717 0 0.047874224031059842 -0.02704791077104687 0 0.048445336913706512 -0.026081991359531861 0 0.049076114503980243 -0.02520921526537228 0 0.048293466128408652 -0.02639035000946717 0 0.048482466787103315 -0.023936079713121627 0 0.048344553638093368 -0.025381199976207202 0 0.048220652331579399 -0.025732030659739277 0 0.048344553638093368 -0.025381199976207202 0 0.048164541924465822 -0.026555393048012191 0 0.048293466128408652 -0.02639035000946717 0 0.048344553638093368 -0.025381199976207202 0 0.048164541924465822 -0.026555393048012191 0 0.048293466128408652 -0.02639035000946717 0 0.048164541924465822 -0.026555393048012191 0 0.047825074571222162 -0.027008426772179975 0 0.047825074571222162 -0.027008426772179975 0 0.047105702624126104 -0.027584910215119707 0 0.047483280524107628 -0.027635454154425688 0 0.048164541924465822 -0.026555393048012191 0 0.047825074571222162 -0.027008426772179975 0 0.047483280524107628 -0.027635454154425688 0 0.047105702624126104 -0.027584910215119707 0 0.046431885231611819 -0.027984200456572843 0 0.046587216604062766 -0.028076308337197493 0 0.047105702624126104 -0.027584910215119707 0 0.047052756090218285 -0.027508467881210221 0 0.046431885231611819 -0.027984200456572843 0 0.047105702624126104 -0.027584910215119707 0 0.046587216604062766 -0.028076308337197493 0 0.047483280524107628 -0.027635454154425688 0 0.047105702624126104 -0.027584910215119707 0 0.047874224031059842 -0.02704791077104687 0 0.047052756090218285 -0.027508467881210221 0 0.047874224031059842 -0.02704791077104687 0 0.047569711967613823 -0.027189479488988567 0 0.047052756090218285 -0.027508467881210221 0 0.048293466128408652 -0.02639035000946717 0 0.047825074571222162 -0.027008426772179975 0 0.047874224031059842 -0.02704791077104687 0 0.047825074571222162 -0.027008426772179975 0 0.047105702624126104 -0.027584910215119707 0 0.047874224031059842 -0.02704791077104687 0 0.048856882800345315 -0.026629836930760997 0 0.047874224031059842 -0.02704791077104687 0 0.048235628033282157 -0.02693703813489446 0 0.047874224031059842 -0.02704791077104687 0 0.048235628033282157 -0.02693703813489446 0 0.047569711967613823 -0.027189479488988567 0 0.048235628033282157 -0.02693703813489446 0 0.047569711967613823 -0.027189479488988567 0 0.04810881418212435 -0.026979000179279535 0 0.047772880050045041 -0.026946110551198926 0 0.04810881418212435 -0.026979000179279535 0 0.047246447179015855 -0.027140685655225972 0 0.047569711967613823 -0.027189479488988567 0 0.04810881418212435 -0.026979000179279535 0 0.047246447179015855 -0.027140685655225972 0 0.048770688772319042 -0.026899475118887729 0 0.048856882800345315 -0.026629836930760997 0 0.048235628033282157 -0.02693703813489446 0 0.048770688772319042 -0.026899475118887729 0 0.048235628033282157 -0.02693703813489446 0 0.04810881418212435 -0.026979000179279535 0 0.046945776687112029 -0.026816198677274403 0 0.046083188642310688 -0.027430554073968452 0 0.047246447179015855 -0.027140685655225972 0 0.046945776687112029 -0.026816198677274403 0 0.046083188642310688 -0.027430554073968452 0 0.045249804231096091 -0.026965823578764429 0 0.046945776687112029 -0.026816198677274403 0 0.047772880050045041 -0.026946110551198926 0 0.047246447179015855 -0.027140685655225972 0 0.047569711967613823 -0.027189479488988567 0 0.047246447179015855 -0.027140685655225972 0 0.04676363165743555 -0.027473611358881236 0 0.047569711967613823 -0.027189479488988567 0 0.04676363165743555 -0.027473611358881236 0 0.047052756090218285 -0.027508467881210221 0 0.046083188642310688 -0.027430554073968452 0 0.047246447179015855 -0.027140685655225972 0 0.04676363165743555 -0.027473611358881236 0 0.046083188642310688 -0.027430554073968452 0 0.04676363165743555 -0.027473611358881236 0 0.046063638794503842 -0.027986514375457499 0 0.046083188642310688 -0.027430554073968452 0 0.046063638794503842 -0.027986514375457499 0 0.045114277371963836 -0.028306059367815304 0 0.046063638794503842 -0.027986514375457499 0 0.045772018016955733 -0.028434394741425749 0 0.045114277371963836 -0.028306059367815304 0 0.04676363165743555 -0.027473611358881236 0 0.046063638794503842 -0.027986514375457499 0 0.047052756090218285 -0.027508467881210221 0 0.046063638794503842 -0.027986514375457499 0 0.047052756090218285 -0.027508467881210221 0 0.046431885231611819 -0.027984200456572843 0 0.046431885231611819 -0.027984200456572843 0 0.045772018016955733 -0.028434394741425749 0 0.046056967825748314 -0.028311851156083926 0 0.046431885231611819 -0.027984200456572843 0 0.046056967825748314 -0.028311851156083926 0 0.046587216604062766 -0.028076308337197493 0 0.046063638794503842 -0.027986514375457499 0 0.046431885231611819 -0.027984200456572843 0 0.045772018016955733 -0.028434394741425749 0 0.045638776573790937 -0.028577942337603433 0 0.045213652405438905 -0.028946432255648257 0 0.045429720132568484 -0.028749686044421803 0 0.045214122811000922 -0.029003351385580294 0 0.044694956863040307 -0.02889035324432742 0 0.045772018016955733 -0.028434394741425749 0 0.045638776573790937 -0.028577942337603433 0 0.045429720132568484 -0.028749686044421803 0 0.045772018016955733 -0.028434394741425749 0 0.045638776573790937 -0.028577942337603433 0 0.046056967825748314 -0.028311851156083926 0 0.04444214865186473 -0.029200602758258604 0 0.045213652405438905 -0.028946432255648257 0 0.043940300198411553 -0.028947107673244116 0 0.04444214865186473 -0.029200602758258604 0 0.044030212260991207 -0.029320519416513275 0 0.043940300198411553 -0.028947107673244116 0 0.044766944874505672 -0.02940780166328907 0 0.04444214865186473 -0.029200602758258604 0 0.045213652405438905 -0.028946432255648257 0 0.044766944874505672 -0.02940780166328907 0 0.04444214865186473 -0.029200602758258604 0 0.044264879343480307 -0.029348711883248987 0 0.04444214865186473 -0.029200602758258604 0 0.044264879343480307 -0.029348711883248987 0 0.044030212260991207 -0.029320519416513275 0 0.044766944874505672 -0.02940780166328907 0 0.046037689503851918 -0.029264579927818613 0 0.045213652405438905 -0.028946432255648257 0 0.046037689503851918 -0.029264579927818613 0 0.045213652405438905 -0.028946432255648257 0 0.046001408064889997 -0.028542749454786565 0 0.045638776573790937 -0.028577942337603433 0 0.046001408064889997 -0.028542749454786565 0 0.046056967825748314 -0.028311851156083926 0 0.045638776573790937 -0.028577942337603433 0 0.045213652405438905 -0.028946432255648257 0 0.046001408064889997 -0.028542749454786565 0 0.046001408064889997 -0.028542749454786565 0 0.046056967825748314 -0.028311851156083926 0 0.046587216604062766 -0.028076308337197493 0 0.046587216604062766 -0.028076308337197493 0 0.047483280524107628 -0.027635454154425688 0 0.046748181919154135 -0.028422474980557631 0 0.046001408064889997 -0.028542749454786565 0 0.046587216604062766 -0.028076308337197493 0 0.046748181919154135 -0.028422474980557631 0 0.04828402225170144 -0.02749056525808893 0 0.047483280524107628 -0.027635454154425688 0 0.047611199497157163 -0.028856072415991849 0 0.047483280524107628 -0.027635454154425688 0 0.047611199497157163 -0.028856072415991849 0 0.046748181919154135 -0.028422474980557631 0 0.046037689503851918 -0.029264579927818613 0 0.047611199497157163 -0.028856072415991849 0 0.046748181919154135 -0.028422474980557631 0 0.046037689503851918 -0.029264579927818613 0 0.046001408064889997 -0.028542749454786565 0 0.046748181919154135 -0.028422474980557631 0 0.046037689503851918 -0.029264579927818613 0 0.047611199497157163 -0.028856072415991849 0 0.046466232483685338 -0.030073643151628075 0 0.047573741268980688 -0.02596982358127858 0 0.047507850118666754 -0.025970792479077347 0 0.046972988832107272 -0.021703465997940961 0 0.047754378119844641 -0.022936003776013823 0 0.047504232558924525 -0.021671899927602128 0 0.047754378119844641 -0.022936003776013823 0 0.04799856600228853 -0.022128930841951069 0 0.047504232558924525 -0.021671899927602128 0 0.046972988832107272 -0.021703465997940961 0 0.047504232558924525 -0.021671899927602128 0 0.046976934352971463 -0.021011510847683903 0 0.047504232558924525 -0.021671899927602128 0 0.047990534041493171 -0.02140090843883246 0 0.047486159895519305 -0.020612671725485036 0 0.04799856600228853 -0.022128930841951069 0 0.047504232558924525 -0.021671899927602128 0 0.047990534041493171 -0.02140090843883246 0 0.047990534041493171 -0.02140090843883246 0 0.048730617209629949 -0.021458540408180762 0 0.048177391859397657 -0.020872939013542847 0 0.047507850118666754 -0.025970792479077347 0 0.045389143437064114 -0.026747728439295192 0 0.04799856600228853 -0.022128930841951069 0 0.047990534041493171 -0.02140090843883246 0 0.048730617209629949 -0.021458540408180762 0 0.043344472546897522 -0.028214662918968667 0 0.043953894021911327 -0.028444378346973834 0 0.04381552712548549 -0.028947234514106288 0 0.04330154593253796 -0.028677260628821175 0 0.043344472546897522 -0.028214662918968667 0 0.04381552712548549 -0.028947234514106288 0 0.041883761771954665 -0.029170035168998434 0 0.043344472546897522 -0.028214662918968667 0 0.043253722508301971 -0.02585862694117819 0 0.043344472546897522 -0.028214662918968667 0 0.043953894021911327 -0.028444378346973834 0 0.043958152998520468 -0.027379501876648657 0 0.045389143437064114 -0.026747728439295192 0 0.043421591592075287 -0.028210437041274714 0 0.043953894021911327 -0.028444378346973834 0 0.044196492666191481 -0.028625059148143655 0 0.043958152998520468 -0.027379501876648657 0 0.043953894021911327 -0.028444378346973834 0 0.044057418694629702 -0.028877281481754561 0 0.04381552712548549 -0.028947234514106288 0 0.044057418694629702 -0.028877281481754561 0 0.04381552712548549 -0.028947234514106288 0 0.044082354693095745 -0.029226465764851082 0 0.044766944874505672 -0.02940780166328907 0 0.04381552712548549 -0.028947234514106288 0 0.044082354693095745 -0.029226465764851082 0 0.044766944874505672 -0.02940780166328907 0 0.04330154593253796 -0.028677260628821175 0 0.04381552712548549 -0.028947234514106288 0 0.044082354693095745 -0.029226465764851082 0 0.044264879343480307 -0.029348711883248987 0 0.044078940526658235 -0.029377314260464929 0 0.044766944874505672 -0.02940780166328907 0 0.044082354693095745 -0.029226465764851082 0 0.044264879343480307 -0.029348711883248987 0 0.044766944874505672 -0.02940780166328907 0 0.046037689503851918 -0.029264579927818613 0 0.045601181985627647 -0.029988404456823631 0 0.046466232483685338 -0.030073643151628075 0 0.045107368458261979 -0.031143118201877085 0 0.045601181985627647 -0.029988404456823631 0 0.044766944874505672 -0.02940780166328907 0 0.045107368458261979 -0.031143118201877085 0 0.045601181985627647 -0.029988404456823631 0 0.044444061253737871 -0.030627229032954135 0 0.045389143437064114 -0.026747728439295192 0 0.046037689503851918 -0.029264579927818613 0 0.046466232483685338 -0.030073643151628075 0 0.045601181985627647 -0.029988404456823631 0 0.043832254918312656 -0.029500351143102444 0 0.044048837951474268 -0.02956279992664609 0 0.043088149609436452 -0.029902486004850525 0 0.043832254918312656 -0.029500351143102444 0 0.043088149609436452 -0.029902486004850525 0 0.043145854364572661 -0.029603367333214229 0 0.043832254918312656 -0.029500351143102444 0 0.044078940526658235 -0.029377314260464929 0 0.044115121359721461 -0.029249075544245263 0 0.043832254918312656 -0.029500351143102444 0 0.044078940526658235 -0.029377314260464929 0 0.044030212260991207 -0.029320519416513275 0 0.044082354693095745 -0.029226465764851082 0 0.044078940526658235 -0.029377314260464929 0 0.044115121359721461 -0.029249075544245263 0 0.043832254918312656 -0.029500351143102444 0 0.044115121359721461 -0.029249075544245263 0 0.044048837951474268 -0.02956279992664609 0 0.044115121359721461 -0.029249075544245263 0 0.044196492666191481 -0.028625059148143655 0 0.044048837951474268 -0.02956279992664609 0 0.044057418694629702 -0.028877281481754561 0 0.044115121359721461 -0.029249075544245263 0 0.044196492666191481 -0.028625059148143655 0 0.044057418694629702 -0.028877281481754561 0 0.044082354693095745 -0.029226465764851082 0 0.044115121359721461 -0.029249075544245263 0 0.043953894021911327 -0.028444378346973834 0 0.044057418694629702 -0.028877281481754561 0 0.044196492666191481 -0.028625059148143655 0 0.044048837951474268 -0.02956279992664609 0 0.043088149609436452 -0.029902486004850525 0 0.043338324647448294 -0.030572564499952073 0 0.04415985301938416 -0.029299227577239247 0 0.043744022021590008 -0.030170282579170728 0 0.044196492666191481 -0.028625059148143655 0 0.044048837951474268 -0.02956279992664609 0 0.044741668246181088 -0.028492647937186977 0 0.042215714119417561 -0.030355164814203243 0 0.043088149609436452 -0.029902486004850525 0 0.042588644398477489 -0.030564806870916748 0 0.043088149609436452 -0.029902486004850525 0 0.042588644398477489 -0.030564806870916748 0 0.043338324647448294 -0.030572564499952073 0 0.042215714119417561 -0.030355164814203243 0 0.041967543463289389 -0.030561323603936388 0 0.042193152197577716 -0.030632026960862768 0 0.042215714119417561 -0.030355164814203243 0 0.042193152197577716 -0.030632026960862768 0 0.042588644398477489 -0.030564806870916748 0 0.042215714119417561 -0.030355164814203243 0 0.042586937683418577 -0.029939709339864926 0 0.041908747002821781 -0.03025545184639325 0 0.042215714119417561 -0.030355164814203243 0 0.042586937683418577 -0.029939709339864926 0 0.043088149609436452 -0.029902486004850525 0 0.042586937683418577 -0.029939709339864926 0 0.043088149609436452 -0.029902486004850525 0 0.043145854364572661 -0.029603367333214229 0 0.042586937683418577 -0.029939709339864926 0 0.04240879330235333 -0.029766470529031638 0 0.043145854364572661 -0.029603367333214229 0 0.04240879330235333 -0.029766470529031638 0 0.041388227792092065 -0.030168008534786701 0 0.041908747002821781 -0.03025545184639325 0 0.042586937683418577 -0.029939709339864926 0 0.04240879330235333 -0.029766470529031638 0 0.041908747002821781 -0.03025545184639325 0 0.04240879330235333 -0.029766470529031638 0 0.041783773821490865 -0.029655315700546966 0 0.041388227792092065 -0.030168008534786701 0 0.04240879330235333 -0.029766470529031638 0 0.042774762707153399 -0.029338121395464409 0 0.041783773821490865 -0.029655315700546966 0 0.04240879330235333 -0.029766470529031638 0 0.04319961355836243 -0.029316241720096285 0 0.042774762707153399 -0.029338121395464409 0 0.04240879330235333 -0.029766470529031638 0 0.04319961355836243 -0.029316241720096285 0 0.043145854364572661 -0.029603367333214229 0 0.04319961355836243 -0.029316241720096285 0 0.043940300198411553 -0.028947107673244116 0 0.043320344959844909 -0.029038341633695515 0 0.04319961355836243 -0.029316241720096285 0 0.043640370431673771 -0.029341846497231323 0 0.043145854364572661 -0.029603367333214229 0 0.043832254918312656 -0.029500351143102444 0 0.043640370431673771 -0.029341846497231323 0 0.043145854364572661 -0.029603367333214229 0 0.043640370431673771 -0.029341846497231323 0 0.044030212260991207 -0.029320519416513275 0 0.043940300198411553 -0.028947107673244116 0 0.044264879343480307 -0.029348711883248987 0 0.044078940526658235 -0.029377314260464929 0 0.044030212260991207 -0.029320519416513275 0 0.043832254918312656 -0.029500351143102444 0 0.043640370431673771 -0.029341846497231323 0 0.044030212260991207 -0.029320519416513275 0 0.04319961355836243 -0.029316241720096285 0 0.043640370431673771 -0.029341846497231323 0 0.043940300198411553 -0.028947107673244116 0 0.045772018016955733 -0.028434394741425749 0 0.045429720132568484 -0.028749686044421803 0 0.04457760045677539 -0.028981139267617837 0 0.045772018016955733 -0.028434394741425749 0 0.04457760045677539 -0.028981139267617837 0 0.045114277371963836 -0.028306059367815304 0 0.044694956863040307 -0.02889035324432742 0 0.043899571903770133 -0.028976314077632525 0 0.04319961355836243 -0.029316241720096285 0 0.043320344959844909 -0.029038341633695515 0 0.042774762707153399 -0.029338121395464409 0 0.04457760045677539 -0.028981139267617837 0 0.045114277371963836 -0.028306059367815304 0 0.04292570952496267 -0.028891383384618378 0 0.046083188642310688 -0.027430554073968452 0 0.045114277371963836 -0.028306059367815304 0 0.044421025999018975 -0.027724034167671198 0 0.045114277371963836 -0.028306059367815304 0 0.044421025999018975 -0.027724034167671198 0 0.04292570952496267 -0.028891383384618378 0 0.043570917985270685 -0.026379511639690979 0 0.044421025999018975 -0.027724034167671198 0 0.045249804231096091 -0.026965823578764429 0 0.046083188642310688 -0.027430554073968452 0 0.044421025999018975 -0.027724034167671198 0 0.045249804231096091 -0.026965823578764429 0 0.041726877179737006 -0.027198893142154189 0 0.041997714709979123 -0.028400815778555209 0 0.040730590832751504 -0.028831778658910314 0 0.041726877179737006 -0.027198893142154189 0 0.043085809689822174 -0.027650914256987701 0 0.041997714709979123 -0.028400815778555209 0 0.043570917985270685 -0.026379511639690979 0 0.044421025999018975 -0.027724034167671198 0 0.043085809689822174 -0.027650914256987701 0 0.044421025999018975 -0.027724034167671198 0 0.043085809689822174 -0.027650914256987701 0 0.04292570952496267 -0.028891383384618378 0 0.043085809689822174 -0.027650914256987701 0 0.041997714709979123 -0.028400815778555209 0 0.04292570952496267 -0.028891383384618378 0 0.041997714709979123 -0.028400815778555209 0 0.04292570952496267 -0.028891383384618378 0 0.04119359603519758 -0.029266634282850628 0 0.04292570952496267 -0.028891383384618378 0 0.041783773821490865 -0.029655315700546966 0 0.04119359603519758 -0.029266634282850628 0 0.043899571903770133 -0.028976314077632525 0 0.043004147333380136 -0.028817404229745741 0 0.043320344959844909 -0.029038341633695515 0 0.04292570952496267 -0.028891383384618378 0 0.042774762707153399 -0.029338121395464409 0 0.04292570952496267 -0.028891383384618378 0 0.042774762707153399 -0.029338121395464409 0 0.041783773821490865 -0.029655315700546966 0 0.041783773821490865 -0.029655315700546966 0 0.040783675221982285 -0.029865095053098378 0 0.04119359603519758 -0.029266634282850628 0 0.040783675221982285 -0.029865095053098378 0 0.040490862026380539 -0.029577112449928285 0 0.039883097057376179 -0.029825462324198925 0 0.040783675221982285 -0.029865095053098378 0 0.039883097057376179 -0.029825462324198925 0 0.040079549800329087 -0.030171351460023331 0 0.040490862026380539 -0.029577112449928285 0 0.040126243029012146 -0.029353752085830256 0 0.039883097057376179 -0.029825462324198925 0 0.040783675221982285 -0.029865095053098378 0 0.040490862026380539 -0.029577112449928285 0 0.04119359603519758 -0.029266634282850628 0 0.040490862026380539 -0.029577112449928285 0 0.04119359603519758 -0.029266634282850628 0 0.040126243029012146 -0.029353752085830256 0 0.041997714709979123 -0.028400815778555209 0 0.04119359603519758 -0.029266634282850628 0 0.040730590832751504 -0.028831778658910314 0 0.04119359603519758 -0.029266634282850628 0 0.040730590832751504 -0.028831778658910314 0 0.040126243029012146 -0.029353752085830256 0 0.040730590832751504 -0.028831778658910314 0 0.040126243029012146 -0.029353752085830256 0 0.039728893385317758 -0.029193764097278661 0 0.039457109241072368 -0.029249680623226929 0 0.039990852366799147 -0.028793841987017212 0 0.039728893385317758 -0.029193764097278661 0 0.040730590832751504 -0.028831778658910314 0 0.039990852366799147 -0.028793841987017212 0 0.039728893385317758 -0.029193764097278661 0 0.041726877179737006 -0.027198893142154189 0 0.040730590832751504 -0.028831778658910314 0 0.039990852366799147 -0.028793841987017212 0 0.039457109241072368 -0.029249680623226929 0 0.038869558592236182 -0.02956952854141286 0 0.039728893385317758 -0.029193764097278661 0 0.040126243029012146 -0.029353752085830256 0 0.039728893385317758 -0.029193764097278661 0 0.039339895187569279 -0.029594338305454725 0 0.038869558592236182 -0.02956952854141286 0 0.039728893385317758 -0.029193764097278661 0 0.039339895187569279 -0.029594338305454725 0 0.038869558592236182 -0.02956952854141286 0 0.038561255368942261 -0.029821459550074852 0 0.038216785897000484 -0.029813203675772941 0 0.038869558592236182 -0.02956952854141286 0 0.039339895187569279 -0.029594338305454725 0 0.038561255368942261 -0.029821459550074852 0 0.039339895187569279 -0.029594338305454725 0 0.038561255368942261 -0.029821459550074852 0 0.039088511672585764 -0.029928202710466076 0 0.040126243029012146 -0.029353752085830256 0 0.039339895187569279 -0.029594338305454725 0 0.039883097057376179 -0.029825462324198925 0 0.039339895187569279 -0.029594338305454725 0 0.039088511672585764 -0.029928202710466076 0 0.039883097057376179 -0.029825462324198925 0 0.039088511672585764 -0.029928202710466076 0 0.039883097057376179 -0.029825462324198925 0 0.039303155084193311 -0.030187497045005264 0 0.039883097057376179 -0.029825462324198925 0 0.039303155084193311 -0.030187497045005264 0 0.040079549800329087 -0.030171351460023331 0 0.039088511672585764 -0.029928202710466076 0 0.039303155084193311 -0.030187497045005264 0 0.038647041840173674 -0.030192797308003796 0 0.039303155084193311 -0.030187497045005264 0 0.038865608043660349 -0.030482954339450304 0 0.038647041840173674 -0.030192797308003796 0 0.039303155084193311 -0.030187497045005264 0 0.038865608043660349 -0.030482954339450304 0 0.039546916871745129 -0.030521168339150546 0 0.039546916871745129 -0.030521168339150546 0 0.039143935035534941 -0.030845234905111023 0 0.039779214745123512 -0.030771860216689539 0 0.038865608043660349 -0.030482954339450304 0 0.039546916871745129 -0.030521168339150546 0 0.039143935035534941 -0.030845234905111023 0 0.039143935035534941 -0.030845234905111023 0 0.039517322031030082 -0.03096066151362914 0 0.039111332758237714 -0.031128595807283454 0 0.039365069861839894 -0.030987696115609076 0 0.040918550629768027 -0.030822693602080592 0 0.039151507384911015 -0.031033574641438848 0 0.039365069861839894 -0.030987696115609076 0 0.039517322031030082 -0.03096066151362914 0 0.039111332758237714 -0.031128595807283454 0 0.040054656886520539 -0.031134843926044084 0 0.039143935035534941 -0.030845234905111023 0 0.039517322031030082 -0.03096066151362914 0 0.039779214745123512 -0.030771860216689539 0 0.040189608581467674 -0.030726471254358879 0 0.040754621404834615 -0.030566661628765982 0 0.040054656886520539 -0.031134843926044084 0 0.039517322031030082 -0.03096066151362914 0 0.039779214745123512 -0.030771860216689539 0 0.040054656886520539 -0.031134843926044084 0 0.039779214745123512 -0.030771860216689539 0 0.040189608581467674 -0.030726471254358879 0 0.040054656886520539 -0.031134843926044084 0 0.039779214745123512 -0.030771860216689539 0 0.040189608581467674 -0.030726471254358879 0 0.040172290896410029 -0.030487999542924638 0 0.040189608581467674 -0.030726471254358879 0 0.040172290896410029 -0.030487999542924638 0 0.040754621404834615 -0.030566661628765982 0 0.039546916871745129 -0.030521168339150546 0 0.039779214745123512 -0.030771860216689539 0 0.040172290896410029 -0.030487999542924638 0 0.039546916871745129 -0.030521168339150546 0 0.040172290896410029 -0.030487999542924638 0 0.040079549800329087 -0.030171351460023331 0 0.039303155084193311 -0.030187497045005264 0 0.039546916871745129 -0.030521168339150546 0 0.040079549800329087 -0.030171351460023331 0 0.040172290896410029 -0.030487999542924638 0 0.040079549800329087 -0.030171351460023331 0 0.04064490799142776 -0.030254933445582888 0 0.040783675221982285 -0.029865095053098378 0 0.040079549800329087 -0.030171351460023331 0 0.04064490799142776 -0.030254933445582888 0 0.040783675221982285 -0.029865095053098378 0 0.04064490799142776 -0.030254933445582888 0 0.041388227792092065 -0.030168008534786701 0 0.040172290896410029 -0.030487999542924638 0 0.04064490799142776 -0.030254933445582888 0 0.040754621404834615 -0.030566661628765982 0 0.041783773821490865 -0.029655315700546966 0 0.040783675221982285 -0.029865095053098378 0 0.041388227792092065 -0.030168008534786701 0 0.041388227792092065 -0.030168008534786701 0 0.041335825549124898 -0.030633227507566918 0 0.041908747002821781 -0.03025545184639325 0 0.041388227792092065 -0.030168008534786701 0 0.040754621404834615 -0.030566661628765982 0 0.041335825549124898 -0.030633227507566918 0 0.04064490799142776 -0.030254933445582888 0 0.041388227792092065 -0.030168008534786701 0 0.040754621404834615 -0.030566661628765982 0 0.040754621404834615 -0.030566661628765982 0 0.041335825549124898 -0.030633227507566918 0 0.040054656886520539 -0.031134843926044084 0 0.042215714119417561 -0.030355164814203243 0 0.041908747002821781 -0.03025545184639325 0 0.041695591497556847 -0.030534458599457238 0 0.041335825549124898 -0.030633227507566918 0 0.041908747002821781 -0.03025545184639325 0 0.041695591497556847 -0.030534458599457238 0 0.041695591497556847 -0.030534458599457238 0 0.041967543463289389 -0.030561323603936388 0 0.041893730245644363 -0.030650943192458594 0 0.042215714119417561 -0.030355164814203243 0 0.041695591497556847 -0.030534458599457238 0 0.041967543463289389 -0.030561323603936388 0 0.041695591497556847 -0.030534458599457238 0 0.0415148509042036 -0.030507735110503677 0 0.041655435330522281 -0.030590792181472357 0 0.041335825549124898 -0.030633227507566918 0 0.0415148509042036 -0.030507735110503677 0 0.041464038230413412 -0.030542404864290461 0 0.041335825549124898 -0.030633227507566918 0 0.041695591497556847 -0.030534458599457238 0 0.0415148509042036 -0.030507735110503677 0 0.0415148509042036 -0.030507735110503677 0 0.041481609744759985 -0.030489994765326593 0 0.041475984510760323 -0.030446554119205965 0 0.0415148509042036 -0.030507735110503677 0 0.041481609744759985 -0.030489994765326593 0 0.041464038230413412 -0.030542404864290461 0 0.045129715788388126 -0.017249993828816462 0 0.044456067044068445 -0.01872467847462865 0 0.041493466909361593 -0.030459717013586639 0 0.041475984510760323 -0.030446554119205965 0 0.041530024256097239 -0.030394564449249033 0 0.041481609744759985 -0.030489994765326593 0 0.041493466909361593 -0.030459717013586639 0 0.041475984510760323 -0.030446554119205965 0 0.041481609744759985 -0.030489994765326593 0 0.041493466909361593 -0.030459717013586639 0 0.041470403994292353 -0.030543432312991274 0 0.041900471909813913 -0.030610723779856987 0 0.040178456241759704 -0.029653034288309201 0 0.041400058468855451 -0.03050358363981617 0 0.041420189047589727 -0.030543238770941193 0 0.041477561154884539 -0.030558666951454885 0 0.041420189047589727 -0.030543238770941193 0 0.041477561154884539 -0.030558666951454885 0 0.041470403994292353 -0.030543432312991274 0 0.041493466909361593 -0.030459717013586639 0 0.041470403994292353 -0.030543432312991274 0 0.041523613912475256 -0.03044634378023078 0 0.041420189047589727 -0.030543238770941193 0 0.041470403994292353 -0.030543432312991274 0 0.041376993424743089 -0.030572211966338879 0 0.041335825549124898 -0.030633227507566918 0 0.041477561154884539 -0.030558666951454885 0 0.041464038230413412 -0.030542404864290461 0 0.041149520506192284 -0.030681610420718437 0 0.040918550629768027 -0.030822693602080592 0 0.041481609744759985 -0.030489994765326593 0 0.041464038230413412 -0.030542404864290461 0 0.041470403994292353 -0.030543432312991274 0 0.041477561154884539 -0.030558666951454885 0 0.041464038230413412 -0.030542404864290461 0 0.041470403994292353 -0.030543432312991274 0 0.048369162145409837 -0.0040361114998021894 0 0.048738015733865665 -0.0037515029427707862 0 0.048637368456711128 -0.0044352212312655627 0 0.048369162145409837 -0.0040361114998021894 0 0.048264991688115967 -0.0035491051932718281 0 0.048537674437785103 -0.0036876309007552784 0 0.048369162145409837 -0.0040361114998021894 0 0.048738015733865665 -0.0037515029427707862 0 0.048537674437785103 -0.0036876309007552784 0 0.048738015733865665 -0.0037515029427707862 0 0.048637368456711128 -0.0044352212312655627 0 0.048989852450087849 -0.0039558795206023241 0 0.048738015733865665 -0.0037515029427707862 0 0.048989852450087849 -0.0039558795206023241 0 0.049048540355517707 -0.0034313489429922523 0 0.0415148509042036 -0.030507735110503677 0 0.04154281568420732 -0.030596898116991209 0 0.041475984510760323 -0.030446554119205965 0 0.044988235437438073 -0.018203288760199859 0 0.045129715788388126 -0.017249993828816462 0 0.0415148509042036 -0.030507735110503677 0 0.04154281568420732 -0.030596898116991209 0 0.041655435330522281 -0.030590792181472357 0 0.041695591497556847 -0.030534458599457238 0 0.041655435330522281 -0.030590792181472357 0 0.041893730245644363 -0.030650943192458594 0 0.041655435330522281 -0.030590792181472357 0 0.041893730245644363 -0.030650943192458594 0 0.041765914460553784 -0.030691354558895684 0 0.041893730245644363 -0.030650943192458594 0 0.042024872435116552 -0.030783973562792718 0 0.041765914460553784 -0.030691354558895684 0 0.042024872435116552 -0.030783973562792718 0 0.041765914460553784 -0.030691354558895684 0 0.041817523348910618 -0.030828185532868483 0 0.044988235437438073 -0.018203288760199859 0 0.046881830686143322 -0.010102236889174937 0 0.04154281568420732 -0.030596898116991209 0 0.041655435330522281 -0.030590792181472357 0 0.041765914460553784 -0.030691354558895684 0 0.04154281568420732 -0.030596898116991209 0 0.041765914460553784 -0.030691354558895684 0 0.041817523348910618 -0.030828185532868483 0 0.048369162145409837 -0.0040361114998021894 0 0.048264991688115967 -0.0035491051932718281 0 0.047981927955773371 -0.0037713647461033329 0 0.049325301911894555 -0.003357973337816809 0 0.046881830686143322 -0.010102236889174937 0 0.049080158793154069 -0.0032429611123191105 0 0.049203827604524998 -0.0033772262435465858 0 0.049093265057934168 -0.0032698380027081689 0 0.049080158793154069 -0.0032429611123191105 0 0.049208297052300724 -0.0033909120646022279 0 0.049203827604524998 -0.0033772262435465858 0 0.049080158793154069 -0.0032429611123191105 0 0.049093265057934168 -0.0032698380027081689 0 0.048751620049022906 -0.0032599856375085277 0 0.049491674896576777 -0.0037631433078173311 0 0.049276808004247399 -0.0035656512625374137 0 0.049073519688283281 -0.0037372077602111447 0 0.046881830686143322 -0.010102236889174937 0 0.047627011951373165 -0.005645527623372437 0 0.049208297052300724 -0.0033909120646022279 0 0.049203827604524998 -0.0033772262435465858 0 0.049276808004247399 -0.0035656512625374137 0 0.049276808004247399 -0.0035656512625374137 0 0.049243715630836508 -0.0034388370919122861 0 0.049197541008757346 -0.0034675515436396074 0 0.049203827604524998 -0.0033772262435465858 0 0.049276808004247399 -0.0035656512625374137 0 0.049243715630836508 -0.0034388370919122861 0 0.049243715630836508 -0.0034388370919122861 0 0.049252043429620189 -0.003358200384144098 0 0.049197541008757346 -0.0034675515436396074 0 0.049203827604524998 -0.0033772262435465858 0 0.049243715630836508 -0.0034388370919122861 0 0.049252043429620189 -0.003358200384144098 0 0.049203827604524998 -0.0033772262435465858 0 0.049252043429620189 -0.003358200384144098 0 0.049093265057934168 -0.0032698380027081689 0 0.049252043429620189 -0.003358200384144098 0 0.049093265057934168 -0.0032698380027081689 0 0.049221676821917762 -0.0031810523962236669 0 0.049093265057934168 -0.0032698380027081689 0 0.048751620049022906 -0.0032599856375085277 0 0.048905045791623962 -0.0030701671668478011 0 0.048751620049022906 -0.0032599856375085277 0 0.048829198273382973 -0.00315230433339288 0 0.048905045791623962 -0.0030701671668478011 0 0.048738015733865665 -0.0037515029427707862 0 0.048751620049022906 -0.0032599856375085277 0 0.048537674437785103 -0.0036876309007552784 0 0.048264991688115967 -0.0035491051932718281 0 0.048751620049022906 -0.0032599856375085277 0 0.048537674437785103 -0.0036876309007552784 0 0.049325301911894555 -0.003357973337816809 0 0.048580021028746569 -0.0033824730103979303 0 0.048738015733865665 -0.0037515029427707862 0 0.048853968923771598 -0.0032683487082869364 0 0.049048540355517707 -0.0034313489429922523 0 0.048738015733865665 -0.0037515029427707862 0 0.048751620049022906 -0.0032599856375085277 0 0.048853968923771598 -0.0032683487082869364 0 0.048853968923771598 -0.0032683487082869364 0 0.048829198273382973 -0.00315230433339288 0 0.048814097213964708 -0.0030740063728977455 0 0.048829198273382973 -0.00315230433339288 0 0.048814097213964708 -0.0030740063728977455 0 0.048905045791623962 -0.0030701671668478011 0 0.048751620049022906 -0.0032599856375085277 0 0.048853968923771598 -0.0032683487082869364 0 0.048829198273382973 -0.00315230433339288 0 0.048814097213964708 -0.0030740063728977455 0 0.048905045791623962 -0.0030701671668478011 0 0.048654410403500638 -0.0029045070092368025 0 0.048814097213964708 -0.0030740063728977455 0 0.048654410403500638 -0.0029045070092368025 0 0.048806923875059471 -0.0029065081153619252 0 0.048905045791623962 -0.0030701671668478011 0 0.049211331693577366 -0.0029962024831274416 0 0.049221676821917762 -0.0031810523962236669 0 0.048905045791623962 -0.0030701671668478011 0 0.049211331693577366 -0.0029962024831274416 0 0.048654410403500638 -0.0029045070092368025 0 0.049211331693577366 -0.0029962024831274416 0 0.048654410403500638 -0.0029045070092368025 0 0.049375460720994115 -0.002852149830889807 0 0.049211331693577366 -0.0029962024831274416 0 0.049375460720994115 -0.002852149830889807 0 0.049464928865512028 -0.0028109729453032507 0 0.048654410403500638 -0.0029045070092368025 0 0.048561157613163652 -0.0022406347721950896 0 0.048806923875059471 -0.0029065081153619252 0 0.048654410403500638 -0.0029045070092368025 0 0.048561157613163652 -0.0022406347721950896 0 0.046954502712802687 -0.00013957439066708527 0 0.048561157613163652 -0.0022406347721950896 0 0.048071255359125702 -0.00074307445090338151 0 0.046954502712802687 -0.00013957439066708527 0 0.048597131063086427 -0.0026710913305812876 0 0.048486165891262138 -0.0012856809711818565 0 0.048071255359125702 -0.00074307445090338151 0 0.046954502712802687 -0.00013957439066708527 0 0.047749164999600163 0.00074393615598559797 0 0.048654410403500638 -0.0029045070092368025 0 0.049883741294781923 -0.0026218249098669696 0 0.049375460720994115 -0.002852149830889807 0 0.049375460720994115 -0.002852149830889807 0 0.049581734941587838 -0.0025568587436677562 0 0.049464928865512028 -0.0028109729453032507 0 0.049883741294781923 -0.0026218249098669696 0 0.049375460720994115 -0.002852149830889807 0 0.049581734941587838 -0.0025568587436677562 0 0.049883741294781923 -0.0026218249098669696 0 0.049758673437713098 -0.0023077152112566143 0 0.04994791898073455 -0.0019828199979113584 0 0.049883741294781923 -0.0026218249098669696 0 0.049581734941587838 -0.0025568587436677562 0 0.049758673437713098 -0.0023077152112566143 0 0.049581734941587838 -0.0025568587436677562 0 0.049758673437713098 -0.0023077152112566143 0 0.049607099789599804 -0.0020581896493827951 0 0.049758673437713098 -0.0023077152112566143 0 0.04994791898073455 -0.0019828199979113584 0 0.049607099789599804 -0.0020581896493827951 0 0.048486165891262138 -0.0012856809711818565 0 0.049076557013151882 0.00054925802942968737 0 0.046954502712802687 -0.00013957439066708527 0 0.047749164999600163 0.00074393615598559797 0 0.04760997568832432 0.002063087223142759 0 0.049883741294781923 -0.0026218249098669696 0 0.04994791898073455 -0.0019828199979113584 0 0.050490202521213598 -0.0013832408900648729 0 0.046954502712802687 -0.00013957439066708527 0 0.047483993456025581 0.0027666149730485841 0 0.04760997568832432 0.002063087223142759 0 0.047749164999600163 0.00074393615598559797 0 0.047995526456011885 0.0021048146827965784 0 0.04760997568832432 0.002063087223142759 0 0.048071255359125702 -0.00074307445090338151 0 0.047749164999600163 0.00074393615598559797 0 0.048633581813467143 0.00036487119424688091 0 0.050001261912839053 -0.002084588550898141 0 0.049566477170740066 -0.0023652036182362202 0 0.049598101893651839 -0.0027775254129771155 0 0.050001261912839053 -0.002084588550898141 0 0.049455835401262034 -0.0018802098004780431 0 0.049566477170740066 -0.0023652036182362202 0 0.049455835401262034 -0.0018802098004780431 0 0.049607099789599804 -0.0020581896493827951 0 0.049566477170740066 -0.0023652036182362202 0 0.049581734941587838 -0.0025568587436677562 0 0.049607099789599804 -0.0020581896493827951 0 0.049566477170740066 -0.0023652036182362202 0 0.049566477170740066 -0.0023652036182362202 0 0.049464928865512028 -0.0028109729453032507 0 0.049598101893651839 -0.0027775254129771155 0 0.049581734941587838 -0.0025568587436677562 0 0.049566477170740066 -0.0023652036182362202 0 0.049464928865512028 -0.0028109729453032507 0 0.050001261912839053 -0.002084588550898141 0 0.049598101893651839 -0.0027775254129771155 0 0.049470960383178851 -0.0031759884164994953 0 0.049598101893651839 -0.0027775254129771155 0 0.049418740888976631 -0.0031304083450055965 0 0.049470960383178851 -0.0031759884164994953 0 0.049598101893651839 -0.0027775254129771155 0 0.049418740888976631 -0.0031304083450055965 0 0.04938724007510327 -0.0030467322344471764 0 0.049418740888976631 -0.0031304083450055965 0 0.04938724007510327 -0.0030467322344471764 0 0.04933843919274148 -0.0032905984588319352 0 0.049418740888976631 -0.0031304083450055965 0 0.04933843919274148 -0.0032905984588319352 0 0.049361748270149677 -0.0032592052668276939 0 0.049464928865512028 -0.0028109729453032507 0 0.049598101893651839 -0.0027775254129771155 0 0.04938724007510327 -0.0030467322344471764 0 0.049211331693577366 -0.0029962024831274416 0 0.049464928865512028 -0.0028109729453032507 0 0.04938724007510327 -0.0030467322344471764 0 0.049211331693577366 -0.0029962024831274416 0 0.04938724007510327 -0.0030467322344471764 0 0.049221676821917762 -0.0031810523962236669 0 0.049093265057934168 -0.0032698380027081689 0 0.048905045791623962 -0.0030701671668478011 0 0.049221676821917762 -0.0031810523962236669 0 0.04938724007510327 -0.0030467322344471764 0 0.049221676821917762 -0.0031810523962236669 0 0.04933843919274148 -0.0032905984588319352 0 0.049252043429620189 -0.003358200384144098 0 0.049221676821917762 -0.0031810523962236669 0 0.04933843919274148 -0.0032905984588319352 0 0.049252043429620189 -0.003358200384144098 0 0.04933843919274148 -0.0032905984588319352 0 0.04936369338338064 -0.0034944196116172208 0 0.04936369338338064 -0.0034944196116172208 0 0.049095792482372468 -0.003303851589956525 0 0.04890773525416367 -0.0050228491328121721 0 0.04936369338338064 -0.0034944196116172208 0 0.049095792482372468 -0.003303851589956525 0 0.049361748270149677 -0.0032592052668276939 0 0.04933843919274148 -0.0032905984588319352 0 0.04936369338338064 -0.0034944196116172208 0 0.049361748270149677 -0.0032592052668276939 0 0.050376227946671528 -0.013254739807073469 0 0.052209514595348443 -0.010408413933515605 0 0.048916800374344191 -0.0093384028272272164 0 0.05074937594088802 -0.0076911496096304568 0 0.049715994486264931 -0.0034355456832784849 0 0.052209514595348443 -0.010408413933515605 0 0.049604926890236774 -0.0034992615776898062 0 0.048916800374344191 -0.0093384028272272164 0 0.049604926890236774 -0.0034992615776898062 0 0.048916800374344191 -0.0093384028272272164 0 0.046964056514283231 -0.006834968879269019 0 0.049095792482372468 -0.003303851589956525 0 0.049361748270149677 -0.0032592052668276939 0 0.049470960383178851 -0.0031759884164994953 0 0.049095792482372468 -0.003303851589956525 0 0.049470960383178851 -0.0031759884164994953 0 0.049604926890236774 -0.0034992615776898062 0 0.049418740888976631 -0.0031304083450055965 0 0.049361748270149677 -0.0032592052668276939 0 0.049470960383178851 -0.0031759884164994953 0 0.050001261912839053 -0.002084588550898141 0 0.049470960383178851 -0.0031759884164994953 0 0.049604926890236774 -0.0034992615776898062 0 0.049604926890236774 -0.0034992615776898062 0 0.047155777261345073 -0.0016997130186619466 0 0.048956077124974073 -0.0008703614568983508 0 0.050001261912839053 -0.002084588550898141 0 0.049604926890236774 -0.0034992615776898062 0 0.049932274045098216 -0.00087900618109748845 0 0.049604926890236774 -0.0034992615776898062 0 0.049932274045098216 -0.00087900618109748845 0 0.048956077124974073 -0.0008703614568983508 0 0.046984359138538621 0.0008980397603925818 0 0.048613638940486467 0.001566113689668378 0 0.046820104650023599 0.0021684943226907855 0 0.043521935374226876 -0.0030339416021379342 0 0.047155777261345073 -0.0016997130186619466 0 0.046189897770813129 -0.0042036859358180866 0 0.044794785769996889 -0.0011622420906474095 0 0.047931423740044138 -5.8876740202560924e-05 0 0.049604926890236774 -0.0034992615776898062 0 0.047155777261345073 -0.0016997130186619466 0 0.046189897770813129 -0.0042036859358180866 0 0.049604926890236774 -0.0034992615776898062 0 0.046189897770813129 -0.0042036859358180866 0 0.046964056514283231 -0.006834968879269019 0 0.046189897770813129 -0.0042036859358180866 0 0.044456615923722985 -0.0071361066202564926 0 0.046964056514283231 -0.006834968879269019 0 0.046189897770813129 -0.0042036859358180866 0 0.044456615923722985 -0.0071361066202564926 0 0.042107502865383471 -0.0054638276570572212 0 0.043521935374226876 -0.0030339416021379342 0 0.046189897770813129 -0.0042036859358180866 0 0.042107502865383471 -0.0054638276570572212 0 0.044456615923722985 -0.0071361066202564926 0 0.045489138503081998 -0.0099276259826378641 0 0.041515295178030417 -0.0091858847956148189 0 0.044456615923722985 -0.0071361066202564926 0 0.046964056514283231 -0.006834968879269019 0 0.045489138503081998 -0.0099276259826378641 0 0.048916800374344191 -0.0093384028272272164 0 0.046964056514283231 -0.006834968879269019 0 0.045489138503081998 -0.0099276259826378641 0 0.048916800374344191 -0.0093384028272272164 0 0.047868436661061879 -0.012789899920802976 0 0.045489138503081998 -0.0099276259826378641 0 0.050376227946671528 -0.013254739807073469 0 0.048916800374344191 -0.0093384028272272164 0 0.047868436661061879 -0.012789899920802976 0 0.047868436661061879 -0.012789899920802976 0 0.04356060521878715 -0.012778048833575004 0 0.045489138503081998 -0.0099276259826378641 0 0.04356060521878715 -0.012778048833575004 0 0.045489138503081998 -0.0099276259826378641 0 0.041515295178030417 -0.0091858847956148189 0 0.047868436661061879 -0.012789899920802976 0 0.04356060521878715 -0.012778048833575004 0 0.046988029733202569 -0.017471927205382917 0 0.045751642184093597 -0.016918097902339588 0 0.046988029733202569 -0.017471927205382917 0 0.045312727515438522 -0.017956939349537893 0 0.044823643139380018 -0.014955565089419847 0 0.046739325792321491 -0.017285338396592815 0 0.046988029733202569 -0.017471927205382917 0 0.04549431472835639 -0.020733131292152259 0 0.048001174117841452 -0.021445169754513771 0 0.046988029733202569 -0.017471927205382917 0 0.04549431472835639 -0.020733131292152259 0 0.045312727515438522 -0.017956939349537893 0 0.049703715893702406 -0.019150416628544869 0 0.046988029733202569 -0.017471927205382917 0 0.048001174117841452 -0.021445169754513771 0 0.049703715893702406 -0.019150416628544869 0 0.049678326520362963 -0.016037038494664892 0 0.046988029733202569 -0.017471927205382917 0 0.047868436661061879 -0.012789899920802976 0 0.049678326520362963 -0.016037038494664892 0 0.046988029733202569 -0.017471927205382917 0 0.050376227946671528 -0.013254739807073469 0 0.047868436661061879 -0.012789899920802976 0 0.049678326520362963 -0.016037038494664892 0 0.050376227946671528 -0.013254739807073469 0 0.049678326520362963 -0.016037038494664892 0 0.05304452639919615 -0.017571534179899071 0 0.050376227946671528 -0.013254739807073469 0 0.052209514595348443 -0.010408413933515605 0 0.05304452639919615 -0.017571534179899071 0 0.05074937594088802 -0.0076911496096304568 0 0.049899848894051073 -0.0081588633782960409 0 0.04936369338338064 -0.0034944196116172208 0 0.049197541008757346 -0.0034675515436396074 0 0.048944571987024815 -0.0035602906578300337 0 0.049252043429620189 -0.003358200384144098 0 0.04936369338338064 -0.0034944196116172208 0 0.049197541008757346 -0.0034675515436396074 0 0.049382309366394206 -0.0021872417779095587 0 0.049899848894051073 -0.0081588633782960409 0 0.049491674896576777 -0.0037631433078173311 0 0.049073519688283281 -0.0037372077602111447 0 0.048816023738111482 -0.0042072930582010577 0 0.049073519688283281 -0.0037372077602111447 0 0.048944571987024815 -0.0035602906578300337 0 0.048816023738111482 -0.0042072930582010577 0 0.049276808004247399 -0.0035656512625374137 0 0.049197541008757346 -0.0034675515436396074 0 0.049073519688283281 -0.0037372077602111447 0 0.049197541008757346 -0.0034675515436396074 0 0.049073519688283281 -0.0037372077602111447 0 0.048944571987024815 -0.0035602906578300337 0 0.049899848894051073 -0.0081588633782960409 0 0.044448451987215525 -0.019683970959628941 0 0.049703715893702406 -0.019150416628544869 0 0.049678326520362963 -0.016037038494664892 0 0.05304452639919615 -0.017571534179899071 0 0.049703715893702406 -0.019150416628544869 0 0.05304452639919615 -0.017571534179899071 0 0.050604344752093182 -0.023088012037629398 0 0.049899848894051073 -0.0081588633782960409 0 0.04538450684865572 -0.025738688555433268 0 0.048694315280196611 -0.0081047508685616419 0 0.049281171778143312 -0.019678251560957382 0 0.04232766038552456 -0.022432081920826331 0 0.044448451987215525 -0.019683970959628941 0 0.04538450684865572 -0.025738688555433268 0 0.042454155457783527 -0.03101669914963006 0 0.042440990950018777 -0.030887332193786976 0 0.042920985890841243 -0.030978544298377444 0 0.044448451987215525 -0.019683970959628941 0 0.044276663444675068 -0.025749505283713444 0 0.042024872435116552 -0.030783973562792718 0 0.042421698185416828 -0.03092270256499257 0 0.042220092630008206 -0.030800150020919886 0 0.042024872435116552 -0.030783973562792718 0 0.041817523348910618 -0.030828185532868483 0 0.042421698185416828 -0.03092270256499257 0 0.046881830686143322 -0.010102236889174937 0 0.044448451987215525 -0.019683970959628941 0 0.042421698185416828 -0.03092270256499257 0 0.042440990950018777 -0.030887332193786976 0 0.042220092630008206 -0.030800150020919886 0 0.041893730245644363 -0.030650943192458594 0 0.042220092630008206 -0.030800150020919886 0 0.042193152197577716 -0.030632026960862768 0 0.041893730245644363 -0.030650943192458594 0 0.042024872435116552 -0.030783973562792718 0 0.042220092630008206 -0.030800150020919886 0 0.042440990950018777 -0.030887332193786976 0 0.042220092630008206 -0.030800150020919886 0 0.042418463968428646 -0.030740898155760015 0 0.042220092630008206 -0.030800150020919886 0 0.042418463968428646 -0.030740898155760015 0 0.042193152197577716 -0.030632026960862768 0 0.042418463968428646 -0.030740898155760015 0 0.042193152197577716 -0.030632026960862768 0 0.042588644398477489 -0.030564806870916748 0 0.041967543463289389 -0.030561323603936388 0 0.041893730245644363 -0.030650943192458594 0 0.042193152197577716 -0.030632026960862768 0 0.042706362879411257 -0.030773442514981049 0 0.042588644398477489 -0.030564806870916748 0 0.043338324647448294 -0.030572564499952073 0 0.042920985890841243 -0.030978544298377444 0 0.042706362879411257 -0.030773442514981049 0 0.043338324647448294 -0.030572564499952073 0 0.042440990950018777 -0.030887332193786976 0 0.042418463968428646 -0.030740898155760015 0 0.042706362879411257 -0.030773442514981049 0 0.042440990950018777 -0.030887332193786976 0 0.042920985890841243 -0.030978544298377444 0 0.042706362879411257 -0.030773442514981049 0 0.042418463968428646 -0.030740898155760015 0 0.042706362879411257 -0.030773442514981049 0 0.042588644398477489 -0.030564806870916748 0 0.04538450684865572 -0.025738688555433268 0 0.043744022021590008 -0.030170282579170728 0 0.04538450684865572 -0.025738688555433268 0 0.046326093146081535 -0.026277418234822113 0 0.045007536867365805 -0.027906509360720113 0 0.044741668246181088 -0.028492647937186977 0 0.044364673115750021 -0.028153251719140168 0 0.044196492666191481 -0.028625059148143655 0 0.044741668246181088 -0.028492647937186977 0 0.044364673115750021 -0.028153251719140168 0 0.046326093146081535 -0.026277418234822113 0 0.043781318269472194 -0.027380924243569471 0 0.044196492666191481 -0.028625059148143655 0 0.044364673115750021 -0.028153251719140168 0 0.043958152998520468 -0.027379501876648657 0 0.047518434368058159 -0.024565023197131153 0 0.045151144316727794 -0.023778041252869697 0 0.043958152998520468 -0.027379501876648657 0 0.047518434368058159 -0.024565023197131153 0 0.04657186923016865 -0.022624250451039243 0 0.045151144316727794 -0.023778041252869697 0 0.04657186923016865 -0.022624250451039243 0 0.04549431472835639 -0.020733131292152259 0 0.048001174117841452 -0.021445169754513771 0 0.047518434368058159 -0.024565023197131153 0 0.04657186923016865 -0.022624250451039243 0 0.048001174117841452 -0.021445169754513771 0 0.04657186923016865 -0.022624250451039243 0 0.04549431472835639 -0.020733131292152259 0 0.045151144316727794 -0.023778041252869697 0 0.050604344752093182 -0.023088012037629398 0 0.047518434368058159 -0.024565023197131153 0 0.048001174117841452 -0.021445169754513771 0 0.049703715893702406 -0.019150416628544869 0 0.050604344752093182 -0.023088012037629398 0 0.048001174117841452 -0.021445169754513771 0 0.04549431472835639 -0.020733131292152259 0 0.041909811545762926 -0.022987204601498022 0 0.045151144316727794 -0.023778041252869697 0 0.041909811545762926 -0.022987204601498022 0 0.045151144316727794 -0.023778041252869697 0 0.043253722508301971 -0.02585862694117819 0 0.045151144316727794 -0.023778041252869697 0 0.043958152998520468 -0.027379501876648657 0 0.043253722508301971 -0.02585862694117819 0 0.043344472546897522 -0.028214662918968667 0 0.043958152998520468 -0.027379501876648657 0 0.043253722508301971 -0.02585862694117819 0 0.045389143437064114 -0.026747728439295192 0 0.045161020080999544 -0.021212836368465372 0 0.048398731684928122 -0.019918873622118465 0 0.048177391859397657 -0.020872939013542847 0 0.047486159895519305 -0.020612671725485036 0 0.048730617209629949 -0.021458540408180762 0 0.048398731684928122 -0.019918873622118465 0 0.048177391859397657 -0.020872939013542847 0 0.041883761771954665 -0.029170035168998434 0 0.041909811545762926 -0.022987204601498022 0 0.043253722508301971 -0.02585862694117819 0 0.047990534041493171 -0.02140090843883246 0 0.048177391859397657 -0.020872939013542847 0 0.047486159895519305 -0.020612671725485036 0 0.047486159895519305 -0.020612671725485036 0 0.046976934352971463 -0.021011510847683903 0 0.046427329427751914 -0.019955464034827036 0 0.047504232558924525 -0.021671899927602128 0 0.047486159895519305 -0.020612671725485036 0 0.046976934352971463 -0.021011510847683903 0 0.047486159895519305 -0.020612671725485036 0 0.046943847559873408 -0.018945014041366517 0 0.046427329427751914 -0.019955464034827036 0 0.046943847559873408 -0.018945014041366517 0 0.046184032245650028 -0.018704277855102473 0 0.046427329427751914 -0.019955464034827036 0 0.048398731684928122 -0.019918873622118465 0 0.047486159895519305 -0.020612671725485036 0 0.046943847559873408 -0.018945014041366517 0 0.046943847559873408 -0.018945014041366517 0 0.046184032245650028 -0.018704277855102473 0 0.046120558935748512 -0.017810276194375283 0 0.046184032245650028 -0.018704277855102473 0 0.046120558935748512 -0.017810276194375283 0 0.045617560110926818 -0.018075305829837188 0 0.046943847559873408 -0.018945014041366517 0 0.046272633653886647 -0.017342643094320122 0 0.047535913191567296 -0.018186436760260532 0 0.046943847559873408 -0.018945014041366517 0 0.046120558935748512 -0.017810276194375283 0 0.046272633653886647 -0.017342643094320122 0 0.046272633653886647 -0.017342643094320122 0 0.047535913191567296 -0.018186436760260532 0 0.045617909913150234 -0.016879684445485613 0 0.045350373462116782 -0.018526486792224201 0 0.045566629964311579 -0.017137517884328771 0 0.043112017186671146 -0.018326579989400328 0 0.045015869872386725 -0.017028589102087668 0 0.045617909913150234 -0.016879684445485613 0 0.045161020080999544 -0.021212836368465372 0 0.045350373462116782 -0.018526486792224201 0 0.048398731684928122 -0.019918873622118465 0 0.046943847559873408 -0.018945014041366517 0 0.047535913191567296 -0.018186436760260532 0 0.04549431472835639 -0.020733131292152259 0 0.043112017186671146 -0.018326579989400328 0 0.045312727515438522 -0.017956939349537893 0 0.04549431472835639 -0.020733131292152259 0 0.041909811545762926 -0.022987204601498022 0 0.043112017186671146 -0.018326579989400328 0 0.043112017186671146 -0.018326579989400328 0 0.045312727515438522 -0.017956939349537893 0 0.045015869872386725 -0.017028589102087668 0 0.045751642184093597 -0.016918097902339588 0 0.045312727515438522 -0.017956939349537893 0 0.045015869872386725 -0.017028589102087668 0 0.045015869872386725 -0.017028589102087668 0 0.045374278164086977 -0.016812339213091419 0 0.045280493058452137 -0.01664980541853666 0 0.044823643139380018 -0.014955565089419847 0 0.043230357728027836 -0.012905457837520045 0 0.045751642184093597 -0.016918097902339588 0 0.045015869872386725 -0.017028589102087668 0 0.045280493058452137 -0.01664980541853666 0 0.045015869872386725 -0.017028589102087668 0 0.045617909913150234 -0.016879684445485613 0 0.045374278164086977 -0.016812339213091419 0 0.045617909913150234 -0.016879684445485613 0 0.045374278164086977 -0.016812339213091419 0 0.045771887240514772 -0.016898219230931238 0 0.045375067148167109 -0.016737302637268546 0 0.045280493058452137 -0.01664980541853666 0 0.045295103170226662 -0.01656947562123913 0 0.045374278164086977 -0.016812339213091419 0 0.045375067148167109 -0.016737302637268546 0 0.045771887240514772 -0.016898219230931238 0 0.045374278164086977 -0.016812339213091419 0 0.045375067148167109 -0.016737302637268546 0 0.045280493058452137 -0.01664980541853666 0 0.044872617719398301 -0.016367947985587952 0 0.044750497437428934 -0.010518446648833776 0 0.045375067148167109 -0.016737302637268546 0 0.045689741511425831 -0.016910979807410072 0 0.045530395425097445 -0.016928216309585933 0 0.045375067148167109 -0.016737302637268546 0 0.045689741511425831 -0.016910979807410072 0 0.045771887240514772 -0.016898219230931238 0 0.041515295178030417 -0.0091858847956148189 0 0.042107502865383471 -0.0054638276570572212 0 0.039558703670432654 -0.0061768597750338564 0 0.044456615923722985 -0.0071361066202564926 0 0.041515295178030417 -0.0091858847956148189 0 0.042107502865383471 -0.0054638276570572212 0 0.043230357728027836 -0.012905457837520045 0 0.044750497437428934 -0.010518446648833776 0 0.043521935374226876 -0.0030339416021379342 0 0.042107502865383471 -0.0054638276570572212 0 0.039597053886174988 -0.0047866792851772606 0 0.044794785769996889 -0.0011622420906474095 0 0.044850493746624261 -0.0024632618465110522 0 0.042107502865383471 -0.0054638276570572212 0 0.039558703670432654 -0.0061768597750338564 0 0.039597053886174988 -0.0047866792851772606 0 0.045375067148167109 -0.016737302637268546 0 0.045418305821090063 -0.016942329532402611 0 0.045530395425097445 -0.016928216309585933 0 0.045418305821090063 -0.016942329532402611 0 0.045530395425097445 -0.016928216309585933 0 0.045550582503889346 -0.017036802418208662 0 0.044750497437428934 -0.010518446648833776 0 0.045978093912035681 -0.0046460028795178967 0 0.044750497437428934 -0.010518446648833776 0 0.044850493746624261 -0.0024632618465110522 0 0.045689741511425831 -0.016910979807410072 0 0.045530395425097445 -0.016928216309585933 0 0.045550582503889346 -0.017036802418208662 0 0.047437567811386847 0.00049847678454251903 0 0.04810875636106552 0.00075984016223346659 0 0.046579219324325523 0.0016891911592166083 0 0.045978093912035681 -0.0046460028795178967 0 0.045228408294230797 0.00043767299429314582 0 0.044944653003345547 -0.007203847094257732 0 0.043595707669338686 -0.0053722469110775951 0 0.045067170635551206 -0.0048032886446542694 0 0.045978093912035681 -0.0046460028795178967 0 0.044850493746624261 -0.0024632618465110522 0 0.046579219324325523 0.0016891911592166083 0 0.046071208249187125 0.0040970195549103897 0 0.048266602811457997 0.0052312940548113994 0 0.045241672350608123 0.00018243661333193121 0 0.046105612825026961 0.0014473991273032066 0 0.045361184987394165 0.002549407417618282 0 0.044850493746624261 -0.0024632618465110522 0 0.047061777567159901 0.0045831253541192699 0 0.04810875636106552 0.00075984016223346659 0 0.046579219324325523 0.0016891911592166083 0 0.048266602811457997 0.0052312940548113994 0 0.046984359138538621 0.0008980397603925818 0 0.045241672350608123 0.00018243661333193121 0 0.046105612825026961 0.0014473991273032066 0 0.046984359138538621 0.0008980397603925818 0 0.046105612825026961 0.0014473991273032066 0 0.046820104650023599 0.0021684943226907855 0 0.043189466296079171 0.0018105691771816449 0 0.042496581340104707 0.0028591161113754662 0 0.044094899454028023 0.0031507717617107007 0 0.043189466296079171 0.0018105691771816449 0 0.044094899454028023 0.0031507717617107007 0 0.044849041208414452 0.0013649621565723566 0 0.043189466296079171 0.0018105691771816449 0 0.042496581340104707 0.0028591161113754662 0 0.041702310093007018 0.0013258051933368812 0 0.042496581340104707 0.0028591161113754662 0 0.041702310093007018 0.0013258051933368812 0 0.041584558519910816 0.0026384230364836173 0 0.042496581340104707 0.0028591161113754662 0 0.044094899454028023 0.0031507717617107007 0 0.042911765195157409 0.0045077003688852365 0 0.044094899454028023 0.0031507717617107007 0 0.045417934197072622 0.0026649458900417965 0 0.046071208249187125 0.0040970195549103897 0 0.046579219324325523 0.0016891911592166083 0 0.045417934197072622 0.0026649458900417965 0 0.046071208249187125 0.0040970195549103897 0 0.046579219324325523 0.0016891911592166083 0 0.045417934197072622 0.0026649458900417965 0 0.044849041208414452 0.0013649621565723566 0 0.044094899454028023 0.0031507717617107007 0 0.045417934197072622 0.0026649458900417965 0 0.044849041208414452 0.0013649621565723566 0 0.045978093912035681 -0.0046460028795178967 0 0.045236340043741559 -0.0089791287865682041 0 0.047410078942022725 0.00054430686229658401 0 0.044849041208414452 0.0013649621565723566 0 0.044520043649549777 -0.00058076041969526426 0 0.047410078942022725 0.00054430686229658401 0 0.046579219324325523 0.0016891911592166083 0 0.044849041208414452 0.0013649621565723566 0 0.045689741511425831 -0.016910979807410072 0 0.045550582503889346 -0.017036802418208662 0 0.045914840172046306 -0.016897368457348738 0 0.044520043649549777 -0.00058076041969526426 0 0.042779502995051628 0.00033920276687304953 0 0.041699198334670506 -0.0017424850149816741 0 0.044849041208414452 0.0013649621565723566 0 0.044520043649549777 -0.00058076041969526426 0 0.042779502995051628 0.00033920276687304953 0 0.043189466296079171 0.0018105691771816449 0 0.044849041208414452 0.0013649621565723566 0 0.042779502995051628 0.00033920276687304953 0 0.043189466296079171 0.0018105691771816449 0 0.042779502995051628 0.00033920276687304953 0 0.041702310093007018 0.0013258051933368812 0 0.045236340043741559 -0.0089791287865682041 0 0.043216159765590706 -0.0095215177058021964 0 0.045914840172046306 -0.016897368457348738 0 0.045997641835417345 -0.017034272966748837 0 0.045748394820764683 -0.016836923776912118 0 0.045914840172046306 -0.016897368457348738 0 0.045856436683486983 -0.016926049390215726 0 0.045997641835417345 -0.017034272966748837 0 0.045856436683486983 -0.016926049390215726 0 0.045771887240514772 -0.016898219230931238 0 0.045997641835417345 -0.017034272966748837 0 0.045689741511425831 -0.016910979807410072 0 0.045856436683486983 -0.016926049390215726 0 0.045771887240514772 -0.016898219230931238 0 0.045689741511425831 -0.016910979807410072 0 0.045914840172046306 -0.016897368457348738 0 0.045856436683486983 -0.016926049390215726 0 0.046272633653886647 -0.017342643094320122 0 0.045617909913150234 -0.016879684445485613 0 0.045771887240514772 -0.016898219230931238 0 0.046272633653886647 -0.017342643094320122 0 0.045771887240514772 -0.016898219230931238 0 0.045997641835417345 -0.017034272966748837 0 0.046120558935748512 -0.017810276194375283 0 0.046272633653886647 -0.017342643094320122 0 0.045997641835417345 -0.017034272966748837 0 0.046120558935748512 -0.017810276194375283 0 0.045997641835417345 -0.017034272966748837 0 0.045660944137012965 -0.017321938595726574 0 0.045997641835417345 -0.017034272966748837 0 0.045660944137012965 -0.017321938595726574 0 0.045748394820764683 -0.016836923776912118 0 0.045660944137012965 -0.017321938595726574 0 0.045139649800007571 -0.016928998888339621 0 0.044737854868330068 -0.017886064873642686 0 0.052419830716265374 -0.006377726492130341 0 0.052137833822081717 -0.0075815630124868765 0 0.051742741082046101 -0.0071765563236813297 0 0.052256003569132382 -0.0064480711273273627 0 0.052419830716265374 -0.006377726492130341 0 0.051742741082046101 -0.0071765563236813297 0 0.044404954246470868 -0.0082084667897535813 0 0.048999697859318757 -0.01325930655006303 0 0.05272941680513496 -0.0036044411982570517 0 0.052573709085899645 -0.002212077072053017 0 0.051363470980550094 -0.0041884781049876772 0 0.04832628439755713 -0.0055206965491226027 0 0.046497588451906158 -0.0023662649903360504 0 0.049119972879386381 -0.0039615048572994383 0 0.048817656686778184 -0.0046665657272776367 0 0.049635160032210635 -0.0043369703813281955 0 0.04832628439755713 -0.0055206965491226027 0 0.044404954246470868 -0.0082084667897535813 0 0.044324084836854329 -0.0055576615564637841 0 0.044964866448547081 -0.0053040115096527141 0 0.045057263893632619 -0.0036486406554007244 0 0.044404954246470868 -0.0082084667897535813 0 0.041900910856280581 -0.002134390908492185 0 0.044964866448547081 -0.0053040115096527141 0 0.045686175734851169 -0.0033698627807070207 0 0.045057263893632619 -0.0036486406554007244 0 0.041900910856280581 -0.002134390908492185 0 0.046497588451906158 -0.0023662649903360504 0 0.046497588451906158 -0.0023662649903360504 0 0.051796506124669663 -0.0039941293452779641 0 0.044404954246470868 -0.0082084667897535813 0 0.043216159765590706 -0.0095215177058021964 0 0.042779502995051628 0.00033920276687304953 0 0.039559705868422418 -0.0012149602016410072 0 0.041699198334670506 -0.0017424850149816741 0 0.045660944137012965 -0.017321938595726574 0 0.045139649800007571 -0.016928998888339621 0 0.045748394820764683 -0.016836923776912118 0 0.038945169797261162 -0.0028962768857073375 0 0.039559705868422418 -0.0012149602016410072 0 0.041699198334670506 -0.0017424850149816741 0 0.041900910856280581 -0.002134390908492185 0 0.040570971967196001 0.0019381343882735097 0 0.039360774481887358 -0.0011231752142099505 0 0.041702310093007018 0.0013258051933368812 0 0.040460149546923653 0.0017407982149604461 0 0.042779502995051628 0.00033920276687304953 0 0.039360774481887358 -0.0011231752142099505 0 0.041702310093007018 0.0013258051933368812 0 0.03958936166121834 -0.0010589646071145287 0 0.040771892398090953 0.0026645839384473739 0 0.040861569883842042 0.0018702394127488135 0 0.041738436974502469 0.00031411452648093203 0 0.041900910856280581 -0.002134390908492185 0 0.05272941680513496 -0.0036044411982570517 0 0.052573709085899645 -0.002212077072053017 0 0.054025399562899833 -0.00082992058380317491 0 0.040077361095849237 -0.00081633861669041055 0 0.03958936166121834 -0.0010589646071145287 0 0.040861569883842042 0.0018702394127488135 0 0.053143542627493566 -0.0021475822460090702 0 0.051796506124669663 -0.0039941293452779641 0 0.046497588451906158 -0.0023662649903360504 0 0.047226304307034166 0.00054192902080806547 0 0.05370345443310609 -0.002040810277257899 0 0.053072280796351026 -0.0011501480541238423 0 0.05243847658436341 -0.0021386261490177736 0 0.05370345443310609 -0.002040810277257899 0 0.053819755358449857 -0.00049535175401847005 0 0.054458318723365831 -0.0002570800361376838 0 0.05370345443310609 -0.002040810277257899 0 0.053072280796351026 -0.0011501480541238423 0 0.053819755358449857 -0.00049535175401847005 0 0.053143542627493566 -0.0021475822460090702 0 0.054161530708267694 -0.0002973209548066289 0 0.053038069152549133 -0.00024499871068251898 0 0.053819755358449857 -0.00049535175401847005 0 0.053386636243150834 0.00066162966720010338 0 0.053072280796351026 -0.0011501480541238423 0 0.053038069152549133 -0.00024499871068251898 0 0.053819755358449857 -0.00049535175401847005 0 0.053819755358449857 -0.00049535175401847005 0 0.054458318723365831 -0.0002570800361376838 0 0.054101496302339319 0.00027404861229642189 0 0.052573709085899645 -0.002212077072053017 0 0.053855622979818066 -0.00031870392245096532 0 0.054025399562899833 -0.00082992058380317491 0 0.040771892398090953 0.0026645839384473739 0 0.040861569883842042 0.0018702394127488135 0 0.041686070507434517 0.0046099570522634692 0 0.041584558519910816 0.0026384230364836173 0 0.040460149546923653 0.0017407982149604461 0 0.041686070507434517 0.0046099570522634692 0 0.040570971967196001 0.0019381343882735097 0 0.041607517627856291 0.0043183266041723154 0 0.042496581340104707 0.0028591161113754662 0 0.041584558519910816 0.0026384230364836173 0 0.041686070507434517 0.0046099570522634692 0 0.041702310093007018 0.0013258051933368812 0 0.041584558519910816 0.0026384230364836173 0 0.040460149546923653 0.0017407982149604461 0 0.051335903330315402 -0.0014622862278860014 0 0.051550673769034237 8.1266593983614441e-05 0 0.049999956720498138 0.00018239515411399895 0 0.051335903330315402 -0.0014622862278860014 0 0.049999943956945909 -0.0025395819777393478 0 0.049999956720498138 0.00018239515411399895 0 0.051335903330315402 -0.0014622862278860014 0 0.052294988455621583 -0.00088939893972437884 0 0.051550673769034237 8.1266593983614441e-05 0 0.052413979813968663 -1.5097723153896157e-05 0 0.052294988455621583 -0.00088939893972437884 0 0.051550673769034237 8.1266593983614441e-05 0 0.053038069152549133 -0.00024499871068251898 0 0.052413979813968663 -1.5097723153896157e-05 0 0.052294988455621583 -0.00088939893972437884 0 0.053072280796351026 -0.0011501480541238423 0 0.052294988455621583 -0.00088939893972437884 0 0.05243847658436341 -0.0021386261490177736 0 0.053072280796351026 -0.0011501480541238423 0 0.053038069152549133 -0.00024499871068251898 0 0.052294988455621583 -0.00088939893972437884 0 0.051335903330315402 -0.0014622862278860014 0 0.052294988455621583 -0.00088939893972437884 0 0.05243847658436341 -0.0021386261490177736 0 0.05243847658436341 -0.0021386261490177736 0 0.051568791713453167 -0.0029376335538132841 0 0.052709958589312156 -0.0039606364662688014 0 0.051335903330315402 -0.0014622862278860014 0 0.05243847658436341 -0.0021386261490177736 0 0.051568791713453167 -0.0029376335538132841 0 0.05370345443310609 -0.002040810277257899 0 0.05243847658436341 -0.0021386261490177736 0 0.052709958589312156 -0.0039606364662688014 0 0.051335903330315402 -0.0014622862278860014 0 0.051568791713453167 -0.0029376335538132841 0 0.049999943956945909 -0.0025395819777393478 0 0.051568791713453167 -0.0029376335538132841 0 0.049999943956945909 -0.0025395819777393478 0 0.051361320997097677 -0.0046040477903285769 0 0.049999943956945909 -0.0025395819777393478 0 0.051361320997097677 -0.0046040477903285769 0 0.049999971631597362 -0.0052616345905702787 0 0.051568791713453167 -0.0029376335538132841 0 0.051361320997097677 -0.0046040477903285769 0 0.052709958589312156 -0.0039606364662688014 0 0.051393821855533976 -0.004674168772866789 0 0.052759129774868116 -0.0040902419902616744 0 0.052084542123435947 -0.0052556076303718023 0 0.051477698003644885 -0.0045781016777732848 0 0.051796506124669663 -0.0039941293452779641 0 0.051796506124669663 -0.0039941293452779641 0 0.05129988525933598 -0.0050672142424620882 0 0.049119972879386381 -0.0039615048572994383 0 0.049635160032210635 -0.0043369703813281955 0 0.050080856524368056 -0.003611339482488353 0 0.052256003569132382 -0.0064480711273273627 0 0.051622046707443747 -0.0066912753954290645 0 0.051742741082046101 -0.0071765563236813297 0 0.051393821855533976 -0.004674168772866789 0 0.052084542123435947 -0.0052556076303718023 0 0.051326170514761016 -0.0065798807903468155 0 0.04832628439755713 -0.0055206965491226027 0 0.05129988525933598 -0.0050672142424620882 0 0.05129988525933598 -0.0050672142424620882 0 0.051144501879471255 -0.0070341464096947267 0 0.051622046707443747 -0.0066912753954290645 0 0.051167378241339732 -0.0073190279275669153 0 0.051742741082046101 -0.0071765563236813297 0 0.051393821855533976 -0.004674168772866789 0 0.050000011419358538 -0.0052615920516719391 0 0.051326170514761016 -0.0065798807903468155 0 0.051477698003644885 -0.0045781016777732848 0 0.050000351016501805 -0.0052615739811499177 0 0.050000011419358538 -0.0052615920516719391 0 0.051326170514761016 -0.0065798807903468155 0 0.049999971260405632 -0.0076786868983560654 0 0.051144501879471255 -0.0070341464096947267 0 0.050661971367950136 -0.0078399651176387728 0 0.051167378241339732 -0.0073190279275669153 0 0.05054708097939134 -0.0079818703166681208 0 0.051418347242840202 -0.0079990303254926058 0 0.051326170514761016 -0.0065798807903468155 0 0.049999971260405632 -0.0076786868983560654 0 0.05054708097939134 -0.0079818703166681208 0 0.049999971260405632 -0.0076786868983560654 0 0.05054708097939134 -0.0079818703166681208 0 0.049999900605081575 -0.010094764364140562 0 0.05054708097939134 -0.0079818703166681208 0 0.051150558718346367 -0.0088208322545783972 0 0.049999900605081575 -0.010094764364140562 0 0.05054708097939134 -0.0079818703166681208 0 0.051150558718346367 -0.0088208322545783972 0 0.051418347242840202 -0.0079990303254926058 0 0.051150558718346367 -0.0088208322545783972 0 0.051418347242840202 -0.0079990303254926058 0 0.051800741207957204 -0.0095744856192888916 0 0.052137833822081717 -0.0075815630124868765 0 0.051418347242840202 -0.0079990303254926058 0 0.051800741207957204 -0.0095744856192888916 0 0.044737854868330068 -0.017886064873642686 0 0.045242965318233054 -0.018831843368933964 0 0.044346137435772523 -0.019123869271235848 0 0.048999697859318757 -0.01325930655006303 0 0.047709441578853352 -0.014657147883162382 0 0.051167378241339732 -0.0073190279275669153 0 0.051418347242840202 -0.0079990303254926058 0 0.051742741082046101 -0.0071765563236813297 0 0.052137833822081717 -0.0075815630124868765 0 0.051418347242840202 -0.0079990303254926058 0 0.051742741082046101 -0.0071765563236813297 0 0.045660944137012965 -0.017321938595726574 0 0.044737854868330068 -0.017886064873642686 0 0.045617560110926818 -0.018075305829837188 0 0.046120558935748512 -0.017810276194375283 0 0.045660944137012965 -0.017321938595726574 0 0.045617560110926818 -0.018075305829837188 0 0.046184032245650028 -0.018704277855102473 0 0.045617560110926818 -0.018075305829837188 0 0.045242965318233054 -0.018831843368933964 0 0.044737854868330068 -0.017886064873642686 0 0.045617560110926818 -0.018075305829837188 0 0.045242965318233054 -0.018831843368933964 0 0.045242965318233054 -0.018831843368933964 0 0.046427329427751914 -0.019955464034827036 0 0.044969558665409783 -0.019799280060520317 0 0.045242965318233054 -0.018831843368933964 0 0.044969558665409783 -0.019799280060520317 0 0.044346137435772523 -0.019123869271235848 0 0.046184032245650028 -0.018704277855102473 0 0.045242965318233054 -0.018831843368933964 0 0.046427329427751914 -0.019955464034827036 0 0.046427329427751914 -0.019955464034827036 0 0.046549966397419949 -0.021000460495923304 0 0.04610882694769889 -0.020826135014441496 0 0.046976934352971463 -0.021011510847683903 0 0.046427329427751914 -0.019955464034827036 0 0.046549966397419949 -0.021000460495923304 0 0.045785754656400578 -0.020642820495575434 0 0.046874787161202219 -0.018213922487041841 0 0.046427329427751914 -0.019955464034827036 0 0.044909191966190386 -0.019978458849031291 0 0.044969558665409783 -0.019799280060520317 0 0.04653003328666927 -0.021583200595503439 0 0.046549966397419949 -0.021000460495923304 0 0.04610882694769889 -0.020826135014441496 0 0.046874787161202219 -0.018213922487041841 0 0.046424483738177105 -0.019068169809878875 0 0.046874787161202219 -0.018213922487041841 0 0.049252163683586862 -0.014481277868955932 0 0.044943074519989419 -0.019919402246851452 0 0.044083309287393582 -0.02006963774442138 0 0.044346137435772523 -0.019123869271235848 0 0.051431581464058337 -0.013285610578945747 0 0.052352413770230768 -0.012319951573949117 0 0.050835793833637767 -0.012731599607351552 0 0.049999969354874253 -0.012511414048686732 0 0.050973977076789037 -0.012168460000042423 0 0.049999900605081575 -0.010094764364140562 0 0.050001248010842207 -0.01251207182952797 0 0.049252163683586862 -0.014481277868955932 0 0.050973977076789037 -0.012168460000042423 0 0.049999900605081575 -0.010094764364140562 0 0.051800741207957204 -0.0095744856192888916 0 0.051150558718346367 -0.0088208322545783972 0 0.049999900605081575 -0.010094764364140562 0 0.051800741207957204 -0.0095744856192888916 0 0.049252163683586862 -0.014481277868955932 0 0.047709441578853352 -0.014657147883162382 0 0.044943074519989419 -0.019919402246851452 0 0.044969558665409783 -0.019799280060520317 0 0.044346137435772523 -0.019123869271235848 0 0.015826025545828772 -0.028632552255159829 0 0.018069253922748434 -0.031964579157815629 0 0.013708891663315324 -0.03211149012443848 0 0.015826025545828772 -0.028632552255159829 0 0.013708891663315324 -0.03211149012443848 0 0.010873124992981912 -0.028188890025345879 0 0.013708891663315324 -0.03211149012443848 0 0.0085298546213327751 -0.031640721600730302 0 0.010873124992981912 -0.028188890025345879 0 0.015826025545828772 -0.028632552255159829 0 0.010873124992981912 -0.028188890025345879 0 0.013162661132437652 -0.024838749870693649 0 0.020409109077541541 -0.035135568798808095 0 0.021156866787555063 -0.035227216292497587 0 0.021393707349835686 -0.03568837532802429 0 0.021393707349835686 -0.03568837532802429 0 0.02182861338092518 -0.035410967087472094 0 0.021981813571273195 -0.035718645935926427 0 0.021156866787555063 -0.035227216292497587 0 0.021393707349835686 -0.03568837532802429 0 0.02182861338092518 -0.035410967087472094 0 0.015778560395922434 -0.033552781181650511 0 0.016862766214840893 -0.033492636777097226 0 0.016490047039430862 -0.032486289577591906 0 0.021393707349835686 -0.03568837532802429 0 0.021579863814344524 -0.036321686396093969 0 0.021981813571273195 -0.035718645935926427 0 0.013902034683100958 -0.032484656758565801 0 0.0091375060720549992 -0.031116739024498744 0 0.021393707349835686 -0.03568837532802429 0 0.021136913241255134 -0.036382609380406564 0 0.021579863814344524 -0.036321686396093969 0 0.013902034683100958 -0.032484656758565801 0 0.01957913414754292 -0.03415090176274474 0 0.019094610170776884 -0.032074873969900219 0 0.014617063023499287 -0.032622363865715369 0 0.020409109077541541 -0.035135568798808095 0 0.021393707349835686 -0.03568837532802429 0 0.021136913241255134 -0.036382609380406564 0 0.0063170452360075333 -0.029317293415924706 0 0.0059526991331221362 -0.029758523150937858 0 0.0064943918745721269 -0.02960150088737052 0 0.014617063023499287 -0.032622363865715369 0 0.0083805724610482215 -0.029882846313364957 0 0.0055490524585015081 -0.028625831717884204 0 0.0059492388568506771 -0.029161150224012364 0 0.0065360794520413065 -0.028496196653028282 0 0.013902034683100958 -0.032484656758565801 0 0.0083805724610482215 -0.029882846313364957 0 0.0055490524585015081 -0.028625831717884204 0 0.0052909504274514735 -0.029078143458471678 0 0.0059492388568506771 -0.029161150224012364 0 0.012468674521355192 -0.031982920663430385 0 0.011741939912449564 -0.03201866356531996 0 0.012073117207045951 -0.031449822172873405 0 0.014617063023499287 -0.032622363865715369 0 0.013902034683100958 -0.032484656758565801 0 0.0083805724610482215 -0.029882846313364957 0 0.0058354214818076167 -0.029714052079047672 0 0.0052909504274514735 -0.029078143458471678 0 0.0059492388568506771 -0.029161150224012364 0 0.0058012477449516098 -0.029782872088149896 0 0.0061582310494407554 -0.030023008389613595 0 0.0062543350420368174 -0.030175343041753178 0 0.0060134079723039042 -0.030214524694469735 0 0.0062543350420368174 -0.030175343041753178 0 0.0060134079723039042 -0.030214524694469735 0 0.0062469131173980589 -0.030243046573353763 0 0.0059492388568506771 -0.029161150224012364 0 0.0058012477449516098 -0.029782872088149896 0 0.0062245372575520201 -0.029611928641265713 0 0.0062543350420368174 -0.030175343041753178 0 0.0061458863972558659 -0.030291755310189419 0 0.0062469131173980589 -0.030243046573353763 0 0.0059526991331221362 -0.029758523150937858 0 0.0064943918745721269 -0.02960150088737052 0 0.0060134079723039042 -0.030214524694469735 0 0.0083805724610482215 -0.029882846313364957 0 0.0055708434620426878 -0.030373112526727211 0 0.0059526991331221362 -0.029758523150937858 0 0.0060134079723039042 -0.030214524694469735 0 0.0054965770418096173 -0.030114192232213639 0 0.014617063023499287 -0.032622363865715369 0 0.0089683968344542314 -0.030503167371648314 0 0.0059526991331221362 -0.029758523150937858 0 0.0054965770418096173 -0.030114192232213639 0 0.0052688381746151362 -0.029385223182307994 0 0.0063170452360075333 -0.029317293415924706 0 0.0059526991331221362 -0.029758523150937858 0 0.0052688381746151362 -0.029385223182307994 0 0.0089683968344542314 -0.030503167371648314 0 0.0064776293886055231 -0.030616397188745797 0 0.0052688381746151362 -0.029385223182307994 0 0.004765110225841771 -0.030388357552502944 0 0.0040804035355747822 -0.029642059230169673 0 0.0054965770418096173 -0.030114192232213639 0 0.0052688381746151362 -0.029385223182307994 0 0.004765110225841771 -0.030388357552502944 0 0.004765110225841771 -0.030388357552502944 0 0.0040804035355747822 -0.029642059230169673 0 0.0038460475503874912 -0.030746548480886423 0 0.0032813294055733752 -0.030464671843167378 0 0.0026006765177894785 -0.031250038978086869 0 0.0038460475503874912 -0.030746548480886423 0 0.0040804035355747822 -0.029642059230169673 0 0.0032813294055733752 -0.030464671843167378 0 0.0038460475503874912 -0.030746548480886423 0 0.0040804035355747822 -0.029642059230169673 0 0.0032813294055733752 -0.030464671843167378 0 0.0033748762016250515 -0.030124933188705214 0 0.0064776293886055231 -0.030616397188745797 0 0.0035994079920295963 -0.030232993166878285 0 0.0012299651721229656 -0.031028212782028435 0 0.0032813294055733752 -0.030464671843167378 0 0.0015926393245533513 -0.029857722418103506 0 0.0012299651721229656 -0.031028212782028435 0 0.0032813294055733752 -0.030464671843167378 0 0.0026006765177894785 -0.031250038978086869 0 0.0032813294055733752 -0.030464671843167378 0 0.0033748762016250515 -0.030124933188705214 0 0.0015926393245533513 -0.029857722418103506 0 0.0033748762016250515 -0.030124933188705214 0 0.0015926393245533513 -0.029857722418103506 0 0.0016299307598161468 -0.027389005554794572 0 0.0033748762016250515 -0.030124933188705214 0 0.0016299307598161468 -0.027389005554794572 0 0.0057719308462579827 -0.02764563048906421 0 0.0016299307598161468 -0.027389005554794572 0 0.0057719308462579827 -0.02764563048906421 0 0.0040540645735998573 -0.024378654134450114 0 0.0085298546213327751 -0.031640721600730302 0 0.0057719308462579827 -0.02764563048906421 0 0.010873124992981912 -0.028188890025345879 0 0.0085298546213327751 -0.031640721600730302 0 0.0033748762016250515 -0.030124933188705214 0 0.0057719308462579827 -0.02764563048906421 0 0.0057719308462579827 -0.02764563048906421 0 0.010873124992981912 -0.028188890025345879 0 0.0081262496049814229 -0.0242391601724329 0 0.010409506330432547 -0.029174680110766078 0 0.015122918385017612 -0.031843312001121331 0 0.010873124992981912 -0.028188890025345879 0 0.0081262496049814229 -0.0242391601724329 0 0.013162661132437652 -0.024838749870693649 0 0.010409506330432547 -0.029174680110766078 0 0.0080812463049300259 -0.029501255333497189 0 0.0057719308462579827 -0.02764563048906421 0 0.0081262496049814229 -0.0242391601724329 0 0.0040540645735998573 -0.024378654134450114 0 0.013269930716393466 -0.034494470498830733 0 0.012717002914341136 -0.033781430105499971 0 0.013224578167017328 -0.033826310178124201 0 0.013269930716393466 -0.034494470498830733 0 0.012717002914341136 -0.033781430105499971 0 0.012107830008950214 -0.034595050452808335 0 0.012717002914341136 -0.033781430105499971 0 0.013224578167017328 -0.033826310178124201 0 0.013223767529107366 -0.033272713086552233 0 0.013269930716393466 -0.034494470498830733 0 0.013740707639413 -0.033589068140522871 0 0.014386124861735124 -0.03444383996484339 0 0.013269930716393466 -0.034494470498830733 0 0.013224578167017328 -0.033826310178124201 0 0.013740707639413 -0.033589068140522871 0 0.0061962961192869427 -0.029703114443552857 0 0.0080812463049300259 -0.029501255333497189 0 0.0010157342276776588 -0.024521686891461031 0 0.0016299307598161468 -0.027389005554794572 0 0.0040540645735998573 -0.024378654134450114 0 0.012717002914341136 -0.033781430105499971 0 0.012107830008950214 -0.034595050452808335 0 0.01211382291323275 -0.033771197675408558 0 0.012107830008950214 -0.034595050452808335 0 0.01211382291323275 -0.033771197675408558 0 0.011493565632622977 -0.033753042127933723 0 0.012717002914341136 -0.033781430105499971 0 0.01211382291323275 -0.033771197675408558 0 0.012364266977351447 -0.033409778374988534 0 0.010709861321145056 -0.034728074602443364 0 0.012107830008950214 -0.034595050452808335 0 0.011493565632622977 -0.033753042127933723 0 0.010709861321145056 -0.034728074602443364 0 0.010750782996400582 -0.033797309045681047 0 0.011493565632622977 -0.033753042127933723 0 0.010750782996400582 -0.033797309045681047 0 0.011493565632622977 -0.033753042127933723 0 0.011116752946185995 -0.033242742229892625 0 0.011116752946185995 -0.033242742229892625 0 0.011579707068863292 -0.033118645317201711 0 0.011408293558780569 -0.032736684050270311 0 0.010883882621046084 -0.03290948108485172 0 0.011116752946185995 -0.033242742229892625 0 0.011408293558780569 -0.032736684050270311 0 0.011493565632622977 -0.033753042127933723 0 0.011116752946185995 -0.033242742229892625 0 0.011579707068863292 -0.033118645317201711 0 0.011493565632622977 -0.033753042127933723 0 0.011579707068863292 -0.033118645317201711 0 0.011972806841806719 -0.033219632485039972 0 0.011579707068863292 -0.033118645317201711 0 0.01175172980165801 -0.032846832940946195 0 0.011408293558780569 -0.032736684050270311 0 0.011579707068863292 -0.033118645317201711 0 0.011972806841806719 -0.033219632485039972 0 0.01175172980165801 -0.032846832940946195 0 0.011972806841806719 -0.033219632485039972 0 0.012111566972246312 -0.032755154858344432 0 0.01175172980165801 -0.032846832940946195 0 0.011972806841806719 -0.033219632485039972 0 0.012422465822861861 -0.033046077798533059 0 0.012111566972246312 -0.032755154858344432 0 0.01211382291323275 -0.033771197675408558 0 0.011493565632622977 -0.033753042127933723 0 0.011972806841806719 -0.033219632485039972 0 0.01211382291323275 -0.033771197675408558 0 0.011972806841806719 -0.033219632485039972 0 0.012364266977351447 -0.033409778374988534 0 0.012364266977351447 -0.033409778374988534 0 0.012422465822861861 -0.033046077798533059 0 0.012725540806433875 -0.033231494438602252 0 0.011972806841806719 -0.033219632485039972 0 0.012364266977351447 -0.033409778374988534 0 0.012422465822861861 -0.033046077798533059 0 0.012422465822861861 -0.033046077798533059 0 0.012473349035998484 -0.03269996421548646 0 0.012720150473603926 -0.032874798883201342 0 0.012473349035998484 -0.03269996421548646 0 0.012302202582541766 -0.032363582532831323 0 0.012111566972246312 -0.032755154858344432 0 0.012422465822861861 -0.033046077798533059 0 0.012473349035998484 -0.03269996421548646 0 0.012111566972246312 -0.032755154858344432 0 0.012645556910169675 -0.032132511005739016 0 0.012548592360127548 -0.032458284636617978 0 0.012302202582541766 -0.032363582532831323 0 0.012473349035998484 -0.03269996421548646 0 0.012548592360127548 -0.032458284636617978 0 0.012302202582541766 -0.032363582532831323 0 0.012302202582541766 -0.032363582532831323 0 0.012111566972246312 -0.032755154858344432 0 0.011858736630070827 -0.032473119382239811 0 0.012111566972246312 -0.032755154858344432 0 0.01175172980165801 -0.032846832940946195 0 0.011858736630070827 -0.032473119382239811 0 0.01175172980165801 -0.032846832940946195 0 0.011858736630070827 -0.032473119382239811 0 0.011408293558780569 -0.032736684050270311 0 0.01153705675347446 -0.032220568212011767 0 0.011858736630070827 -0.032473119382239811 0 0.011408293558780569 -0.032736684050270311 0 0.011062368664566304 -0.032463358791054268 0 0.01153705675347446 -0.032220568212011767 0 0.011408293558780569 -0.032736684050270311 0 0.020247044801275316 -0.034825140093663332 0 0.020057109178454026 -0.034662663815973563 0 0.020145557437167921 -0.034640672237613197 0 0.020247044801275316 -0.034825140093663332 0 0.019875302417625335 -0.034631368962957938 0 0.020057109178454026 -0.034662663815973563 0 0.013740707639413 -0.033589068140522871 0 0.013223767529107366 -0.033272713086552233 0 0.013106562549347703 -0.0327283719660812 0 0.017623703092903897 -0.034864445269239819 0 0.01510846390335456 -0.033469901107950048 0 0.013224578167017328 -0.033826310178124201 0 0.013740707639413 -0.033589068140522871 0 0.013223767529107366 -0.033272713086552233 0 0.012717002914341136 -0.033781430105499971 0 0.012364266977351447 -0.033409778374988534 0 0.012725540806433875 -0.033231494438602252 0 0.012717002914341136 -0.033781430105499971 0 0.013223767529107366 -0.033272713086552233 0 0.012725540806433875 -0.033231494438602252 0 0.012422465822861861 -0.033046077798533059 0 0.012725540806433875 -0.033231494438602252 0 0.012720150473603926 -0.032874798883201342 0 0.012725540806433875 -0.033231494438602252 0 0.012977602756503618 -0.033015724179335459 0 0.012720150473603926 -0.032874798883201342 0 0.013477671035970671 -0.032830526705596559 0 0.01510846390335456 -0.033469901107950048 0 0.013223767529107366 -0.033272713086552233 0 0.012725540806433875 -0.033231494438602252 0 0.012977602756503618 -0.033015724179335459 0 0.013223767529107366 -0.033272713086552233 0 0.012977602756503618 -0.033015724179335459 0 0.013074388656051374 -0.032710116263272783 0 0.012855339899205072 -0.031824119175069353 0 0.012975099474551034 -0.032593082683629149 0 0.013054165760253894 -0.032699607849475315 0 0.019719797403700962 -0.034530573568490847 0 0.019875302417625335 -0.034631368962957938 0 0.019958380365232311 -0.03457235747710001 0 0.012977602756503618 -0.033015724179335459 0 0.012891354240890994 -0.032746984577190753 0 0.013074388656051374 -0.032710116263272783 0 0.012891354240890994 -0.032746984577190753 0 0.012975099474551034 -0.032593082683629149 0 0.013074388656051374 -0.032710116263272783 0 0.014551005055651239 -0.032953161329110532 0 0.01510846390335456 -0.033469901107950048 0 0.012977602756503618 -0.033015724179335459 0 0.012891354240890994 -0.032746984577190753 0 0.012720150473603926 -0.032874798883201342 0 0.012891354240890994 -0.032746984577190753 0 0.012720150473603926 -0.032874798883201342 0 0.012732668390135602 -0.032581495828517486 0 0.012891354240890994 -0.032746984577190753 0 0.012975099474551034 -0.032593082683629149 0 0.012732668390135602 -0.032581495828517486 0 0.012473349035998484 -0.03269996421548646 0 0.012720150473603926 -0.032874798883201342 0 0.012732668390135602 -0.032581495828517486 0 0.012645556910169675 -0.032132511005739016 0 0.012975099474551034 -0.032593082683629149 0 0.012732668390135602 -0.032581495828517486 0 0.012645556910169675 -0.032132511005739016 0 0.012548592360127548 -0.032458284636617978 0 0.012732668390135602 -0.032581495828517486 0 0.012473349035998484 -0.03269996421548646 0 0.012548592360127548 -0.032458284636617978 0 0.012732668390135602 -0.032581495828517486 0 0.020009008595676201 -0.034510350491367234 0 0.019958380365232311 -0.03457235747710001 0 0.020145557437167921 -0.034640672237613197 0 0.019875302417625335 -0.034631368962957938 0 0.019958380365232311 -0.03457235747710001 0 0.020057109178454026 -0.034662663815973563 0 0.019958380365232311 -0.03457235747710001 0 0.020057109178454026 -0.034662663815973563 0 0.020145557437167921 -0.034640672237613197 0 0.020397475087287554 -0.033965177508607738 0 0.021093105668855989 -0.034315529012533763 0 0.020486800041032049 -0.03472240127498704 0 0.020009008595676201 -0.034510350491367234 0 0.020145557437167921 -0.034640672237613197 0 0.020486800041032049 -0.03472240127498704 0 0.020219459489730224 -0.034261907777473677 0 0.020466997093124186 -0.034726496238190345 0 0.021093105668855989 -0.034315529012533763 0 0.020486800041032049 -0.03472240127498704 0 0.021251243854339196 -0.034709528899772274 0 0.020486800041032049 -0.03472240127498704 0 0.021071528618835367 -0.034891133222537216 0 0.020519668612172325 -0.034793863724214322 0 0.020486800041032049 -0.03472240127498704 0 0.021071528618835367 -0.034891133222537216 0 0.021251243854339196 -0.034709528899772274 0 0.020247044801275316 -0.034825140093663332 0 0.020486800041032049 -0.03472240127498704 0 0.020519668612172325 -0.034793863724214322 0 0.020247044801275316 -0.034825140093663332 0 0.020145557437167921 -0.034640672237613197 0 0.020486800041032049 -0.03472240127498704 0 0.017623703092903897 -0.034864445269239819 0 0.015122918385017612 -0.031843312001121331 0 0.020247044801275316 -0.034825140093663332 0 0.020519668612172325 -0.034793863724214322 0 0.020228890177643299 -0.034593643302596885 0 0.020519668612172325 -0.034793863724214322 0 0.020785849093905368 -0.034928465154557428 0 0.020228890177643299 -0.034593643302596885 0 0.021071528618835367 -0.034891133222537216 0 0.020519668612172325 -0.034793863724214322 0 0.020785849093905368 -0.034928465154557428 0 0.020409109077541541 -0.035135568798808095 0 0.021156866787555063 -0.035227216292497587 0 0.020785849093905368 -0.034928465154557428 0 0.020409109077541541 -0.035135568798808095 0 0.020785849093905368 -0.034928465154557428 0 0.020228890177643299 -0.034593643302596885 0 0.019094610170776884 -0.032074873969900219 0 0.015122918385017612 -0.031843312001121331 0 0.02182861338092518 -0.035410967087472094 0 0.021515838673399495 -0.035162113504349383 0 0.02224459436709848 -0.035353463393006053 0 0.021156866787555063 -0.035227216292497587 0 0.020785849093905368 -0.034928465154557428 0 0.021515838673399495 -0.035162113504349383 0 0.021156866787555063 -0.035227216292497587 0 0.02182861338092518 -0.035410967087472094 0 0.021515838673399495 -0.035162113504349383 0 0.021071528618835367 -0.034891133222537216 0 0.020785849093905368 -0.034928465154557428 0 0.021515838673399495 -0.035162113504349383 0 0.021071528618835367 -0.034891133222537216 0 0.021515838673399495 -0.035162113504349383 0 0.021905896977102275 -0.035170797341817044 0 0.021905896977102275 -0.035170797341817044 0 0.02224459436709848 -0.035353463393006053 0 0.022701349449161176 -0.03541063305514823 0 0.021515838673399495 -0.035162113504349383 0 0.021905896977102275 -0.035170797341817044 0 0.02224459436709848 -0.035353463393006053 0 0.021905896977102275 -0.035170797341817044 0 0.021972557569011841 -0.034938621153974607 0 0.022701349449161176 -0.03541063305514823 0 0.021972557569011841 -0.034938621153974607 0 0.023044280904495 -0.035240686521678805 0 0.022701349449161176 -0.03541063305514823 0 0.021071528618835367 -0.034891133222537216 0 0.021905896977102275 -0.035170797341817044 0 0.021972557569011841 -0.034938621153974607 0 0.021071528618835367 -0.034891133222537216 0 0.021972557569011841 -0.034938621153974607 0 0.021251243854339196 -0.034709528899772274 0 0.021757014907447331 -0.034231897777541154 0 0.021972557569011841 -0.034938621153974607 0 0.021251243854339196 -0.034709528899772274 0 0.021757014907447331 -0.034231897777541154 0 0.021093105668855989 -0.034315529012533763 0 0.021251243854339196 -0.034709528899772274 0 0.022757356081000792 -0.034568824612626184 0 0.021757014907447331 -0.034231897777541154 0 0.021972557569011841 -0.034938621153974607 0 0.022757356081000792 -0.034568824612626184 0 0.021972557569011841 -0.034938621153974607 0 0.023044280904495 -0.035240686521678805 0 0.022757356081000792 -0.034568824612626184 0 0.023905391170759748 -0.03491284649825864 0 0.023044280904495 -0.035240686521678805 0 0.023905391170759748 -0.03491284649825864 0 0.023044280904495 -0.035240686521678805 0 0.024030642851756066 -0.035789179672356917 0 0.022701349449161176 -0.03541063305514823 0 0.024030642851756066 -0.035789179672356917 0 0.022844443768693577 -0.035469979133928499 0 0.023044280904495 -0.035240686521678805 0 0.022701349449161176 -0.03541063305514823 0 0.024030642851756066 -0.035789179672356917 0 0.024030642851756066 -0.035789179672356917 0 0.02596271542149076 -0.036927517879803064 0 0.024342020798520287 -0.039515211100505161 0 0.031675304870424956 -0.03356130408455222 0 0.024886323781375553 -0.033507855324548544 0 0.023654776667245178 -0.037491635390131943 0 0.024886323781375553 -0.033507855324548544 0 0.024030642851756066 -0.035789179672356917 0 0.025617796159007861 -0.035201083725926147 0 0.02596271542149076 -0.036927517879803064 0 0.023905391170759748 -0.03491284649825864 0 0.024030642851756066 -0.035789179672356917 0 0.025617796159007861 -0.035201083725926147 0 0.025617796159007861 -0.035201083725926147 0 0.027925748631778029 -0.035581522031835809 0 0.02596271542149076 -0.036927517879803064 0 0.032103921626467781 -0.032832042798461879 0 0.031675304870424956 -0.03356130408455222 0 0.036294031242536676 -0.030124060988083956 0 0.036418367597676915 -0.030166086322900038 0 0.036172791016810917 -0.030190214684978071 0 0.036294031242536676 -0.030124060988083956 0 0.036418367597676915 -0.030166086322900038 0 0.036326049416554887 -0.030120621126430634 0 0.036418367597676915 -0.030166086322900038 0 0.036295956474107403 -0.030257740152385824 0 0.036526637935103926 -0.030309170536932058 0 0.036172791016810917 -0.030190214684978071 0 0.036295956474107403 -0.030257740152385824 0 0.035946916638324583 -0.030398263801794261 0 0.036418367597676915 -0.030166086322900038 0 0.036172791016810917 -0.030190214684978071 0 0.036295956474107403 -0.030257740152385824 0 0.036311917599713986 -0.030410706045190351 0 0.036130711382201364 -0.030542395995740445 0 0.035946916638324583 -0.030398263801794261 0 0.036295956474107403 -0.030257740152385824 0 0.036311917599713986 -0.030410706045190351 0 0.035946916638324583 -0.030398263801794261 0 0.036311917599713986 -0.030410706045190351 0 0.036526637935103926 -0.030309170536932058 0 0.036580389954899532 -0.030511374753835689 0 0.036295956474107403 -0.030257740152385824 0 0.036311917599713986 -0.030410706045190351 0 0.036526637935103926 -0.030309170536932058 0 0.036580389954899532 -0.030511374753835689 0 0.036747656722741447 -0.030761294150695617 0 0.036333138779579395 -0.030670596501765211 0 0.036311917599713986 -0.030410706045190351 0 0.036580389954899532 -0.030511374753835689 0 0.036333138779579395 -0.030670596501765211 0 0.036311917599713986 -0.030410706045190351 0 0.036130711382201364 -0.030542395995740445 0 0.036333138779579395 -0.030670596501765211 0 0.036130711382201364 -0.030542395995740445 0 0.035941424437224465 -0.030707007979019107 0 0.036333138779579395 -0.030670596501765211 0 0.024886323781375553 -0.033507855324548544 0 0.027395124338854372 -0.031033972181314793 0 0.01723610971609461 -0.031455827154385455 0 0.017958005659627099 -0.03046499268856007 0 0.01795527934231924 -0.031909212966722521 0 0.036130711382201364 -0.030542395995740445 0 0.035946916638324583 -0.030398263801794261 0 0.035941424437224465 -0.030707007979019107 0 0.0194222311119055 -0.033669095872879189 0 0.024886323781375553 -0.033507855324548544 0 0.02224459436709848 -0.035353463393006053 0 0.022378905630331656 -0.035497718191565407 0 0.022844443768693577 -0.035469979133928499 0 0.02182861338092518 -0.035410967087472094 0 0.02224459436709848 -0.035353463393006053 0 0.022378905630331656 -0.035497718191565407 0 0.02224459436709848 -0.035353463393006053 0 0.022701349449161176 -0.03541063305514823 0 0.022844443768693577 -0.035469979133928499 0 0.038561255368942261 -0.029821459550074852 0 0.037690541845160658 -0.029990817320622008 0 0.038173635589051194 -0.030091103057488001 0 0.038561255368942261 -0.029821459550074852 0 0.038216785897000484 -0.029813203675772941 0 0.037690541845160658 -0.029990817320622008 0 0.037847467053191662 -0.029880635152274633 0 0.038869558592236182 -0.02956952854141286 0 0.038216785897000484 -0.029813203675772941 0 0.037847467053191662 -0.029880635152274633 0 0.038216785897000484 -0.029813203675772941 0 0.037690541845160658 -0.029990817320622008 0 0.037847467053191662 -0.029880635152274633 0 0.037690541845160658 -0.029990817320622008 0 0.037026703538021774 -0.030070602654661292 0 0.037690541845160658 -0.029990817320622008 0 0.037073228295659545 -0.030110362008049091 0 0.03734356541549088 -0.030233333652595673 0 0.037690541845160658 -0.029990817320622008 0 0.037073228295659545 -0.030110362008049091 0 0.037026703538021774 -0.030070602654661292 0 0.037073228295659545 -0.030110362008049091 0 0.036630212397660573 -0.030118176133917346 0 0.036776088966978815 -0.030202352667751124 0 0.037073228295659545 -0.030110362008049091 0 0.036776088966978815 -0.030202352667751124 0 0.03734356541549088 -0.030233333652595673 0 0.036287324852275087 -0.030145683951330677 0 0.037026703538021774 -0.030070602654661292 0 0.036630212397660573 -0.030118176133917346 0 0.037073228295659545 -0.030110362008049091 0 0.037026703538021774 -0.030070602654661292 0 0.036630212397660573 -0.030118176133917346 0 0.036287324852275087 -0.030145683951330677 0 0.036630212397660573 -0.030118176133917346 0 0.036326049416554887 -0.030120621126430634 0 0.036418367597676915 -0.030166086322900038 0 0.036630212397660573 -0.030118176133917346 0 0.036326049416554887 -0.030120621126430634 0 0.036418367597676915 -0.030166086322900038 0 0.036630212397660573 -0.030118176133917346 0 0.036776088966978815 -0.030202352667751124 0 0.036418367597676915 -0.030166086322900038 0 0.036526637935103926 -0.030309170536932058 0 0.036776088966978815 -0.030202352667751124 0 0.036526637935103926 -0.030309170536932058 0 0.036580389954899532 -0.030511374753835689 0 0.036833822187192798 -0.030388523403821619 0 0.036526637935103926 -0.030309170536932058 0 0.036776088966978815 -0.030202352667751124 0 0.036833822187192798 -0.030388523403821619 0 0.036833701768493668 -0.030552789762403817 0 0.037168544996482832 -0.030570569190674638 0 0.036747656722741447 -0.030761294150695617 0 0.036580389954899532 -0.030511374753835689 0 0.036833701768493668 -0.030552789762403817 0 0.036747656722741447 -0.030761294150695617 0 0.036580389954899532 -0.030511374753835689 0 0.036833822187192798 -0.030388523403821619 0 0.036833701768493668 -0.030552789762403817 0 0.036833822187192798 -0.030388523403821619 0 0.036833701768493668 -0.030552789762403817 0 0.037168544996482832 -0.030570569190674638 0 0.036833822187192798 -0.030388523403821619 0 0.037168544996482832 -0.030570569190674638 0 0.03734356541549088 -0.030233333652595673 0 0.037168544996482832 -0.030570569190674638 0 0.03734356541549088 -0.030233333652595673 0 0.037598870486402772 -0.030416366650927878 0 0.036776088966978815 -0.030202352667751124 0 0.036833822187192798 -0.030388523403821619 0 0.03734356541549088 -0.030233333652595673 0 0.03734356541549088 -0.030233333652595673 0 0.037598870486402772 -0.030416366650927878 0 0.038173635589051194 -0.030091103057488001 0 0.037690541845160658 -0.029990817320622008 0 0.03734356541549088 -0.030233333652595673 0 0.038173635589051194 -0.030091103057488001 0 0.037168544996482832 -0.030570569190674638 0 0.037598870486402772 -0.030416366650927878 0 0.037716244844590859 -0.030717083530542033 0 0.037598870486402772 -0.030416366650927878 0 0.038161725756265544 -0.030415650344501152 0 0.038173635589051194 -0.030091103057488001 0 0.037598870486402772 -0.030416366650927878 0 0.038161725756265544 -0.030415650344501152 0 0.037716244844590859 -0.030717083530542033 0 0.038161725756265544 -0.030415650344501152 0 0.038647041840173674 -0.030192797308003796 0 0.038173635589051194 -0.030091103057488001 0 0.038865608043660349 -0.030482954339450304 0 0.038161725756265544 -0.030415650344501152 0 0.038647041840173674 -0.030192797308003796 0 0.038561255368942261 -0.029821459550074852 0 0.039088511672585764 -0.029928202710466076 0 0.038173635589051194 -0.030091103057488001 0 0.039088511672585764 -0.029928202710466076 0 0.038647041840173674 -0.030192797308003796 0 0.038173635589051194 -0.030091103057488001 0 0.037632590130802765 -0.031029511161843427 0 0.037424844001835655 -0.030994415647589244 0 0.037464722811565855 -0.031141099271619292 0 0.03889475137610366 -0.03153092249790683 0 0.038436806384177492 -0.030838185890080756 0 0.03800276305204825 -0.031307626889519297 0 0.039365069861839894 -0.030987696115609076 0 0.037540840075752653 -0.031103372808300507 0 0.039143935035534941 -0.030845234905111023 0 0.03889475137610366 -0.03153092249790683 0 0.038436806384177492 -0.030838185890080756 0 0.038161725756265544 -0.030415650344501152 0 0.038436806384177492 -0.030838185890080756 0 0.037716244844590859 -0.030717083530542033 0 0.038865608043660349 -0.030482954339450304 0 0.038161725756265544 -0.030415650344501152 0 0.038436806384177492 -0.030838185890080756 0 0.038865608043660349 -0.030482954339450304 0 0.039143935035534941 -0.030845234905111023 0 0.038436806384177492 -0.030838185890080756 0 0.038436806384177492 -0.030838185890080756 0 0.037716244844590859 -0.030717083530542033 0 0.03800276305204825 -0.031307626889519297 0 0.037716244844590859 -0.030717083530542033 0 0.03800276305204825 -0.031307626889519297 0 0.037271614257526925 -0.030999362322735577 0 0.037424844001835655 -0.030994415647589244 0 0.037271614257526925 -0.030999362322735577 0 0.037334552999066524 -0.031093266427957896 0 0.037540840075752653 -0.031103372808300507 0 0.037388698055446791 -0.031041043087927433 0 0.037424844001835655 -0.030994415647589244 0 0.037334552999066524 -0.031093266427957896 0 0.037464722811565855 -0.031141099271619292 0 0.037271614257526925 -0.030999362322735577 0 0.036892217367846786 -0.031033147934490787 0 0.03714303403883356 -0.031132677450667862 0 0.037271614257526925 -0.030999362322735577 0 0.03714303403883356 -0.031132677450667862 0 0.037334552999066524 -0.031093266427957896 0 0.037168544996482832 -0.030570569190674638 0 0.037716244844590859 -0.030717083530542033 0 0.037271614257526925 -0.030999362322735577 0 0.037168544996482832 -0.030570569190674638 0 0.037271614257526925 -0.030999362322735577 0 0.036747656722741447 -0.030761294150695617 0 0.037271614257526925 -0.030999362322735577 0 0.036747656722741447 -0.030761294150695617 0 0.036892217367846786 -0.031033147934490787 0 0.036747656722741447 -0.030761294150695617 0 0.036892217367846786 -0.031033147934490787 0 0.036501570240546267 -0.031048647561949496 0 0.036892217367846786 -0.031033147934490787 0 0.036801400109798869 -0.031187510493054054 0 0.03714303403883356 -0.031132677450667862 0 0.036892217367846786 -0.031033147934490787 0 0.036801400109798869 -0.031187510493054054 0 0.036501570240546267 -0.031048647561949496 0 0.039797489098002521 -0.023324350337452754 0 0.039695714465020654 -0.024010238247111973 0 0.036801400109798869 -0.031187510493054054 0 0.037112473300285276 -0.031349527060788862 0 0.036705877530937556 -0.031382554590188738 0 0.04232898179567629 -0.015847192239017233 0 0.043500946420224534 -0.015509613564360628 0 0.042807515692282319 -0.015083213857437883 0 0.036801400109798869 -0.031187510493054054 0 0.037112473300285276 -0.031349527060788862 0 0.03714303403883356 -0.031132677450667862 0 0.037112473300285276 -0.031349527060788862 0 0.03714303403883356 -0.031132677450667862 0 0.037369017464063146 -0.031218334742301224 0 0.03714303403883356 -0.031132677450667862 0 0.037334552999066524 -0.031093266427957896 0 0.037369017464063146 -0.031218334742301224 0 0.037334552999066524 -0.031093266427957896 0 0.037369017464063146 -0.031218334742301224 0 0.037464722811565855 -0.031141099271619292 0 0.037369017464063146 -0.031218334742301224 0 0.037444718579360728 -0.031257921957015079 0 0.037464722811565855 -0.031141099271619292 0 0.039797489098002521 -0.023324350337452754 0 0.039567420777938678 -0.025740709803183597 0 0.037112473300285276 -0.031349527060788862 0 0.037369017464063146 -0.031218334742301224 0 0.037464735716636596 -0.031260378208066278 0 0.04232898179567629 -0.015847192239017233 0 0.041198959026006308 -0.01545667461513512 0 0.041045659754790166 -0.016204833863766456 0 0.039228346485369756 -0.028370070589233763 0 0.039567420777938678 -0.025740709803183597 0 0.042160934269224445 -0.025069699257122803 0 0.041767351239778934 -0.024777490236260059 0 0.041633957627306782 -0.025208213016647201 0 0.039567420777938678 -0.025740709803183597 0 0.040178456241759704 -0.029653034288309201 0 0.039567420777938678 -0.025740709803183597 0 0.044456067044068445 -0.01872467847462865 0 0.041198959026006308 -0.01545667461513512 0 0.041045659754790166 -0.016204833863766456 0 0.040577981325716148 -0.015865897038045321 0 0.041493466909361593 -0.030459717013586639 0 0.041530024256097239 -0.030394564449249033 0 0.041523613912475256 -0.03044634378023078 0 0.044456067044068445 -0.01872467847462865 0 0.040178456241759704 -0.029653034288309201 0 0.041400058468855451 -0.03050358363981617 0 0.041420189047589727 -0.030543238770941193 0 0.041376993424743089 -0.030572211966338879 0 0.037632590130802765 -0.031029511161843427 0 0.037568173547017483 -0.031231526791707577 0 0.037464722811565855 -0.031141099271619292 0 0.039365069861839894 -0.030987696115609076 0 0.040178456241759704 -0.029653034288309201 0 0.037444718579360728 -0.031257921957015079 0 0.037568173547017483 -0.031231526791707577 0 0.037464722811565855 -0.031141099271619292 0 0.024863411930928218 -0.030637047643656951 0 0.0091375060720549992 -0.031116739024498744 0 0.01796623406782509 -0.033415553963546119 0 0.017318233841890428 -0.032674536090680009 0 0.01795527934231924 -0.031909212966722521 0 0.024863411930928218 -0.030637047643656951 0 0.027395124338854372 -0.031033972181314793 0 0.035907931062392894 -0.031135535534450209 0 0.035941424437224465 -0.030707007979019107 0 0.036201338526427845 -0.030899810523538403 0 0.01796623406782509 -0.033415553963546119 0 0.016862766214840893 -0.033492636777097226 0 0.017318233841890428 -0.032674536090680009 0 0.016862766214840893 -0.033492636777097226 0 0.017318233841890428 -0.032674536090680009 0 0.016490047039430862 -0.032486289577591906 0 0.02182861338092518 -0.035410967087472094 0 0.022378905630331656 -0.035497718191565407 0 0.021981813571273195 -0.035718645935926427 0 0.01723610971609461 -0.031455827154385455 0 0.016490047039430862 -0.032486289577591906 0 0.017251525987762677 -0.032130472756984947 0 0.0194222311119055 -0.033669095872879189 0 0.01957913414754292 -0.03415090176274474 0 0.017318233841890428 -0.032674536090680009 0 0.016490047039430862 -0.032486289577591906 0 0.017251525987762677 -0.032130472756984947 0 0.01723610971609461 -0.031455827154385455 0 0.017251525987762677 -0.032130472756984947 0 0.01795527934231924 -0.031909212966722521 0 0.017318233841890428 -0.032674536090680009 0 0.017251525987762677 -0.032130472756984947 0 0.01795527934231924 -0.031909212966722521 0 0.035941424437224465 -0.030707007979019107 0 0.036333138779579395 -0.030670596501765211 0 0.036201338526427845 -0.030899810523538403 0 0.036333138779579395 -0.030670596501765211 0 0.036501570240546267 -0.031048647561949496 0 0.036201338526427845 -0.030899810523538403 0 0.036747656722741447 -0.030761294150695617 0 0.036333138779579395 -0.030670596501765211 0 0.036501570240546267 -0.031048647561949496 0 0.024863411930928218 -0.030637047643656951 0 0.041145102460063018 -0.031033499742802065 0 0.035907931062392894 -0.031135535534450209 0 0.036501570240546267 -0.031048647561949496 0 0.036201338526427845 -0.030899810523538403 0 0.036098636281470621 -0.031005709892705423 0 0.036501570240546267 -0.031048647561949496 0 0.036256793496297589 -0.03111305986524605 0 0.036256793496297589 -0.03111305986524605 0 0.036461956168582124 -0.031182370478716189 0 0.036161796353036763 -0.031121656116378946 0 0.036501570240546267 -0.031048647561949496 0 0.036256793496297589 -0.03111305986524605 0 0.036461956168582124 -0.031182370478716189 0 0.036801400109798869 -0.031187510493054054 0 0.036501570240546267 -0.031048647561949496 0 0.036461956168582124 -0.031182370478716189 0 0.036461956168582124 -0.031182370478716189 0 0.036705877530937556 -0.031382554590188738 0 0.036362752030561066 -0.031277390573081952 0 0.036801400109798869 -0.031187510493054054 0 0.036461956168582124 -0.031182370478716189 0 0.036705877530937556 -0.031382554590188738 0 0.036161796353036763 -0.031121656116378946 0 0.036362752030561066 -0.031277390573081952 0 0.036290049925875416 -0.031387407315711456 0 0.036461956168582124 -0.031182370478716189 0 0.036161796353036763 -0.031121656116378946 0 0.036362752030561066 -0.031277390573081952 0 0.036161796353036763 -0.031121656116378946 0 0.036280873830058194 -0.030372804230889075 0 0.035881404294542257 -0.030112364137037717 0 0.036705877530937556 -0.031382554590188738 0 0.036362752030561066 -0.031277390573081952 0 0.036318024413654289 -0.031381627168496219 0 0.036636410866936094 -0.034501885527841239 0 0.039564815004004945 -0.019864948079837189 0 0.036161796353036763 -0.031121656116378946 0 0.036236301582311337 -0.031190745603562758 0 0.036280873830058194 -0.030372804230889075 0 0.0070552441748199654 -0.029620814942144101 0 0.0076948085296536673 -0.029357302870836887 0 0.0078537573583861119 -0.030583209847769445 0 0.022018266533346771 -0.030527151098331203 0 0.020479050968766239 -0.027614287675781751 0 0.0064259584186472027 -0.030011656316461209 0 0.0063671280017737432 -0.030154596432204511 0 0.0066241551162921292 -0.030096157244821044 0 0.0031978866205460994 -0.028547873536670539 0 0.020479050968766239 -0.027614287675781751 0 0.0070552441748199654 -0.029620814942144101 0 0.0064259584186472027 -0.030011656316461209 0 0.0078537573583861119 -0.030583209847769445 0 0.036098636281470621 -0.031005709892705423 0 0.036256793496297589 -0.03111305986524605 0 0.036236301582311337 -0.031190745603562758 0 0.0077305046641635922 -0.028371560932580947 0 0.0076948085296536673 -0.029357302870836887 0 0.0073005814743628229 -0.029142203152321876 0 0.024863411930928218 -0.030637047643656951 0 0.022018266533346771 -0.030527151098331203 0 0.036256793496297589 -0.03111305986524605 0 0.036161796353036763 -0.031121656116378946 0 0.036236301582311337 -0.031190745603562758 0 0.0070552441748199654 -0.029620814942144101 0 0.0073005814743628229 -0.029142203152321876 0 0.0067210183656938689 -0.029220506810285395 0 0.0070552441748199654 -0.029620814942144101 0 0.0076948085296536673 -0.029357302870836887 0 0.0073005814743628229 -0.029142203152321876 0 0.0077305046641635922 -0.028371560932580947 0 0.0073005814743628229 -0.029142203152321876 0 0.0067210183656938689 -0.029220506810285395 0 0.0077305046641635922 -0.028371560932580947 0 0.0065360794520413065 -0.028496196653028282 0 0.0067210183656938689 -0.029220506810285395 0 0.0059492388568506771 -0.029161150224012364 0 0.0065360794520413065 -0.028496196653028282 0 0.0067210183656938689 -0.029220506810285395 0 0.0059492388568506771 -0.029161150224012364 0 0.0067210183656938689 -0.029220506810285395 0 0.0062245372575520201 -0.029611928641265713 0 0.0058012477449516098 -0.029782872088149896 0 0.0062245372575520201 -0.029611928641265713 0 0.0061458863972558659 -0.030291755310189419 0 0.0062245372575520201 -0.029611928641265713 0 0.0064259584186472027 -0.030011656316461209 0 0.0061458863972558659 -0.030291755310189419 0 0.0067210183656938689 -0.029220506810285395 0 0.0062245372575520201 -0.029611928641265713 0 0.0064259584186472027 -0.030011656316461209 0 0.0070552441748199654 -0.029620814942144101 0 0.0067210183656938689 -0.029220506810285395 0 0.0064259584186472027 -0.030011656316461209 0 0.0064259584186472027 -0.030011656316461209 0 0.0062072465619768605 -0.030204244262265232 0 0.0063671280017737432 -0.030154596432204511 0 0.0058354214818076167 -0.029714052079047672 0 0.0062038885883520887 -0.030319439843080026 0 0.0061458863972558659 -0.030291755310189419 0 0.0062109613276343069 -0.030130091226748017 0 0.0062469131173980589 -0.030243046573353763 0 0.0061458863972558659 -0.030291755310189419 0 0.0062072465619768605 -0.030204244262265232 0 0.0059338272405676674 -0.030371033205800823 0 0.0064259584186472027 -0.030011656316461209 0 0.0061458863972558659 -0.030291755310189419 0 0.0062072465619768605 -0.030204244262265232 0 0.0062072465619768605 -0.030204244262265232 0 0.0059338272405676674 -0.030371033205800823 0 0.0063671280017737432 -0.030154596432204511 0 0.0059338272405676674 -0.030371033205800823 0 0.0062109613276343069 -0.030130091226748017 0 0.0056859790475898208 -0.029497520380603041 0 0.0061458863972558659 -0.030291755310189419 0 0.0059338272405676674 -0.030371033205800823 0 0.0062109613276343069 -0.030130091226748017 0 0.0062109613276343069 -0.030130091226748017 0 0.0056859790475898208 -0.029497520380603041 0 0.006321433739629673 -0.029631194305704593 0 0.0056859790475898208 -0.029497520380603041 0 0.0049448414878481249 -0.028698152436836762 0 0.0055917759725310993 -0.027722053889318834 0 0.0056859790475898208 -0.029497520380603041 0 0.006321433739629673 -0.029631194305704593 0 0.0055917759725310993 -0.027722053889318834 0 0.021821623950870048 -0.022784675136924764 0 0.026536187919788998 -0.017767714909508223 0 0.0050182788048528104 -0.029607464658302433 0 0.0045419647979525824 -0.030878980100346731 0 0.0036416912788944061 -0.028265706203713041 0 0.0049448414878481249 -0.028698152436836762 0 0.0050182788048528104 -0.029607464658302433 0 0.0036416912788944061 -0.028265706203713041 0 0.0056859790475898208 -0.029497520380603041 0 0.0049448414878481249 -0.028698152436836762 0 0.0050182788048528104 -0.029607464658302433 0 0.0059338272405676674 -0.030371033205800823 0 0.0056859790475898208 -0.029497520380603041 0 0.0050182788048528104 -0.029607464658302433 0 0.0059338272405676674 -0.030371033205800823 0 0.0050182788048528104 -0.029607464658302433 0 0.0045419647979525824 -0.030878980100346731 0 0.0011791723959387146 -0.031051544103643126 0 0.021821623950870048 -0.022784675136924764 0 0.0059338272405676674 -0.030371033205800823 0 0.0063671280017737432 -0.030154596432204511 0 0.0067218936199145143 -0.030268565875935547 0 0.0063671280017737432 -0.030154596432204511 0 0.0067218936199145143 -0.030268565875935547 0 0.0066241551162921292 -0.030096157244821044 0 0.026383600289359932 -0.025535393397252734 0 0.026111285652866419 -0.021483692879139225 0 0.031323697224798615 -0.024351384042418666 0 0.021821623950870048 -0.022784675136924764 0 0.020479050968766239 -0.027614287675781751 0 0.036362752030561066 -0.031277390573081952 0 0.036290049925875416 -0.031387407315711456 0 0.036318024413654289 -0.031381627168496219 0 0.039564815004004945 -0.019864948079837189 0 0.047630977322772154 -0.0038639867995939195 0 0.04845933006057105 -0.012845128374520124 0 0.047145767037416589 -0.013170714934774204 0 0.046737064027377435 -0.0090021492235827193 0 0.047984444283701091 -0.0029690543034192867 0 0.047983707152733437 -0.0029609730265225797 0 0.048001478012805666 -0.0028705940395406058 0 0.047983707152733437 -0.0029609730265225797 0 0.048103464583200251 -0.0027927657536686561 0 0.048001478012805666 -0.0028705940395406058 0 0.020479050968766239 -0.027614287675781751 0 0.039564815004004945 -0.019864948079837189 0 0.021821623950870048 -0.022784675136924764 0 0.039564815004004945 -0.019864948079837189 0 0.039564815004004945 -0.019864948079837189 0 0.041797827602515165 -0.018541860087423284 0 0.039695714465020654 -0.024010238247111973 0 0.041797827602515165 -0.018541860087423284 0 0.043500946420224534 -0.015509613564360628 0 0.044550466825776888 -0.015259412693968391 0 0.043568019372034208 -0.014790588161310044 0 0.041797827602515165 -0.018541860087423284 0 0.046388097997535321 -0.0078768810292174658 0 0.048103464583200251 -0.0027927657536686561 0 0.048001478012805666 -0.0028705940395406058 0 0.048101065747822615 -0.0028698723084980568 0 0.048103464583200251 -0.0027927657536686561 0 0.048101065747822615 -0.0028698723084980568 0 0.048285199649402179 -0.0028317842906044814 0 0.04845933006057105 -0.012845128374520124 0 0.046737064027377435 -0.0090021492235827193 0 0.048339368281182973 -0.0076470691370606305 0 0.048001478012805666 -0.0028705940395406058 0 0.047937042141445896 -0.0029204328446573 0 0.048101065747822615 -0.0028698723084980568 0 0.046737064027377435 -0.0090021492235827193 0 0.046845382724960527 -0.0055098008811124768 0 0.048339368281182973 -0.0076470691370606305 0 0.047630977322772154 -0.0038639867995939195 0 0.047468966226994772 -0.0047212016403074906 0 0.046845382724960527 -0.0055098008811124768 0 0.048169719174354836 -0.0038888357902725108 0 0.048339368281182973 -0.0076470691370606305 0 0.047937042141445896 -0.0029204328446573 0 0.048101065747822615 -0.0028698723084980568 0 0.048069768093241573 -0.0029976384195898966 0 0.047937042141445896 -0.0029204328446573 0 0.048069768093241573 -0.0029976384195898966 0 0.047711420891811809 -0.0033214569351067784 0 0.048069768093241573 -0.0029976384195898966 0 0.048223106943417436 -0.0030953154866053454 0 0.047711420891811809 -0.0033214569351067784 0 0.048101065747822615 -0.0028698723084980568 0 0.048069768093241573 -0.0029976384195898966 0 0.048297681204870907 -0.0029542445988967247 0 0.048069768093241573 -0.0029976384195898966 0 0.048297681204870907 -0.0029542445988967247 0 0.048223106943417436 -0.0030953154866053454 0 0.046845382724960527 -0.0055098008811124768 0 0.048169719174354836 -0.0038888357902725108 0 0.047711420891811809 -0.0033214569351067784 0 0.047468966226994772 -0.0047212016403074906 0 0.047594472429179517 -0.0033354147335793844 0 0.0049862724046818036 -0.023787895092224405 0 0.0055917759725310993 -0.027722053889318834 0 0.0042735279747358563 -0.025907859782695181 0 0.003090970062753798 -0.023802560885249555 0 0.0049862724046818036 -0.023787895092224405 0 0.0042735279747358563 -0.025907859782695181 0 0.0049862724046818036 -0.023787895092224405 0 0.0062338019721778024 -0.023516616036185548 0 0.0055917759725310993 -0.027722053889318834 0 0.0062338019721778024 -0.023516616036185548 0 0.0055917759725310993 -0.027722053889318834 0 0.0072594591837232018 -0.023656259445783902 0 0.006321433739629673 -0.029631194305704593 0 0.0055917759725310993 -0.027722053889318834 0 0.0065157084621461836 -0.030508520096128727 0 0.0054109901339864522 -0.02779997646408407 0 0.0066370648150886015 -0.027177672942810347 0 0.02575705788417856 -0.01371714631996538 0 0.026536187919788998 -0.017767714909508223 0 0.0049448414878481249 -0.028698152436836762 0 0.0055917759725310993 -0.027722053889318834 0 0.0036416912788944061 -0.028265706203713041 0 0.0055917759725310993 -0.027722053889318834 0 0.0042735279747358563 -0.025907859782695181 0 0.0036416912788944061 -0.028265706203713041 0 0.003090970062753798 -0.023802560885249555 0 0.0042735279747358563 -0.025907859782695181 0 0.0036416912788944061 -0.028265706203713041 0 0.048989852450087849 -0.0039558795206023241 0 0.049365948515901821 -0.0043187108864239064 0 0.049493808717831968 -0.0036400089761871746 0 0.048989852450087849 -0.0039558795206023241 0 0.049493808717831968 -0.0036400089761871746 0 0.049048540355517707 -0.0034313489429922523 0 0.041198959026006308 -0.01545667461513512 0 0.040577981325716148 -0.015865897038045321 0 0.040913693925364029 -0.014744106437956784 0 0.048637368456711128 -0.0044352212312655627 0 0.049188896036854231 -0.0050394094569966878 0 0.049365948515901821 -0.0043187108864239064 0 0.048637368456711128 -0.0044352212312655627 0 0.048989852450087849 -0.0039558795206023241 0 0.049365948515901821 -0.0043187108864239064 0 0.044456067044068445 -0.01872467847462865 0 0.045347018475562342 -0.0085855496657093466 0 0.04232898179567629 -0.015847192239017233 0 0.041198959026006308 -0.01545667461513512 0 0.041845612424188001 -0.014844149548197089 0 0.041198959026006308 -0.01545667461513512 0 0.040913693925364029 -0.014744106437956784 0 0.041845612424188001 -0.014844149548197089 0 0.040913693925364029 -0.014744106437956784 0 0.041265697164390408 -0.013650740195109361 0 0.041845612424188001 -0.014844149548197089 0 0.045347018475562342 -0.0085855496657093466 0 0.046184144282404846 -0.0060344820279280564 0 0.046184144282404846 -0.0060344820279280564 0 0.045230239751948537 -0.0087709463333727079 0 0.048741655178888212 -0.0027908103222520544 0 0.048429937830392809 -0.0027272674447395609 0 0.0485538520054168 -0.0028800613310346643 0 0.041265697164390408 -0.013650740195109361 0 0.042475903197623524 -0.014234333993522178 0 0.041845612424188001 -0.014844149548197089 0 0.04232898179567629 -0.015847192239017233 0 0.041845612424188001 -0.014844149548197089 0 0.042807515692282319 -0.015083213857437883 0 0.042475903197623524 -0.014234333993522178 0 0.041845612424188001 -0.014844149548197089 0 0.042807515692282319 -0.015083213857437883 0 0.043568019372034208 -0.014790588161310044 0 0.042475903197623524 -0.014234333993522178 0 0.042807515692282319 -0.015083213857437883 0 0.043500946420224534 -0.015509613564360628 0 0.043568019372034208 -0.014790588161310044 0 0.042807515692282319 -0.015083213857437883 0 0.046388097997535321 -0.0078768810292174658 0 0.045230239751948537 -0.0087709463333727079 0 0.048103464583200251 -0.0027927657536686561 0 0.048429937830392809 -0.0027272674447395609 0 0.048285199649402179 -0.0028317842906044814 0 0.048285199649402179 -0.0028317842906044814 0 0.048297681204870907 -0.0029542445988967247 0 0.0485538520054168 -0.0028800613310346643 0 0.048101065747822615 -0.0028698723084980568 0 0.048285199649402179 -0.0028317842906044814 0 0.048297681204870907 -0.0029542445988967247 0 0.048297681204870907 -0.0029542445988967247 0 0.048573705367699567 -0.0030093468524479356 0 0.048223106943417436 -0.0030953154866053454 0 0.048573705367699567 -0.0030093468524479356 0 0.0485538520054168 -0.0028800613310346643 0 0.048812554401415471 -0.0030303950216290228 0 0.048297681204870907 -0.0029542445988967247 0 0.048573705367699567 -0.0030093468524479356 0 0.0485538520054168 -0.0028800613310346643 0 0.048429937830392809 -0.0027272674447395609 0 0.048285199649402179 -0.0028317842906044814 0 0.0485538520054168 -0.0028800613310346643 0 0.048741655178888212 -0.0027908103222520544 0 0.0485538520054168 -0.0028800613310346643 0 0.048812554401415471 -0.0030303950216290228 0 0.046184144282404846 -0.0060344820279280564 0 0.049626405317391716 -0.0017379612419610464 0 0.049050458838997141 -0.0033969454587382854 0 0.048812554401415471 -0.0030303950216290228 0 0.048943875404796784 -0.0032062813674484073 0 0.048812554401415471 -0.0030303950216290228 0 0.04887336779284121 -0.0030382552686580248 0 0.048943875404796784 -0.0032062813674484073 0 0.048814097213964708 -0.0030740063728977455 0 0.04887336779284121 -0.0030382552686580248 0 0.048943875404796784 -0.0032062813674484073 0 0.048853968923771598 -0.0032683487082869364 0 0.048814097213964708 -0.0030740063728977455 0 0.048943875404796784 -0.0032062813674484073 0 0.049050458838997141 -0.0033969454587382854 0 0.048943875404796784 -0.0032062813674484073 0 0.049048540355517707 -0.0034313489429922523 0 0.048853968923771598 -0.0032683487082869364 0 0.048943875404796784 -0.0032062813674484073 0 0.049048540355517707 -0.0034313489429922523 0 0.046184144282404846 -0.0060344820279280564 0 0.049170074403660245 -0.0043593033088943972 0 0.048561157613163652 -0.0022406347721950896 0 0.048833819639897288 -0.002580200279727515 0 0.048806923875059471 -0.0029065081153619252 0 0.048561157613163652 -0.0022406347721950896 0 0.048833819639897288 -0.002580200279727515 0 0.048790739146316923 -0.0021284680990199261 0 0.048833819639897288 -0.002580200279727515 0 0.048917766400037373 -0.0025709925508018991 0 0.048790739146316923 -0.0021284680990199261 0 0.048814097213964708 -0.0030740063728977455 0 0.04887336779284121 -0.0030382552686580248 0 0.048806923875059471 -0.0029065081153619252 0 0.048833819639897288 -0.002580200279727515 0 0.048806923875059471 -0.0029065081153619252 0 0.048863280497519847 -0.0029048665174117687 0 0.04887336779284121 -0.0030382552686580248 0 0.048806923875059471 -0.0029065081153619252 0 0.048863280497519847 -0.0029048665174117687 0 0.048812554401415471 -0.0030303950216290228 0 0.04887336779284121 -0.0030382552686580248 0 0.048863280497519847 -0.0029048665174117687 0 0.048863280497519847 -0.0029048665174117687 0 0.048917766400037373 -0.0025709925508018991 0 0.048801339253801874 -0.0028225139712070198 0 0.048833819639897288 -0.002580200279727515 0 0.048863280497519847 -0.0029048665174117687 0 0.048917766400037373 -0.0025709925508018991 0 0.048863280497519847 -0.0029048665174117687 0 0.048801339253801874 -0.0028225139712070198 0 0.048537921174687811 -0.0030126319180132327 0 0.048801339253801874 -0.0028225139712070198 0 0.048537921174687811 -0.0030126319180132327 0 0.048370401165411886 -0.0031446651835138162 0 0.048573705367699567 -0.0030093468524479356 0 0.048863280497519847 -0.0029048665174117687 0 0.048537921174687811 -0.0030126319180132327 0 0.048573705367699567 -0.0030093468524479356 0 0.048812554401415471 -0.0030303950216290228 0 0.048863280497519847 -0.0029048665174117687 0 0.048573705367699567 -0.0030093468524479356 0 0.048537921174687811 -0.0030126319180132327 0 0.048223106943417436 -0.0030953154866053454 0 0.048537921174687811 -0.0030126319180132327 0 0.048223106943417436 -0.0030953154866053454 0 0.048066849442170469 -0.0031900309132591727 0 0.048537921174687811 -0.0030126319180132327 0 0.048370401165411886 -0.0031446651835138162 0 0.048066849442170469 -0.0031900309132591727 0 0.048673836989398971 -0.0010885118802731158 0 0.051925853686461174 -0.00045969614669865691 0 0.048370401165411886 -0.0031446651835138162 0 0.048646127336461717 -0.0031369572389688279 0 0.048180331299177405 -0.0034426285781253589 0 0.049865923222341395 0.0011108817966933684 0 0.050493595011140077 0.0013911224205767777 0 0.050062634025445724 0.0019006525122640346 0 0.049865923222341395 0.0011108817966933684 0 0.049534291844165232 0.0011895795780462392 0 0.050062634025445724 0.0019006525122640346 0 0.049043263950946304 0.0016747667739346252 0 0.050126361574322972 0.0024168237150027833 0 0.048673836989398971 -0.0010885118802731158 0 0.049121792342118532 -0.00091932262745550799 0 0.048801339253801874 -0.0028225139712070198 0 0.048646127336461717 -0.0031369572389688279 0 0.049047057748369101 -0.0024031080606664204 0 0.048801339253801874 -0.0028225139712070198 0 0.048370401165411886 -0.0031446651835138162 0 0.048646127336461717 -0.0031369572389688279 0 0.048917766400037373 -0.0025709925508018991 0 0.048801339253801874 -0.0028225139712070198 0 0.049047057748369101 -0.0024031080606664204 0 0.048917766400037373 -0.0025709925508018991 0 0.049047057748369101 -0.0024031080606664204 0 0.048790739146316923 -0.0021284680990199261 0 0.049865923222341395 0.0011108817966933684 0 0.049288588442942975 0.0005067363234330962 0 0.049534291844165232 0.0011895795780462392 0 0.049288588442942975 0.0005067363234330962 0 0.049534291844165232 0.0011895795780462392 0 0.048633581813467143 0.00036487119424688091 0 0.047738766408509659 0.00085165073079348683 0 0.049043263950946304 0.0016747667739346252 0 0.047749164999600163 0.00074393615598559797 0 0.048643608122962027 0.0022431170063344085 0 0.047995526456011885 0.0021048146827965784 0 0.047749164999600163 0.00074393615598559797 0 0.049534291844165232 0.0011895795780462392 0 0.048633581813467143 0.00036487119424688091 0 0.048071255359125702 -0.00074307445090338151 0 0.049288588442942975 0.0005067363234330962 0 0.048633581813467143 0.00036487119424688091 0 0.047947481622290698 -0.00082248269983257181 0 0.049121792342118532 -0.00091932262745550799 0 0.048071255359125702 -0.00074307445090338151 0 0.049047057748369101 -0.0024031080606664204 0 0.048790739146316923 -0.0021284680990199261 0 0.048561157613163652 -0.0022406347721950896 0 0.048071255359125702 -0.00074307445090338151 0 0.048790739146316923 -0.0021284680990199261 0 0.0048662353128822713 -0.02122760062029002 0 0.0044419159377635355 -0.022241331419497894 0 0.0037016331098729742 -0.020847755322341024 0 0.0048766257375035529 -0.020383775683381022 0 0.0037016331098729742 -0.020847755322341024 0 0.0046166296872440773 -0.019807947966250957 0 0.0048662353128822713 -0.02122760062029002 0 0.0048766257375035529 -0.020383775683381022 0 0.0037016331098729742 -0.020847755322341024 0 0.0048766257375035529 -0.020383775683381022 0 0.0055380747746481933 -0.020859059565938105 0 0.0054569787577059374 -0.019934582314693403 0 0.0048662353128822713 -0.02122760062029002 0 0.0048766257375035529 -0.020383775683381022 0 0.0055380747746481933 -0.020859059565938105 0 0.0055380747746481933 -0.020859059565938105 0 0.0057728640132422224 -0.021899202294977417 0 0.0064453009335533025 -0.021057041104273935 0 0.0048662353128822713 -0.02122760062029002 0 0.0055380747746481933 -0.020859059565938105 0 0.0057728640132422224 -0.021899202294977417 0 0.0048662353128822713 -0.02122760062029002 0 0.0057728640132422224 -0.021899202294977417 0 0.0044419159377635355 -0.022241331419497894 0 0.0049862724046818036 -0.023787895092224405 0 0.0062338019721778024 -0.023516616036185548 0 0.0057728640132422224 -0.021899202294977417 0 0.0049862724046818036 -0.023787895092224405 0 0.0057728640132422224 -0.021899202294977417 0 0.0044419159377635355 -0.022241331419497894 0 0.003090970062753798 -0.023802560885249555 0 0.0044419159377635355 -0.022241331419497894 0 0.0037016331098729742 -0.020847755322341024 0 0.003090970062753798 -0.023802560885249555 0 0.0049862724046818036 -0.023787895092224405 0 0.0044419159377635355 -0.022241331419497894 0 0.048169719174354836 -0.0038888357902725108 0 0.047711420891811809 -0.0033214569351067784 0 0.047769547519745076 -0.0031836646619374017 0 0.047711420891811809 -0.0033214569351067784 0 0.048066849442170469 -0.0031900309132591727 0 0.047769547519745076 -0.0031836646619374017 0 0.02575705788417856 -0.01371714631996538 0 0.024347054122323714 -0.01323382433582007 0 0.048223106943417436 -0.0030953154866053454 0 0.047711420891811809 -0.0033214569351067784 0 0.048066849442170469 -0.0031900309132591727 0 0.048370401165411886 -0.0031446651835138162 0 0.048066849442170469 -0.0031900309132591727 0 0.047966234833557067 -0.003288396689441152 0 0.048066849442170469 -0.0031900309132591727 0 0.047769547519745076 -0.0031836646619374017 0 0.047966234833557067 -0.003288396689441152 0 0.047769547519745076 -0.0031836646619374017 0 0.047966234833557067 -0.003288396689441152 0 0.047678239234836953 -0.0035517823824903856 0 0.024347054122323714 -0.01323382433582007 0 0.03784100003106837 -0.0057893816786259555 0 0.047966234833557067 -0.003288396689441152 0 0.048180331299177405 -0.0034426285781253589 0 0.047678239234836953 -0.0035517823824903856 0 0.048370401165411886 -0.0031446651835138162 0 0.047966234833557067 -0.003288396689441152 0 0.048180331299177405 -0.0034426285781253589 0 0.051925853686461174 -0.00045969614669865691 0 0.03784100003106837 -0.0057893816786259555 0 0.050493595011140077 0.0013911224205767777 0 0.051132818481158068 0.0020603404071592606 0 0.050062634025445724 0.0019006525122640346 0 0.051132818481158068 0.0020603404071592606 0 0.051825832208376159 0.0014882608661949243 0 0.051379831861041385 0.0030667118398640973 0 0.050493595011140077 0.0013911224205767777 0 0.051132818481158068 0.0020603404071592606 0 0.051825832208376159 0.0014882608661949243 0 0.03784100003106837 -0.0057893816786259555 0 0.040325108383726459 -0.0013885943935020998 0 0.03784100003106837 -0.0057893816786259555 0 0.013284515224877442 -0.012702808605866469 0 0.028915732335035582 -0.0058394690226551572 0 0.027846273753566877 -0.0059314569140510205 0 0.0281369907699325 -0.0068376908467975657 0 0.027846273753566877 -0.0059314569140510205 0 0.027401279382210094 -0.006778636877198296 0 0.0281369907699325 -0.0068376908467975657 0 0.0041391665985692355 -0.019134848289078247 0 0.0049695417616495976 -0.019194413982744688 0 0.0046166296872440773 -0.019807947966250957 0 0.0037016331098729742 -0.020847755322341024 0 0.0041391665985692355 -0.019134848289078247 0 0.0046166296872440773 -0.019807947966250957 0 0.0049695417616495976 -0.019194413982744688 0 0.0046166296872440773 -0.019807947966250957 0 0.0054569787577059374 -0.019934582314693403 0 0.0048766257375035529 -0.020383775683381022 0 0.0046166296872440773 -0.019807947966250957 0 0.0054569787577059374 -0.019934582314693403 0 0.0054569787577059374 -0.019934582314693403 0 0.0060553914403719024 -0.020333155164752217 0 0.0061116765409496591 -0.019802416541061307 0 0.0055380747746481933 -0.020859059565938105 0 0.0054569787577059374 -0.019934582314693403 0 0.0060553914403719024 -0.020333155164752217 0 0.0054569787577059374 -0.019934582314693403 0 0.0058505985603574577 -0.019300574787789036 0 0.0061116765409496591 -0.019802416541061307 0 0.027846273753566877 -0.0059314569140510205 0 0.026877592827883743 -0.0060629562870188492 0 0.027401279382210094 -0.006778636877198296 0 0.0049695417616495976 -0.019194413982744688 0 0.0054569787577059374 -0.019934582314693403 0 0.0058505985603574577 -0.019300574787789036 0 0.013284515224877442 -0.012702808605866469 0 0.014581982929370999 -0.012449759888908727 0 0.0063197212680110859 -0.01939941049849439 0 0.0064387759233063236 -0.019448844024884504 0 0.0063396859898719234 -0.019057780016134212 0 0.0058505985603574577 -0.019300574787789036 0 0.0064387759233063236 -0.019448844024884504 0 0.0061116765409496591 -0.019802416541061307 0 0.014581982929370999 -0.012449759888908727 0 0.0038805192799211572 -0.018781865452835118 0 0.0064387759233063236 -0.019448844024884504 0 0.006654289351403702 -0.019433838692353506 0 0.0065951567591831335 -0.019662801880048961 0 0.006654289351403702 -0.019433838692353506 0 0.0065951567591831335 -0.019662801880048961 0 0.0066968162783267917 -0.019755959969888059 0 0.0065951567591831335 -0.019662801880048961 0 0.0066968162783267917 -0.019755959969888059 0 0.0065346534707195507 -0.020045330397367916 0 0.0064387759233063236 -0.019448844024884504 0 0.0065951567591831335 -0.019662801880048961 0 0.0065346534707195507 -0.020045330397367916 0 0.0066968162783267917 -0.019755959969888059 0 0.0065346534707195507 -0.020045330397367916 0 0.0067943755661774314 -0.020233062117920895 0 0.0064387759233063236 -0.019448844024884504 0 0.0065346534707195507 -0.020045330397367916 0 0.0061116765409496591 -0.019802416541061307 0 0.0065346534707195507 -0.020045330397367916 0 0.0060553914403719024 -0.020333155164752217 0 0.0061116765409496591 -0.019802416541061307 0 0.0064220283720059492 -0.019425134661926562 0 0.0063936417312032067 -0.019242190376764872 0 0.006196052644737572 -0.019023066984775246 0 0.0064220283720059492 -0.019425134661926562 0 0.0065922845005953338 -0.019556988384650798 0 0.0063936417312032067 -0.019242190376764872 0 0.006654289351403702 -0.019433838692353506 0 0.0066968162783267917 -0.019755959969888059 0 0.0064220283720059492 -0.019425134661926562 0 0.0066968162783267917 -0.019755959969888059 0 0.0064220283720059492 -0.019425134661926562 0 0.0066731783210367077 -0.019784997210713577 0 0.0066968162783267917 -0.019755959969888059 0 0.0066731783210367077 -0.019784997210713577 0 0.0067943755661774314 -0.020233062117920895 0 0.0066731783210367077 -0.019784997210713577 0 0.006826783700915641 -0.020330943599747846 0 0.0067943755661774314 -0.020233062117920895 0 0.0066731783210367077 -0.019784997210713577 0 0.0067625182002453701 -0.020019856808001564 0 0.006826783700915641 -0.020330943599747846 0 0.0064220283720059492 -0.019425134661926562 0 0.0066731783210367077 -0.019784997210713577 0 0.0065922845005953338 -0.019556988384650798 0 0.0066731783210367077 -0.019784997210713577 0 0.0065922845005953338 -0.019556988384650798 0 0.0067625182002453701 -0.020019856808001564 0 0.0065922845005953338 -0.019556988384650798 0 0.0068762030325183821 -0.020116099246118763 0 0.0067625182002453701 -0.020019856808001564 0 0.0068762030325183821 -0.020116099246118763 0 0.0067625182002453701 -0.020019856808001564 0 0.0068295175353712129 -0.020427505347467317 0 0.0068295175353712129 -0.020427505347467317 0 0.006826783700915641 -0.020330943599747846 0 0.0068980337783945593 -0.02071585585173219 0 0.0067625182002453701 -0.020019856808001564 0 0.0068295175353712129 -0.020427505347467317 0 0.006826783700915641 -0.020330943599747846 0 0.006826783700915641 -0.020330943599747846 0 0.0067943755661774314 -0.020233062117920895 0 0.0069755168748064202 -0.020905283761190645 0 0.006826783700915641 -0.020330943599747846 0 0.0068980337783945593 -0.02071585585173219 0 0.0069755168748064202 -0.020905283761190645 0 0.0070649170131892461 -0.021081242259388733 0 0.0068980337783945593 -0.02071585585173219 0 0.0069755168748064202 -0.020905283761190645 0 0.0070649170131892461 -0.021081242259388733 0 0.0067873850257627296 -0.020862568328346265 0 0.0072323459060777227 -0.021237121648116634 0 0.0070649170131892461 -0.021081242259388733 0 0.0071183825552175511 -0.021613359229923627 0 0.0072323459060777227 -0.021237121648116634 0 0.0070649170131892461 -0.021081242259388733 0 0.0067873850257627296 -0.020862568328346265 0 0.0068980337783945593 -0.02071585585173219 0 0.0068295175353712129 -0.020427505347467317 0 0.0067873850257627296 -0.020862568328346265 0 0.0068980337783945593 -0.02071585585173219 0 0.0068762030325183821 -0.020116099246118763 0 0.0068295175353712129 -0.020427505347467317 0 0.0067873850257627296 -0.020862568328346265 0 0.0067873850257627296 -0.020862568328346265 0 0.0072323459060777227 -0.021237121648116634 0 0.0055983782778485673 -0.019866192119031824 0 0.0063685800142632507 -0.02701827653390846 0 0.0050794697909641749 -0.027069365983258886 0 0.0058559329216873214 -0.032650300128753508 0 0.0049365986923617855 -0.032993222340815545 0 0.0045700592214069869 -0.034383892386246492 0 0.0062253106354333331 -0.01990325446667951 0 0.0066818152313652748 -0.020624205963118637 0 0.0054386705430958266 -0.019690086915821133 0 0.0067873850257627296 -0.020862568328346265 0 0.0055983782778485673 -0.019866192119031824 0 0.0065346534707195507 -0.020045330397367916 0 0.0064453009335533025 -0.021057041104273935 0 0.0067663053485525135 -0.020686858749362189 0 0.0065346534707195507 -0.020045330397367916 0 0.0060553914403719024 -0.020333155164752217 0 0.0064453009335533025 -0.021057041104273935 0 0.0055380747746481933 -0.020859059565938105 0 0.0060553914403719024 -0.020333155164752217 0 0.0064453009335533025 -0.021057041104273935 0 0.0065346534707195507 -0.020045330397367916 0 0.0067663053485525135 -0.020686858749362189 0 0.0067943755661774314 -0.020233062117920895 0 0.0067663053485525135 -0.020686858749362189 0 0.006874397738511181 -0.021256027873182062 0 0.0069755168748064202 -0.020905283761190645 0 0.0067663053485525135 -0.020686858749362189 0 0.0067943755661774314 -0.020233062117920895 0 0.0069755168748064202 -0.020905283761190645 0 0.0064453009335533025 -0.021057041104273935 0 0.0067663053485525135 -0.020686858749362189 0 0.006874397738511181 -0.021256027873182062 0 0.006874397738511181 -0.021256027873182062 0 0.0071183825552175511 -0.021613359229923627 0 0.0067951642537076315 -0.022005690201469637 0 0.006874397738511181 -0.021256027873182062 0 0.0069755168748064202 -0.020905283761190645 0 0.0071183825552175511 -0.021613359229923627 0 0.0070649170131892461 -0.021081242259388733 0 0.0069755168748064202 -0.020905283761190645 0 0.0071183825552175511 -0.021613359229923627 0 0.0062338019721778024 -0.023516616036185548 0 0.0057728640132422224 -0.021899202294977417 0 0.0067951642537076315 -0.022005690201469637 0 0.0057728640132422224 -0.021899202294977417 0 0.0064453009335533025 -0.021057041104273935 0 0.0067951642537076315 -0.022005690201469637 0 0.0064453009335533025 -0.021057041104273935 0 0.006874397738511181 -0.021256027873182062 0 0.0067951642537076315 -0.022005690201469637 0 0.0062338019721778024 -0.023516616036185548 0 0.0067951642537076315 -0.022005690201469637 0 0.0072594591837232018 -0.023656259445783902 0 0.006321433739629673 -0.029631194305704593 0 0.0065157084621461836 -0.030508520096128727 0 0.0062274621976834092 -0.030506714873118203 0 0.0060413130209022196 -0.031256356309402704 0 0.0057545154980879875 -0.031096041289662816 0 0.0062274621976834092 -0.030506714873118203 0 0.0065157084621461836 -0.030508520096128727 0 0.0060413130209022196 -0.031256356309402704 0 0.0062274621976834092 -0.030506714873118203 0 0.0065157084621461836 -0.030508520096128727 0 0.0060413130209022196 -0.031256356309402704 0 0.0058559329216873214 -0.032650300128753508 0 0.0071183825552175511 -0.021613359229923627 0 0.0067951642537076315 -0.022005690201469637 0 0.0072594591837232018 -0.023656259445783902 0 0.0071183825552175511 -0.021613359229923627 0 0.0072594591837232018 -0.023656259445783902 0 0.0072323459060777227 -0.021237121648116634 0 0.0066370648150886015 -0.027177672942810347 0 0.0063685800142632507 -0.02701827653390846 0 0.0060413130209022196 -0.031256356309402704 0 0.0058559329216873214 -0.032650300128753508 0 0.0054137271968386349 -0.032076118785628958 0 0.0058559329216873214 -0.032650300128753508 0 0.0054137271968386349 -0.032076118785628958 0 0.0049365986923617855 -0.032993222340815545 0 0.0054137271968386349 -0.032076118785628958 0 0.0049365986923617855 -0.032993222340815545 0 0.0046892074435367836 -0.032434048791767867 0 0.0049365986923617855 -0.032993222340815545 0 0.0046892074435367836 -0.032434048791767867 0 0.004053787955415205 -0.033367183464729548 0 0.0046892074435367836 -0.032434048791767867 0 0.0050988486501868276 -0.031571207571411887 0 0.0043134719857321722 -0.031445819405381312 0 0.0054137271968386349 -0.032076118785628958 0 0.0046892074435367836 -0.032434048791767867 0 0.0050988486501868276 -0.031571207571411887 0 0.0060413130209022196 -0.031256356309402704 0 0.0054137271968386349 -0.032076118785628958 0 0.0057545154980879875 -0.031096041289662816 0 0.0054137271968386349 -0.032076118785628958 0 0.0050988486501868276 -0.031571207571411887 0 0.0057545154980879875 -0.031096041289662816 0 0.0057545154980879875 -0.031096041289662816 0 0.0052005884714052602 -0.030933812106170144 0 0.00590519915174693 -0.030545836697584015 0 0.0050988486501868276 -0.031571207571411887 0 0.0057545154980879875 -0.031096041289662816 0 0.0052005884714052602 -0.030933812106170144 0 0.0050988486501868276 -0.031571207571411887 0 0.0052005884714052602 -0.030933812106170144 0 0.0043134719857321722 -0.031445819405381312 0 0.004765110225841771 -0.030388357552502944 0 0.0052005884714052602 -0.030933812106170144 0 0.0043134719857321722 -0.031445819405381312 0 0.0054965770418096173 -0.030114192232213639 0 0.004765110225841771 -0.030388357552502944 0 0.0052005884714052602 -0.030933812106170144 0 0.0054965770418096173 -0.030114192232213639 0 0.0052005884714052602 -0.030933812106170144 0 0.00590519915174693 -0.030545836697584015 0 0.0060134079723039042 -0.030214524694469735 0 0.0054965770418096173 -0.030114192232213639 0 0.00590519915174693 -0.030545836697584015 0 0.0060134079723039042 -0.030214524694469735 0 0.00590519915174693 -0.030545836697584015 0 0.0062895016322012916 -0.030243678481231183 0 0.0060134079723039042 -0.030214524694469735 0 0.0062469131173980589 -0.030243046573353763 0 0.0062895016322012916 -0.030243678481231183 0 0.0062109613276343069 -0.030130091226748017 0 0.0062469131173980589 -0.030243046573353763 0 0.0062895016322012916 -0.030243678481231183 0 0.006321433739629673 -0.029631194305704593 0 0.0062895016322012916 -0.030243678481231183 0 0.0062274621976834092 -0.030506714873118203 0 0.0062109613276343069 -0.030130091226748017 0 0.006321433739629673 -0.029631194305704593 0 0.0062895016322012916 -0.030243678481231183 0 0.0057545154980879875 -0.031096041289662816 0 0.00590519915174693 -0.030545836697584015 0 0.0062274621976834092 -0.030506714873118203 0 0.00590519915174693 -0.030545836697584015 0 0.0062895016322012916 -0.030243678481231183 0 0.0062274621976834092 -0.030506714873118203 0 0.0012459532727528736 -0.03186248728493455 0 0.0027290333756233203 -0.032038693900175275 0 0.00076358104967939118 -0.032511867361588745 0 0.0012459532727528736 -0.03186248728493455 0 0.0026006765177894785 -0.031250038978086869 0 0.0027290333756233203 -0.032038693900175275 0 -0.00015807836006079598 -0.032538052727563549 0 0.0012459532727528736 -0.03186248728493455 0 0.00076358104967939118 -0.032511867361588745 0 0.0012299651721229656 -0.031028212782028435 0 0.0012459532727528736 -0.03186248728493455 0 0.0026006765177894785 -0.031250038978086869 0 0.0026006765177894785 -0.031250038978086869 0 0.0038460475503874912 -0.030746548480886423 0 0.0027290333756233203 -0.032038693900175275 0 0.004765110225841771 -0.030388357552502944 0 0.0038460475503874912 -0.030746548480886423 0 0.0043134719857321722 -0.031445819405381312 0 0.0038460475503874912 -0.030746548480886423 0 0.0043134719857321722 -0.031445819405381312 0 0.0027290333756233203 -0.032038693900175275 0 0.0027290333756233203 -0.032038693900175275 0 0.003771263912962724 -0.032453833567389158 0 0.0027987478915869005 -0.033595014052647636 0 0.0043134719857321722 -0.031445819405381312 0 0.0027290333756233203 -0.032038693900175275 0 0.003771263912962724 -0.032453833567389158 0 0.0046892074435367836 -0.032434048791767867 0 0.0043134719857321722 -0.031445819405381312 0 0.003771263912962724 -0.032453833567389158 0 0.003771263912962724 -0.032453833567389158 0 0.004053787955415205 -0.033367183464729548 0 0.0027987478915869005 -0.033595014052647636 0 0.0046892074435367836 -0.032434048791767867 0 0.003771263912962724 -0.032453833567389158 0 0.004053787955415205 -0.033367183464729548 0 0.004053787955415205 -0.033367183464729548 0 0.0027987478915869005 -0.033595014052647636 0 0.0033516783752990265 -0.034419727167515492 0 0.0027987478915869005 -0.033595014052647636 0 0.0015405496587717797 -0.033456238643948151 0 0.001312192381671423 -0.034881621295901222 0 0.0027290333756233203 -0.032038693900175275 0 0.0027987478915869005 -0.033595014052647636 0 0.0015405496587717797 -0.033456238643948151 0 0.0027290333756233203 -0.032038693900175275 0 0.0015405496587717797 -0.033456238643948151 0 0.00076358104967939118 -0.032511867361588745 0 -0.0005260690497895761 -0.034524878345919212 0 0.0015405496587717797 -0.033456238643948151 0 0.00076358104967939118 -0.032511867361588745 0 -0.0005260690497895761 -0.034524878345919212 0 0.0015405496587717797 -0.033456238643948151 0 0.001312192381671423 -0.034881621295901222 0 -0.0005260690497895761 -0.034524878345919212 0 -1.4346207227472796e-05 -0.035520437780417607 0 0.001312192381671423 -0.034881621295901222 0 -0.00055250444818229444 -0.036486825063882782 0 -1.4346207227472796e-05 -0.035520437780417607 0 0.00067392891241812528 -0.036076042783087528 0 -1.4346207227472796e-05 -0.035520437780417607 0 0.001312192381671423 -0.034881621295901222 0 0.00067392891241812528 -0.036076042783087528 0 0.0027987478915869005 -0.033595014052647636 0 0.001312192381671423 -0.034881621295901222 0 0.002409615127833724 -0.034962704650916693 0 0.001312192381671423 -0.034881621295901222 0 0.0015590000868167201 -0.035861907202676679 0 0.002409615127833724 -0.034962704650916693 0 0.001312192381671423 -0.034881621295901222 0 0.0015590000868167201 -0.035861907202676679 0 0.00067392891241812528 -0.036076042783087528 0 0.0040025811621104248 -0.028428066049360164 0 0.0033727440246788831 -0.022303378636776929 0 0.0015590000868167201 -0.035861907202676679 0 0.0028066430092144557 -0.036020660920413214 0 0.00063643262145431133 -0.037317168111029121 0 0.0015590000868167201 -0.035861907202676679 0 0.002409615127833724 -0.034962704650916693 0 0.0028066430092144557 -0.036020660920413214 0 -0.00068220798561627837 -0.037107296084169884 0 -0.00055250444818229444 -0.036486825063882782 0 0.00063643262145431133 -0.037317168111029121 0 -0.00055250444818229444 -0.036486825063882782 0 0.00067392891241812528 -0.036076042783087528 0 0.00063643262145431133 -0.037317168111029121 0 0.0015590000868167201 -0.035861907202676679 0 0.00067392891241812528 -0.036076042783087528 0 0.00063643262145431133 -0.037317168111029121 0 0.004053787955415205 -0.033367183464729548 0 0.0045700592214069869 -0.034383892386246492 0 0.0033516783752990265 -0.034419727167515492 0 0.0045700592214069869 -0.034383892386246492 0 0.0033516783752990265 -0.034419727167515492 0 0.0028066430092144557 -0.036020660920413214 0 0.0049365986923617855 -0.032993222340815545 0 0.004053787955415205 -0.033367183464729548 0 0.0045700592214069869 -0.034383892386246492 0 0.0033516783752990265 -0.034419727167515492 0 0.002409615127833724 -0.034962704650916693 0 0.0028066430092144557 -0.036020660920413214 0 0.0027987478915869005 -0.033595014052647636 0 0.0033516783752990265 -0.034419727167515492 0 0.002409615127833724 -0.034962704650916693 0 0.0055427303222290569 -0.019143562562372929 0 0.0054647984114670574 -0.019317145596859181 0 0.0053265415499699183 -0.018496758944431719 0 0.0055983782778485673 -0.019866192119031824 0 0.0055427303222290569 -0.019143562562372929 0 0.0054647984114670574 -0.019317145596859181 0 0.0062253106354333331 -0.01990325446667951 0 0.0059076887752438929 -0.018918180915659669 0 0.0050794697909641749 -0.027069365983258886 0 0.0040025811621104248 -0.028428066049360164 0 0.0054386705430958266 -0.019690086915821133 0 0.0054647984114670574 -0.019317145596859181 0 0.0053265415499699183 -0.018496758944431719 0 0.0054386705430958266 -0.019690086915821133 0 0.0055983782778485673 -0.019866192119031824 0 0.0054647984114670574 -0.019317145596859181 0 0.0065922845005953338 -0.019556988384650798 0 0.0068762030325183821 -0.020116099246118763 0 0.0065181899287863072 -0.019294295111577733 0 0.0065922845005953338 -0.019556988384650798 0 0.0065181899287863072 -0.019294295111577733 0 0.0064411857946859042 -0.019276899767935417 0 0.0065181899287863072 -0.019294295111577733 0 0.0062404816916266362 -0.019044789587292978 0 0.0064411857946859042 -0.019276899767935417 0 0.0053265415499699183 -0.018496758944431719 0 0.0053052503093789158 -0.017992779138942414 0 0.0051990133444503039 -0.017775858857783062 0 0.0055427303222290569 -0.019143562562372929 0 0.0053265415499699183 -0.018496758944431719 0 0.0054318848979992259 -0.018246207808092468 0 0.0059076887752438929 -0.018918180915659669 0 0.005394251983438925 -0.01827595420367318 0 0.0053265415499699183 -0.018496758944431719 0 0.0054318848979992259 -0.018246207808092468 0 0.0053052503093789158 -0.017992779138942414 0 0.00596153233580637 -0.0188025525291 0 0.0062404816916266362 -0.019044789587292978 0 0.005664321138548682 -0.018740805346192092 0 0.0065181899287863072 -0.019294295111577733 0 0.0062404816916266362 -0.019044789587292978 0 0.005664321138548682 -0.018740805346192092 0 0.00596153233580637 -0.0188025525291 0 0.005664321138548682 -0.018740805346192092 0 0.0053382670638382522 -0.018480251125299885 0 0.00596153233580637 -0.0188025525291 0 0.0062404816916266362 -0.019044789587292978 0 0.006240121943913067 -0.018989730884265883 0 0.0062404816916266362 -0.019044789587292978 0 0.0064411857946859042 -0.019276899767935417 0 0.0063936417312032067 -0.019242190376764872 0 0.0062404816916266362 -0.019044789587292978 0 0.0063936417312032067 -0.019242190376764872 0 0.006240121943913067 -0.018989730884265883 0 0.0065922845005953338 -0.019556988384650798 0 0.0064411857946859042 -0.019276899767935417 0 0.0063936417312032067 -0.019242190376764872 0 0.0012092410797773995 -0.027543811336325663 0 0.0033727440246788831 -0.022303378636776929 0 0.0040597841812522453 -0.017210490545441409 0 0.0033727440246788831 -0.022303378636776929 0 0.0042972350182820572 -0.017183291109828754 0 0.004830060634216737 -0.017242430720975505 0 0.0045485988660662752 -0.017438142992840591 0 0.004830060634216737 -0.017242430720975505 0 0.0048871571914386762 -0.017583716262641772 0 0.0045485988660662752 -0.017438142992840591 0 0.004830060634216737 -0.017242430720975505 0 0.0051275685768441609 -0.017765067950291868 0 0.0048871571914386762 -0.017583716262641772 0 0.0061853924245120449 -0.017236890814594705 0 0.0033727440246788831 -0.022303378636776929 0 0.0054318848979992259 -0.018246207808092468 0 0.004830060634216737 -0.017242430720975505 0 0.0051275685768441609 -0.017765067950291868 0 0.0055427303222290569 -0.019143562562372929 0 0.0054318848979992259 -0.018246207808092468 0 0.0066240754105804829 -0.018605398758034557 0 0.0054318848979992259 -0.018246207808092468 0 0.0053052503093789158 -0.017992779138942414 0 0.0051275685768441609 -0.017765067950291868 0 0.0051275685768441609 -0.017765067950291868 0 0.0050353568082940475 -0.017695245782362961 0 0.0048871571914386762 -0.017583716262641772 0 0.0050353568082940475 -0.017695245782362961 0 0.0051990133444503039 -0.017775858857783062 0 0.0048605093249587663 -0.017732587648839882 0 0.0053052503093789158 -0.017992779138942414 0 0.0051275685768441609 -0.017765067950291868 0 0.0050353568082940475 -0.017695245782362961 0 0.0053052503093789158 -0.017992779138942414 0 0.0050353568082940475 -0.017695245782362961 0 0.0051990133444503039 -0.017775858857783062 0 0.0050353568082940475 -0.017695245782362961 0 0.0047329284251227668 -0.017592834033112587 0 0.0048605093249587663 -0.017732587648839882 0 0.0050353568082940475 -0.017695245782362961 0 0.0047329284251227668 -0.017592834033112587 0 0.0048871571914386762 -0.017583716262641772 0 0.0047329284251227668 -0.017592834033112587 0 0.0048871571914386762 -0.017583716262641772 0 0.0045485988660662752 -0.017438142992840591 0 0.0043946060936949985 -0.017480935944242128 0 0.0047329284251227668 -0.017592834033112587 0 0.0045485988660662752 -0.017438142992840591 0 0.0043946060936949985 -0.017480935944242128 0 0.0047329284251227668 -0.017592834033112587 0 0.0045557717475833513 -0.017568444566762802 0 0.0048605093249587663 -0.017732587648839882 0 0.0048322370106796391 -0.017455432387204248 0 0.0046555722214866938 -0.017542891150290386 0 0.0047329284251227668 -0.017592834033112587 0 0.0045557717475833513 -0.017568444566762802 0 0.0048605093249587663 -0.017732587648839882 0 0.0045557717475833513 -0.017568444566762802 0 0.0048605093249587663 -0.017732587648839882 0 0.0046555722214866938 -0.017542891150290386 0 0.0053382670638382522 -0.018480251125299885 0 0.0048322370106796391 -0.017455432387204248 0 0.0037117606825999173 -0.017102616924075133 0 0.005394251983438925 -0.01827595420367318 0 0.0049345158684933402 -0.01789007526396728 0 0.0048605093249587663 -0.017732587648839882 0 0.0053382670638382522 -0.018480251125299885 0 0.0048322370106796391 -0.017455432387204248 0 0.005664321138548682 -0.018740805346192092 0 0.0048605093249587663 -0.017732587648839882 0 0.0053382670638382522 -0.018480251125299885 0 0.0048322370106796391 -0.017455432387204248 0 0.0037117606825999173 -0.017102616924075133 0 0.0048534782668024946 -0.016146594373256797 0 0.00086778392374394333 -0.013495976913135931 0 0.0024860296111075906 -0.01371143209961629 0 0.0048322370106796391 -0.017455432387204248 0 0.0046555722214866938 -0.017542891150290386 0 0.0048534782668024946 -0.016146594373256797 0 -0.0029097638941131109 -0.0094332997878426132 0 0.00032709107636307185 -0.011193981791178451 0 -0.0026591514366919593 -0.010635844184748725 0 0.0063936417312032067 -0.019242190376764872 0 0.006240121943913067 -0.018989730884265883 0 0.006196052644737572 -0.019023066984775246 0 0.006240121943913067 -0.018989730884265883 0 0.0062123057785495057 -0.018898708533748539 0 0.006196052644737572 -0.019023066984775246 0 0.0053382670638382522 -0.018480251125299885 0 0.0061047956994920282 -0.018869023712065214 0 0.0062539590061061632 -0.01897504589506414 0 0.0052589565467361489 -0.018396478994125384 0 0.0049899322401824554 -0.017934597116301201 0 0.006240121943913067 -0.018989730884265883 0 0.0061047956994920282 -0.018869023712065214 0 0.0062123057785495057 -0.018898708533748539 0 0.00596153233580637 -0.0188025525291 0 0.006240121943913067 -0.018989730884265883 0 0.0061047956994920282 -0.018869023712065214 0 0.00596153233580637 -0.0188025525291 0 0.0053382670638382522 -0.018480251125299885 0 0.0061047956994920282 -0.018869023712065214 0 0.0062539590061061632 -0.01897504589506414 0 0.0062123057785495057 -0.018898708533748539 0 0.0061787081661208989 -0.018625682319506207 0 0.0061047956994920282 -0.018869023712065214 0 0.0062539590061061632 -0.01897504589506414 0 0.0062123057785495057 -0.018898708533748539 0 0.0062123057785495057 -0.018898708533748539 0 0.0060707400458388681 -0.01868281567779637 0 0.006196052644737572 -0.019023066984775246 0 0.0062123057785495057 -0.018898708533748539 0 0.0061787081661208989 -0.018625682319506207 0 0.0060707400458388681 -0.01868281567779637 0 0.0061787081661208989 -0.018625682319506207 0 0.0058967472303950007 -0.018220924560460622 0 0.0063348228746556911 -0.01815351753283536 0 0.0061787081661208989 -0.018625682319506207 0 0.0060707400458388681 -0.01868281567779637 0 0.0058967472303950007 -0.018220924560460622 0 0.0027917441352081464 -0.014498832125222091 0 0.0037085598209724837 -0.015700224389842192 0 0.0029667948757625779 -0.014163567470450614 0 0.002943590550805683 -0.014082158461448179 0 0.0024860296111075906 -0.01371143209961629 0 0.0037117606825999173 -0.017102616924075133 0 0.0027917441352081464 -0.014498832125222091 0 0.0037085598209724837 -0.015700224389842192 0 0.0037085598209724837 -0.015700224389842192 0 0.0029667948757625779 -0.014163567470450614 0 0.0048534782668024946 -0.016146594373256797 0 0.0062539590061061632 -0.01897504589506414 0 0.0061787081661208989 -0.018625682319506207 0 0.0063348228746556911 -0.01815351753283536 0 0.0049899322401824554 -0.017934597116301201 0 0.0045946646657801325 -0.016393540602197075 0 0.0027718797202093827 -0.014728352075351003 0 0.0029667948757625779 -0.014163567470450614 0 0.0013712442054012301 -0.01440626565812974 0 0.0027718797202093827 -0.014728352075351003 0 0.0029667948757625779 -0.014163567470450614 0 0.0037783516970127042 -0.014926263319193589 0 0.0058967472303950007 -0.018220924560460622 0 0.0063348228746556911 -0.01815351753283536 0 0.0059259196853912316 -0.017854332648628707 0 0.0045946646657801325 -0.016393540602197075 0 0.0047978872793013137 -0.016229937493860886 0 0.0027917441352081464 -0.014498832125222091 0 0.0029667948757625779 -0.014163567470450614 0 0.0037783516970127042 -0.014926263319193589 0 0.0063348228746556911 -0.01815351753283536 0 0.0059259196853912316 -0.017854332648628707 0 0.0058510346224379846 -0.017345323230811529 0 0.0059259196853912316 -0.017854332648628707 0 0.0058510346224379846 -0.017345323230811529 0 0.0056397983966643764 -0.017728666343168102 0 0.00032709107636307185 -0.011193981791178451 0 -0.00045006141684641668 -0.013072341488874895 0 -0.0026591514366919593 -0.010635844184748725 0 -0.00045006141684641668 -0.013072341488874895 0 -0.0026171196430775875 -0.012759670450097044 0 -0.0026591514366919593 -0.010635844184748725 0 0.0037117606825999173 -0.017102616924075133 0 0.0037085598209724837 -0.015700224389842192 0 0.0048534782668024946 -0.016146594373256797 0 0.0013712442054012301 -0.01440626565812974 0 -0.00045006141684641668 -0.013072341488874895 0 -0.00016035785199410832 -0.015113365042046793 0 0.00032709107636307185 -0.011193981791178451 0 0.0013712442054012301 -0.01440626565812974 0 -0.00045006141684641668 -0.013072341488874895 0 0.0029667948757625779 -0.014163567470450614 0 0.00032709107636307185 -0.011193981791178451 0 0.0013712442054012301 -0.01440626565812974 0 -0.0046884183884075619 -0.0091137736873721422 0 -0.005299137495987912 -0.0088342794652078397 0 -0.0053021393423996147 -0.0091297742926715521 0 -0.0024674192000909735 -0.012053226791696511 0 -0.0038708785917225541 -0.010761180213650032 0 -0.00045006141684641668 -0.013072341488874895 0 -0.00016035785199410832 -0.015113365042046793 0 -0.0026171196430775875 -0.012759670450097044 0 -0.0046884183884075619 -0.0091137736873721422 0 -0.0047749307741176391 -0.0095603752791924655 0 -0.0053021393423996147 -0.0091297742926715521 0 -0.0047749307741176391 -0.0095603752791924655 0 -0.0053079251911273481 -0.0097439519747591422 0 -0.0053021393423996147 -0.0091297742926715521 0 -0.0052596671544019218 -0.0071166767990031455 0 -0.0063794912558700822 -0.0075474062403356225 0 -0.0047749307741176391 -0.0095603752791924655 0 -0.004407235662014921 -0.010177721201567855 0 -0.0053079251911273481 -0.0097439519747591422 0 -0.0047749307741176391 -0.0095603752791924655 0 -0.0039400917601786966 -0.0097248679424356468 0 -0.004407235662014921 -0.010177721201567855 0 -0.0046884183884075619 -0.0091137736873721422 0 -0.0047749307741176391 -0.0095603752791924655 0 -0.0039400917601786966 -0.0097248679424356468 0 -0.00016035785199410832 -0.015113365042046793 0 0.001726666616053543 -0.016485404350877066 0 0.002531139215570387 -0.015258991751642248 0 -0.0024674192000909735 -0.012053226791696511 0 -0.0010600058752982366 -0.013323560501271221 0 0.0013712442054012301 -0.01440626565812974 0 -0.00016035785199410832 -0.015113365042046793 0 0.002531139215570387 -0.015258991751642248 0 0.0027718797202093827 -0.014728352075351003 0 0.002531139215570387 -0.015258991751642248 0 0.0037783516970127042 -0.014926263319193589 0 0.0027718797202093827 -0.014728352075351003 0 0.0013712442054012301 -0.01440626565812974 0 0.002531139215570387 -0.015258991751642248 0 0.002531139215570387 -0.015258991751642248 0 0.0037783516970127042 -0.014926263319193589 0 0.0027470452313521666 -0.015998717996244069 0 0.001726666616053543 -0.016485404350877066 0 0.002531139215570387 -0.015258991751642248 0 0.0027470452313521666 -0.015998717996244069 0 0.0037783516970127042 -0.014926263319193589 0 0.0035334019633532694 -0.016415151059501462 0 0.0027470452313521666 -0.015998717996244069 0 0.0037783516970127042 -0.014926263319193589 0 0.0035334019633532694 -0.016415151059501462 0 0.0049894864878722092 -0.016989213380189425 0 0.0047978872793013137 -0.016229937493860886 0 0.0050255016524671202 -0.01695843411384744 0 0.0035334019633532694 -0.016415151059501462 0 0.0030088680285122295 -0.016762206119223105 0 0.0039567625655752081 -0.017219336647173417 0 0.0035334019633532694 -0.016415151059501462 0 0.0039567625655752081 -0.017219336647173417 0 0.0049894864878722092 -0.016989213380189425 0 -0.0010600058752982366 -0.013323560501271221 0 0.00016403383691089961 -0.012694337649505076 0 0.001726666616053543 -0.016485404350877066 0 0.0030088680285122295 -0.016762206119223105 0 0.003257384815153655 -0.017638099504700196 0 -0.0039400917601786966 -0.0097248679424356468 0 -0.0031071529670045322 -0.010634630137114732 0 -0.004407235662014921 -0.010177721201567855 0 0.001726666616053543 -0.016485404350877066 0 0.0027470452313521666 -0.015998717996244069 0 0.0030088680285122295 -0.016762206119223105 0 0.0035334019633532694 -0.016415151059501462 0 0.0027470452313521666 -0.015998717996244069 0 0.0030088680285122295 -0.016762206119223105 0 -0.00085247073944499474 -0.0062379256412234416 0 -0.0025075986621236309 -0.0080497151400696614 0 -0.0038742455454147192 -0.0068154110103693811 0 0.00016403383691089961 -0.012694337649505076 0 -0.0052596671544019218 -0.0071166767990031455 0 -0.00085247073944499474 -0.0062379256412234416 0 0.00052803597769866394 -0.0078099165558938761 0 -0.0025075986621236309 -0.0080497151400696614 0 0.0039567625655752081 -0.017219336647173417 0 0.0047085629673307254 -0.017385878515623742 0 0.0049894864878722092 -0.016989213380189425 0 0.0039567625655752081 -0.017219336647173417 0 0.0040555502817344489 -0.017623126519213599 0 0.0047085629673307254 -0.017385878515623742 0 0.0030088680285122295 -0.016762206119223105 0 0.003257384815153655 -0.017638099504700196 0 0.0039567625655752081 -0.017219336647173417 0 0.003257384815153655 -0.017638099504700196 0 0.0039567625655752081 -0.017219336647173417 0 0.0040555502817344489 -0.017623126519213599 0 0.0023563491625331993 -0.016824866322836272 0 0.0040555502817344489 -0.017623126519213599 0 0.0035967921780269826 -0.018167173239216055 0 0.00016403383691089961 -0.012694337649505076 0 0.0027783553693359192 -0.0087197963165339138 0 0.00016403383691089961 -0.012694337649505076 0 0.0046414625465144984 -0.016673315028078898 0 0.0040555502817344489 -0.017623126519213599 0 0.0035967921780269826 -0.018167173239216055 0 0.0049160438586318168 -0.017722498014038003 0 0.0027783553693359192 -0.0087197963165339138 0 0.004406049631538957 -0.0091582866731088411 0 0.0041367148289054969 -0.0015388945283889661 0 0.0013273794222326727 -0.000346976915640911 0 0.0036043666625312745 0.0023551319374704887 0 0.0013612050258473816 0.0025572358865737321 0 0.0030314906134543932 0.0010550582425699769 0 0.0031575182836594651 -0.0014388713743818491 0 0.0037751701506308459 -0.0021558590423604715 0 0.0018365571508897195 -0.001980696808654819 0 0.0029502403352442636 -0.0087044180814511568 0 0.0027061412012696078 -0.0084200644207255721 0 0.0042700693744363478 -0.008162200456134916 0 0.0046455735149398053 -0.0052972147543755062 0 0.0045713581890351003 -0.0051983852617195391 0 0.0044939185239724422 -0.0053767488910521346 0 0.0030343308754085512 -0.005456332182513797 0 0.004406049631538957 -0.0091582866731088411 0 0.0030343308754085512 -0.005456332182513797 0 0.0041367148289054969 -0.0015388945283889661 0 0.0030343308754085512 -0.005456332182513797 0 0.0013273794222326727 -0.000346976915640911 0 0.0027405571275906783 -0.0039851474830954695 0 0.0023544997515939649 -0.0035352128287989377 0 0.00057646861577804564 -0.0048644117411042074 0 0.0030343308754085512 -0.005456332182513797 0 0.0027783553693359192 -0.0087197963165339138 0 0.0036043666625312745 0.0023551319374704887 0 0.0038089860595339809 0.0021152053436417958 0 0.0030314906134543932 0.0010550582425699769 0 0.0041367148289054969 -0.0015388945283889661 0 0.0044395229392829869 -0.00033145632727349194 0 0.0023544997515939649 -0.0035352128287989377 0 -0.00058583734673606713 -0.0040034440037378773 0 0.00057646861577804564 -0.0048644117411042074 0 0.0027783553693359192 -0.0087197963165339138 0 -0.00180041023440941 -0.0060560234107712788 0 -0.00058583734673606713 -0.0040034440037378773 0 0.00057646861577804564 -0.0048644117411042074 0 -0.0035272589874336927 -0.0044760883750569452 0 0.0013612050258473816 0.0025572358865737321 0 -0.0002572137347331091 0.0018918538872191176 0 0.0016942929066240506 0.0010589019561661397 0 0.0013273794222326727 -0.000346976915640911 0 0.00046270111556597269 0.0016510390643944535 0 0.0013152102173767555 0.002523084665678159 0 -0.0002572137347331091 0.0018918538872191176 0 -0.0017125320145855816 0.0028001861457957423 0 -0.00180041023440941 -0.0060560234107712788 0 -0.0037880204511337237 -0.0034156521019972018 0 0.0013273794222326727 -0.000346976915640911 0 -0.0037880204511337237 -0.0034156521019972018 0 -0.0025075986621236309 -0.0080497151400696614 0 -0.0051400172416941311 -0.0080272872580798935 0 -0.0038742455454147192 -0.0068154110103693811 0 -0.0002572137347331091 0.0018918538872191176 0 -0.0017125320145855816 0.0028001861457957423 0 -0.0026890829999213785 0.0013598146466469146 0 -0.0037880204511337237 -0.0034156521019972018 0 -0.007735417441776405 -0.0055365488131766082 0 -0.0017125320145855816 0.0028001861457957423 0 -0.0026890829999213785 0.0013598146466469146 0 -0.0043911624122577805 0.0023339367535437534 0 -0.0051400172416941311 -0.0080272872580798935 0 -0.0069334715574124245 -0.0067196351291935706 0 -0.0080382769699799128 -0.0068999569218610004 0 -0.0050335456197704498 -0.0036786183072066154 0 -0.0065168025460393035 -0.0039564072099135079 0 -0.0070230121081975424 -0.0035570131912317617 0 -0.0037880204511337237 -0.0034156521019972018 0 -0.0052507736831326401 -0.0005915156058312526 0 -0.0051400172416941311 -0.0080272872580798935 0 -0.0065558065552287674 -0.0062002859337938129 0 -0.0051834434050546377 -0.0065675356227922303 0 -0.0051400172416941311 -0.0080272872580798935 0 -0.0069334715574124245 -0.0067196351291935706 0 -0.0065558065552287674 -0.0062002859337938129 0 -0.0065558065552287674 -0.0062002859337938129 0 -0.0050436428632735456 -0.0052080447226347248 0 -0.0078316752774658174 -0.0050920587733523839 0 -0.0069334715574124245 -0.0067196351291935706 0 -0.0065558065552287674 -0.0062002859337938129 0 -0.0078093302071995992 -0.0060004016592678329 0 -0.0065558065552287674 -0.0062002859337938129 0 -0.0050436428632735456 -0.0052080447226347248 0 -0.0051834434050546377 -0.0065675356227922303 0 -0.0050436428632735456 -0.0052080447226347248 0 -0.0038742455454147192 -0.0068154110103693811 0 -0.0051834434050546377 -0.0065675356227922303 0 -0.00085247073944499474 -0.0062379256412234416 0 -0.0050436428632735456 -0.0052080447226347248 0 -0.0038742455454147192 -0.0068154110103693811 0 -0.0051400172416941311 -0.0080272872580798935 0 -0.0038742455454147192 -0.0068154110103693811 0 -0.0051834434050546377 -0.0065675356227922303 0 0.0087761669318576693 -0.0047329928509130476 0 0.009065910400853831 -0.0048854932481864552 0 0.0093302447348568157 -0.0046082513569489277 0 0.0087761669318576693 -0.0047329928509130476 0 0.009065910400853831 -0.0048854932481864552 0 0.0088784797409310542 -0.0051059109647396839 0 0.0087761669318576693 -0.0047329928509130476 0 0.0088784797409310542 -0.0051059109647396839 0 0.0084674189704394501 -0.0049531558693368376 0 0.009065910400853831 -0.0048854932481864552 0 0.0093564085076622335 -0.0048703146083906379 0 0.0093114988745329162 -0.005396256569356511 0 0.009065910400853831 -0.0048854932481864552 0 0.0093564085076622335 -0.0048703146083906379 0 0.0093302447348568157 -0.0046082513569489277 0 0.019753024367339583 0.0019206812831031011 0 0.019518586382260342 0.001323032210636404 0 0.019976588118171868 0.0016547776210587368 0 0.014395999084315499 -0.0021136067675732503 0 0.011831319703655984 0.0016106452029999163 0 0.0093114988745329162 -0.005396256569356511 0 0.0088784797409310542 -0.0051059109647396839 0 0.0086021225356664767 -0.0054122364892931164 0 0.009065910400853831 -0.0048854932481864552 0 0.0093114988745329162 -0.005396256569356511 0 0.0088784797409310542 -0.0051059109647396839 0 0.011831319703655984 0.0016106452029999163 0 0.0072405042615227367 -0.0020878628561185187 0 0.0088784797409310542 -0.0051059109647396839 0 0.0086021225356664767 -0.0054122364892931164 0 0.0084674189704394501 -0.0049531558693368376 0 0.0086021225356664767 -0.0054122364892931164 0 0.0081000440593598129 -0.004989215264030687 0 0.0084674189704394501 -0.0049531558693368376 0 0.0072405042615227367 -0.0020878628561185187 0 0.0050267937900375405 -0.0020603476969525861 0 0.0065703268948591369 0.0019073800618982129 0 0.0039036827698497294 0.002114477208135037 0 0.0043789819213284143 0.0012499613828774972 0 0.0086021225356664767 -0.0054122364892931164 0 0.0077988426002444673 -0.0053503604238606239 0 0.0081000440593598129 -0.004989215264030687 0 0.0039036827698497294 0.002114477208135037 0 0.0037795201665557572 0.0019419603160685389 0 0.0043789819213284143 0.0012499613828774972 0 0.0040237201827438224 -0.0019321791041723771 0 0.0051078786586188033 -0.0020262114126689819 0 0.0046474077743641901 -0.0026601656430254553 0 0.0041367148289054969 -0.0015388945283889661 0 0.0050267937900375405 -0.0020603476969525861 0 0.0050267937900375405 -0.0020603476969525861 0 0.0044395229392829869 -0.00033145632727349194 0 0.0045713581890351003 -0.0051983852617195391 0 0.0045327981534091745 -0.0051947841997816747 0 0.0044939185239724422 -0.0053767488910521346 0 0.0050267937900375405 -0.0020603476969525861 0 0.0065505808948936083 -0.0068264432022004575 0 0.0045327981534091745 -0.0051947841997816747 0 0.0044939185239724422 -0.0053767488910521346 0 0.0044146407140208468 -0.0053966865189858399 0 0.0049160438586318168 -0.017722498014038003 0 0.0052210501866159749 -0.017366059190062087 0 0.0047085629673307254 -0.017385878515623742 0 0.0040555502817344489 -0.017623126519213599 0 0.0049160438586318168 -0.017722498014038003 0 0.0047085629673307254 -0.017385878515623742 0 0.004406049631538957 -0.0091582866731088411 0 0.0061370372267556365 -0.0085710316595835698 0 0.0046892372963996606 -0.0088259179830721748 0 0.0063239728713713906 -0.0085512286715747864 0 0.0067469883998632803 -0.0079719221758526183 0 0.004406049631538957 -0.0091582866731088411 0 0.0065505808948936083 -0.0068264432022004575 0 0.0065505808948936083 -0.0068264432022004575 0 0.0061370372267556365 -0.0085710316595835698 0 0.0052210501866159749 -0.017366059190062087 0 0.0047085629673307254 -0.017385878515623742 0 0.0049894864878722092 -0.016989213380189425 0 0.0090119562195919711 -0.0046247268958281157 0 0.0061370372267556365 -0.0085710316595835698 0 0.0061370372267556365 -0.0085710316595835698 0 0.0063811032360635324 -0.011333043740775867 0 0.0087761669318576693 -0.0047329928509130476 0 0.0081372352266226265 -0.0049453794406483752 0 0.0084674189704394501 -0.0049531558693368376 0 0.0083860234825396691 -0.0052988632662097305 0 0.0071210278346110828 -0.0058988435756856857 0 0.0079523052763223294 -0.004780202543536418 0 0.0080849674739733174 -0.0050157532740819208 0 0.0081372352266226265 -0.0049453794406483752 0 0.0084674189704394501 -0.0049531558693368376 0 0.0065505808948936083 -0.0068264432022004575 0 0.0088277674812287758 -0.0052535326854786287 0 0.0052547183297540221 -0.01707619322308428 0 0.0052218473062786023 -0.017060934765105468 0 0.0052384795135999333 -0.017314202749060877 0 0.0052210501866159749 -0.017366059190062087 0 0.0052547183297540221 -0.01707619322308428 0 0.0052218473062786023 -0.017060934765105468 0 0.0052210501866159749 -0.017366059190062087 0 0.0049894864878722092 -0.016989213380189425 0 0.0052218473062786023 -0.017060934765105468 0 0.0058510346224379846 -0.017345323230811529 0 0.0049894864878722092 -0.016989213380189425 0 0.0052218473062786023 -0.017060934765105468 0 0.0058510346224379846 -0.017345323230811529 0 0.0052218473062786023 -0.017060934765105468 0 0.0054100772169428189 -0.017414047130112957 0 0.0058510346224379846 -0.017345323230811529 0 0.0054100772169428189 -0.017414047130112957 0 0.0056397983966643764 -0.017728666343168102 0 0.0052547183297540221 -0.01707619322308428 0 0.0052384795135999333 -0.017314202749060877 0 0.0051001581367443715 -0.017364774806157311 0 0.0052218473062786023 -0.017060934765105468 0 0.0054100772169428189 -0.017414047130112957 0 0.0052384795135999333 -0.017314202749060877 0 0.0054100772169428189 -0.017414047130112957 0 0.0052384795135999333 -0.017314202749060877 0 0.0053386188798551894 -0.017659220907306022 0 0.0052384795135999333 -0.017314202749060877 0 0.0051001581367443715 -0.017364774806157311 0 0.0051493395711411571 -0.017588894156401504 0 0.0063811032360635324 -0.011333043740775867 0 0.0076639108181331241 -0.01157713007284421 0 0.0051001581367443715 -0.017364774806157311 0 0.0049327570129979537 -0.017299859002431594 0 0.0049677557138990257 -0.017574672398864462 0 0.0052547183297540221 -0.01707619322308428 0 0.0051001581367443715 -0.017364774806157311 0 0.0050085573136388764 -0.017319252726604357 0 0.0062410922554735427 -0.013588903625353707 0 0.0076639108181331241 -0.01157713007284421 0 0.0086876542533775893 -0.0039514249783967033 0 0.0087137658507818305 -0.0045823149534255214 0 0.0090689284176428565 -0.0043589503724462452 0 0.0090119562195919711 -0.0046247268958281157 0 0.0090683718832324112 -0.0047722989349832361 0 0.0079523052763223294 -0.004780202543536418 0 0.0086876542533775893 -0.0039514249783967033 0 0.0087137658507818305 -0.0045823149534255214 0 0.0083860234825396691 -0.0052988632662097305 0 0.0087137658507818305 -0.0045823149534255214 0 0.0093302447348568157 -0.0046082513569489277 0 0.0083860234825396691 -0.0052988632662097305 0 0.0079523052763223294 -0.004780202543536418 0 0.0087137658507818305 -0.0045823149534255214 0 0.019753024367339583 0.0019206812831031011 0 0.019916581711278768 0.0023937516387084767 0 0.020107839014572297 0.0023642926589168608 0 0.0093564085076622335 -0.0048703146083906379 0 0.0093302447348568157 -0.0046082513569489277 0 0.0094832169209991234 -0.0042419174689417652 0 0.014395999084315499 -0.0021136067675732503 0 0.018493794622826576 -0.0015971328448553272 0 0.0087137658507818305 -0.0045823149534255214 0 0.0093302447348568157 -0.0046082513569489277 0 0.0090689284176428565 -0.0043589503724462452 0 0.0093302447348568157 -0.0046082513569489277 0 0.0094832169209991234 -0.0042419174689417652 0 0.0090689284176428565 -0.0043589503724462452 0 0.0076639108181331241 -0.01157713007284421 0 0.018493794622826576 -0.0015971328448553272 0 0.013039761258904501 -0.0085291883752814952 0 0.015393722220150062 -0.0091127571630018403 0 0.015492452976185969 -0.0079647687295669317 0 0.03032423128310591 0.0018258997093970396 0 0.030310181367881009 0.0015967131893330825 0 0.030155649008647586 0.0018952628825532314 0 0.0086876542533775893 -0.0039514249783967033 0 0.0094832169209991234 -0.0042419174689417652 0 0.0090689284176428565 -0.0043589503724462452 0 0.018493794622826576 -0.0015971328448553272 0 0.031099063645110826 -0.00059289259892696502 0 0.025293001306021495 -0.0056875266478489854 0 0.025793010701192644 -0.0065098316229433078 0 0.025160230297165971 -0.0074320231074365885 0 0.031099063645110826 -0.00059289259892696502 0 0.028709629884752359 -0.0064842791653387253 0 0.031099063645110826 -0.00059289259892696502 0 0.01150392284992577 -0.013297670911313285 0 0.013039761258904501 -0.0085291883752814952 0 0.015492452976185969 -0.0079647687295669317 0 0.014507531896696473 -0.0065561694769941626 0 0.0049327570129979537 -0.017299859002431594 0 0.0046084857425065379 -0.017762464677234021 0 0.0049677557138990257 -0.017574672398864462 0 0.0046084857425065379 -0.017762464677234021 0 0.0049677557138990257 -0.017574672398864462 0 0.0050297198170784589 -0.017864839851158137 0 0.0076639108181331241 -0.01157713007284421 0 0.01150392284992577 -0.013297670911313285 0 0.0049677557138990257 -0.017574672398864462 0 0.0050297198170784589 -0.017864839851158137 0 0.0051493395711411571 -0.017588894156401504 0 0.0051001581367443715 -0.017364774806157311 0 0.0049677557138990257 -0.017574672398864462 0 0.0051493395711411571 -0.017588894156401504 0 0.0046084857425065379 -0.017762464677234021 0 0.0050297198170784589 -0.017864839851158137 0 0.0049687520127244013 -0.018379837503283054 0 0.01150392284992577 -0.013297670911313285 0 0.0053982843511837927 -0.019005084997284757 0 0.0050297198170784589 -0.017864839851158137 0 0.0049687520127244013 -0.018379837503283054 0 0.0052830544419248966 -0.018105773338047079 0 0.0066317997209071498 -0.01820194058785678 0 0.0067585869358333679 -0.018714379362057217 0 0.0064240172717486598 -0.018513499810634236 0 0.01150392284992577 -0.013297670911313285 0 0.028709629884752359 -0.0064842791653387253 0 0.0058967472303950007 -0.018220924560460622 0 0.0056397983966643764 -0.017728666343168102 0 0.0055116683551408767 -0.018010573683765862 0 0.0058967472303950007 -0.018220924560460622 0 0.0059259196853912316 -0.017854332648628707 0 0.0056397983966643764 -0.017728666343168102 0 0.0054100772169428189 -0.017414047130112957 0 0.0056397983966643764 -0.017728666343168102 0 0.0053386188798551894 -0.017659220907306022 0 0.0056397983966643764 -0.017728666343168102 0 0.0053386188798551894 -0.017659220907306022 0 0.0055116683551408767 -0.018010573683765862 0 0.0053386188798551894 -0.017659220907306022 0 0.0052448850200794064 -0.017844685088697989 0 0.0055116683551408767 -0.018010573683765862 0 0.0052384795135999333 -0.017314202749060877 0 0.0053386188798551894 -0.017659220907306022 0 0.0051493395711411571 -0.017588894156401504 0 0.0053386188798551894 -0.017659220907306022 0 0.0051493395711411571 -0.017588894156401504 0 0.0052448850200794064 -0.017844685088697989 0 0.0050297198170784589 -0.017864839851158137 0 0.0052448850200794064 -0.017844685088697989 0 0.0052830544419248966 -0.018105773338047079 0 0.0050297198170784589 -0.017864839851158137 0 0.0051493395711411571 -0.017588894156401504 0 0.0052448850200794064 -0.017844685088697989 0 0.0049687520127244013 -0.018379837503283054 0 0.0052830544419248966 -0.018105773338047079 0 0.0056702519959172431 -0.018492399494297412 0 0.0052830544419248966 -0.018105773338047079 0 0.0055116683551408767 -0.018010573683765862 0 0.0056702519959172431 -0.018492399494297412 0 0.0052448850200794064 -0.017844685088697989 0 0.0052830544419248966 -0.018105773338047079 0 0.0055116683551408767 -0.018010573683765862 0 0.0060707400458388681 -0.01868281567779637 0 0.0058967472303950007 -0.018220924560460622 0 0.0056702519959172431 -0.018492399494297412 0 0.0058967472303950007 -0.018220924560460622 0 0.0055116683551408767 -0.018010573683765862 0 0.0056702519959172431 -0.018492399494297412 0 0.0056702519959172431 -0.018492399494297412 0 0.0055224144448363091 -0.018963554579417393 0 0.006196052644737572 -0.019023066984775246 0 0.0060707400458388681 -0.01868281567779637 0 0.0056702519959172431 -0.018492399494297412 0 0.006196052644737572 -0.019023066984775246 0 0.0049687520127244013 -0.018379837503283054 0 0.0056702519959172431 -0.018492399494297412 0 0.0055224144448363091 -0.018963554579417393 0 0.006654289351403702 -0.019433838692353506 0 0.0064220283720059492 -0.019425134661926562 0 0.0067494169246933708 -0.019233451878304091 0 0.0063637443296807351 -0.019382438241087187 0 0.0061586088008445238 -0.019002951326883805 0 0.0064220283720059492 -0.019425134661926562 0 0.0055224144448363091 -0.018963554579417393 0 0.006196052644737572 -0.019023066984775246 0 0.028709629884752359 -0.0064842791653387253 0 0.015576933467382837 -0.014765933675776504 0 0.0064240172717486598 -0.018513499810634236 0 0.0065917781521819914 -0.019097204627466301 0 0.0063396859898719234 -0.019057780016134212 0 0.0067585869358333679 -0.018714379362057217 0 0.0064240172717486598 -0.018513499810634236 0 0.0065917781521819914 -0.019097204627466301 0 0.0053982843511837927 -0.019005084997284757 0 0.0061586088008445238 -0.019002951326883805 0 0.0067585869358333679 -0.018714379362057217 0 0.0067494169246933708 -0.019233451878304091 0 0.0065917781521819914 -0.019097204627466301 0 0.0064387759233063236 -0.019448844024884504 0 0.006654289351403702 -0.019433838692353506 0 0.0065917781521819914 -0.019097204627466301 0 0.006654289351403702 -0.019433838692353506 0 0.0067494169246933708 -0.019233451878304091 0 0.0065917781521819914 -0.019097204627466301 0 0.0064387759233063236 -0.019448844024884504 0 0.0065917781521819914 -0.019097204627466301 0 0.0063396859898719234 -0.019057780016134212 0 0.026901689381024826 -0.0073519436952677389 0 0.027401279382210094 -0.006778636877198296 0 0.027449123451523803 -0.0076767484094172394 0 0.014581982929370999 -0.012449759888908727 0 0.015576933467382837 -0.014765933675776504 0 0.026877592827883743 -0.0060629562870188492 0 0.026901689381024826 -0.0073519436952677389 0 0.027401279382210094 -0.006778636877198296 0 0.027401279382210094 -0.006778636877198296 0 0.027449123451523803 -0.0076767484094172394 0 0.0281369907699325 -0.0068376908467975657 0 0.028709629884752359 -0.0064842791653387253 0 0.041297047928711882 -0.00049774059632378949 0 0.026876185881425839 -0.0084314422061721687 0 0.026901689381024826 -0.0073519436952677389 0 0.027449123451523803 -0.0076767484094172394 0 0.051959881793925536 0.0039826442536802006 0 0.05160907595291369 0.0043503817752682293 0 0.051889767944209075 0.0046816976971517394 0 0.052426045380980647 0.004106652674846634 0 0.051959881793925536 0.0039826442536802006 0 0.051889767944209075 0.0046816976971517394 0 0.041297047928711882 -0.00049774059632378949 0 0.040325108383726459 -0.0013885943935020998 0 0.051959881793925536 0.0039826442536802006 0 0.052011899212656948 0.0031945609702136004 0 0.051550907047455463 0.0038348783088536513 0 0.052426045380980647 0.004106652674846634 0 0.051959881793925536 0.0039826442536802006 0 0.052011899212656948 0.0031945609702136004 0 0.051825832208376159 0.0014882608661949243 0 0.051379831861041385 0.0030667118398640973 0 0.051550907047455463 0.0038348783088536513 0 0.03784100003106837 -0.0057893816786259555 0 0.055428709217758922 0.0069493338291268265 0 0.05124471397847661 0.0022036033115981775 0 0.052011899212656948 0.0031945609702136004 0 0.051550907047455463 0.0038348783088536513 0 0.051379831861041385 0.0030667118398640973 0 0.050892072728578285 0.0038210795707107319 0 0.051550907047455463 0.0038348783088536513 0 0.051132818481158068 0.0020603404071592606 0 0.051379831861041385 0.0030667118398640973 0 0.050062634025445724 0.0019006525122640346 0 0.051367231134222278 0.0030040412724793211 0 0.050126361574322972 0.0024168237150027833 0 0.051379831861041385 0.0030667118398640973 0 0.050892072728578285 0.0038210795707107319 0 0.050075717740055953 0.0028948758886532542 0 0.050678505031963778 0.0045251244002493035 0 0.051249986389791287 0.0042886714748462907 0 0.051333096763095019 0.0049806300950631984 0 0.050892072728578285 0.0038210795707107319 0 0.050678505031963778 0.0045251244002493035 0 0.04993794281884615 0.0038520089626172863 0 0.050892072728578285 0.0038210795707107319 0 0.050678505031963778 0.0045251244002493035 0 0.051249986389791287 0.0042886714748462907 0 0.051959881793925536 0.0039826442536802006 0 0.051550907047455463 0.0038348783088536513 0 0.05160907595291369 0.0043503817752682293 0 0.051550907047455463 0.0038348783088536513 0 0.051249986389791287 0.0042886714748462907 0 0.05160907595291369 0.0043503817752682293 0 0.050892072728578285 0.0038210795707107319 0 0.051550907047455463 0.0038348783088536513 0 0.051249986389791287 0.0042886714748462907 0 0.051249986389791287 0.0042886714748462907 0 0.05160907595291369 0.0043503817752682293 0 0.051333096763095019 0.0049806300950631984 0 0.051333096763095019 0.0049806300950631984 0 0.051709855964129504 0.0054916109885210724 0 0.051889767944209075 0.0046816976971517394 0 0.05160907595291369 0.0043503817752682293 0 0.051333096763095019 0.0049806300950631984 0 0.051889767944209075 0.0046816976971517394 0 0.051333096763095019 0.0049806300950631984 0 0.050786082636116399 0.0055022361602012461 0 0.051169567586833095 0.0060814238850815617 0 0.050678505031963778 0.0045251244002493035 0 0.051333096763095019 0.0049806300950631984 0 0.050786082636116399 0.0055022361602012461 0 0.051169567586833095 0.0060814238850815617 0 0.050713354348084057 0.0065686798488823793 0 0.050931368714190989 0.0065079171475517054 0 0.050786082636116399 0.0055022361602012461 0 0.051169567586833095 0.0060814238850815617 0 0.050713354348084057 0.0065686798488823793 0 0.051333096763095019 0.0049806300950631984 0 0.051169567586833095 0.0060814238850815617 0 0.051709855964129504 0.0054916109885210724 0 0.051169567586833095 0.0060814238850815617 0 0.051709855964129504 0.0054916109885210724 0 0.051567346781414412 0.0061419014951889324 0 0.051709855964129504 0.0054916109885210724 0 0.052105813411740795 0.0058682863802386508 0 0.051567346781414412 0.0061419014951889324 0 0.051709855964129504 0.0054916109885210724 0 0.052105813411740795 0.0058682863802386508 0 0.052224043655458158 0.0051180591851200975 0 0.052646765444224364 0.00592141409846445 0 0.052692923842147792 0.0048438846469243436 0 0.052418501690224155 0.0054361560822030084 0 0.052105813411740795 0.0058682863802386508 0 0.052418501690224155 0.0054361560822030084 0 0.052224043655458158 0.0051180591851200975 0 0.052646765444224364 0.00592141409846445 0 0.052105813411740795 0.0058682863802386508 0 0.052418501690224155 0.0054361560822030084 0 0.052692923842147792 0.0048438846469243436 0 0.052426045380980647 0.004106652674846634 0 0.052224043655458158 0.0051180591851200975 0 0.052692923842147792 0.0048438846469243436 0 0.052418501690224155 0.0054361560822030084 0 0.052224043655458158 0.0051180591851200975 0 0.052426045380980647 0.004106652674846634 0 0.052224043655458158 0.0051180591851200975 0 0.051889767944209075 0.0046816976971517394 0 0.051709855964129504 0.0054916109885210724 0 0.052224043655458158 0.0051180591851200975 0 0.051889767944209075 0.0046816976971517394 0 0.047258087429356214 0.0045640800459790772 0 0.047141360075670172 0.0038009873465868326 0 0.046391616608848801 0.0046575289284318281 0 0.047258087429356214 0.0045640800459790772 0 0.047719395173527503 0.0033744307028094802 0 0.048110459242308223 0.0044393991071297314 0 0.047719395173527503 0.0033744307028094802 0 0.047141360075670172 0.0038009873465868326 0 0.047123783936285302 0.002676556012861396 0 0.047258087429356214 0.0045640800459790772 0 0.047719395173527503 0.0033744307028094802 0 0.047141360075670172 0.0038009873465868326 0 0.047719395173527503 0.0033744307028094802 0 0.047668121221175537 0.002620783254942023 0 0.047123783936285302 0.002676556012861396 0 0.047668121221175537 0.002620783254942023 0 0.047995526456011885 0.0021048146827965784 0 0.04760997568832432 0.002063087223142759 0 0.047668121221175537 0.002620783254942023 0 0.047995526456011885 0.0021048146827965784 0 0.048214032197857859 0.0027589805285341872 0 0.047719395173527503 0.0033744307028094802 0 0.047668121221175537 0.002620783254942023 0 0.048214032197857859 0.0027589805285341872 0 0.047719395173527503 0.0033744307028094802 0 0.048214032197857859 0.0027589805285341872 0 0.048491402187769608 0.003496304731579674 0 0.048643608122962027 0.0022431170063344085 0 0.047995526456011885 0.0021048146827965784 0 0.048214032197857859 0.0027589805285341872 0 0.048214032197857859 0.0027589805285341872 0 0.048729079616869987 0.0030070450451282816 0 0.048491402187769608 0.003496304731579674 0 0.048643608122962027 0.0022431170063344085 0 0.048214032197857859 0.0027589805285341872 0 0.048729079616869987 0.0030070450451282816 0 0.048643608122962027 0.0022431170063344085 0 0.048729079616869987 0.0030070450451282816 0 0.049264121287788135 0.0030255185678222008 0 0.048729079616869987 0.0030070450451282816 0 0.048491402187769608 0.003496304731579674 0 0.049118517313186366 0.0036682379572035326 0 0.048491402187769608 0.003496304731579674 0 0.048804656226796625 0.0043753331072026915 0 0.049118517313186366 0.0036682379572035326 0 0.047719395173527503 0.0033744307028094802 0 0.048491402187769608 0.003496304731579674 0 0.048110459242308223 0.0044393991071297314 0 0.048491402187769608 0.003496304731579674 0 0.048110459242308223 0.0044393991071297314 0 0.048804656226796625 0.0043753331072026915 0 0.048110459242308223 0.0044393991071297314 0 0.048804656226796625 0.0043753331072026915 0 0.048455005951837229 0.0053606864533806559 0 0.048804656226796625 0.0043753331072026915 0 0.049437628452279919 0.0043240905481740262 0 0.04921372764728188 0.0052169429734562761 0 0.049437628452279919 0.0043240905481740262 0 0.049118517313186366 0.0036682379572035326 0 0.04993794281884615 0.0038520089626172863 0 0.048804656226796625 0.0043753331072026915 0 0.049437628452279919 0.0043240905481740262 0 0.049118517313186366 0.0036682379572035326 0 0.048643608122962027 0.0022431170063344085 0 0.049264121287788135 0.0030255185678222008 0 0.050075717740055953 0.0028948758886532542 0 0.048729079616869987 0.0030070450451282816 0 0.049118517313186366 0.0036682379572035326 0 0.049264121287788135 0.0030255185678222008 0 0.049118517313186366 0.0036682379572035326 0 0.049264121287788135 0.0030255185678222008 0 0.04993794281884615 0.0038520089626172863 0 0.050892072728578285 0.0038210795707107319 0 0.050075717740055953 0.0028948758886532542 0 0.04993794281884615 0.0038520089626172863 0 0.049264121287788135 0.0030255185678222008 0 0.050075717740055953 0.0028948758886532542 0 0.04993794281884615 0.0038520089626172863 0 0.049437628452279919 0.0043240905481740262 0 0.04993794281884615 0.0038520089626172863 0 0.049976809585178673 0.0048897290332267536 0 0.050678505031963778 0.0045251244002493035 0 0.04993794281884615 0.0038520089626172863 0 0.049976809585178673 0.0048897290332267536 0 0.050786082636116399 0.0055022361602012461 0 0.049976809585178673 0.0048897290332267536 0 0.049766567006026829 0.0061480614698807487 0 0.050678505031963778 0.0045251244002493035 0 0.050786082636116399 0.0055022361602012461 0 0.049976809585178673 0.0048897290332267536 0 0.050713354348084057 0.0065686798488823793 0 0.049766567006026829 0.0061480614698807487 0 0.049718637344206756 0.0080865384592073413 0 0.050786082636116399 0.0055022361602012461 0 0.050713354348084057 0.0065686798488823793 0 0.049766567006026829 0.0061480614698807487 0 0.049766567006026829 0.0061480614698807487 0 0.048679479625228013 0.007706136062549199 0 0.048766247340305713 0.0063625708550480529 0 0.049766567006026829 0.0061480614698807487 0 0.048679479625228013 0.007706136062549199 0 0.049718637344206756 0.0080865384592073413 0 0.048766247340305713 0.0063625708550480529 0 0.04921372764728188 0.0052169429734562761 0 0.048455005951837229 0.0053606864533806559 0 0.049976809585178673 0.0048897290332267536 0 0.049766567006026829 0.0061480614698807487 0 0.04921372764728188 0.0052169429734562761 0 0.049766567006026829 0.0061480614698807487 0 0.048766247340305713 0.0063625708550480529 0 0.04921372764728188 0.0052169429734562761 0 0.049437628452279919 0.0043240905481740262 0 0.049976809585178673 0.0048897290332267536 0 0.04921372764728188 0.0052169429734562761 0 0.048804656226796625 0.0043753331072026915 0 0.04921372764728188 0.0052169429734562761 0 0.048455005951837229 0.0053606864533806559 0 0.048110459242308223 0.0044393991071297314 0 0.048455005951837229 0.0053606864533806559 0 0.047425567378070028 0.0058741939141288904 0 0.048455005951837229 0.0053606864533806559 0 0.048084519166483285 0.0062513020563518314 0 0.047425567378070028 0.0058741939141288904 0 0.048766247340305713 0.0063625708550480529 0 0.048455005951837229 0.0053606864533806559 0 0.048084519166483285 0.0062513020563518314 0 0.048766247340305713 0.0063625708550480529 0 0.048084519166483285 0.0062513020563518314 0 0.047665691479715069 0.0074472108038066967 0 0.048679479625228013 0.007706136062549199 0 0.048766247340305713 0.0063625708550480529 0 0.047665691479715069 0.0074472108038066967 0 0.048084519166483285 0.0062513020563518314 0 0.047665691479715069 0.0074472108038066967 0 0.047425567378070028 0.0058741939141288904 0 0.047665691479715069 0.0074472108038066967 0 0.046574860636969487 0.0075432551995572358 0 0.047425567378070028 0.0058741939141288904 0 0.046574860636969487 0.0075432551995572358 0 0.046234677827982754 0.0063065626311788027 0 0.047425567378070028 0.0058741939141288904 0 0.046234677827982754 0.0063065626311788027 0 0.047425567378070028 0.0058741939141288904 0 0.046678125404577921 0.0053409731077395488 0 0.046234677827982754 0.0063065626311788027 0 0.046678125404577921 0.0053409731077395488 0 0.045957882843627201 0.0056062469915711833 0 0.047258087429356214 0.0045640800459790772 0 0.048110459242308223 0.0044393991071297314 0 0.047425567378070028 0.0058741939141288904 0 0.047258087429356214 0.0045640800459790772 0 0.047425567378070028 0.0058741939141288904 0 0.046678125404577921 0.0053409731077395488 0 0.047258087429356214 0.0045640800459790772 0 0.046678125404577921 0.0053409731077395488 0 0.046391616608848801 0.0046575289284318281 0 0.046827464527344105 0.0096053112755410536 0 0.046265739655049487 0.012139506056338879 0 0.04547332573222377 0.010786150825389805 0 0.046827464527344105 0.0096053112755410536 0 0.045704705891583285 0.0090139242179709603 0 0.04547332573222377 0.010786150825389805 0 0.047665691479715069 0.0074472108038066967 0 0.046574860636969487 0.0075432551995572358 0 0.046827464527344105 0.0096053112755410536 0 0.046574860636969487 0.0075432551995572358 0 0.046827464527344105 0.0096053112755410536 0 0.045704705891583285 0.0090139242179709603 0 0.048679479625228013 0.007706136062549199 0 0.047665691479715069 0.0074472108038066967 0 0.048230498407556166 0.0094333909113531126 0 0.047665691479715069 0.0074472108038066967 0 0.046827464527344105 0.0096053112755410536 0 0.048230498407556166 0.0094333909113531126 0 0.046827464527344105 0.0096053112755410536 0 0.047707274556820847 0.010903799959303432 0 0.048230498407556166 0.0094333909113531126 0 0.046731770963932884 0.0097141590386288779 0 0.04743114179177902 0.011233408573861119 0 0.046827464527344105 0.0096053112755410536 0 0.047080396552777952 0.011483325481597225 0 0.046265739655049487 0.012139506056338879 0 0.047707274556820847 0.010903799959303432 0 0.049394717885162608 0.0096339985673940722 0 0.049559315987251343 0.011374358614834478 0 0.047707274556820847 0.010903799959303432 0 0.048230498407556166 0.0094333909113531126 0 0.049394717885162608 0.0096339985673940722 0 0.048230498407556166 0.0094333909113531126 0 0.049718637344206756 0.0080865384592073413 0 0.049394717885162608 0.0096339985673940722 0 0.048679479625228013 0.007706136062549199 0 0.048230498407556166 0.0094333909113531126 0 0.049718637344206756 0.0080865384592073413 0 0.049718637344206756 0.0080865384592073413 0 0.050572130155676118 0.0097328256413455362 0 0.049394717885162608 0.0096339985673940722 0 0.050713354348084057 0.0065686798488823793 0 0.049718637344206756 0.0080865384592073413 0 0.051758773081403524 0.0087103430407232136 0 0.049718637344206756 0.0080865384592073413 0 0.050572130155676118 0.0097328256413455362 0 0.051758773081403524 0.0087103430407232136 0 0.050572130155676118 0.0097328256413455362 0 0.049394717885162608 0.0096339985673940722 0 0.049559315987251343 0.011374358614834478 0 0.050572130155676118 0.0097328256413455362 0 0.049559315987251343 0.011374358614834478 0 0.051278818557689072 0.011025986004949593 0 0.049559315987251343 0.011374358614834478 0 0.051278818557689072 0.011025986004949593 0 0.050678465114464485 0.013200834355155754 0 0.049559315987251343 0.011374358614834478 0 0.048760769537701386 0.013125331128371545 0 0.050678465114464485 0.013200834355155754 0 0.046905265642850497 0.012556417276613887 0 0.046291274762276631 0.013521643046588233 0 0.047124650382306003 0.013341891830986193 0 0.047480309907450786 0.012510517264767439 0 0.050723702600103046 0.01596534894518789 0 0.048760769537701386 0.013125331128371545 0 0.050678465114464485 0.013200834355155754 0 0.050032822679806452 0.015826454331099915 0 0.046905265642850497 0.012556417276613887 0 0.046467249008076736 0.012870459259122754 0 0.046291274762276631 0.013521643046588233 0 0.04743114179177902 0.011233408573861119 0 0.047480309907450786 0.012510517264767439 0 0.047080396552777952 0.011483325481597225 0 0.046905265642850497 0.012556417276613887 0 0.046467249008076736 0.012870459259122754 0 0.047707274556820847 0.010903799959303432 0 0.049559315987251343 0.011374358614834478 0 0.048760769537701386 0.013125331128371545 0 0.047080396552777952 0.011483325481597225 0 0.046467249008076736 0.012870459259122754 0 0.046265739655049487 0.012139506056338879 0 0.046147956499694727 0.012875026275439577 0 0.046467249008076736 0.012870459259122754 0 0.046023829536622624 0.01349860353087908 0 0.046147956499694727 0.012875026275439577 0 0.046467249008076736 0.012870459259122754 0 0.046265739655049487 0.012139506056338879 0 0.045864025042086157 0.012959892779128946 0 0.046265739655049487 0.012139506056338879 0 0.045617567823848862 0.01242998933512458 0 0.046147956499694727 0.012875026275439577 0 0.045864025042086157 0.012959892779128946 0 0.046265739655049487 0.012139506056338879 0 0.046147956499694727 0.012875026275439577 0 0.045864025042086157 0.012959892779128946 0 0.045869588967727394 0.013365875735697721 0 0.042973919853862112 0.008672072201002072 0 0.041576148042466295 0.0089756052677236291 0 0.042422363097968666 0.0077420144167205949 0 0.042973919853862112 0.008672072201002072 0 0.042422363097968666 0.0077420144167205949 0 0.043247958658993391 0.0079311464598485568 0 0.048829887401409158 0.0075536819404401238 0 0.036887163480283515 0.0042875004522080328 0 0.019753024367339583 0.0019206812831031011 0 0.020107839014572297 0.0023642926589168608 0 0.020373025064912263 0.002005243057627126 0 0.036887163480283515 0.0042875004522080328 0 0.030190405947850329 0.0048698424608696785 0 0.052105813411740795 0.0058682863802386508 0 0.051686180317511696 0.0066625517952924986 0 0.052341732285636808 0.0063876109100748013 0 0.052646765444224364 0.00592141409846445 0 0.052105813411740795 0.0058682863802386508 0 0.052341732285636808 0.0063876109100748013 0 0.018493794622826576 -0.0015971328448553272 0 0.036887163480283515 0.0042875004522080328 0 0.031099063645110826 -0.00059289259892696502 0 0.036887163480283515 0.0042875004522080328 0 0.052105813411740795 0.0058682863802386508 0 0.051686180317511696 0.0066625517952924986 0 0.051567346781414412 0.0061419014951889324 0 0.051169567586833095 0.0060814238850815617 0 0.051567346781414412 0.0061419014951889324 0 0.051270026279573097 0.0064686006388506223 0 0.051686180317511696 0.0066625517952924986 0 0.051567346781414412 0.0061419014951889324 0 0.051270026279573097 0.0064686006388506223 0 0.051169567586833095 0.0060814238850815617 0 0.051270026279573097 0.0064686006388506223 0 0.050931368714190989 0.0065079171475517054 0 0.050772164117740055 0.0066343040058791441 0 0.051359080807145401 0.0076591317143001117 0 0.051270026279573097 0.0064686006388506223 0 0.050931368714190989 0.0065079171475517054 0 0.051121656535943034 0.0068518310205982662 0 0.050572130155676118 0.0097328256413455362 0 0.051758773081403524 0.0087103430407232136 0 0.051278818557689072 0.011025986004949593 0 0.051758773081403524 0.0087103430407232136 0 0.052687969765499054 0.010640093412629186 0 0.051278818557689072 0.011025986004949593 0 0.051359080807145401 0.0076591317143001117 0 0.049696713682006073 0.0093796422253905869 0 0.049696713682006073 0.0093796422253905869 0 0.051799445119589206 0.010253386109797742 0 0.052485198345155831 0.010693165206807772 0 0.051278818557689072 0.011025986004949593 0 0.051995635690621107 0.012250229433982605 0 0.048829887401409158 0.0075536819404401238 0 0.049696713682006073 0.0093796422253905869 0 0.051686180317511696 0.0066625517952924986 0 0.051270026279573097 0.0064686006388506223 0 0.051121656535943034 0.0068518310205982662 0 0.042973919853862112 0.008672072201002072 0 0.044420044129419099 0.0083428283586131132 0 0.043247958658993391 0.0079311464598485568 0 0.043848962561993228 0.0073823174531690199 0 0.043267724439928164 0.0064451916589811096 0 0.043247958658993391 0.0079311464598485568 0 0.044420044129419099 0.0083428283586131132 0 0.043848962561993228 0.0073823174531690199 0 0.043247958658993391 0.0079311464598485568 0 0.049696713682006073 0.0093796422253905869 0 0.049199568348317041 0.011161458640244678 0 0.052485198345155831 0.010693165206807772 0 0.053474755527948732 0.012548599093739688 0 0.051995635690621107 0.012250229433982605 0 0.051278818557689072 0.011025986004949593 0 0.051995635690621107 0.012250229433982605 0 0.050678465114464485 0.013200834355155754 0 0.051995635690621107 0.012250229433982605 0 0.050678465114464485 0.013200834355155754 0 0.052113835269068952 0.013984952293361224 0 0.053474755527948732 0.012548599093739688 0 0.051995635690621107 0.012250229433982605 0 0.052113835269068952 0.013984952293361224 0 0.050678465114464485 0.013200834355155754 0 0.05126299771965695 0.015109324623339799 0 0.050032822679806452 0.015826454331099915 0 0.050678465114464485 0.013200834355155754 0 0.052113835269068952 0.013984952293361224 0 0.05126299771965695 0.015109324623339799 0 0.052113835269068952 0.013984952293361224 0 0.052177577837421878 0.015824629392360123 0 0.05126299771965695 0.015109324623339799 0 0.053474755527948732 0.012548599093739688 0 0.053184535367297982 0.01518259612447957 0 0.054618615434032916 0.014755004937773658 0 0.053474755527948732 0.012548599093739688 0 0.052113835269068952 0.013984952293361224 0 0.053184535367297982 0.01518259612447957 0 0.049199568348317041 0.011161458640244678 0 0.035870332826527081 0.0080600568823120042 0 0.053184535367297982 0.01518259612447957 0 0.053455637221104663 0.016697457421406547 0 0.052724483560349776 0.016186344310557862 0 0.052113835269068952 0.013984952293361224 0 0.052177577837421878 0.015824629392360123 0 0.053184535367297982 0.01518259612447957 0 0.052177577837421878 0.015824629392360123 0 0.053184535367297982 0.01518259612447957 0 0.052724483560349776 0.016186344310557862 0 0.035870332826527081 0.0080600568823120042 0 0.032425160902273417 0.012295722017658871 0 0.026919218417932312 0.011046483199671414 0 0.02601637098444335 0.0094696577621520804 0 0.028060271112024106 0.0093073505010628516 0 0.053184535367297982 0.01518259612447957 0 0.054618615434032916 0.014755004937773658 0 0.053455637221104663 0.016697457421406547 0 0.020760375320738093 0.0015578555395566248 0 0.020341325096338021 0.0015698422540319512 0 0.020373025064912263 0.002005243057627126 0 0.020760375320738093 0.0015578555395566248 0 0.020341325096338021 0.0015698422540319512 0 0.020585186898783289 0.0012782995000104695 0 0.020341325096338021 0.0015698422540319512 0 0.020041545384527806 0.0012878947181928196 0 0.020585186898783289 0.0012782995000104695 0 0.035870332826527081 0.0080600568823120042 0 0.01810725265051031 0.0082299989512033996 0 0.043267724439928164 0.0064451916589811096 0 0.042422363097968666 0.0077420144167205949 0 0.043247958658993391 0.0079311464598485568 0 0.035870332826527081 0.0080600568823120042 0 0.030190405947850329 0.0048698424608696785 0 0.020341325096338021 0.0015698422540319512 0 0.020373025064912263 0.002005243057627126 0 0.019976588118171868 0.0016547776210587368 0 0.019753024367339583 0.0019206812831031011 0 0.020373025064912263 0.002005243057627126 0 0.019976588118171868 0.0016547776210587368 0 0.019518586382260342 0.001323032210636404 0 0.019976588118171868 0.0016547776210587368 0 0.020041545384527806 0.0012878947181928196 0 0.020341325096338021 0.0015698422540319512 0 0.019976588118171868 0.0016547776210587368 0 0.020041545384527806 0.0012878947181928196 0 0.011831319703655984 0.0016106452029999163 0 0.015996044276906662 0.0063352538898073336 0 0.011483381291909282 0.011391572610772907 0 0.01122769191453154 0.010539258701875562 0 0.010438668462438388 0.01043456059150921 0 0.011483381291909282 0.011391572610772907 0 0.01210712250007248 0.010635012777234805 0 0.01122769191453154 0.010539258701875562 0 0.01210712250007248 0.010635012777234805 0 0.011405768255166591 0.0098724358867744479 0 0.012370949557358018 0.0096943910538703684 0 0.01210712250007248 0.010635012777234805 0 0.01122769191453154 0.010539258701875562 0 0.011405768255166591 0.0098724358867744479 0 0.01122769191453154 0.010539258701875562 0 0.010783742177240074 0.0099714944985797634 0 0.011405768255166591 0.0098724358867744479 0 0.01122769191453154 0.010539258701875562 0 0.010783742177240074 0.0099714944985797634 0 0.010438668462438388 0.01043456059150921 0 0.011211028357543971 0.0090154094946054697 0 0.012370949557358018 0.0096943910538703684 0 0.011562935335898106 0.0077088471513202727 0 0.012590331994167561 0.0091803386121767708 0 0.011652612135399589 0.0076030042845091584 0 0.012909533686290862 0.0080475189263020021 0 0.011562935335898106 0.0077088471513202727 0 0.012753174272318599 0.0071846653981078694 0 0.010711912909380332 0.0093880398562368392 0 0.011405768255166591 0.0098724358867744479 0 0.011211028357543971 0.0090154094946054697 0 0.010711912909380332 0.0093880398562368392 0 0.010476857157348505 0.0089185908358839182 0 0.010126109257206018 0.0093862934639338015 0 0.010783742177240074 0.0099714944985797634 0 0.010711912909380332 0.0093880398562368392 0 0.010126109257206018 0.0093862934639338015 0 0.010783742177240074 0.0099714944985797634 0 0.010711912909380332 0.0093880398562368392 0 0.011405768255166591 0.0098724358867744479 0 0.011405768255166591 0.0098724358867744479 0 0.011211028357543971 0.0090154094946054697 0 0.012370949557358018 0.0096943910538703684 0 0.010862741413937116 0.0085058169709070278 0 0.011211028357543971 0.0090154094946054697 0 0.011562935335898106 0.0077088471513202727 0 0.010862741413937116 0.0085058169709070278 0 0.010476857157348505 0.0089185908358839182 0 0.010083722235792621 0.008479866997821146 0 0.010711912909380332 0.0093880398562368392 0 0.010476857157348505 0.0089185908358839182 0 0.011211028357543971 0.0090154094946054697 0 0.010862741413937116 0.0085058169709070278 0 0.010476857157348505 0.0089185908358839182 0 0.011211028357543971 0.0090154094946054697 0 0.013369318435224174 0.011026298724085897 0 0.010288947420456562 0.0075973641439116384 0 0.014010034661557423 0.0077251597876758634 0 0.015774456793866968 0.007480474770697367 0 0.012753174272318599 0.0071846653981078694 0 0.0087727861700724243 0.0089532596512124345 0 0.0085995144086684957 0.0088223266434181678 0 0.0084171615077980339 0.0086911867679658108 0 0.012909533686290862 0.0080475189263020021 0 0.014010034661557423 0.0077251597876758634 0 0.012753174272318599 0.0071846653981078694 0 0.012909533686290862 0.0080475189263020021 0 0.014402837328866642 0.0083004638279848414 0 0.014010034661557423 0.0077251597876758634 0 0.01210712250007248 0.010635012777234805 0 0.012370949557358018 0.0096943910538703684 0 0.013232716981245471 0.011244490835734425 0 0.012909533686290862 0.0080475189263020021 0 0.014402837328866642 0.0083004638279848414 0 0.014889932679464212 0.012209064963650079 0 0.011483381291909282 0.011391572610772907 0 0.01210712250007248 0.010635012777234805 0 0.013232716981245471 0.011244490835734425 0 0.012590331994167561 0.0091803386121767708 0 0.01810725265051031 0.0082299989512033996 0 0.015996044276906662 0.0063352538898073336 0 0.01810725265051031 0.0082299989512033996 0 0.014402837328866642 0.0083004638279848414 0 0.014889932679464212 0.012209064963650079 0 0.016985848741366653 0.0098253007154219703 0 0.01810725265051031 0.0082299989512033996 0 0.032425160902273417 0.012295722017658871 0 0.014889932679464212 0.012209064963650079 0 0.019597254599910574 0.012169709940019076 0 0.016985848741366653 0.0098253007154219703 0 0.053455637221104663 0.016697457421406547 0 0.052258638821063408 0.016761004676872245 0 0.052041087859756356 0.017563751077678397 0 0.053455637221104663 0.016697457421406547 0 0.052724483560349776 0.016186344310557862 0 0.052258638821063408 0.016761004676872245 0 0.052177577837421878 0.015824629392360123 0 0.052724483560349776 0.016186344310557862 0 0.052258638821063408 0.016761004676872245 0 0.053455637221104663 0.016697457421406547 0 0.052041087859756356 0.017563751077678397 0 0.051672064058327749 0.019176347404859281 0 0.019597254599910574 0.012169709940019076 0 0.019384042672258617 0.0086744969271726341 0 0.023553083322764044 0.006738839831657289 0 0.032425160902273417 0.012295722017658871 0 0.03596618657503671 0.013126217172608642 0 0.019384042672258617 0.0086744969271726341 0 0.016985848741366653 0.0098253007154219703 0 0.018308454628725105 0.0076340860014291259 0 0.014402837328866642 0.0083004638279848414 0 0.016985848741366653 0.0098253007154219703 0 0.018308454628725105 0.0076340860014291259 0 0.019597254599910574 0.012169709940019076 0 0.019384042672258617 0.0086744969271726341 0 0.016985848741366653 0.0098253007154219703 0 0.047169436976318979 0.013755445543203692 0 0.047124650382306003 0.013341891830986193 0 0.046969053782529871 0.013677721949139391 0 0.051429589652071041 0.016935962924318843 0 0.051672064058327749 0.019176347404859281 0 0.050032822679806452 0.015826454331099915 0 0.03596618657503671 0.013126217172608642 0 0.050723702600103046 0.01596534894518789 0 0.05126299771965695 0.015109324623339799 0 0.051429589652071041 0.016935962924318843 0 0.050032822679806452 0.015826454331099915 0 0.052177577837421878 0.015824629392360123 0 0.05126299771965695 0.015109324623339799 0 0.051429589652071041 0.016935962924318843 0 0.052177577837421878 0.015824629392360123 0 0.051429589652071041 0.016935962924318843 0 0.052258638821063408 0.016761004676872245 0 0.051429589652071041 0.016935962924318843 0 0.052258638821063408 0.016761004676872245 0 0.052041087859756356 0.017563751077678397 0 0.051429589652071041 0.016935962924318843 0 0.052041087859756356 0.017563751077678397 0 0.051672064058327749 0.019176347404859281 0 0.047169436976318979 0.013755445543203692 0 0.047142193386192022 0.01378297582218441 0 0.046969053782529871 0.013677721949139391 0 0.033485780881909656 0.012487729561636816 0 0.048226048702412858 0.014672688376488724 0 0.044969164726598003 0.014123757045361389 0 0.04422573383223647 0.014480133442052272 0 0.045388853481977666 0.01419561475104463 0 0.03596618657503671 0.013126217172608642 0 0.033485780881909656 0.012487729561636816 0 0.02199466694432714 0.01234321134037036 0 0.024933991424532276 0.0078689915525338196 0 0.013659746689533275 0.0032797120150810989 0 0.033485780881909656 0.012487729561636816 0 0.017425176665407036 0.0080749571416133172 0 0.029085307832013314 0.023658142967122618 0 0.013369318435224174 0.011026298724085897 0 0.016128276492850049 0.00029176910976699892 0 0.0042535096531814177 0.0082787807829733471 0 0.0025938144478906706 0.0065685514753203687 0 0.033485780881909656 0.012487729561636816 0 0.029085307832013314 0.023658142967122618 0 0.009684520226961247 0.010331840106471979 0 0.016128276492850049 0.00029176910976699892 0 0.0042535096531814177 0.0082787807829733471 0 0.044969164726598003 0.014123757045361389 0 0.04422573383223647 0.014480133442052272 0 0.044744127882943407 0.013887875371836113 0 0.014402837328866642 0.0083004638279848414 0 0.018308454628725105 0.0076340860014291259 0 0.021010245845056695 0.0041457699401844872 0 0.014402837328866642 0.0083004638279848414 0 0.014010034661557423 0.0077251597876758634 0 0.015774456793866968 0.007480474770697367 0 0.016929049496539405 0.0068090887372303744 0 0.013369318435224174 0.011026298724085897 0 0.019384042672258617 0.0086744969271726341 0 0.018308454628725105 0.0076340860014291259 0 0.02039551677034214 0.0066220369201862028 0 0.019384042672258617 0.0086744969271726341 0 0.023553083322764044 0.006738839831657289 0 0.02039551677034214 0.0066220369201862028 0 0.02039551677034214 0.0066220369201862028 0 0.021778400510700933 0.0049482396640551781 0 0.021010245845056695 0.0041457699401844872 0 0.03596618657503671 0.013126217172608642 0 0.017425176665407036 0.0080749571416133172 0 0.023553083322764044 0.006738839831657289 0 0.02039551677034214 0.0066220369201862028 0 0.021778400510700933 0.0049482396640551781 0 0.018308454628725105 0.0076340860014291259 0 0.02039551677034214 0.0066220369201862028 0 0.021010245845056695 0.0041457699401844872 0 0.017425176665407036 0.0080749571416133172 0 0.013369318435224174 0.011026298724085897 0 0.0094543409749777447 0.028660931538291527 0 0.009242880439088736 0.028955389101865819 0 0.0093337797148214195 0.02887515502583116 0 0.013369318435224174 0.011026298724085897 0 0.008668644528262763 0.020015783101901941 0 0.0097337702191477755 0.028285148226135922 0 0.0094543409749777447 0.028660931538291527 0 0.0093337797148214195 0.02887515502583116 0 0.0087727861700724243 0.0089532596512124345 0 0.0085995144086684957 0.0088223266434181678 0 0.0084468671313361002 0.0086988780784048991 0 0.0095032063422398512 0.028451039856093385 0 0.0094543409749777447 0.028660931538291527 0 0.009242880439088736 0.028955389101865819 0 0.0095032063422398512 0.028451039856093385 0 0.009242880439088736 0.028955389101865819 0 0.0091259504824197386 0.028859840497907387 0 0.0095032063422398512 0.028451039856093385 0 0.0097337702191477755 0.028285148226135922 0 0.0094543409749777447 0.028660931538291527 0 0.009242880439088736 0.028955389101865819 0 0.0091259504824197386 0.028859840497907387 0 0.008934705036136352 0.029427600061057539 0 0.009242880439088736 0.028955389101865819 0 0.0093337797148214195 0.02887515502583116 0 0.0090359510610988486 0.029321308112384717 0 0.008668644528262763 0.020015783101901941 0 0.0085560360572584891 0.018323569245939076 0 0.0093337797148214195 0.02887515502583116 0 0.0090624942090009181 0.029300998578519033 0 0.0090359510610988486 0.029321308112384717 0 0.0085327512459088192 0.008777898180849366 0 0.0084199458306893626 0.0092709997905030591 0 0.0090785175499126271 0.0084253306922442948 0 0.0085327512459088192 0.008777898180849366 0 0.0084468671313361002 0.0086988780784048991 0 0.0084199458306893626 0.0092709997905030591 0 0.0085327512459088192 0.008777898180849366 0 0.0084171615077980339 0.0086911867679658108 0 0.0090785175499126271 0.0084253306922442948 0 0.010288947420456562 0.0075973641439116384 0 0.0095337455449966968 0.0084671028908232891 0 0.011562935335898106 0.0077088471513202727 0 0.012753174272318599 0.0071846653981078694 0 0.0090785175499126271 0.0084253306922442948 0 0.011562935335898106 0.0077088471513202727 0 0.010083722235792621 0.008479866997821146 0 0.0090785175499126271 0.0084253306922442948 0 0.010862741413937116 0.0085058169709070278 0 0.011562935335898106 0.0077088471513202727 0 0.010083722235792621 0.008479866997821146 0 0.0085995144086684957 0.0088223266434181678 0 0.0084171615077980339 0.0086911867679658108 0 0.0084468671313361002 0.0086988780784048991 0 0.0085327512459088192 0.008777898180849366 0 0.0084171615077980339 0.0086911867679658108 0 0.0084468671313361002 0.0086988780784048991 0 0.045669965005168567 0.013476452845749678 0 0.045869588967727394 0.013365875735697721 0 0.045732268690420491 0.01364365192168226 0 0.045669965005168567 0.013476452845749678 0 0.045732268690420491 0.01364365192168226 0 0.045542310652140337 0.013625799561910058 0 0.045669965005168567 0.013476452845749678 0 0.045869588967727394 0.013365875735697721 0 0.045712151331706585 0.013307982319166974 0 0.045864025042086157 0.012959892779128946 0 0.045869588967727394 0.013365875735697721 0 0.045712151331706585 0.013307982319166974 0 0.046147956499694727 0.012875026275439577 0 0.045869588967727394 0.013365875735697721 0 0.046023829536622624 0.01349860353087908 0 0.046023829536622624 0.01349860353087908 0 0.045732268690420491 0.01364365192168226 0 0.045841294120473879 0.013757113867961638 0 0.045869588967727394 0.013365875735697721 0 0.046023829536622624 0.01349860353087908 0 0.045732268690420491 0.01364365192168226 0 0.045732268690420491 0.01364365192168226 0 0.045841294120473879 0.013757113867961638 0 0.045485834001074359 0.013741331899979654 0 0.045841294120473879 0.013757113867961638 0 0.046291274762276631 0.013521643046588233 0 0.045388853481977666 0.01419561475104463 0 0.046467249008076736 0.012870459259122754 0 0.046023829536622624 0.01349860353087908 0 0.046291274762276631 0.013521643046588233 0 0.046023829536622624 0.01349860353087908 0 0.045841294120473879 0.013757113867961638 0 0.046291274762276631 0.013521643046588233 0 0.045440160992424102 0.013316619970385088 0 0.048226048702412858 0.014672688376488724 0 0.046291274762276631 0.013521643046588233 0 0.047124650382306003 0.013341891830986193 0 0.046969053782529871 0.013677721949139391 0 0.044969164726598003 0.014123757045361389 0 0.045388853481977666 0.01419561475104463 0 0.045356140939353168 0.013929465129464866 0 0.045841294120473879 0.013757113867961638 0 0.045388853481977666 0.01419561475104463 0 0.045356140939353168 0.013929465129464866 0 0.045841294120473879 0.013757113867961638 0 0.045356140939353168 0.013929465129464866 0 0.045485834001074359 0.013741331899979654 0 0.044969164726598003 0.014123757045361389 0 0.044744127882943407 0.013887875371836113 0 0.045356140939353168 0.013929465129464866 0 0.029085307832013314 0.023658142967122618 0 0.027259069157874485 0.037509191978490675 0 0.044744127882943407 0.013887875371836113 0 0.045356140939353168 0.013929465129464866 0 0.045485834001074359 0.013741331899979654 0 0.029085307832013314 0.023658142967122618 0 0.049262802280013986 0.027378036188618726 0 0.046733851823776922 0.041298883365191587 0 0.046900242344872549 0.041759470692723878 0 0.046990896073354403 0.041574993173674864 0 0.046909088254488807 0.041773797344553484 0 0.047013965571101921 0.041667419535874203 0 0.046716643922810136 0.042153980720234845 0 0.046909088254488807 0.041773797344553484 0 0.046990896073354403 0.041574993173674864 0 0.047013965571101921 0.041667419535874203 0 0.046900242344872549 0.041759470692723878 0 0.046909088254488807 0.041773797344553484 0 0.046990896073354403 0.041574993173674864 0 0.046900242344872549 0.041759470692723878 0 0.046909088254488807 0.041773797344553484 0 0.046716643922810136 0.042153980720234845 0 0.049262802280013986 0.027378036188618726 0 0.045684390122409047 0.027830066830887158 0 0.045732268690420491 0.01364365192168226 0 0.045485834001074359 0.013741331899979654 0 0.045375911885961018 0.013785454664430135 0 0.045732268690420491 0.01364365192168226 0 0.045375911885961018 0.013785454664430135 0 0.045542310652140337 0.013625799561910058 0 0.047013965571101921 0.041667419535874203 0 0.046992086016307034 0.041716118195700862 0 0.046766572478807437 0.042007904945182993 0 0.045684390122409047 0.027830066830887158 0 0.045924716366170897 0.027882474102013294 0 0.045375911885961018 0.013785454664430135 0 0.045363199838990509 0.013607312089541666 0 0.045542310652140337 0.013625799561910058 0 0.045363199838990509 0.013607312089541666 0 0.045542310652140337 0.013625799561910058 0 0.045584978688794235 0.013472220031110508 0 0.045669965005168567 0.013476452845749678 0 0.045542310652140337 0.013625799561910058 0 0.045584978688794235 0.013472220031110508 0 0.046992086016307034 0.041716118195700862 0 0.046766572478807437 0.042007904945182993 0 0.046613738582405286 0.042069192494905011 0 0.046766572478807437 0.042007904945182993 0 0.046546516029074961 0.042372865135512125 0 0.046613738582405286 0.042069192494905011 0 0.047013965571101921 0.041667419535874203 0 0.046766572478807437 0.042007904945182993 0 0.046716643922810136 0.042153980720234845 0 0.046766572478807437 0.042007904945182993 0 0.046716643922810136 0.042153980720234845 0 0.046546516029074961 0.042372865135512125 0 0.0089726977317844871 0.029145151572931717 0 0.0087797534047421074 0.029672044165772907 0 0.0088408903547717247 0.029518582977586593 0 0.028280237457741633 0.035010436708092313 0 0.026332443509205085 0.03675012444105704 0 0.0089726977317844871 0.029145151572931717 0 0.0089052989748150176 0.029376763140270951 0 0.0087797534047421074 0.029672044165772907 0 0.027259069157874485 0.037509191978490675 0 0.028280237457741633 0.035010436708092313 0 0.0091259504824197386 0.028859840497907387 0 0.0089726977317844871 0.029145151572931717 0 0.0089052989748150176 0.029376763140270951 0 0.0091259504824197386 0.028859840497907387 0 0.0089052989748150176 0.029376763140270951 0 0.008934705036136352 0.029427600061057539 0 0.0089052989748150176 0.029376763140270951 0 0.0087797534047421074 0.029672044165772907 0 0.0087063092245943923 0.029827698905705347 0 0.0085861605746005501 0.030101366003738802 0 0.0087797534047421074 0.029672044165772907 0 0.0087063092245943923 0.029827698905705347 0 0.0085861605746005501 0.030101366003738802 0 0.0085143173775679808 0.030188783592409736 0 0.0083607787429654488 0.030447682985624478 0 0.0085861605746005501 0.030101366003738802 0 0.0087063092245943923 0.029827698905705347 0 0.0085143173775679808 0.030188783592409736 0 0.0085861605746005501 0.030101366003738802 0 0.0086913849657268318 0.029966084313014407 0 0.0085296510095208642 0.030354214625151303 0 0.0085861605746005501 0.030101366003738802 0 0.0086913849657268318 0.029966084313014407 0 0.0087797534047421074 0.029672044165772907 0 0.0086913849657268318 0.029966084313014407 0 0.0087797534047421074 0.029672044165772907 0 0.0088408903547717247 0.029518582977586593 0 0.0086913849657268318 0.029966084313014407 0 0.0088408903547717247 0.029518582977586593 0 0.0088157855785290923 0.029821411801647869 0 0.026332443509205085 0.03675012444105704 0 0.036113742415646251 0.034618091581925713 0 0.036113742415646251 0.034618091581925713 0 0.018970584309752663 0.03086905415463306 0 0.0086913849657268318 0.029966084313014407 0 0.0088157855785290923 0.029821411801647869 0 0.0086375426441766979 0.030227595570385363 0 0.051122080466943422 0.033748466792886338 0 0.050050520543614078 0.033658611721684543 0 0.050053777258586347 0.034821023878983802 0 0.046546516029074961 0.042372865135512125 0 0.046281689886545505 0.042646603158370884 0 0.046613738582405286 0.042069192494905011 0 0.036113742415646251 0.034618091581925713 0 0.051199063780482321 0.039962586985158678 0 0.0088452124440676263 0.029662087238731594 0 0.0087769081207382874 0.029734185735764543 0 0.0086342627068738773 0.030018911729522098 0 0.0088452124440676263 0.029662087238731594 0 0.0087058943428419862 0.029937296809301739 0 0.0086342627068738773 0.030018911729522098 0 0.0088452124440676263 0.029662087238731594 0 0.008822538375417039 0.029765898845077448 0 0.0087058943428419862 0.029937296809301739 0 0.008822538375417039 0.029765898845077448 0 0.0090624942090009181 0.029300998578519033 0 0.0088780642703331185 0.029786246583469903 0 0.008822538375417039 0.029765898845077448 0 0.0087058943428419862 0.029937296809301739 0 0.0086888669843479035 0.03003281885175025 0 0.008822538375417039 0.029765898845077448 0 0.0087822196367613806 0.029931205131416002 0 0.0088780642703331185 0.029786246583469903 0 0.008822538375417039 0.029765898845077448 0 0.0086888669843479035 0.03003281885175025 0 0.0087822196367613806 0.029931205131416002 0 0.0088452124440676263 0.029662087238731594 0 0.008822538375417039 0.029765898845077448 0 0.0090624942090009181 0.029300998578519033 0 0.0088452124440676263 0.029662087238731594 0 0.0090624942090009181 0.029300998578519033 0 0.0090359510610988486 0.029321308112384717 0 0.0090359510610988486 0.029321308112384717 0 0.008934705036136352 0.029427600061057539 0 0.0087769081207382874 0.029734185735764543 0 0.009242880439088736 0.028955389101865819 0 0.0090359510610988486 0.029321308112384717 0 0.008934705036136352 0.029427600061057539 0 0.008934705036136352 0.029427600061057539 0 0.0087769081207382874 0.029734185735764543 0 0.0087063092245943923 0.029827698905705347 0 0.0089052989748150176 0.029376763140270951 0 0.008934705036136352 0.029427600061057539 0 0.0087063092245943923 0.029827698905705347 0 0.0088452124440676263 0.029662087238731594 0 0.0090359510610988486 0.029321308112384717 0 0.0087769081207382874 0.029734185735764543 0 0.0087769081207382874 0.029734185735764543 0 0.0085443360029833441 0.030148277383538546 0 0.0086342627068738773 0.030018911729522098 0 0.0085443360029833441 0.030148277383538546 0 0.0084443676580390741 0.030378415722800933 0 0.0086342627068738773 0.030018911729522098 0 0.0085443360029833441 0.030148277383538546 0 0.0087063092245943923 0.029827698905705347 0 0.0085143173775679808 0.030188783592409736 0 0.0087769081207382874 0.029734185735764543 0 0.0085443360029833441 0.030148277383538546 0 0.0087063092245943923 0.029827698905705347 0 0.0085443360029833441 0.030148277383538546 0 0.0085143173775679808 0.030188783592409736 0 0.0083247099929250161 0.030536961070875071 0 0.0085443360029833441 0.030148277383538546 0 0.0083036157977651927 0.030649287378569912 0 0.0083247099929250161 0.030536961070875071 0 0.0085443360029833441 0.030148277383538546 0 0.0084443676580390741 0.030378415722800933 0 0.0083036157977651927 0.030649287378569912 0 0.0084443676580390741 0.030378415722800933 0 0.0082436873118722862 0.030797062998687192 0 0.0083036157977651927 0.030649287378569912 0 0.0084443676580390741 0.030378415722800933 0 0.0084030870894010613 0.03050054327890089 0 0.0082436873118722862 0.030797062998687192 0 0.0084443676580390741 0.030378415722800933 0 0.0085528629032846949 0.030220408762067087 0 0.0084030870894010613 0.03050054327890089 0 0.0084443676580390741 0.030378415722800933 0 0.0086342627068738773 0.030018911729522098 0 0.0085528629032846949 0.030220408762067087 0 0.0087058943428419862 0.029937296809301739 0 0.0086342627068738773 0.030018911729522098 0 0.0085528629032846949 0.030220408762067087 0 0.0086888669843479035 0.03003281885175025 0 0.0085986251604841159 0.030224865865688136 0 0.0086981902862165485 0.030085929904859941 0 0.0086888669843479035 0.03003281885175025 0 0.0086981902862165485 0.030085929904859941 0 0.0087822196367613806 0.029931205131416002 0 0.0087058943428419862 0.029937296809301739 0 0.0086888669843479035 0.03003281885175025 0 0.0085528629032846949 0.030220408762067087 0 0.0086888669843479035 0.03003281885175025 0 0.0085528629032846949 0.030220408762067087 0 0.0085986251604841159 0.030224865865688136 0 0.0085528629032846949 0.030220408762067087 0 0.0085986251604841159 0.030224865865688136 0 0.0084603959193202006 0.030462458986366913 0 0.0085528629032846949 0.030220408762067087 0 0.0084603959193202006 0.030462458986366913 0 0.0084030870894010613 0.03050054327890089 0 0.0084603959193202006 0.030462458986366913 0 0.0084030870894010613 0.03050054327890089 0 0.0082923209980861022 0.030723227316880253 0 0.0084030870894010613 0.03050054327890089 0 0.0082923209980861022 0.030723227316880253 0 0.0082436873118722862 0.030797062998687192 0 0.0084603959193202006 0.030462458986366913 0 0.0082923209980861022 0.030723227316880253 0 0.0083162304704870356 0.030796892072586804 0 0.0084603959193202006 0.030462458986366913 0 0.0085351514142815027 0.030527840094572187 0 0.0083162304704870356 0.030796892072586804 0 0.0085351514142815027 0.030527840094572187 0 0.0084520079272880598 0.03087256789650266 0 0.0083162304704870356 0.030796892072586804 0 0.0084603959193202006 0.030462458986366913 0 0.0085351514142815027 0.030527840094572187 0 0.0086566209542111791 0.030240244844309004 0 0.008713864502165599 0.030494648552544228 0 0.0088274505340247538 0.030725918630982847 0 0.0084520079272880598 0.03087256789650266 0 0.0085351514142815027 0.030527840094572187 0 0.008713864502165599 0.030494648552544228 0 0.0084520079272880598 0.03087256789650266 0 0.0085351514142815027 0.030527840094572187 0 0.008713864502165599 0.030494648552544228 0 0.0087286829217062128 0.030283332780318892 0 0.008713864502165599 0.030494648552544228 0 0.0089573901663831459 0.03034091336906217 0 0.0088274505340247538 0.030725918630982847 0 0.008713864502165599 0.030494648552544228 0 0.008877254124058976 0.03017245984919974 0 0.0089573901663831459 0.03034091336906217 0 0.008713864502165599 0.030494648552544228 0 0.008877254124058976 0.03017245984919974 0 0.0087286829217062128 0.030283332780318892 0 0.008877254124058976 0.03017245984919974 0 0.0088602609002333896 0.030007870985856808 0 0.0089589847510522392 0.029942661699789219 0 0.008877254124058976 0.03017245984919974 0 0.0087286829217062128 0.030283332780318892 0 0.0088602609002333896 0.030007870985856808 0 0.008877254124058976 0.03017245984919974 0 0.0090658569402096052 0.029999905031929074 0 0.0089573901663831459 0.03034091336906217 0 0.008877254124058976 0.03017245984919974 0 0.0089589847510522392 0.029942661699789219 0 0.0090658569402096052 0.029999905031929074 0 0.0085986251604841159 0.030224865865688136 0 0.0084603959193202006 0.030462458986366913 0 0.0086566209542111791 0.030240244844309004 0 0.0085986251604841159 0.030224865865688136 0 0.0086566209542111791 0.030240244844309004 0 0.0086981902862165485 0.030085929904859941 0 0.0085351514142815027 0.030527840094572187 0 0.0087286829217062128 0.030283332780318892 0 0.0086566209542111791 0.030240244844309004 0 0.0087286829217062128 0.030283332780318892 0 0.0088602609002333896 0.030007870985856808 0 0.0086566209542111791 0.030240244844309004 0 0.0088602609002333896 0.030007870985856808 0 0.0087722550531562221 0.030011903481460041 0 0.0088464323925580863 0.029859375681061624 0 0.0088602609002333896 0.030007870985856808 0 0.0086566209542111791 0.030240244844309004 0 0.0087722550531562221 0.030011903481460041 0 0.0086566209542111791 0.030240244844309004 0 0.0087722550531562221 0.030011903481460041 0 0.0086981902862165485 0.030085929904859941 0 0.0087722550531562221 0.030011903481460041 0 0.0086981902862165485 0.030085929904859941 0 0.0087822196367613806 0.029931205131416002 0 0.0087722550531562221 0.030011903481460041 0 0.0087822196367613806 0.029931205131416002 0 0.0088464323925580863 0.029859375681061624 0 0.0087822196367613806 0.029931205131416002 0 0.0088780642703331185 0.029786246583469903 0 0.0088464323925580863 0.029859375681061624 0 0.0088780642703331185 0.029786246583469903 0 0.0088738886656842889 0.029754781783138232 0 0.0088464323925580863 0.029859375681061624 0 0.0076587197475125358 0.02745329536031783 0 0.0083762415110799054 0.02464233760678191 0 0.0083762415110799054 0.02464233760678191 0 0.010018209995413849 0.028304536812752593 0 0.0088602609002333896 0.030007870985856808 0 0.0089466113574257385 0.029797891501418629 0 0.0088464323925580863 0.029859375681061624 0 0.0088738886656842889 0.029754781783138232 0 0.0089466113574257385 0.029797891501418629 0 0.0088464323925580863 0.029859375681061624 0 0.0089466113574257385 0.029797891501418629 0 0.0089589847510522392 0.029942661699789219 0 0.0090588668358863415 0.029745353555189272 0 0.0088602609002333896 0.030007870985856808 0 0.0089466113574257385 0.029797891501418629 0 0.0089589847510522392 0.029942661699789219 0 0.0090288780248912789 0.029594591448394315 0 0.0089466113574257385 0.029797891501418629 0 0.0090588668358863415 0.029745353555189272 0 0.0090288780248912789 0.029594591448394315 0 0.0090588668358863415 0.029745353555189272 0 0.0091434311936349176 0.029431419118539335 0 0.0089589847510522392 0.029942661699789219 0 0.0090588668358863415 0.029745353555189272 0 0.0090658569402096052 0.029999905031929074 0 0.0085357291765309311 0.01009886395360169 0 0.0090202840636317665 0.0096118555778652512 0 0.0089352863373181914 0.0091051547467770506 0 0.0083762415110799054 0.02464233760678191 0 0.0097874600632328543 0.018783090562635628 0 0.0090588668358863415 0.029745353555189272 0 0.0091434311936349176 0.029431419118539335 0 0.0091778739185936608 0.029652738818892618 0 0.0090624942090009181 0.029300998578519033 0 0.0088780642703331185 0.029786246583469903 0 0.008976856646077308 0.029703213126703206 0 0.0085560360572584891 0.018323569245939076 0 0.0083762415110799054 0.02464233760678191 0 0.0084199458306893626 0.0092709997905030591 0 0.0085357291765309311 0.01009886395360169 0 0.0089352863373181914 0.0091051547467770506 0 0.0091658773736764919 0.029702632351670508 0 0.009093049290936071 0.029761162951798151 0 0.0091714242341923158 0.029867547594318984 0 0.0091658773736764919 0.029702632351670508 0 0.009093049290936071 0.029761162951798151 0 0.0091175332286715319 0.029701472536625202 0 0.0091658773736764919 0.029702632351670508 0 0.0093486911132822457 0.029595794761072741 0 0.0091175332286715319 0.029701472536625202 0 0.0097874600632328543 0.018783090562635628 0 0.007451651401190946 0.019410506635620529 0 0.0091434311936349176 0.029431419118539335 0 0.0093486911132822457 0.029595794761072741 0 0.0098380847624807786 0.028725158537626513 0 0.0080778292114473821 0.031634386719458583 0 0.007451651401190946 0.019410506635620529 0 0.0091434311936349176 0.029431419118539335 0 0.0091778739185936608 0.029652738818892618 0 0.0093486911132822457 0.029595794761072741 0 0.0091778739185936608 0.029652738818892618 0 0.0093486911132822457 0.029595794761072741 0 0.0091747463177584421 0.02979886491705484 0 0.0091658773736764919 0.029702632351670508 0 0.0093486911132822457 0.029595794761072741 0 0.0091714242341923158 0.029867547594318984 0 0.0093486911132822457 0.029595794761072741 0 0.0091747463177584421 0.02979886491705484 0 0.0091714242341923158 0.029867547594318984 0 0.0090588668358863415 0.029745353555189272 0 0.0091778739185936608 0.029652738818892618 0 0.0091747463177584421 0.02979886491705484 0 0.0090588668358863415 0.029745353555189272 0 0.0091747463177584421 0.02979886491705484 0 0.0090658569402096052 0.029999905031929074 0 0.0091747463177584421 0.02979886491705484 0 0.0090658569402096052 0.029999905031929074 0 0.0091714242341923158 0.029867547594318984 0 0.0090658569402096052 0.029999905031929074 0 0.0091714242341923158 0.029867547594318984 0 0.0091309484538737336 0.030184617170532353 0 0.009093049290936071 0.029761162951798151 0 0.0091714242341923158 0.029867547594318984 0 0.0091438580038060747 0.030092972335916696 0 0.0091714242341923158 0.029867547594318984 0 0.0091309484538737336 0.030184617170532353 0 0.0091438580038060747 0.030092972335916696 0 0.0091309484538737336 0.030184617170532353 0 0.0090901710492585427 0.03051027374594726 0 0.0092220667227423305 0.030422575584013286 0 0.0091309484538737336 0.030184617170532353 0 0.0092220667227423305 0.030422575584013286 0 0.0091438580038060747 0.030092972335916696 0 0.0090658569402096052 0.029999905031929074 0 0.0091309484538737336 0.030184617170532353 0 0.0089573901663831459 0.03034091336906217 0 0.0091309484538737336 0.030184617170532353 0 0.0089573901663831459 0.03034091336906217 0 0.0090901710492585427 0.03051027374594726 0 0.0088274505340247538 0.030725918630982847 0 0.0090901710492585427 0.03051027374594726 0 0.0090864118946455043 0.031038758775112228 0 0.0089573901663831459 0.03034091336906217 0 0.0088274505340247538 0.030725918630982847 0 0.0090901710492585427 0.03051027374594726 0 0.0092397682613752571 0.030702555498710652 0 0.0090901710492585427 0.03051027374594726 0 0.0092220667227423305 0.030422575584013286 0 0.0092397682613752571 0.030702555498710652 0 0.0090901710492585427 0.03051027374594726 0 0.0090864118946455043 0.031038758775112228 0 0.0092397682613752571 0.030702555498710652 0 0.009345868404747229 0.030714530871186013 0 0.0092220667227423305 0.030422575584013286 0 0.009345868404747229 0.030714530871186013 0 0.0089890245117945113 0.030512490454816635 0 0.0092220667227423305 0.030422575584013286 0 0.0092397682613752571 0.030702555498710652 0 0.009345868404747229 0.030714530871186013 0 0.0093695870807056717 0.031034190311204565 0 0.0089890245117945113 0.030512490454816635 0 0.0086648607162940761 0.031315977056759467 0 0.0075002222672910374 0.032523595136610434 0 0.009345868404747229 0.030714530871186013 0 0.0089890245117945113 0.030512490454816635 0 0.009717902664917278 0.030983221689259439 0 0.0091523790714864613 0.030403060812924425 0 0.0077040121511008763 0.032524643419323457 0 0.0089890245117945113 0.030512490454816635 0 0.0092220667227423305 0.030422575584013286 0 0.0091438580038060747 0.030092972335916696 0 0.0091633179236223182 0.032174220870420059 0 0.0091392573751467553 0.033758856394192648 0 0.0099605997435305259 0.03096643691857261 0 0.0090390671990027757 0.03192082678528553 0 0.0098948427382390264 0.033003687827323644 0 0.0099605997435305259 0.03096643691857261 0 0.0091778786977974019 0.030946917472053376 0 0.0090390671990027757 0.03192082678528553 0 0.0089890245117945113 0.030512490454816635 0 0.0091778786977974019 0.030946917472053376 0 0.0086648607162940761 0.031315977056759467 0 0.0091778786977974019 0.030946917472053376 0 0.0086648607162940761 0.031315977056759467 0 0.0090390671990027757 0.03192082678528553 0 0.0086648607162940761 0.031315977056759467 0 0.0084584779551060713 0.031999900357701061 0 0.0077869391924177871 0.032339698348274631 0 0.0086648607162940761 0.031315977056759467 0 0.0084584779551060713 0.031999900357701061 0 0.0090390671990027757 0.03192082678528553 0 0.0089890245117945113 0.030512490454816635 0 0.0093404619822272938 0.030436834807957634 0 0.0091413629217699105 0.030148949602253821 0 0.0089890245117945113 0.030512490454816635 0 0.0091778786977974019 0.030946917472053376 0 0.0093404619822272938 0.030436834807957634 0 0.0099605997435305259 0.03096643691857261 0 0.0093404619822272938 0.030436834807957634 0 0.0098869223773225216 0.030069288517839528 0 0.0091633179236223182 0.032174220870420059 0 0.0070759987477290367 0.031571392205306387 0 0.0099605997435305259 0.03096643691857261 0 0.0091778786977974019 0.030946917472053376 0 0.0093404619822272938 0.030436834807957634 0 0.0098869223773225216 0.030069288517839528 0 0.0093306570675181239 0.029881631048690051 0 0.0093670965349866193 0.030083917539032456 0 0.0093404619822272938 0.030436834807957634 0 0.0098869223773225216 0.030069288517839528 0 0.0093670965349866193 0.030083917539032456 0 0.0028035354090032256 0.024260560367526104 0 -0.0017277469576052749 0.021720741251825534 0 0.003432526440125597 0.020008676129910086 0 0.0070759987477290367 0.031571392205306387 0 -0.00023944050624156502 0.017706420115481868 0 0.0070759987477290367 0.031571392205306387 0 -0.0016336984628346918 0.014052018216358011 0 0.0093306570675181239 0.029881631048690051 0 0.0091413629217699105 0.030148949602253821 0 0.0090581611209442862 0.029716047989763041 0 0.0093306570675181239 0.029881631048690051 0 0.0093670965349866193 0.030083917539032456 0 0.0091413629217699105 0.030148949602253821 0 0.0093404619822272938 0.030436834807957634 0 0.0093670965349866193 0.030083917539032456 0 0.0091413629217699105 0.030148949602253821 0 -0.0078560853798451871 -0.0024059847134096785 0 -0.007951697537706217 -0.0022686795801676704 0 -0.0073640890098840232 -0.0022553038889942239 0 -0.00023944050624156502 0.017706420115481868 0 0.00079892395340494505 0.013964657861146468 0 -0.0078560853798451871 -0.0024059847134096785 0 -0.007951697537706217 -0.0022686795801676704 0 -0.0081904656839677167 -0.0023397731862417493 0 -0.00023944050624156502 0.017706420115481868 0 -0.0016336984628346918 0.014052018216358011 0 -0.0081559193630409803 -0.0022795852041151495 0 -0.0081904656839677167 -0.0023397731862417493 0 -0.0082108043571945902 -0.0023081564168951686 0 -0.007951697537706217 -0.0022686795801676704 0 -0.0081559193630409803 -0.0022795852041151495 0 -0.0081904656839677167 -0.0023397731862417493 0 -0.0081559193630409803 -0.0022795852041151495 0 -0.0082543834775315166 -0.0022688053688398446 0 -0.0082108043571945902 -0.0023081564168951686 0 0.0089890245117945113 0.030512490454816635 0 0.0091438580038060747 0.030092972335916696 0 0.0090859663723060931 0.029979137818433602 0 0.009093049290936071 0.029761162951798151 0 0.0091438580038060747 0.030092972335916696 0 0.0090859663723060931 0.029979137818433602 0 0.0089890245117945113 0.030512490454816635 0 0.0090859663723060931 0.029979137818433602 0 0.0091413629217699105 0.030148949602253821 0 0.0090859663723060931 0.029979137818433602 0 0.0091413629217699105 0.030148949602253821 0 0.0090581611209442862 0.029716047989763041 0 0.009093049290936071 0.029761162951798151 0 0.0090859663723060931 0.029979137818433602 0 0.0090581611209442862 0.029716047989763041 0 0.009093049290936071 0.029761162951798151 0 0.0090581611209442862 0.029716047989763041 0 0.0090694929410125909 0.029633884840544814 0 -0.0073640890098840232 -0.0022553038889942239 0 -0.0074137605594434188 -0.001804281996578998 0 -0.0067093697927158259 -0.0019268845517322075 0 0.00079892395340494505 0.013964657861146468 0 0.0027448135557713253 0.0082047823243335191 0 -0.0073640890098840232 -0.0022553038889942239 0 -0.0074137605594434188 -0.001804281996578998 0 -0.0078821589377694404 -0.0020946468190676357 0 -0.0012759137807472221 0.00047632467574822759 0 -0.0015231789589061895 0.0013475911432116877 0 0.00017571269879641422 0.00077865440852360073 0 -0.0012759137807472221 0.00047632467574822759 0 0.00053204948918341604 -0.0004580785168136354 0 0.00017571269879641422 0.00077865440852360073 0 -0.005124207233300755 -0.0019447241393903843 0 0.0027448135557713253 0.0082047823243335191 0 -0.007951697537706217 -0.0022686795801676704 0 -0.0081633048147537468 -0.0022202083341992356 0 -0.0078821589377694404 -0.0020946468190676357 0 -0.0081633048147537468 -0.0022202083341992356 0 -0.0078821589377694404 -0.0020946468190676357 0 -0.0081691467896084866 -0.0021208204913392764 0 -0.0081559193630409803 -0.0022795852041151495 0 -0.0081633048147537468 -0.0022202083341992356 0 -0.0082543834775315166 -0.0022688053688398446 0 -0.007951697537706217 -0.0022686795801676704 0 -0.0081559193630409803 -0.0022795852041151495 0 -0.0081633048147537468 -0.0022202083341992356 0 -0.007951697537706217 -0.0022686795801676704 0 -0.0073640890098840232 -0.0022553038889942239 0 -0.0078821589377694404 -0.0020946468190676357 0 -0.0074137605594434188 -0.001804281996578998 0 -0.0078821589377694404 -0.0020946468190676357 0 -0.0080231932287560467 -0.0018728590511623863 0 -0.0078821589377694404 -0.0020946468190676357 0 -0.0081691467896084866 -0.0021208204913392764 0 -0.0080231932287560467 -0.0018728590511623863 0 -0.0081691467896084866 -0.0021208204913392764 0 -0.0083044563160758218 -0.0020805480144798025 0 -0.0080231932287560467 -0.0018728590511623863 0 -0.0081691467896084866 -0.0021208204913392764 0 -0.0083044563160758218 -0.0020805480144798025 0 -0.008394968035825269 -0.0021911697469857872 0 -0.0081633048147537468 -0.0022202083341992356 0 -0.0081691467896084866 -0.0021208204913392764 0 -0.008394968035825269 -0.0021911697469857872 0 -0.0083044563160758218 -0.0020805480144798025 0 -0.0080231932287560467 -0.0018728590511623863 0 -0.0085320144152458994 -0.0021051797393071337 0 -0.0033074388289887251 0.0019060774619528776 0 -0.0031764921357463607 0.0014558112284629473 0 -0.0051574169403835919 0.0024449202772671976 0 -0.0022740467549498596 0.00084918374507972404 0 -0.00057153925871631067 -0.00012679683738139961 0 -0.0033074388289887251 0.0019060774619528776 0 -0.0031764921357463607 0.0014558112284629473 0 -0.0015231789589061895 0.0013475911432116877 0 -0.0019573661765565965 -0.00049808570301586503 0 0.00096150437532067142 -0.0015341396656472933 0 4.7201814536074702e-05 6.0631384256631447e-05 0 -0.005124207233300755 -0.0019447241393903843 0 -0.0054819992893773793 4.9571867174081807e-05 0 -0.0002572137347331091 0.0018918538872191176 0 -0.0019573661765565965 -0.00049808570301586503 0 -0.0026890829999213785 0.0013598146466469146 0 -0.0002572137347331091 0.0018918538872191176 0 -0.0019573661765565965 -0.00049808570301586503 0 4.7201814536074702e-05 6.0631384256631447e-05 0 -0.0026890829999213785 0.0013598146466469146 0 -0.0043911624122577805 0.0023339367535437534 0 -0.0049127764941712176 0.00056717770531994056 0 -0.0022740467549498596 0.00084918374507972404 0 -0.0069996215124258397 -0.00052629004912149464 0 -0.0019573661765565965 -0.00049808570301586503 0 -0.0026890829999213785 0.0013598146466469146 0 -0.0049127764941712176 0.00056717770531994056 0 -0.0054819992893773793 4.9571867174081807e-05 0 -0.0069996215124258397 -0.00052629004912149464 0 0.0028164852403281459 -0.00043602698003079746 0 0.0043519578490672471 -0.00026633823943801756 0 0.003736375668577274 -0.0018364702451875152 0 0.0027010285609688749 -0.00079861632488987882 0 0.00096150437532067142 -0.0015341396656472933 0 0.0037354084643464276 -0.0025481200435123448 0 -0.00057153925871631067 -0.00012679683738139961 0 0.0032635515104494262 -0.00021267017276188806 0 0.0028164852403281459 -0.00043602698003079746 0 0.0036923264131204182 0.00041405974872090563 0 0.0043519578490672471 -0.00026633823943801756 0 0.0028978903301964693 -0.00085192785484755086 0 0.0032635515104494262 -0.00021267017276188806 0 -0.0012759137807472221 0.00047632467574822759 0 -0.0031764921357463607 0.0014558112284629473 0 -0.0015231789589061895 0.0013475911432116877 0 0.00096150437532067142 -0.0015341396656472933 0 0.0013560218283212033 -0.00031011008962630789 0 4.7201814536074702e-05 6.0631384256631447e-05 0 0.0027010285609688749 -0.00079861632488987882 0 0.00096150437532067142 -0.0015341396656472933 0 0.0013560218283212033 -0.00031011008962630789 0 0.0013560218283212033 -0.00031011008962630789 0 4.7201814536074702e-05 6.0631384256631447e-05 0 0.0016942929066240506 0.0010589019561661397 0 -0.0002572137347331091 0.0018918538872191176 0 4.7201814536074702e-05 6.0631384256631447e-05 0 0.0016942929066240506 0.0010589019561661397 0 0.0013612050258473816 0.0025572358865737321 0 0.0016942929066240506 0.0010589019561661397 0 0.0030314906134543932 0.0010550582425699769 0 0.0027010285609688749 -0.00079861632488987882 0 0.0013560218283212033 -0.00031011008962630789 0 0.0016942929066240506 0.0010589019561661397 0 0.0028978903301964693 -0.00085192785484755086 0 0.0017729330160071895 0.00097246724614385896 0 0.0028164852403281459 -0.00043602698003079746 0 0.0016942929066240506 0.0010589019561661397 0 0.0030314906134543932 0.0010550582425699769 0 0.0028164852403281459 -0.00043602698003079746 0 0.0036923264131204182 0.00041405974872090563 0 0.0030314906134543932 0.0010550582425699769 0 0.0044395229392829869 -0.00033145632727349194 0 0.0038674440391815701 0.0010873938048964211 0 0.0036923264131204182 0.00041405974872090563 0 0.0030314906134543932 0.0010550582425699769 0 0.0037111121983531437 0.0011777642944225412 0 0.0037367347298190253 0.0020073088989818618 0 0.0030314906134543932 0.0010550582425699769 0 0.0037111121983531437 0.0011777642944225412 0 0.0044395229392829869 -0.00033145632727349194 0 0.0037885121402074303 0.0012502512066456313 0 0.0036923264131204182 0.00041405974872090563 0 0.0043789819213284143 0.0012499613828774972 0 0.0037111121983531437 0.0011777642944225412 0 0.0037367347298190253 0.0020073088989818618 0 0.0043789819213284143 0.0012499613828774972 0 0.0037111121983531437 0.0011777642944225412 0 0.0043789819213284143 0.0012499613828774972 0 0.0043519578490672471 -0.00026633823943801756 0 0.0055077415564759088 0.0006053419867730357 0 0.0036923264131204182 0.00041405974872090563 0 0.0043789819213284143 0.0012499613828774972 0 0.0043519578490672471 -0.00026633823943801756 0 0.0043519578490672471 -0.00026633823943801756 0 0.0052430800971893753 -0.0013305374228212454 0 0.003736375668577274 -0.0018364702451875152 0 0.0043519578490672471 -0.00026633823943801756 0 0.0057693556723676003 -0.00040896213324948026 0 0.0055077415564759088 0.0006053419867730357 0 0.0043519578490672471 -0.00026633823943801756 0 0.0052430800971893753 -0.0013305374228212454 0 0.0057693556723676003 -0.00040896213324948026 0 0.0063568466306775252 -0.0014367301763452728 0 0.0057693556723676003 -0.00040896213324948026 0 0.0074907682113609817 -7.9234940789223943e-05 0 0.0057693556723676003 -0.00040896213324948026 0 0.006390831332595704 0.00051739676411158395 0 0.0074907682113609817 -7.9234940789223943e-05 0 0.0052430800971893753 -0.0013305374228212454 0 0.0063568466306775252 -0.0014367301763452728 0 0.0057693556723676003 -0.00040896213324948026 0 0.0065703268948591369 0.0019073800618982129 0 0.0043789819213284143 0.0012499613828774972 0 0.0055077415564759088 0.0006053419867730357 0 0.0065703268948591369 0.0019073800618982129 0 0.006390831332595704 0.00051739676411158395 0 0.0074907682113609817 -7.9234940789223943e-05 0 0.0057693556723676003 -0.00040896213324948026 0 0.006390831332595704 0.00051739676411158395 0 0.0055077415564759088 0.0006053419867730357 0 0.0065703268948591369 0.0019073800618982129 0 0.006390831332595704 0.00051739676411158395 0 0.0055077415564759088 0.0006053419867730357 0 0.0092115932853781921 0.0017032144325241387 0 0.0065703268948591369 0.0019073800618982129 0 0.0074907682113609817 -7.9234940789223943e-05 0 0.011831319703655984 0.0016106452029999163 0 0.008104961108027494 0.0056200079688343146 0 0.0097567473225503038 0.011467139064748182 0 0.010438668462438388 0.01043456059150921 0 0.00932501061905356 0.0089074775072402624 0 0.0092115932853781921 0.0017032144325241387 0 0.0089649951336783322 -0.00098531800903311757 0 0.0074907682113609817 -7.9234940789223943e-05 0 0.0097567473225503038 0.011467139064748182 0 0.011483381291909282 0.011391572610772907 0 0.010438668462438388 0.01043456059150921 0 0.010438668462438388 0.01043456059150921 0 0.010126109257206018 0.0093862934639338015 0 0.00932501061905356 0.0089074775072402624 0 0.010783742177240074 0.0099714944985797634 0 0.010438668462438388 0.01043456059150921 0 0.010126109257206018 0.0093862934639338015 0 0.0082098763585864397 0.0062460125108579892 0 0.008104961108027494 0.0056200079688343146 0 0.0093152817177109461 0.0086810826055793832 0 0.00932501061905356 0.0089074775072402624 0 0.0096180501839918213 0.0088488208445006867 0 0.0093152817177109461 0.0086810826055793832 0 0.0094924432968400679 0.0086564983088765982 0 0.0096180501839918213 0.0088488208445006867 0 0.00932501061905356 0.0089074775072402624 0 0.0097843348845827582 0.0090233775282671895 0 0.0096180501839918213 0.0088488208445006867 0 0.010126109257206018 0.0093862934639338015 0 0.00932501061905356 0.0089074775072402624 0 0.0097843348845827582 0.0090233775282671895 0 0.010126109257206018 0.0093862934639338015 0 0.0097843348845827582 0.0090233775282671895 0 0.0099708488873307254 0.0088767835049859568 0 0.0097843348845827582 0.0090233775282671895 0 0.0096180501839918213 0.0088488208445006867 0 0.0099708488873307254 0.0088767835049859568 0 0.0094924432968400679 0.0086564983088765982 0 0.0096180501839918213 0.0088488208445006867 0 0.0096887307069399211 0.0086505055961953389 0 0.0096180501839918213 0.0088488208445006867 0 0.0096887307069399211 0.0086505055961953389 0 0.0099708488873307254 0.0088767835049859568 0 0.0096887307069399211 0.0086505055961953389 0 0.0099708488873307254 0.0088767835049859568 0 0.010083722235792621 0.008479866997821146 0 0.010476857157348505 0.0089185908358839182 0 0.0099708488873307254 0.0088767835049859568 0 0.010083722235792621 0.008479866997821146 0 0.010476857157348505 0.0089185908358839182 0 0.010126109257206018 0.0093862934639338015 0 0.0099708488873307254 0.0088767835049859568 0 0.0089649951336783322 -0.00098531800903311757 0 0.0074907682113609817 -7.9234940789223943e-05 0 0.0074944039419490797 -0.0018123079861241613 0 0.0063568466306775252 -0.0014367301763452728 0 0.0074907682113609817 -7.9234940789223943e-05 0 0.0074944039419490797 -0.0018123079861241613 0 0.008104961108027494 0.0056200079688343146 0 0.0081954293579141208 0.0033605382966407477 0 0.0093152817177109461 0.0086810826055793832 0 0.0093161977880029997 0.0087110966321189889 0 0.0091327007761730257 0.0085665021005499817 0 0.0093152817177109461 0.0086810826055793832 0 0.0091327007761730257 0.0085665021005499817 0 0.0091321129367246696 0.0085551511767891081 0 0.0091327007761730257 0.0085665021005499817 0 0.0091321129367246696 0.0085551511767891081 0 0.0091340752157924414 0.0088676346157663868 0 0.0091327007761730257 0.0085665021005499817 0 0.0091340752157924414 0.0088676346157663868 0 0.0094144463570044502 0.0087097799949764493 0 0.010083722235792621 0.008479866997821146 0 0.0093717746216812944 0.0085294042244889335 0 0.0090785175499126271 0.0084253306922442948 0 0.0096887307069399211 0.0086505055961953389 0 0.010083722235792621 0.008479866997821146 0 0.0093717746216812944 0.0085294042244889335 0 0.0094924432968400679 0.0086564983088765982 0 0.0096887307069399211 0.0086505055961953389 0 0.0093717746216812944 0.0085294042244889335 0 0.0093152817177109461 0.0086810826055793832 0 0.0091321129367246696 0.0085551511767891081 0 0.0093717746216812944 0.0085294042244889335 0 0.0093152817177109461 0.0086810826055793832 0 0.0094924432968400679 0.0086564983088765982 0 0.0093717746216812944 0.0085294042244889335 0 0.0091321129367246696 0.0085551511767891081 0 0.0093717746216812944 0.0085294042244889335 0 0.0090785175499126271 0.0084253306922442948 0 0.0091321129367246696 0.0085551511767891081 0 0.0090785175499126271 0.0084253306922442948 0 0.0089352863373181914 0.0091051547467770506 0 0.0084199458306893626 0.0092709997905030591 0 0.0090785175499126271 0.0084253306922442948 0 0.0089352863373181914 0.0091051547467770506 0 0.0091321129367246696 0.0085551511767891081 0 0.0089352863373181914 0.0091051547467770506 0 0.0091340752157924414 0.0088676346157663868 0 0.0090202840636317665 0.0096118555778652512 0 0.0091340752157924414 0.0088676346157663868 0 0.0092042052793395186 0.0091324425874472048 0 0.0090202840636317665 0.0096118555778652512 0 0.0089352863373181914 0.0091051547467770506 0 0.0091340752157924414 0.0088676346157663868 0 0.0090202840636317665 0.0096118555778652512 0 0.0092042052793395186 0.0091324425874472048 0 0.0093547197082121981 0.009245450394942345 0 0.0091340752157924414 0.0088676346157663868 0 0.0092042052793395186 0.0091324425874472048 0 0.009249611547228493 0.0089451512293545407 0 0.0092042052793395186 0.0091324425874472048 0 0.0093547197082121981 0.009245450394942345 0 0.009249611547228493 0.0089451512293545407 0 0.009093049290936071 0.029761162951798151 0 0.0091175332286715319 0.029701472536625202 0 0.0090694929410125909 0.029633884840544814 0 0.007451651401190946 0.019410506635620529 0 0.0027448135557713253 0.0082047823243335191 0 0.0027448135557713253 0.0082047823243335191 0 0.0056645598252846509 0.0063328059600243044 0 0.007451651401190946 0.019410506635620529 0 0.0056645598252846509 0.0063328059600243044 0 0.0046678385697531358 0.013665699058923597 0 0.0074542825317115355 0.011908235138767837 0 0.0061007920446940938 0.011164520078540728 0 0.0093547197082121981 0.009245450394942345 0 0.009425903685395344 0.0090898218951595347 0 0.009249611547228493 0.0089451512293545407 0 0.00053204948918341604 -0.0004580785168136354 0 0.00085527240384568012 -0.00027703793806387511 0 0.00017571269879641422 0.00077865440852360073 0 0.0056645598252846509 0.0063328059600243044 0 0.0032635515104494262 -0.00021267017276188806 0 0.0052430800971893753 -0.0013305374228212454 0 0.003736375668577274 -0.0018364702451875152 0 0.0060137219413156726 -0.0026327943549727933 0 0.0032635515104494262 -0.00021267017276188806 0 0.0077108069808443647 0.0048219614081152131 0 0.0055410766903432043 0.0032096934457336575 0 0.0053444951733628626 0.0034929478933362554 0 0.0058081476348878294 0.0033553143405139858 0 0.0052430800971893753 -0.0013305374228212454 0 0.0063568466306775252 -0.0014367301763452728 0 0.0060137219413156726 -0.0026327943549727933 0 0.0063568466306775252 -0.0014367301763452728 0 0.0074944039419490797 -0.0018123079861241613 0 0.0060137219413156726 -0.0026327943549727933 0 0.0081954293579141208 0.0033605382966407477 0 0.0077108069808443647 0.0048219614081152131 0 0.0091041468527774741 0.008703426847409157 0 0.0077108069808443647 0.0048219614081152131 0 0.0056645598252846509 0.0063328059600243044 0 0.0077108069808443647 0.0048219614081152131 0 0.050987403000490567 0.010419386252045377 0 0.050351291417651184 0.010503137253627042 0 0.050340694594930548 0.0099304830847300411 0 0.050987403000490567 0.010419386252045377 0 0.050351291417651184 0.010503137253627042 0 0.050271311521368357 0.011843984692567025 0 0.050351291417651184 0.010503137253627042 0 0.049998943470590446 0.0098456437818660539 0 0.050340694594930548 0.0099304830847300411 0 0.050351291417651184 0.010503137253627042 0 0.049998943470590446 0.0098456437818660539 0 0.050271311521368357 0.011843984692567025 0 0.049998943470590446 0.0098456437818660539 0 0.050271311521368357 0.011843984692567025 0 0.049999173072449277 0.012536553152331891 0 0.050987403000490567 0.010419386252045377 0 0.050271311521368357 0.011843984692567025 0 0.050523666928391012 0.012529032617258674 0 0.050169644214109285 0.010500377421835988 0 0.050472731964639382 0.012298614484877995 0 0.050523666928391012 0.012529032617258674 0 0.051476153662094501 0.012522039960288982 0 0.050592326460582204 0.011389459472649412 0 0.051476153662094501 0.012522039960288982 0 0.051907171980122437 0.010914259845647634 0 0.053184120758986771 0.013278695524017141 0 0.051907171980122437 0.010914259845647634 0 0.050592326460582204 0.011389459472649412 0 0.050191227802831376 0.010231093405312206 0 0.051476153662094501 0.012522039960288982 0 0.051907171980122437 0.010914259845647634 0 0.050592326460582204 0.011389459472649412 0 0.049348314651663706 0.010545757418450265 0 0.050592326460582204 0.011389459472649412 0 0.050191227802831376 0.010231093405312206 0 0.049348314651663706 0.010545757418450265 0 0.050523666928391012 0.012529032617258674 0 0.050592326460582204 0.011389459472649412 0 0.049348314651663706 0.010545757418450265 0 0.04963127737080681 0.0095953816149448867 0 0.049273458157514008 0.0092092014948203706 0 0.049348314651663706 0.010545757418450265 0 0.050191227802831376 0.010231093405312206 0 0.04963127737080681 0.0095953816149448867 0 0.050191227802831376 0.010231093405312206 0 0.04963127737080681 0.0095953816149448867 0 0.049384354056185055 0.0092615710595801096 0 0.046973772556685417 0.010788350599348436 0 0.048078681896319114 0.010062996053999624 0 0.049384354056185055 0.0092615710595801096 0 0.051907171980122437 0.010914259845647634 0 0.050191227802831376 0.010231093405312206 0 0.049384354056185055 0.0092615710595801096 0 0.049507756082566058 0.010988497260152641 0 0.049410015363283009 0.0095908654811931865 0 0.048078681896319114 0.010062996053999624 0 0.049384354056185055 0.0092615710595801096 0 0.048660836061595963 0.0091613105359451101 0 0.049384354056185055 0.0092615710595801096 0 0.049006494793017913 0.0092180387183868843 0 0.049488378118704282 0.009241533142974245 0 0.049006494793017913 0.0092180387183868843 0 0.049488378118704282 0.009241533142974245 0 0.049301670057827346 0.0092176942044456863 0 0.049384354056185055 0.0092615710595801096 0 0.049006494793017913 0.0092180387183868843 0 0.048660836061595963 0.0091613105359451101 0 0.04963127737080681 0.0095953816149448867 0 0.049488378118704282 0.009241533142974245 0 0.049273458157514008 0.0092092014948203706 0 0.04963127737080681 0.0095953816149448867 0 0.049384354056185055 0.0092615710595801096 0 0.049488378118704282 0.009241533142974245 0 0.049488378118704282 0.009241533142974245 0 0.049458285465659259 0.0091595132431266813 0 0.049301670057827346 0.0092176942044456863 0 0.049488378118704282 0.009241533142974245 0 0.049273458157514008 0.0092092014948203706 0 0.049458285465659259 0.0091595132431266813 0 0.050509642007550121 0.0094282584459169788 0 0.050340694594930548 0.0099304830847300411 0 0.050143823056059952 0.0095223006783377029 0 0.050509642007550121 0.0094282584459169788 0 0.050143823056059952 0.0095223006783377029 0 0.050010283300018617 0.0089806549465211803 0 0.050169644214109285 0.010500377421835988 0 0.049916142424132372 0.0093802231427283136 0 0.050987403000490567 0.010419386252045377 0 0.050509642007550121 0.0094282584459169788 0 0.050340694594930548 0.0099304830847300411 0 0.04999998650932036 0.0098421992285784073 0 0.050174141186940836 0.0088888440250745847 0 0.049998943470590446 0.0098456437818660539 0 0.050340694594930548 0.0099304830847300411 0 0.050143823056059952 0.0095223006783377029 0 0.050001325558814307 0.0098380171441192384 0 0.049998535322308496 0.0083534485716362048 0 0.050226051298558137 0.0081792971010138105 0 0.049998535322308496 0.0083534485716362048 0 0.050226051298558137 0.0081792971010138105 0 0.050256130158924689 0.0085523074010327195 0 0.050000002114994134 0.0083486314747429347 0 0.049999983256453787 0.0056265622575595343 0 0.051190296031396354 0.0058106558860569887 0 0.050000075441033458 0.0083486246852648577 0 0.050738073964981277 0.007117613262177888 0 0.050174141186940836 0.0088888440250745847 0 0.050046601354395932 0.008938343554352763 0 0.050226051298558137 0.0081792971010138105 0 0.050256130158924689 0.0085523074010327195 0 0.050010283300018617 0.0089806549465211803 0 0.049999983256453787 0.0056265622575595343 0 0.051190296031396354 0.0058106558860569887 0 0.05080520262294444 0.0042648849599743136 0 0.049916142424132372 0.0093802231427283136 0 0.049890785313840336 0.0091311776504381329 0 0.050509642007550121 0.0094282584459169788 0 0.050010283300018617 0.0089806549465211803 0 0.049892605809353618 0.0090593570359530796 0 0.049273458157514008 0.0092092014948203706 0 0.049892605809353618 0.0090593570359530796 0 0.049566230549551303 0.0091260149702136455 0 0.049892605809353618 0.0090593570359530796 0 0.049655838411912234 0.009297092433737518 0 0.049566230549551303 0.0091260149702136455 0 0.050738073964981277 0.007117613262177888 0 0.050956187985470289 0.0068051995736844954 0 0.050256130158924689 0.0085523074010327195 0 0.050010283300018617 0.0089806549465211803 0 0.04988499077116941 0.0095523624752041538 0 0.049892605809353618 0.0090593570359530796 0 0.04988499077116941 0.0095523624752041538 0 0.049655838411912234 0.009297092433737518 0 0.050010283300018617 0.0089806549465211803 0 0.049892605809353618 0.0090593570359530796 0 0.04988499077116941 0.0095523624752041538 0 0.04988499077116941 0.0095523624752041538 0 0.049552492129009501 0.009553467396740992 0 0.049655838411912234 0.009297092433737518 0 0.051190296031396354 0.0058106558860569887 0 0.052339687939562264 0.0032734704324758209 0 0.05080520262294444 0.0042648849599743136 0 0.052339687939562264 0.0032734704324758209 0 0.05080520262294444 0.0042648849599743136 0 0.04999994999111302 0.0029044674833235279 0 0.049999983256453787 0.0056265622575595343 0 0.05080520262294444 0.0042648849599743136 0 0.04999994999111302 0.0029044674833235279 0 0.052339687939562264 0.0032734704324758209 0 0.04999994999111302 0.0029044674833235279 0 0.051225612626796382 0.0014783462119672293 0 0.050956187985470289 0.0068051995736844954 0 0.052087217924719896 0.0036117733096697586 0 0.052339687939562264 0.0032734704324758209 0 0.052323008487994212 0.001001229884773174 0 0.051225612626796382 0.0014783462119672293 0 0.052339687939562264 0.0032734704324758209 0 0.052323008487994212 0.001001229884773174 0 0.053455621215562056 0.00071565325245284749 0 0.052323008487994212 0.001001229884773174 0 0.051550673769034237 8.1266593983614441e-05 0 0.051225612626796382 0.0014783462119672293 0 0.052323008487994212 0.001001229884773174 0 0.053455621215562056 0.00071565325245284749 0 0.052982301375253497 0.00050974679710343962 0 0.053038069152549133 -0.00024499871068251898 0 0.052413979813968663 -1.5097723153896157e-05 0 0.052982301375253497 0.00050974679710343962 0 0.052413979813968663 -1.5097723153896157e-05 0 0.052323008487994212 0.001001229884773174 0 0.052982301375253497 0.00050974679710343962 0 0.052413979813968663 -1.5097723153896157e-05 0 0.052323008487994212 0.001001229884773174 0 0.051550673769034237 8.1266593983614441e-05 0 0.051550673769034237 8.1266593983614441e-05 0 0.049999956720498138 0.00018239515411399895 0 0.051225612626796382 0.0014783462119672293 0 0.04999994999111302 0.0029044674833235279 0 0.049999956720498138 0.00018239515411399895 0 0.051225612626796382 0.0014783462119672293 0 0.047226304307034166 0.00054192902080806547 0 0.04930232257988082 0.0058447451963682638 0 0.054025399562899833 -0.00082992058380317491 0 0.055135813340135773 0.001329919547788312 0 0.05533055766204889 0.001544655702024737 0 0.053855622979818066 -0.00031870392245096532 0 0.054025399562899833 -0.00082992058380317491 0 0.055135813340135773 0.001329919547788312 0 0.040771892398090953 0.0026645839384473739 0 0.041686070507434517 0.0046099570522634692 0 0.04207659653056036 0.0064643910448448742 0 0.054161530708267694 -0.0002973209548066289 0 0.05504174377782086 0.0011833319771098465 0 0.054458318723365831 -0.0002570800361376838 0 0.054101496302339319 0.00027404861229642189 0 0.055135813340135773 0.001329919547788312 0 0.053275191921212571 0.00054980501817598014 0 0.055135813340135773 0.001329919547788312 0 0.05533055766204889 0.001544655702024737 0 0.052087217924719896 0.0036117733096697586 0 0.04930232257988082 0.0058447451963682638 0 0.054101496302339319 0.00027404861229642189 0 0.053275191921212571 0.00054980501817598014 0 0.055135813340135773 0.001329919547788312 0 0.053819755358449857 -0.00049535175401847005 0 0.054101496302339319 0.00027404861229642189 0 0.053275191921212571 0.00054980501817598014 0 0.053038069152549133 -0.00024499871068251898 0 0.053386636243150834 0.00066162966720010338 0 0.052982301375253497 0.00050974679710343962 0 0.054120450652073 -0.0010416430425092759 0 0.052087217924719896 0.0036117733096697586 0 0.052087217924719896 0.0036117733096697586 0 0.052252126725460264 0.0029135269643857649 0 0.049555813932898526 0.010123748508308519 0 0.049304648850415606 0.009650195443177783 0 0.049552492129009501 0.009553467396740992 0 0.049555813932898526 0.010123748508308519 0 0.049304648850415606 0.009650195443177783 0 0.049044457553220733 0.0097201607913689099 0 0.04988499077116941 0.0095523624752041538 0 0.049555813932898526 0.010123748508308519 0 0.049552492129009501 0.009553467396740992 0 0.049304648850415606 0.009650195443177783 0 0.049044457553220733 0.0097201607913689099 0 0.049101467222842005 0.0095816327059504991 0 0.049555813932898526 0.010123748508308519 0 0.049044457553220733 0.0097201607913689099 0 0.048859629154106944 0.0099112584366654374 0 0.049044457553220733 0.0097201607913689099 0 0.048795096911042689 0.0098048705742490045 0 0.048859629154106944 0.0099112584366654374 0 0.049044457553220733 0.0097201607913689099 0 0.048881981182598892 0.0096607404856853558 0 0.048795096911042689 0.0098048705742490045 0 0.049044457553220733 0.0097201607913689099 0 0.049101467222842005 0.0095816327059504991 0 0.048881981182598892 0.0096607404856853558 0 0.048932022312920986 0.0095160188999259872 0 0.049101467222842005 0.0095816327059504991 0 0.048881981182598892 0.0096607404856853558 0 0.048932022312920986 0.0095160188999259872 0 0.049101467222842005 0.0095816327059504991 0 0.049203522951346029 0.009425454681613505 0 0.049304648850415606 0.009650195443177783 0 0.049101467222842005 0.0095816327059504991 0 0.049203522951346029 0.009425454681613505 0 0.049203522951346029 0.009425454681613505 0 0.048948756648492388 0.0093730371419652129 0 0.049133655277903795 0.0092984172326727229 0 0.048932022312920986 0.0095160188999259872 0 0.049203522951346029 0.009425454681613505 0 0.048948756648492388 0.0093730371419652129 0 0.049304648850415606 0.009650195443177783 0 0.049552492129009501 0.009553467396740992 0 0.049381899047436048 0.0094836417239895655 0 0.049304648850415606 0.009650195443177783 0 0.049203522951346029 0.009425454681613505 0 0.049381899047436048 0.0094836417239895655 0 0.049552492129009501 0.009553467396740992 0 0.049381899047436048 0.0094836417239895655 0 0.049465132415783208 0.0093173399275547995 0 0.049203522951346029 0.009425454681613505 0 0.049465132415783208 0.0093173399275547995 0 0.049354814224059941 0.0092358878965576909 0 0.049203522951346029 0.009425454681613505 0 0.049381899047436048 0.0094836417239895655 0 0.049465132415783208 0.0093173399275547995 0 0.049552492129009501 0.009553467396740992 0 0.049465132415783208 0.0093173399275547995 0 0.049655838411912234 0.009297092433737518 0 0.049465132415783208 0.0093173399275547995 0 0.049655838411912234 0.009297092433737518 0 0.049566230549551303 0.0091260149702136455 0 0.049273458157514008 0.0092092014948203706 0 0.049566230549551303 0.0091260149702136455 0 0.049458285465659259 0.0091595132431266813 0 0.049465132415783208 0.0093173399275547995 0 0.049566230549551303 0.0091260149702136455 0 0.049354814224059941 0.0092358878965576909 0 0.049566230549551303 0.0091260149702136455 0 0.049354814224059941 0.0092358878965576909 0 0.049458285465659259 0.0091595132431266813 0 0.049354814224059941 0.0092358878965576909 0 0.049458285465659259 0.0091595132431266813 0 0.049301670057827346 0.0092176942044456863 0 0.049006494793017913 0.0092180387183868843 0 0.049133655277903795 0.0092984172326727229 0 0.048836740689982838 0.0092640226805690232 0 0.048948756648492388 0.0093730371419652129 0 0.049133655277903795 0.0092984172326727229 0 0.048836740689982838 0.0092640226805690232 0 0.049203522951346029 0.009425454681613505 0 0.049354814224059941 0.0092358878965576909 0 0.049133655277903795 0.0092984172326727229 0 0.049354814224059941 0.0092358878965576909 0 0.049133655277903795 0.0092984172326727229 0 0.049301670057827346 0.0092176942044456863 0 0.049006494793017913 0.0092180387183868843 0 0.049133655277903795 0.0092984172326727229 0 0.049301670057827346 0.0092176942044456863 0 0.049006494793017913 0.0092180387183868843 0 0.048836740689982838 0.0092640226805690232 0 0.04870762269783771 0.0091299207409625618 0 0.048483793441134286 0.0091423072982506799 0 0.048836740689982838 0.0092640226805690232 0 0.04870762269783771 0.0091299207409625618 0 0.048483793441134286 0.0091423072982506799 0 0.04870762269783771 0.0091299207409625618 0 0.048495472238141761 0.0089940059499985375 0 0.048483793441134286 0.0091423072982506799 0 0.048836740689982838 0.0092640226805690232 0 0.048631932980841501 0.0093852343252394891 0 0.048081317252639519 0.0090784514739683884 0 0.047872960316291006 0.0086561373397072445 0 0.048268468315963854 0.0089262131350535626 0 0.048483793441134286 0.0091423072982506799 0 0.048081317252639519 0.0090784514739683884 0 0.048268468315963854 0.0089262131350535626 0 0.048483793441134286 0.0091423072982506799 0 0.048268468315963854 0.0089262131350535626 0 0.048495472238141761 0.0089940059499985375 0 0.048483793441134286 0.0091423072982506799 0 0.048081317252639519 0.0090784514739683884 0 0.048212327863414055 0.0093600261670447223 0 0.048081317252639519 0.0090784514739683884 0 0.048212327863414055 0.0093600261670447223 0 0.047954310389423577 0.0092464657978281028 0 0.048212327863414055 0.0093600261670447223 0 0.04796025630995962 0.0093443795074249405 0 0.047954310389423577 0.0092464657978281028 0 0.048212327863414055 0.0093600261670447223 0 0.048631932980841501 0.0093852343252394891 0 0.048443301122015558 0.0095057624166664002 0 0.048212327863414055 0.0093600261670447223 0 0.048443301122015558 0.0095057624166664002 0 0.048240335194858402 0.0097424286419929233 0 0.048212327863414055 0.0093600261670447223 0 0.048240335194858402 0.0097424286419929233 0 0.04796025630995962 0.0093443795074249405 0 0.048932022312920986 0.0095160188999259872 0 0.048948756648492388 0.0093730371419652129 0 0.048631932980841501 0.0093852343252394891 0 0.048948756648492388 0.0093730371419652129 0 0.048836740689982838 0.0092640226805690232 0 0.048631932980841501 0.0093852343252394891 0 0.048483793441134286 0.0091423072982506799 0 0.048212327863414055 0.0093600261670447223 0 0.048631932980841501 0.0093852343252394891 0 0.048631932980841501 0.0093852343252394891 0 0.048443301122015558 0.0095057624166664002 0 0.048669872314653542 0.0095910197119163116 0 0.048443301122015558 0.0095057624166664002 0 0.048669872314653542 0.0095910197119163116 0 0.048240335194858402 0.0097424286419929233 0 0.048932022312920986 0.0095160188999259872 0 0.048631932980841501 0.0093852343252394891 0 0.048669872314653542 0.0095910197119163116 0 0.048932022312920986 0.0095160188999259872 0 0.048669872314653542 0.0095910197119163116 0 0.048881981182598892 0.0096607404856853558 0 0.048669872314653542 0.0095910197119163116 0 0.048795096911042689 0.0098048705742490045 0 0.048240335194858402 0.0097424286419929233 0 0.04930232257988082 0.0058447451963682638 0 0.046016332584232884 0.0087999111364643612 0 0.048795096911042689 0.0098048705742490045 0 0.048862058759313751 0.0099450364333113911 0 0.048240335194858402 0.0097424286419929233 0 0.04207659653056036 0.0064643910448448742 0 0.044987831189626203 0.0077746116627744099 0 0.044234497613199718 0.0053908544793032339 0 0.048669872314653542 0.0095910197119163116 0 0.048881981182598892 0.0096607404856853558 0 0.048795096911042689 0.0098048705742490045 0 0.049757850541362766 0.0083040816752901151 0 0.04930232257988082 0.0058447451963682638 0 0.044987831189626203 0.0077746116627744099 0 0.044234497613199718 0.0053908544793032339 0 0.045805069968287898 0.005837326038623171 0 0.044987831189626203 0.0077746116627744099 0 0.045805069968287898 0.005837326038623171 0 0.046671898422080124 0.0070172236752121539 0 0.044234497613199718 0.0053908544793032339 0 0.045805069968287898 0.005837326038623171 0 0.046071208249187125 0.0040970195549103897 0 0.044094899454028023 0.0031507717617107007 0 0.044234497613199718 0.0053908544793032339 0 0.046071208249187125 0.0040970195549103897 0 0.044094899454028023 0.0031507717617107007 0 0.044234497613199718 0.0053908544793032339 0 0.042911765195157409 0.0045077003688852365 0 0.042496581340104707 0.0028591161113754662 0 0.041686070507434517 0.0046099570522634692 0 0.042911765195157409 0.0045077003688852365 0 0.041686070507434517 0.0046099570522634692 0 0.04207659653056036 0.0064643910448448742 0 0.042911765195157409 0.0045077003688852365 0 0.04207659653056036 0.0064643910448448742 0 0.044234497613199718 0.0053908544793032339 0 0.042911765195157409 0.0045077003688852365 0 0.046105612825026961 0.0014473991273032066 0 0.046820104650023599 0.0021684943226907855 0 0.045361184987394165 0.002549407417618282 0 0.046820104650023599 0.0021684943226907855 0 0.045361184987394165 0.002549407417618282 0 0.04619683346904669 0.0038010399171984725 0 0.045805069968287898 0.005837326038623171 0 0.046071208249187125 0.0040970195549103897 0 0.048266602811457997 0.0052312940548113994 0 0.045805069968287898 0.005837326038623171 0 0.048266602811457997 0.0052312940548113994 0 0.046671898422080124 0.0070172236752121539 0 0.047061777567159901 0.0045831253541192699 0 0.046714664728007366 0.007075999750910454 0 0.048266602811457997 0.0052312940548113994 0 0.04770109961467079 0.0091613087036109646 0 0.047964620870235432 0.0095484476643659961 0 0.048266602811457997 0.0052312940548113994 0 0.046671898422080124 0.0070172236752121539 0 0.04770109961467079 0.0091613087036109646 0 0.046016332584232884 0.0087999111364643612 0 0.04787883357991235 0.0091983875224365373 0 0.044987831189626203 0.0077746116627744099 0 0.046671898422080124 0.0070172236752121539 0 0.04770109961467079 0.0091613087036109646 0 0.045361184987394165 0.002549407417618282 0 0.04619683346904669 0.0038010399171984725 0 0.045484499377072107 0.0051664363593161766 0 0.04619683346904669 0.0038010399171984725 0 0.046849615528040948 0.0049279571982322789 0 0.047427746546690783 0.0041784225246103831 0 0.04619683346904669 0.0038010399171984725 0 0.046849615528040948 0.0049279571982322789 0 0.046240053388436973 0.0049911213016703782 0 0.046849615528040948 0.0049279571982322789 0 0.046240053388436973 0.0049911213016703782 0 0.046610673011871204 0.0057171314464499546 0 0.04619683346904669 0.0038010399171984725 0 0.046240053388436973 0.0049911213016703782 0 0.045484499377072107 0.0051664363593161766 0 0.046240053388436973 0.0049911213016703782 0 0.046209591608638426 0.0056147671214849789 0 0.045484499377072107 0.0051664363593161766 0 0.046209591608638426 0.0056147671214849789 0 0.046610673011871204 0.0057171314464499546 0 0.046519624350373809 0.0064548747662073478 0 0.046240053388436973 0.0049911213016703782 0 0.046209591608638426 0.0056147671214849789 0 0.046610673011871204 0.0057171314464499546 0 0.046209591608638426 0.0056147671214849789 0 0.045484499377072107 0.0051664363593161766 0 0.046519624350373809 0.0064548747662073478 0 0.046610673011871204 0.0057171314464499546 0 0.047024678043913942 0.006576253735294196 0 0.047186141634206404 0.0056797303985939279 0 0.046849615528040948 0.0049279571982322789 0 0.046610673011871204 0.0057171314464499546 0 0.047186141634206404 0.0056797303985939279 0 0.048240335194858402 0.0097424286419929233 0 0.04796025630995962 0.0093443795074249405 0 0.04770109961467079 0.0091613087036109646 0 0.047964620870235432 0.0095484476643659961 0 0.047843349823370948 0.0093312875120920395 0 0.047723573311301823 0.0089878677382935427 0 0.04796025630995962 0.0093443795074249405 0 0.04770109961467079 0.0091613087036109646 0 0.047843349823370948 0.0093312875120920395 0 0.04770109961467079 0.0091613087036109646 0 0.047964620870235432 0.0095484476643659961 0 0.047843349823370948 0.0093312875120920395 0 0.04796025630995962 0.0093443795074249405 0 0.047843349823370948 0.0093312875120920395 0 0.047954310389423577 0.0092464657978281028 0 0.047964620870235432 0.0095484476643659961 0 0.047723573311301823 0.0089878677382935427 0 0.046911433269517175 0.0082366910055980957 0 0.046714664728007366 0.007075999750910454 0 0.046886257763549606 0.0081846250076391472 0 0.048081317252639519 0.0090784514739683884 0 0.047954310389423577 0.0092464657978281028 0 0.047723573311301823 0.0089878677382935427 0 0.047843349823370948 0.0093312875120920395 0 0.047954310389423577 0.0092464657978281028 0 0.047723573311301823 0.0089878677382935427 0 0.048081317252639519 0.0090784514739683884 0 0.047723573311301823 0.0089878677382935427 0 0.047872960316291006 0.0086561373397072445 0 0.045484499377072107 0.0051664363593161766 0 0.046519624350373809 0.0064548747662073478 0 0.046911433269517175 0.0082366910055980957 0 0.046519624350373809 0.0064548747662073478 0 0.046868606408777935 0.0072860641349843354 0 0.046911433269517175 0.0082366910055980957 0 0.046610673011871204 0.0057171314464499546 0 0.047024678043913942 0.006576253735294196 0 0.046519624350373809 0.0064548747662073478 0 0.047024678043913942 0.006576253735294196 0 0.046519624350373809 0.0064548747662073478 0 0.046868606408777935 0.0072860641349843354 0 0.047024678043913942 0.006576253735294196 0 0.046868606408777935 0.0072860641349843354 0 0.04707587832122128 0.0076779637523910985 0 0.04707587832122128 0.0076779637523910985 0 0.04695678023845682 0.0081784746649711526 0 0.04748367185674477 0.0078016851097459112 0 0.04707587832122128 0.0076779637523910985 0 0.046911433269517175 0.0082366910055980957 0 0.04695678023845682 0.0081784746649711526 0 0.046868606408777935 0.0072860641349843354 0 0.04707587832122128 0.0076779637523910985 0 0.046911433269517175 0.0082366910055980957 0 0.045393392512936559 0.011288871079613358 0 0.04541083024938225 0.011339893444879668 0 0.04554675717482793 0.011242027248146077 0 0.045393392512936559 0.011288871079613358 0 0.04541083024938225 0.011339893444879668 0 0.045596666696468523 0.011235003190244367 0 0.04695678023845682 0.0081784746649711526 0 0.047798105115347073 0.0084747730523821278 0 0.048302395617996485 0.008494679573149741 0 0.045393392512936559 0.011288871079613358 0 0.046262989563606804 0.011265092095060601 0 0.045596666696468523 0.011235003190244367 0 0.046233409747981416 0.0097297828690654786 0 0.047205314402649384 0.0098972726943489051 0 0.04695678023845682 0.0081784746649711526 0 0.047798105115347073 0.0084747730523821278 0 0.047389763742742376 0.0083642186097808921 0 0.047798105115347073 0.0084747730523821278 0 0.047389763742742376 0.0083642186097808921 0 0.047872960316291006 0.0086561373397072445 0 0.046911433269517175 0.0082366910055980957 0 0.04695678023845682 0.0081784746649711526 0 0.047389763742742376 0.0083642186097808921 0 0.046911433269517175 0.0082366910055980957 0 0.047389763742742376 0.0083642186097808921 0 0.047872960316291006 0.0086561373397072445 0 0.047723573311301823 0.0089878677382935427 0 0.046911433269517175 0.0082366910055980957 0 0.047872960316291006 0.0086561373397072445 0 0.047872960316291006 0.0086561373397072445 0 0.048268468315963854 0.0089262131350535626 0 0.048264677409016458 0.00875519795861774 0 0.048268468315963854 0.0089262131350535626 0 0.048264677409016458 0.00875519795861774 0 0.048495472238141761 0.0089940059499985375 0 0.047798105115347073 0.0084747730523821278 0 0.047872960316291006 0.0086561373397072445 0 0.048264677409016458 0.00875519795861774 0 0.049006494793017913 0.0092180387183868843 0 0.04870762269783771 0.0091299207409625618 0 0.048660836061595963 0.0091613105359451101 0 0.04870762269783771 0.0091299207409625618 0 0.048495472238141761 0.0089940059499985375 0 0.048660836061595963 0.0091613105359451101 0 0.048495472238141761 0.0089940059499985375 0 0.048660836061595963 0.0091613105359451101 0 0.048432023985582981 0.0090022661798662886 0 0.048264677409016458 0.00875519795861774 0 0.048495472238141761 0.0089940059499985375 0 0.048432023985582981 0.0090022661798662886 0 0.04790754115128474 0.010035439843623956 0 0.047205314402649384 0.0098972726943489051 0 0.048078681896319114 0.010062996053999624 0 0.048432023985582981 0.0090022661798662886 0 0.048302395617996485 0.008494679573149741 0 0.048078681896319114 0.010062996053999624 0 0.046812563062388721 0.010864927165146959 0 0.046262989563606804 0.011265092095060601 0 0.048078681896319114 0.010062996053999624 0 0.046812563062388721 0.010864927165146959 0 0.047283727128220862 0.010620608332404455 0 0.048078681896319114 0.010062996053999624 0 0.048660836061595963 0.0091613105359451101 0 0.048432023985582981 0.0090022661798662886 0 0.047798105115347073 0.0084747730523821278 0 0.048264677409016458 0.00875519795861774 0 0.048302395617996485 0.008494679573149741 0 0.048264677409016458 0.00875519795861774 0 0.048432023985582981 0.0090022661798662886 0 0.048302395617996485 0.008494679573149741 0 0.046812563062388721 0.010864927165146959 0 0.046262989563606804 0.011265092095060601 0 0.045363943429234332 0.011232777094022933 0 0.046812563062388721 0.010864927165146959 0 0.047255352815675548 0.011332213147886452 0 0.048163325101810192 0.011826311323048394 0 0.046828228211521397 0.010992768369997664 0 0.046788844892997929 0.011604355542386563 0 0.046973772556685417 0.010788350599348436 0 0.047255352815675548 0.011332213147886452 0 0.047283727128220862 0.010620608332404455 0 0.046812563062388721 0.010864927165146959 0 0.047255352815675548 0.011332213147886452 0 0.047283727128220862 0.010620608332404455 0 0.046973772556685417 0.010788350599348436 0 0.048078681896319114 0.010062996053999624 0 0.047283727128220862 0.010620608332404455 0 0.046973772556685417 0.010788350599348436 0 0.047255352815675548 0.011332213147886452 0 0.046440395046851879 0.013040712069062502 0 0.049507756082566058 0.010988497260152641 0 0.049829110120240355 0.013196109094257535 0 0.048163325101810192 0.011826311323048394 0 0.047718535349501337 0.013895298286412533 0 0.046440395046851879 0.013040712069062502 0 0.047255352815675548 0.011332213147886452 0 0.048163325101810192 0.011826311323048394 0 0.046440395046851879 0.013040712069062502 0 0.045363943429234332 0.011232777094022933 0 0.045318335148232185 0.011752292877019642 0 0.044945207471229806 0.012388943179667454 0 0.046788844892997929 0.011604355542386563 0 0.047016668284427056 0.013305662148816904 0 0.045363943429234332 0.011232777094022933 0 0.045318335148232185 0.011752292877019642 0 0.04541083024938225 0.011339893444879668 0 0.045318335148232185 0.011752292877019642 0 0.04541083024938225 0.011339893444879668 0 0.04566380958698657 0.011581197815998997 0 0.045363943429234332 0.011232777094022933 0 0.04541083024938225 0.011339893444879668 0 0.045596666696468523 0.011235003190244367 0 0.046262989563606804 0.011265092095060601 0 0.045363943429234332 0.011232777094022933 0 0.045596666696468523 0.011235003190244367 0 0.045995794637933005 0.011697472722753547 0 0.045976864268391371 0.011367903529474409 0 0.04566380958698657 0.011581197815998997 0 0.045995794637933005 0.011697472722753547 0 0.045976864268391371 0.011367903529474409 0 0.046351416152514882 0.011608084321848535 0 0.045976864268391371 0.011367903529474409 0 0.046240968405990936 0.011134446611615228 0 0.046019384741902251 0.011017579624581183 0 0.045976864268391371 0.011367903529474409 0 0.046351416152514882 0.011608084321848535 0 0.046240968405990936 0.011134446611615228 0 0.045976864268391371 0.011367903529474409 0 0.04566380958698657 0.011581197815998997 0 0.04576955909860099 0.011194563794850759 0 0.04541083024938225 0.011339893444879668 0 0.04566380958698657 0.011581197815998997 0 0.04554675717482793 0.011242027248146077 0 0.04566380958698657 0.011581197815998997 0 0.04576955909860099 0.011194563794850759 0 0.04554675717482793 0.011242027248146077 0 0.045318335148232185 0.011752292877019642 0 0.04566380958698657 0.011581197815998997 0 0.045599652033775216 0.012457413221237541 0 0.04566380958698657 0.011581197815998997 0 0.045982790000503121 0.012121647644949819 0 0.045599652033775216 0.012457413221237541 0 0.045995794637933005 0.011697472722753547 0 0.04566380958698657 0.011581197815998997 0 0.045982790000503121 0.012121647644949819 0 0.045995794637933005 0.011697472722753547 0 0.045982790000503121 0.012121647644949819 0 0.04638128590097465 0.012154632224000874 0 0.045995794637933005 0.011697472722753547 0 0.04638128590097465 0.012154632224000874 0 0.046351416152514882 0.011608084321848535 0 0.045982790000503121 0.012121647644949819 0 0.04638128590097465 0.012154632224000874 0 0.046308386214479483 0.012707698381465444 0 0.04638128590097465 0.012154632224000874 0 0.046793935245377581 0.012181538314926198 0 0.046811986774016816 0.012716481056523645 0 0.046793935245377581 0.012181538314926198 0 0.046738203772794529 0.011647495473696149 0 0.046351416152514882 0.011608084321848535 0 0.04638128590097465 0.012154632224000874 0 0.046793935245377581 0.012181538314926198 0 0.046351416152514882 0.011608084321848535 0 0.046793935245377581 0.012181538314926198 0 0.047170805454905027 0.012175639635244361 0 0.047268719155343732 0.012919143062044187 0 0.046793935245377581 0.012181538314926198 0 0.047170805454905027 0.012175639635244361 0 0.046738203772794529 0.011647495473696149 0 0.047170805454905027 0.012175639635244361 0 0.046985719440261954 0.011312025878322435 0 0.047311775616958686 0.011334419945578973 0 0.047170805454905027 0.012175639635244361 0 0.046738203772794529 0.011647495473696149 0 0.046985719440261954 0.011312025878322435 0 0.046738203772794529 0.011647495473696149 0 0.046985719440261954 0.011312025878322435 0 0.046592252371804088 0.011215998358266616 0 0.046985719440261954 0.011312025878322435 0 0.046592252371804088 0.011215998358266616 0 0.047026385346915146 0.010789609594477568 0 0.046985719440261954 0.011312025878322435 0 0.047026385346915146 0.010789609594477568 0 0.047311775616958686 0.011334419945578973 0 0.046738203772794529 0.011647495473696149 0 0.046351416152514882 0.011608084321848535 0 0.046592252371804088 0.011215998358266616 0 0.046351416152514882 0.011608084321848535 0 0.046592252371804088 0.011215998358266616 0 0.046240968405990936 0.011134446611615228 0 0.046240968405990936 0.011134446611615228 0 0.046330676424115501 0.010618296751224615 0 0.046019384741902251 0.011017579624581183 0 0.046240968405990936 0.011134446611615228 0 0.046555463799741306 0.010764525182144335 0 0.046330676424115501 0.010618296751224615 0 0.046592252371804088 0.011215998358266616 0 0.046240968405990936 0.011134446611615228 0 0.046555463799741306 0.010764525182144335 0 0.046555463799741306 0.010764525182144335 0 0.046330676424115501 0.010618296751224615 0 0.04643089026991859 0.010261845904170326 0 0.046555463799741306 0.010764525182144335 0 0.046959783556951039 0.010338045120027551 0 0.04643089026991859 0.010261845904170326 0 0.046592252371804088 0.011215998358266616 0 0.046555463799741306 0.010764525182144335 0 0.047026385346915146 0.010789609594477568 0 0.046555463799741306 0.010764525182144335 0 0.047026385346915146 0.010789609594477568 0 0.046959783556951039 0.010338045120027551 0 0.047026385346915146 0.010789609594477568 0 0.046959783556951039 0.010338045120027551 0 0.047395539809259167 0.010173889364937102 0 0.04697579491264875 0.0095066771143012315 0 0.047514310186897543 0.0095277764712389801 0 0.046959783556951039 0.010338045120027551 0 0.04643089026991859 0.010261845904170326 0 0.04749674213565061 0.0095537912902516325 0 0.047350429236384405 0.0087782727033852322 0 0.04730099545412525 0.0090974400950616218 0 0.04749674213565061 0.0095537912902516325 0 0.047350429236384405 0.0087782727033852322 0 0.047499471011960233 0.0087734414062920884 0 0.04730099545412525 0.0090974400950616218 0 0.046330676424115501 0.010618296751224615 0 0.04643089026991859 0.010261845904170326 0 0.046076968324015123 0.010754156827392673 0 0.04928623666001454 0.0067902403114149011 0 0.047790164476145494 0.0079009885067874135 0 0.048053962398049904 0.0071427684402386189 0 0.04697579491264875 0.0095066771143012315 0 0.046776095682953461 0.0094476827136340761 0 0.047499471011960233 0.0087734414062920884 0 0.047806187310145451 0.0080355875172426275 0 0.047790164476145494 0.0079009885067874135 0 0.048308904084959081 0.0077747665818661193 0 0.047772630620455732 0.0079337921305927313 0 0.047350429236384405 0.0087782727033852322 0 0.047499471011960233 0.0087734414062920884 0 0.047806187310145451 0.0080355875172426275 0 0.04643089026991859 0.010261845904170326 0 0.046076968324015123 0.010754156827392673 0 0.045724592049233508 0.010806436215718028 0 0.046330676424115501 0.010618296751224615 0 0.046076968324015123 0.010754156827392673 0 0.046019384741902251 0.011017579624581183 0 0.046076968324015123 0.010754156827392673 0 0.045827882720003127 0.010972952993223305 0 0.046019384741902251 0.011017579624581183 0 0.046076968324015123 0.010754156827392673 0 0.045827882720003127 0.010972952993223305 0 0.045724592049233508 0.010806436215718028 0 0.045976864268391371 0.011367903529474409 0 0.04576955909860099 0.011194563794850759 0 0.046019384741902251 0.011017579624581183 0 0.045827882720003127 0.010972952993223305 0 0.04576955909860099 0.011194563794850759 0 0.046019384741902251 0.011017579624581183 0 0.046233409747981416 0.0097297828690654786 0 0.046776095682953461 0.0094476827136340761 0 0.045393392512936559 0.011288871079613358 0 0.045628611340811386 0.011070435163952466 0 0.045724592049233508 0.010806436215718028 0 0.045393392512936559 0.011288871079613358 0 0.04554675717482793 0.011242027248146077 0 0.045628611340811386 0.011070435163952466 0 0.04576955909860099 0.011194563794850759 0 0.04554675717482793 0.011242027248146077 0 0.045628611340811386 0.011070435163952466 0 0.045827882720003127 0.010972952993223305 0 0.04576955909860099 0.011194563794850759 0 0.045628611340811386 0.011070435163952466 0 0.045827882720003127 0.010972952993223305 0 0.045628611340811386 0.011070435163952466 0 0.045724592049233508 0.010806436215718028 0 0.04695678023845682 0.0081784746649711526 0 0.047806187310145451 0.0080355875172426275 0 0.04748367185674477 0.0078016851097459112 0 0.047806187310145451 0.0080355875172426275 0 0.047790164476145494 0.0079009885067874135 0 0.04748367185674477 0.0078016851097459112 0 0.047790164476145494 0.0079009885067874135 0 0.048053962398049904 0.0071427684402386189 0 0.04748367185674477 0.0078016851097459112 0 0.048053962398049904 0.0071427684402386189 0 0.04748367185674477 0.0078016851097459112 0 0.047566619730832316 0.0069378300422901426 0 0.04707587832122128 0.0076779637523910985 0 0.04748367185674477 0.0078016851097459112 0 0.047566619730832316 0.0069378300422901426 0 0.047024678043913942 0.006576253735294196 0 0.04707587832122128 0.0076779637523910985 0 0.047566619730832316 0.0069378300422901426 0 0.048053962398049904 0.0071427684402386189 0 0.047566619730832316 0.0069378300422901426 0 0.048331351517784761 0.0064396625800109885 0 0.047566619730832316 0.0069378300422901426 0 0.04764475910651822 0.0060592485545629769 0 0.048331351517784761 0.0064396625800109885 0 0.047024678043913942 0.006576253735294196 0 0.047566619730832316 0.0069378300422901426 0 0.04764475910651822 0.0060592485545629769 0 0.047024678043913942 0.006576253735294196 0 0.04764475910651822 0.0060592485545629769 0 0.047186141634206404 0.0056797303985939279 0 0.04928623666001454 0.0067902403114149011 0 0.048053962398049904 0.0071427684402386189 0 0.048331351517784761 0.0064396625800109885 0 0.04928623666001454 0.0067902403114149011 0 0.048331351517784761 0.0064396625800109885 0 0.049014316796504288 0.0059312737912445334 0 0.048331351517784761 0.0064396625800109885 0 0.049014316796504288 0.0059312737912445334 0 0.048496380236627876 0.0054481693591706092 0 0.04764475910651822 0.0060592485545629769 0 0.048331351517784761 0.0064396625800109885 0 0.048496380236627876 0.0054481693591706092 0 0.048496380236627876 0.0054481693591706092 0 0.047773705265587892 0.0050906352808257485 0 0.048452987029924503 0.0040292439065496809 0 0.048496380236627876 0.0054481693591706092 0 0.048452987029924503 0.0040292439065496809 0 0.049328437107872006 0.0048277613204096119 0 0.049014316796504288 0.0059312737912445334 0 0.048496380236627876 0.0054481693591706092 0 0.049328437107872006 0.0048277613204096119 0 0.046849615528040948 0.0049279571982322789 0 0.047186141634206404 0.0056797303985939279 0 0.047773705265587892 0.0050906352808257485 0 0.04764475910651822 0.0060592485545629769 0 0.047186141634206404 0.0056797303985939279 0 0.047773705265587892 0.0050906352808257485 0 0.04764475910651822 0.0060592485545629769 0 0.048496380236627876 0.0054481693591706092 0 0.047773705265587892 0.0050906352808257485 0 0.047773705265587892 0.0050906352808257485 0 0.047427746546690783 0.0041784225246103831 0 0.048452987029924503 0.0040292439065496809 0 0.046849615528040948 0.0049279571982322789 0 0.047773705265587892 0.0050906352808257485 0 0.047427746546690783 0.0041784225246103831 0 0.04619683346904669 0.0038010399171984725 0 0.047427746546690783 0.0041784225246103831 0 0.047737855612920349 0.0030186195712660208 0 0.047427746546690783 0.0041784225246103831 0 0.048452987029924503 0.0040292439065496809 0 0.047737855612920349 0.0030186195712660208 0 0.048452987029924503 0.0040292439065496809 0 0.049336263541681122 0.0033377667591781594 0 0.049328437107872006 0.0048277613204096119 0 0.048452987029924503 0.0040292439065496809 0 0.048719138446422325 0.0026505895950200337 0 0.047737855612920349 0.0030186195712660208 0 0.048452987029924503 0.0040292439065496809 0 0.048719138446422325 0.0026505895950200337 0 0.049336263541681122 0.0033377667591781594 0 0.048613638940486467 0.001566113689668378 0 0.048719138446422325 0.0026505895950200337 0 0.047737855612920349 0.0030186195712660208 0 0.048613638940486467 0.001566113689668378 0 0.046820104650023599 0.0021684943226907855 0 0.047737855612920349 0.0030186195712660208 0 0.046820104650023599 0.0021684943226907855 0 0.04619683346904669 0.0038010399171984725 0 0.047737855612920349 0.0030186195712660208 0 0.049958015770086892 0.0019061400633314715 0 0.050800203539020143 0.0027370078196494551 0 0.051143995204235189 0.0012939592918042582 0 0.049932274045098216 -0.00087900618109748845 0 0.048956077124974073 -0.0008703614568983508 0 0.051143995204235189 0.0012939592918042582 0 0.049532800787987941 0.00056645104988025643 0 0.051166578470761531 0.0012717882470138333 0 0.048719138446422325 0.0026505895950200337 0 0.049958015770086892 0.0019061400633314715 0 0.049336263541681122 0.0033377667591781594 0 0.048613638940486467 0.001566113689668378 0 0.048719138446422325 0.0026505895950200337 0 0.049958015770086892 0.0019061400633314715 0 0.047931423740044138 -5.8876740202560924e-05 0 0.049532800787987941 0.00056645104988025643 0 0.049336263541681122 0.0033377667591781594 0 0.050139832098885707 0.0034829679801137883 0 0.049328437107872006 0.0048277613204096119 0 0.049958015770086892 0.0019061400633314715 0 0.049336263541681122 0.0033377667591781594 0 0.050139832098885707 0.0034829679801137883 0 0.049958015770086892 0.0019061400633314715 0 0.050139832098885707 0.0034829679801137883 0 0.050800203539020143 0.0027370078196494551 0 0.050139832098885707 0.0034829679801137883 0 0.050800203539020143 0.0027370078196494551 0 0.051218525810045629 0.0041339253220025055 0 0.051218525810045629 0.0041339253220025055 0 0.050194667026423785 0.0048456353535462071 0 0.050648816860428478 0.0059831791531728407 0 0.050139832098885707 0.0034829679801137883 0 0.051218525810045629 0.0041339253220025055 0 0.050194667026423785 0.0048456353535462071 0 0.050139832098885707 0.0034829679801137883 0 0.050194667026423785 0.0048456353535462071 0 0.049328437107872006 0.0048277613204096119 0 0.050194667026423785 0.0048456353535462071 0 0.049328437107872006 0.0048277613204096119 0 0.049709042063182385 0.0057251228701456726 0 0.04928623666001454 0.0067902403114149011 0 0.049709042063182385 0.0057251228701456726 0 0.050648816860428478 0.0059831791531728407 0 0.048308904084959081 0.0077747665818661193 0 0.049107484866503383 0.0077483121950384015 0 0.049014316796504288 0.0059312737912445334 0 0.049328437107872006 0.0048277613204096119 0 0.049709042063182385 0.0057251228701456726 0 0.04928623666001454 0.0067902403114149011 0 0.049014316796504288 0.0059312737912445334 0 0.049709042063182385 0.0057251228701456726 0 0.050194667026423785 0.0048456353535462071 0 0.049709042063182385 0.0057251228701456726 0 0.050648816860428478 0.0059831791531728407 0 0.048907938131811615 0.0041512695227118946 0 0.047144725494070873 0.0082255068262739369 0 0.049107484866503383 0.0077483121950384015 0 0.048907938131811615 0.0041512695227118946 0 0.04730099545412525 0.0090974400950616218 0 0.047803092766984877 0.0088174156198261976 0 0.04749674213565061 0.0095537912902516325 0 0.046389400149690334 0.0017457736656275474 0 0.048847228415280011 0.0032881012685622496 0 0.046695621506043554 0.0060573583594943498 0 0.046389400149690334 0.0017457736656275474 0 0.048847228415280011 0.0032881012685622496 0 0.048947339919640599 0.0010096459551261706 0 0.048182296397691955 0.0012540567592553293 0 0.048947339919640599 0.0010096459551261706 0 0.048761495295565047 0.00015335496806260504 0 0.048907938131811615 0.0041512695227118946 0 0.048584440088964301 0.0013014252813058473 0 0.048947339919640599 0.0010096459551261706 0 0.048761495295565047 0.00015335496806260504 0 0.04928926054917207 1.2682454962381703e-05 0 0.048947339919640599 0.0010096459551261706 0 0.04928926054917207 1.2682454962381703e-05 0 0.04969673737754892 0.00037062823229504303 0 0.051218525810045629 0.0041339253220025055 0 0.052463341851702976 0.0053291957176952948 0 0.052113116945157009 0.0024452001432540768 0 0.048907938131811615 0.0041512695227118946 0 0.050434817686394039 0.00068659140303186175 0 0.051218525810045629 0.0041339253220025055 0 0.050648816860428478 0.0059831791531728407 0 0.052463341851702976 0.0053291957176952948 0 0.048182296397691955 0.0012540567592553293 0 0.048761495295565047 0.00015335496806260504 0 0.048413811730974393 -0.00078148047875190084 0 0.050800203539020143 0.0027370078196494551 0 0.051218525810045629 0.0041339253220025055 0 0.052113116945157009 0.0024452001432540768 0 0.050800203539020143 0.0027370078196494551 0 0.052113116945157009 0.0024452001432540768 0 0.051143995204235189 0.0012939592918042582 0 0.048413811730974393 -0.00078148047875190084 0 0.049033803359092187 -0.00071257112489747187 0 0.049177125200044192 -0.0014504911078834463 0 0.048761495295565047 0.00015335496806260504 0 0.04928926054917207 1.2682454962381703e-05 0 0.049033803359092187 -0.00071257112489747187 0 0.048761495295565047 0.00015335496806260504 0 0.048413811730974393 -0.00078148047875190084 0 0.049033803359092187 -0.00071257112489747187 0 0.04928926054917207 1.2682454962381703e-05 0 0.049033803359092187 -0.00071257112489747187 0 0.049563465617466232 -0.00062622314033374861 0 0.049033803359092187 -0.00071257112489747187 0 0.049394429078826234 -0.0013937334380358731 0 0.049563465617466232 -0.00062622314033374861 0 0.049033803359092187 -0.00071257112489747187 0 0.049177125200044192 -0.0014504911078834463 0 0.049394429078826234 -0.0013937334380358731 0 0.049394429078826234 -0.0013937334380358731 0 0.049768242926190302 -0.0014204556053003042 0 0.049563465617466232 -0.00062622314033374861 0 0.049607099789599804 -0.0020581896493827951 0 0.049394429078826234 -0.0013937334380358731 0 0.049768242926190302 -0.0014204556053003042 0 0.049455835401262034 -0.0018802098004780431 0 0.049607099789599804 -0.0020581896493827951 0 0.049394429078826234 -0.0013937334380358731 0 0.049455835401262034 -0.0018802098004780431 0 0.049177125200044192 -0.0014504911078834463 0 0.049394429078826234 -0.0013937334380358731 0 0.050001261912839053 -0.002084588550898141 0 0.049455835401262034 -0.0018802098004780431 0 0.049177125200044192 -0.0014504911078834463 0 0.050001261912839053 -0.002084588550898141 0 0.052113116945157009 0.0024452001432540768 0 0.051143995204235189 0.0012939592918042582 0 0.049988614486146242 -0.0016764591849288211 0 0.050434817686394039 0.00068659140303186175 0 0.050001261912839053 -0.002084588550898141 0 0.049932274045098216 -0.00087900618109748845 0 0.051143995204235189 0.0012939592918042582 0 0.050001261912839053 -0.002084588550898141 0 0.048413811730974393 -0.00078148047875190084 0 0.049177125200044192 -0.0014504911078834463 0 0.047668121221175537 0.002620783254942023 0 0.047123783936285302 0.002676556012861396 0 0.04760997568832432 0.002063087223142759 0 0.047483993456025581 0.0027666149730485841 0 0.047123783936285302 0.002676556012861396 0 0.04760997568832432 0.002063087223142759 0 0.04994791898073455 -0.0019828199979113584 0 0.050490202521213598 -0.0013832408900648729 0 0.049768242926190302 -0.0014204556053003042 0 0.04994791898073455 -0.0019828199979113584 0 0.049607099789599804 -0.0020581896493827951 0 0.049768242926190302 -0.0014204556053003042 0 0.049768242926190302 -0.0014204556053003042 0 0.049953497342832852 -0.00093266422653019005 0 0.049563465617466232 -0.00062622314033374861 0 0.050490202521213598 -0.0013832408900648729 0 0.049768242926190302 -0.0014204556053003042 0 0.049953497342832852 -0.00093266422653019005 0 0.050490202521213598 -0.0013832408900648729 0 0.049953497342832852 -0.00093266422653019005 0 0.050049287483737992 -0.00031157633286385138 0 0.050490202521213598 -0.0013832408900648729 0 0.050049287483737992 -0.00031157633286385138 0 0.050320328305427764 0.00064794218164092093 0 0.049953497342832852 -0.00093266422653019005 0 0.049563465617466232 -0.00062622314033374861 0 0.050049287483737992 -0.00031157633286385138 0 0.049563465617466232 -0.00062622314033374861 0 0.049724177742298585 -5.3921096137972225e-05 0 0.050049287483737992 -0.00031157633286385138 0 0.04928926054917207 1.2682454962381703e-05 0 0.049563465617466232 -0.00062622314033374861 0 0.049724177742298585 -5.3921096137972225e-05 0 0.04928926054917207 1.2682454962381703e-05 0 0.049724177742298585 -5.3921096137972225e-05 0 0.04969673737754892 0.00037062823229504303 0 0.049724177742298585 -5.3921096137972225e-05 0 0.050049287483737992 -0.00031157633286385138 0 0.050016840612229919 0.00031494363210460264 0 0.050049287483737992 -0.00031157633286385138 0 0.050320328305427764 0.00064794218164092093 0 0.050016840612229919 0.00031494363210460264 0 0.047169946432285843 0.0028563315020477347 0 0.047610974224118849 0.0032080304022529698 0 0.047123783936285302 0.002676556012861396 0 0.050320328305427764 0.00064794218164092093 0 0.050316066868830174 0.00050182739427973781 0 0.047123783936285302 0.002676556012861396 0 0.046391616608848801 0.0046575289284318281 0 0.044978115227604865 0.0055130689434068399 0 0.047141360075670172 0.0038009873465868326 0 0.047123783936285302 0.002676556012861396 0 0.046391616608848801 0.0046575289284318281 0 0.049076557013151882 0.00054925802942968737 0 0.050064601821837709 0.00050934716893940007 0 0.047483993456025581 0.0027666149730485841 0 0.047123783936285302 0.002676556012861396 0 0.050320328305427764 0.00064794218164092093 0 0.046391616608848801 0.0046575289284318281 0 0.045957882843627201 0.0056062469915711833 0 0.044978115227604865 0.0055130689434068399 0 0.046678125404577921 0.0053409731077395488 0 0.046391616608848801 0.0046575289284318281 0 0.045957882843627201 0.0056062469915711833 0 0.050320328305427764 0.00064794218164092093 0 0.050316066868830174 0.00050182739427973781 0 0.050119156580244732 0.0008879992620575986 0 0.044978115227604865 0.0055130689434068399 0 0.045628887627213371 0.0061733705749706718 0 0.04528266174696461 0.0072197247320074922 0 0.046234677827982754 0.0063065626311788027 0 0.045628887627213371 0.0061733705749706718 0 0.04528266174696461 0.0072197247320074922 0 0.046234677827982754 0.0063065626311788027 0 0.045957882843627201 0.0056062469915711833 0 0.045628887627213371 0.0061733705749706718 0 0.045957882843627201 0.0056062469915711833 0 0.044978115227604865 0.0055130689434068399 0 0.045628887627213371 0.0061733705749706718 0 0.048947339919640599 0.0010096459551261706 0 0.04969673737754892 0.00037062823229504303 0 0.050119156580244732 0.0008879992620575986 0 0.049724177742298585 -5.3921096137972225e-05 0 0.04969673737754892 0.00037062823229504303 0 0.050016840612229919 0.00031494363210460264 0 0.04969673737754892 0.00037062823229504303 0 0.050016840612229919 0.00031494363210460264 0 0.050119156580244732 0.0008879992620575986 0 0.050320328305427764 0.00064794218164092093 0 0.050016840612229919 0.00031494363210460264 0 0.050119156580244732 0.0008879992620575986 0 0.050316066868830174 0.00050182739427973781 0 0.050119156580244732 0.0008879992620575986 0 0.050144677737253118 0.0017800148896574726 0 0.048947339919640599 0.0010096459551261706 0 0.050119156580244732 0.0008879992620575986 0 0.050144677737253118 0.0017800148896574726 0 0.050316066868830174 0.00050182739427973781 0 0.050144677737253118 0.0017800148896574726 0 0.051053600734179277 0.0037908750615690766 0 0.048847228415280011 0.0032881012685622496 0 0.048947339919640599 0.0010096459551261706 0 0.050144677737253118 0.0017800148896574726 0 0.048847228415280011 0.0032881012685622496 0 0.050144677737253118 0.0017800148896574726 0 0.051053600734179277 0.0037908750615690766 0 0.047610974224118849 0.0032080304022529698 0 0.047619972296205827 0.0061622065372111791 0 0.046574860636969487 0.0075432551995572358 0 0.04528266174696461 0.0072197247320074922 0 0.045704705891583285 0.0090139242179709603 0 0.04426359284661073 0.0084865783447473017 0 0.04528266174696461 0.0072197247320074922 0 0.045704705891583285 0.0090139242179709603 0 0.044978115227604865 0.0055130689434068399 0 0.04426359284661073 0.0084865783447473017 0 0.04528266174696461 0.0072197247320074922 0 0.046574860636969487 0.0075432551995572358 0 0.046234677827982754 0.0063065626311788027 0 0.04528266174696461 0.0072197247320074922 0 0.04426359284661073 0.0084865783447473017 0 0.045704705891583285 0.0090139242179709603 0 0.04547332573222377 0.010786150825389805 0 0.04547332573222377 0.010786150825389805 0 0.044239469597858273 0.011008554139769904 0 0.045101417367202599 0.012096515553859263 0 0.051053600734179277 0.0037908750615690766 0 0.050111521967444846 0.0086110543800502846 0 0.048994106758728576 0.0058957651915017128 0 0.047619972296205827 0.0061622065372111791 0 0.047183731682095713 0.0097505560715687532 0 0.04426359284661073 0.0084865783447473017 0 0.04547332573222377 0.010786150825389805 0 0.044239469597858273 0.011008554139769904 0 0.048847228415280011 0.0032881012685622496 0 0.051053600734179277 0.0037908750615690766 0 0.048994106758728576 0.0058957651915017128 0 0.048847228415280011 0.0032881012685622496 0 0.048994106758728576 0.0058957651915017128 0 0.046695621506043554 0.0060573583594943498 0 0.048994106758728576 0.0058957651915017128 0 0.046695621506043554 0.0060573583594943498 0 0.048391507032129799 0.0078584599276947057 0 0.047803092766984877 0.0088174156198261976 0 0.04749674213565061 0.0095537912902516325 0 0.047911033379160452 0.0098737141232912891 0 0.04749674213565061 0.0095537912902516325 0 0.047911033379160452 0.0098737141232912891 0 0.047395539809259167 0.010173889364937102 0 0.046959783556951039 0.010338045120027551 0 0.04749674213565061 0.0095537912902516325 0 0.047395539809259167 0.010173889364937102 0 0.047911033379160452 0.0098737141232912891 0 0.047507055632463498 0.010573771566027009 0 0.047787049359291414 0.010785735137937506 0 0.047026385346915146 0.010789609594477568 0 0.047395539809259167 0.010173889364937102 0 0.047507055632463498 0.010573771566027009 0 0.047911033379160452 0.0098737141232912891 0 0.047395539809259167 0.010173889364937102 0 0.047507055632463498 0.010573771566027009 0 0.047026385346915146 0.010789609594477568 0 0.047507055632463498 0.010573771566027009 0 0.047311775616958686 0.011334419945578973 0 0.047144725494070873 0.0082255068262739369 0 0.047761656031923963 0.010475233989084573 0 0.050111521967444846 0.0086110543800502846 0 0.048391507032129799 0.0078584599276947057 0 0.047787049359291414 0.010785735137937506 0 0.046695621506043554 0.0060573583594943498 0 0.048391507032129799 0.0078584599276947057 0 0.047787049359291414 0.010785735137937506 0 0.050111521967444846 0.0086110543800502846 0 0.048994106758728576 0.0058957651915017128 0 0.048391507032129799 0.0078584599276947057 0 0.047183731682095713 0.0097505560715687532 0 0.046918563575250108 0.012379181309926983 0 0.050111521967444846 0.0086110543800502846 0 0.047787049359291414 0.010785735137937506 0 0.048614546017488956 0.012140179221801812 0 0.047787049359291414 0.010785735137937506 0 0.047623509059499684 0.011768052094949006 0 0.048614546017488956 0.012140179221801812 0 0.047507055632463498 0.010573771566027009 0 0.047787049359291414 0.010785735137937506 0 0.047311775616958686 0.011334419945578973 0 0.047787049359291414 0.010785735137937506 0 0.047623509059499684 0.011768052094949006 0 0.047311775616958686 0.011334419945578973 0 0.047170805454905027 0.012175639635244361 0 0.047623509059499684 0.011768052094949006 0 0.047311775616958686 0.011334419945578973 0 0.047170805454905027 0.012175639635244361 0 0.047623509059499684 0.011768052094949006 0 0.047550296854603956 0.012556443922844917 0 0.047170805454905027 0.012175639635244361 0 0.047550296854603956 0.012556443922844917 0 0.047434241021412943 0.013000137081646339 0 0.047550296854603956 0.012556443922844917 0 0.048614546017488956 0.012140179221801812 0 0.047148016874139512 0.013311063691857274 0 0.046918563575250108 0.012379181309926983 0 0.047112182600657526 0.013115700833199578 0 0.0450998985178424 0.012932223786823446 0 0.045764235471877295 0.013214445165900467 0 0.047148016874139512 0.013311063691857274 0 0.047623509059499684 0.011768052094949006 0 0.047550296854603956 0.012556443922844917 0 0.048614546017488956 0.012140179221801812 0 0.045415545914061439 0.012857590313498679 0 0.045713388183936159 0.013240052057559416 0 0.045764235471877295 0.013214445165900467 0 0.0450998985178424 0.012932223786823446 0 0.045415545914061439 0.012857590313498679 0 0.045764235471877295 0.013214445165900467 0 0.045415545914061439 0.012857590313498679 0 0.045663649384558767 0.013069348731009808 0 0.045713388183936159 0.013240052057559416 0 0.045415545914061439 0.012857590313498679 0 0.045663649384558767 0.013069348731009808 0 0.045617567823848862 0.01242998933512458 0 0.045864025042086157 0.012959892779128946 0 0.045663649384558767 0.013069348731009808 0 0.045617567823848862 0.01242998933512458 0 0.04547332573222377 0.010786150825389805 0 0.045617567823848862 0.01242998933512458 0 0.045101417367202599 0.012096515553859263 0 0.046265739655049487 0.012139506056338879 0 0.04547332573222377 0.010786150825389805 0 0.045617567823848862 0.01242998933512458 0 0.0450998985178424 0.012932223786823446 0 0.045415545914061439 0.012857590313498679 0 0.045101417367202599 0.012096515553859263 0 0.044239469597858273 0.011008554139769904 0 0.0450998985178424 0.012932223786823446 0 0.045101417367202599 0.012096515553859263 0 0.045415545914061439 0.012857590313498679 0 0.045617567823848862 0.01242998933512458 0 0.045101417367202599 0.012096515553859263 0 0.045802787778098264 0.013316478143853925 0 0.046125530342671674 0.01327188157619443 0 0.046430945419872777 0.013258380751845829 0 0.045669965005168567 0.013476452845749678 0 0.045802787778098264 0.013316478143853925 0 0.045712151331706585 0.013307982319166974 0 0.045669965005168567 0.013476452845749678 0 0.045802787778098264 0.013316478143853925 0 0.045584978688794235 0.013472220031110508 0 0.045663649384558767 0.013069348731009808 0 0.045712151331706585 0.013307982319166974 0 0.045713388183936159 0.013240052057559416 0 0.045802787778098264 0.013316478143853925 0 0.045712151331706585 0.013307982319166974 0 0.045713388183936159 0.013240052057559416 0 0.045864025042086157 0.012959892779128946 0 0.045663649384558767 0.013069348731009808 0 0.045712151331706585 0.013307982319166974 0 0.045802787778098264 0.013316478143853925 0 0.045713388183936159 0.013240052057559416 0 0.046125530342671674 0.01327188157619443 0 0.045713388183936159 0.013240052057559416 0 0.045764235471877295 0.013214445165900467 0 0.046125530342671674 0.01327188157619443 0 0.045764235471877295 0.013214445165900467 0 0.047148016874139512 0.013311063691857274 0 0.046125530342671674 0.01327188157619443 0 0.047148016874139512 0.013311063691857274 0 0.046125530342671674 0.01327188157619443 0 0.046430945419872777 0.013258380751845829 0 0.047148016874139512 0.013311063691857274 0 0.047434241021412943 0.013000137081646339 0 0.047829740627245272 0.013292869507586144 0 0.047550296854603956 0.012556443922844917 0 0.047148016874139512 0.013311063691857274 0 0.047434241021412943 0.013000137081646339 0 0.047434241021412943 0.013000137081646339 0 0.047829740627245272 0.013292869507586144 0 0.047569024079121114 0.013338584564702344 0 0.047829740627245272 0.013292869507586144 0 0.047730852574546401 0.014094128664445382 0 0.047569024079121114 0.013338584564702344 0 0.047148016874139512 0.013311063691857274 0 0.047829740627245272 0.013292869507586144 0 0.046430945419872777 0.013258380751845829 0 0.047829740627245272 0.013292869507586144 0 0.046430945419872777 0.013258380751845829 0 0.0460444593432702 0.012990348577282172 0 0.048193820064568724 0.014267126759319433 0 0.047923351079955309 0.012134321381345171 0 0.047829740627245272 0.013292869507586144 0 0.04853700335927362 0.014871190580640644 0 0.047730852574546401 0.014094128664445382 0 0.047829740627245272 0.013292869507586144 0 0.04853700335927362 0.014871190580640644 0 0.050503109176912767 0.015370479173563351 0 0.04853700335927362 0.014871190580640644 0 0.049261137252645297 0.016331734529258287 0 0.047878422033048929 0.015481639492725819 0 0.04853700335927362 0.014871190580640644 0 0.049261137252645297 0.016331734529258287 0 0.050503109176912767 0.015370479173563351 0 0.049261137252645297 0.016331734529258287 0 0.050503109176912767 0.015370479173563351 0 0.050522717825840273 0.016843787717619501 0 0.0460444593432702 0.012990348577282172 0 0.04561198694807661 0.01333229137481833 0 0.045371539971526348 0.013537660243710309 0 0.050503109176912767 0.015370479173563351 0 0.051794044006234198 0.017358240323418768 0 0.050522717825840273 0.016843787717619501 0 0.047923351079955309 0.012134321381345171 0 0.047817003781180756 0.025898848125641433 0 0.045802787778098264 0.013316478143853925 0 0.046430945419872777 0.013258380751845829 0 0.0460444593432702 0.012990348577282172 0 0.045802787778098264 0.013316478143853925 0 0.0460444593432702 0.012990348577282172 0 0.04561198694807661 0.01333229137481833 0 0.045802787778098264 0.013316478143853925 0 0.04561198694807661 0.01333229137481833 0 0.045584978688794235 0.013472220031110508 0 0.045363199838990509 0.013607312089541666 0 0.04561198694807661 0.01333229137481833 0 0.045371539971526348 0.013537660243710309 0 0.045363199838990509 0.013607312089541666 0 0.04561198694807661 0.01333229137481833 0 0.045584978688794235 0.013472220031110508 0 0.045924716366170897 0.027882474102013294 0 0.047817003781180756 0.025898848125641433 0 0.046992086016307034 0.041716118195700862 0 0.047101978082193949 0.041624900195718802 0 0.046613738582405286 0.042069192494905011 0 0.049974517451131482 0.030316173196351017 0 0.050098068262106492 0.030568553581449148 0 0.050329053491143395 0.030584850028084604 0 0.049925647795058259 0.029852004459819708 0 0.049974517451131482 0.030316173196351017 0 0.050098068262106492 0.030568553581449148 0 0.049925647795058259 0.029852004459819708 0 0.050098068262106492 0.030568553581449148 0 0.050558232392125743 0.031727597472576981 0 0.047817003781180756 0.025898848125641433 0 0.051199063780482321 0.039962586985158678 0 0.050558232392125743 0.031727597472576981 0 0.048964270494082029 0.033076407335161977 0 0.050050520543614078 0.033658611721684543 0 0.050098068262106492 0.030568553581449148 0 0.050558232392125743 0.031727597472576981 0 0.048964270494082029 0.033076407335161977 0 0.051122080466943422 0.033748466792886338 0 0.050558232392125743 0.031727597472576981 0 0.050050520543614078 0.033658611721684543 0 0.050057640436520966 0.030639987901040805 0 0.049696511716648975 0.031847614994077178 0 0.048964270494082029 0.033076407335161977 0 0.048981741999922966 0.034733319504976004 0 0.049488928171674156 0.03437570013753611 0 0.048964270494082029 0.033076407335161977 0 0.050050520543614078 0.033658611721684543 0 0.049488928171674156 0.03437570013753611 0 0.049696511716648975 0.031847614994077178 0 0.049690235404963576 0.033429804745290531 0 0.049705215198054702 0.031061288542464253 0 0.049538692183079727 0.030276477890231478 0 0.048865824771530023 0.030723974032319992 0 0.049705215198054702 0.031061288542464253 0 0.048865824771530023 0.030723974032319992 0 0.048989239207627731 0.031982750704101399 0 0.050329053491143395 0.030584850028084604 0 0.049705215198054702 0.031061288542464253 0 0.049538692183079727 0.030276477890231478 0 0.050329053491143395 0.030584850028084604 0 0.049705215198054702 0.031061288542464253 0 0.05047952840528875 0.032138173849000848 0 0.049974517451131482 0.030316173196351017 0 0.050329053491143395 0.030584850028084604 0 0.049538692183079727 0.030276477890231478 0 0.049538692183079727 0.030276477890231478 0 0.04972304195625217 0.030004607115192119 0 0.048976538442142309 0.029743887571635284 0 0.050126518803995844 0.018087736374564189 0 0.048600108071394151 0.017369383424871772 0 0.049227126744533771 0.018951056614707442 0 0.050615866931032844 0.023616995959674571 0 0.048882990953013253 0.024540334754034287 0 0.049974517451131482 0.030316173196351017 0 0.049538692183079727 0.030276477890231478 0 0.04972304195625217 0.030004607115192119 0 0.049925647795058259 0.029852004459819708 0 0.049974517451131482 0.030316173196351017 0 0.04972304195625217 0.030004607115192119 0 0.049261137252645297 0.016331734529258287 0 0.050126518803995844 0.018087736374564189 0 0.050522717825840273 0.016843787717619501 0 0.051794044006234198 0.017358240323418768 0 0.050126518803995844 0.018087736374564189 0 0.050522717825840273 0.016843787717619501 0 0.047817003781180756 0.025898848125641433 0 0.050615866931032844 0.023616995959674571 0 0.049261137252645297 0.016331734529258287 0 0.050126518803995844 0.018087736374564189 0 0.048600108071394151 0.017369383424871772 0 0.048600108071394151 0.017369383424871772 0 0.048002552034021852 0.017610625723015135 0 0.047515343569953197 0.016573892436237161 0 0.048600108071394151 0.017369383424871772 0 0.048002552034021852 0.017610625723015135 0 0.048288360723375674 0.018293297299854377 0 0.047633282083643133 0.01826120525050565 0 0.045708834081705153 0.015767706891861827 0 0.047515343569953197 0.016573892436237161 0 0.048002552034021852 0.017610625723015135 0 0.047633282083643133 0.01826120525050565 0 0.047515343569953197 0.016573892436237161 0 0.048002552034021852 0.017610625723015135 0 0.047633282083643133 0.01826120525050565 0 0.048288360723375674 0.018293297299854377 0 0.047633282083643133 0.01826120525050565 0 0.047908492879246124 0.019458217257406377 0 0.04786414054221285 0.018605045716768066 0 0.047633282083643133 0.01826120525050565 0 0.048288360723375674 0.018293297299854377 0 0.047908492879246124 0.019458217257406377 0 0.048600108071394151 0.017369383424871772 0 0.048288360723375674 0.018293297299854377 0 0.049227126744533771 0.018951056614707442 0 0.048288360723375674 0.018293297299854377 0 0.047908492879246124 0.019458217257406377 0 0.049227126744533771 0.018951056614707442 0 0.048882990953013253 0.024540334754034287 0 0.047598462477764066 0.025916900802889793 0 0.048976538442142309 0.029743887571635284 0 0.048682725008217707 0.030050578595242287 0 0.047807226995781257 0.029373124823202357 0 0.049538692183079727 0.030276477890231478 0 0.048682725008217707 0.030050578595242287 0 0.048865824771530023 0.030723974032319992 0 0.049538692183079727 0.030276477890231478 0 0.048976538442142309 0.029743887571635284 0 0.048682725008217707 0.030050578595242287 0 0.047908492879246124 0.019458217257406377 0 0.047862733760152966 0.022152769810214832 0 0.046148121814681115 0.023932861825401157 0 0.048682725008217707 0.030050578595242287 0 0.047807226995781257 0.029373124823202357 0 0.048086315520657522 0.030125902049985356 0 0.047908492879246124 0.019458217257406377 0 0.049227126744533771 0.018951056614707442 0 0.047862733760152966 0.022152769810214832 0 0.047807226995781257 0.029373124823202357 0 0.048086315520657522 0.030125902049985356 0 0.047446880915443392 0.029611562790985878 0 0.048086315520657522 0.030125902049985356 0 0.047446880915443392 0.029611562790985878 0 0.047242420363697309 0.029967752550579745 0 0.048086315520657522 0.030125902049985356 0 0.047242420363697309 0.029967752550579745 0 0.047726215528560004 0.03121397563838909 0 0.048086315520657522 0.030125902049985356 0 0.04842687174688632 0.031298055467041126 0 0.047726215528560004 0.03121397563838909 0 0.048682725008217707 0.030050578595242287 0 0.048086315520657522 0.030125902049985356 0 0.048865824771530023 0.030723974032319992 0 0.048086315520657522 0.030125902049985356 0 0.048865824771530023 0.030723974032319992 0 0.04842687174688632 0.031298055467041126 0 0.045587544240882266 0.027960473840583307 0 0.044421580393621048 0.029719477256754324 0 0.043988563091894535 0.027722132770137183 0 0.045587544240882266 0.027960473840583307 0 0.044421580393621048 0.029719477256754324 0 0.046273503726829507 0.030065009594561768 0 0.046273503726829507 0.030065009594561768 0 0.047242420363697309 0.029967752550579745 0 0.046785536333149538 0.029193677489591421 0 0.047242420363697309 0.029967752550579745 0 0.047116932151206777 0.030749665501236891 0 0.047726215528560004 0.03121397563838909 0 0.046273503726829507 0.030065009594561768 0 0.047242420363697309 0.029967752550579745 0 0.047116932151206777 0.030749665501236891 0 0.047446880915443392 0.029611562790985878 0 0.047242420363697309 0.029967752550579745 0 0.046785536333149538 0.029193677489591421 0 0.045587544240882266 0.027960473840583307 0 0.046273503726829507 0.030065009594561768 0 0.046785536333149538 0.029193677489591421 0 0.047598462477764066 0.025916900802889793 0 0.045335599111400136 0.027838548907038518 0 0.047807226995781257 0.029373124823202357 0 0.045587544240882266 0.027960473840583307 0 0.046785536333149538 0.029193677489591421 0 0.048144644993150125 0.019633368194587261 0 0.047392647467983648 0.020902758878935387 0 0.047862733760152966 0.022152769810214832 0 0.045587544240882266 0.027960473840583307 0 0.046148121814681115 0.023932861825401157 0 0.047807226995781257 0.029373124823202357 0 0.047446880915443392 0.029611562790985878 0 0.046785536333149538 0.029193677489591421 0 0.048079678065609685 0.018096708552715137 0 0.048442857311554594 0.017606347559021743 0 0.048435189089374185 0.018078818987035124 0 0.047392647467983648 0.020902758878935387 0 0.045850585986069538 0.022366840052835457 0 0.045587544240882266 0.027960473840583307 0 0.046148121814681115 0.023932861825401157 0 0.043988563091894535 0.027722132770137183 0 0.048442857311554594 0.017606347559021743 0 0.048435189089374185 0.018078818987035124 0 0.048745584649948409 0.017981406768971375 0 0.048079678065609685 0.018096708552715137 0 0.048435189089374185 0.018078818987035124 0 0.048246835811025512 0.01832216046598582 0 0.048435189089374185 0.018078818987035124 0 0.048713539203598395 0.018219720902241783 0 0.048745584649948409 0.017981406768971375 0 0.048246835811025512 0.01832216046598582 0 0.048658138866881313 0.018111497505668983 0 0.048713539203598395 0.018219720902241783 0 0.048435189089374185 0.018078818987035124 0 0.048246835811025512 0.01832216046598582 0 0.048713539203598395 0.018219720902241783 0 0.047908492879246124 0.019458217257406377 0 0.048079678065609685 0.018096708552715137 0 0.04786414054221285 0.018605045716768066 0 0.048079678065609685 0.018096708552715137 0 0.048246835811025512 0.01832216046598582 0 0.04786414054221285 0.018605045716768066 0 0.047633282083643133 0.01826120525050565 0 0.048246835811025512 0.01832216046598582 0 0.04786414054221285 0.018605045716768066 0 0.047633282083643133 0.01826120525050565 0 0.048246835811025512 0.01832216046598582 0 0.04895943742700009 0.017875575027838625 0 0.047627354803854723 0.018097342520893948 0 0.047324631160716717 0.016788070698146893 0 0.048246835811025512 0.01832216046598582 0 0.048658138866881313 0.018111497505668983 0 0.04895943742700009 0.017875575027838625 0 0.048658138866881313 0.018111497505668983 0 0.048749348693626862 0.017822732038616028 0 0.048713539203598395 0.018219720902241783 0 0.049359558739195279 0.016386567699798498 0 0.04895943742700009 0.017875575027838625 0 0.048749348693626862 0.017822732038616028 0 0.048658138866881313 0.018111497505668983 0 0.04895943742700009 0.017875575027838625 0 0.048749348693626862 0.017822732038616028 0 0.04719676884503287 0.01509954592259246 0 0.047324631160716717 0.016788070698146893 0 0.045060022302267626 0.013847684942015515 0 0.045708834081705153 0.015767706891861827 0 0.046644819351486906 0.014571072298561255 0 0.047515343569953197 0.016573892436237161 0 0.047878422033048929 0.015481639492725819 0 0.046644819351486906 0.014571072298561255 0 0.045708834081705153 0.015767706891861827 0 0.047515343569953197 0.016573892436237161 0 0.046644819351486906 0.014571072298561255 0 0.049261137252645297 0.016331734529258287 0 0.048600108071394151 0.017369383424871772 0 0.047878422033048929 0.015481639492725819 0 0.048600108071394151 0.017369383424871772 0 0.047515343569953197 0.016573892436237161 0 0.047878422033048929 0.015481639492725819 0 0.04853700335927362 0.014871190580640644 0 0.047878422033048929 0.015481639492725819 0 0.047730852574546401 0.014094128664445382 0 0.047878422033048929 0.015481639492725819 0 0.047318973677591934 0.014406701942059279 0 0.047730852574546401 0.014094128664445382 0 0.047878422033048929 0.015481639492725819 0 0.047318973677591934 0.014406701942059279 0 0.046644819351486906 0.014571072298561255 0 0.047318973677591934 0.014406701942059279 0 0.046644819351486906 0.014571072298561255 0 0.047035207340805268 0.013482441962366715 0 0.047035207340805268 0.013482441962366715 0 0.046308386214479483 0.012707698381465444 0 0.046122860087579438 0.013369974357871293 0 0.046644819351486906 0.014571072298561255 0 0.047035207340805268 0.013482441962366715 0 0.046122860087579438 0.013369974357871293 0 0.047730852574546401 0.014094128664445382 0 0.047035207340805268 0.013482441962366715 0 0.047569024079121114 0.013338584564702344 0 0.047035207340805268 0.013482441962366715 0 0.047569024079121114 0.013338584564702344 0 0.047268719155343732 0.012919143062044187 0 0.047318973677591934 0.014406701942059279 0 0.047730852574546401 0.014094128664445382 0 0.047035207340805268 0.013482441962366715 0 0.047035207340805268 0.013482441962366715 0 0.047268719155343732 0.012919143062044187 0 0.046811986774016816 0.012716481056523645 0 0.047170805454905027 0.012175639635244361 0 0.047434241021412943 0.013000137081646339 0 0.047268719155343732 0.012919143062044187 0 0.047434241021412943 0.013000137081646339 0 0.047569024079121114 0.013338584564702344 0 0.047268719155343732 0.012919143062044187 0 0.046793935245377581 0.012181538314926198 0 0.047268719155343732 0.012919143062044187 0 0.046811986774016816 0.012716481056523645 0 0.047035207340805268 0.013482441962366715 0 0.046811986774016816 0.012716481056523645 0 0.046308386214479483 0.012707698381465444 0 0.04638128590097465 0.012154632224000874 0 0.046811986774016816 0.012716481056523645 0 0.046308386214479483 0.012707698381465444 0 0.046308386214479483 0.012707698381465444 0 0.045599652033775216 0.012457413221237541 0 0.046122860087579438 0.013369974357871293 0 0.045982790000503121 0.012121647644949819 0 0.046308386214479483 0.012707698381465444 0 0.045599652033775216 0.012457413221237541 0 0.045060022302267626 0.013847684942015515 0 0.045599652033775216 0.012457413221237541 0 0.044945207471229806 0.012388943179667454 0 0.045060022302267626 0.013847684942015515 0 0.045599652033775216 0.012457413221237541 0 0.046122860087579438 0.013369974357871293 0 0.045060022302267626 0.013847684942015515 0 0.046644819351486906 0.014571072298561255 0 0.046122860087579438 0.013369974357871293 0 0.049103235683250923 0.014233680940871398 0 0.047718535349501337 0.013895298286412533 0 0.048385442915209811 0.016074949345151506 0 0.04719676884503287 0.01509954592259246 0 0.047016668284427056 0.013305662148816904 0 0.049359558739195279 0.016386567699798498 0 0.049103235683250923 0.014233680940871398 0 0.048385442915209811 0.016074949345151506 0 0.045318335148232185 0.011752292877019642 0 0.045599652033775216 0.012457413221237541 0 0.044945207471229806 0.012388943179667454 0 0.048163325101810192 0.011826311323048394 0 0.049103235683250923 0.014233680940871398 0 0.047718535349501337 0.013895298286412533 0 0.047718535349501337 0.013895298286412533 0 0.046440395046851879 0.013040712069062502 0 0.046890659834520905 0.015484872282791494 0 0.053184120758986771 0.013278695524017141 0 0.053714743588689523 0.015866931560258857 0 0.051889387074033559 0.014407702366785687 0 0.049829110120240355 0.013196109094257535 0 0.05027558955882739 0.015634569138014878 0 0.053714743588689523 0.015866931560258857 0 0.052609272575886136 0.016647987573026522 0 0.051889387074033559 0.014407702366785687 0 0.047718535349501337 0.013895298286412533 0 0.046890659834520905 0.015484872282791494 0 0.048385442915209811 0.016074949345151506 0 0.053208836562197201 0.018001655773847745 0 0.05268102269983857 0.018219685998851352 0 0.052609272575886136 0.016647987573026522 0 0.046890659834520905 0.015484872282791494 0 0.047691501373692761 0.017245948838440196 0 0.048385442915209811 0.016074949345151506 0 0.053208836562197201 0.018001655773847745 0 0.052542317092140203 0.018451632951195368 0 0.05268102269983857 0.018219685998851352 0 0.05027558955882739 0.015634569138014878 0 0.050414254299614478 0.017530666527384733 0 0.053714743588689523 0.015866931560258857 0 0.053208836562197201 0.018001655773847745 0 0.052609272575886136 0.016647987573026522 0 0.047691501373692761 0.017245948838440196 0 0.048385442915209811 0.016074949345151506 0 0.048749348693626862 0.017822732038616028 0 0.049359558739195279 0.016386567699798498 0 0.048385442915209811 0.016074949345151506 0 0.048749348693626862 0.017822732038616028 0 0.048749348693626862 0.017822732038616028 0 0.048455744632988663 0.018157654546812119 0 0.048713539203598395 0.018219720902241783 0 0.050414254299614478 0.017530666527384733 0 0.050063742796226496 0.018223374926200547 0 0.047691501373692761 0.017245948838440196 0 0.048749348693626862 0.017822732038616028 0 0.048455744632988663 0.018157654546812119 0 0.050063742796226496 0.018223374926200547 0 0.049483242565510246 0.017774791275974734 0 0.051780505622072807 0.018575271307011504 0 0.049442357630749424 0.017896167242370836 0 0.051478162535373025 0.017906621351284579 0 0.048455744632988663 0.018157654546812119 0 0.048713539203598395 0.018219720902241783 0 0.049442357630749424 0.017896167242370836 0 0.048442857311554594 0.017606347559021743 0 0.048745584649948409 0.017981406768971375 0 0.049442357630749424 0.017896167242370836 0 0.048713539203598395 0.018219720902241783 0 0.048745584649948409 0.017981406768971375 0 0.049442357630749424 0.017896167242370836 0 0.048442857311554594 0.017606347559021743 0 0.049442357630749424 0.017896167242370836 0 0.049492005756145985 0.01686640608670744 0 0.049442357630749424 0.017896167242370836 0 0.049492005756145985 0.01686640608670744 0 0.051478162535373025 0.017906621351284579 0 0.049125093251847878 0.026023619344483034 0 0.053551810494204578 0.019400888552522168 0 0.049125093251847878 0.026023619344483034 0 0.051998856211337346 0.029463830610591712 0 0.055648860644153315 0.023915552334028641 0 0.054981098568353926 0.023592703750778807 0 0.055211718928412028 0.022505151889635974 0 0.045850585986069538 0.022366840052835457 0 0.049125093251847878 0.026023619344483034 0 0.044421580393621048 0.029719477256754324 0 0.043988563091894535 0.027722132770137183 0 0.042183195677541356 0.028860681082546556 0 0.054336694606791504 0.023448908245014589 0 0.053216110160960763 0.023172503296350452 0 0.053590882675165367 0.025138415888427541 0 0.054336694606791504 0.023448908245014589 0 0.054981098568353926 0.023592703750778807 0 0.054681232073011524 0.024434845966413692 0 0.055648860644153315 0.023915552334028641 0 0.054981098568353926 0.023592703750778807 0 0.054681232073011524 0.024434845966413692 0 0.054336694606791504 0.023448908245014589 0 0.054981098568353926 0.023592703750778807 0 0.055211718928412028 0.022505151889635974 0 0.054336694606791504 0.023448908245014589 0 0.055211718928412028 0.022505151889635974 0 0.054027840290705037 0.022191538842708063 0 0.054336694606791504 0.023448908245014589 0 0.054027840290705037 0.022191538842708063 0 0.053216110160960763 0.023172503296350452 0 0.054027840290705037 0.022191538842708063 0 0.054395974654694465 0.020614777938288392 0 0.052323850243230698 0.021108180515316051 0 0.055211718928412028 0.022505151889635974 0 0.054027840290705037 0.022191538842708063 0 0.054395974654694465 0.020614777938288392 0 0.053551810494204578 0.019400888552522168 0 0.053431202447163706 0.019648284902608396 0 0.051780505622072807 0.018575271307011504 0 0.051478162535373025 0.017906621351284579 0 0.052542317092140203 0.018451632951195368 0 0.053208836562197201 0.018001655773847745 0 0.051780505622072807 0.018575271307011504 0 0.052542317092140203 0.018451632951195368 0 0.053431202447163706 0.019648284902608396 0 0.052710849948194576 0.018279255490764576 0 0.054395974654694465 0.020614777938288392 0 0.052323850243230698 0.021108180515316051 0 0.05268102269983857 0.018219685998851352 0 0.052323850243230698 0.021108180515316051 0 0.051216698980427348 0.018776693242082365 0 0.05268102269983857 0.018219685998851352 0 0.052323850243230698 0.021108180515316051 0 0.049955026613065355 0.019689382222930412 0 0.051216698980427348 0.018776693242082365 0 0.052323850243230698 0.021108180515316051 0 0.051253623789313911 0.022188618012056419 0 0.049955026613065355 0.019689382222930412 0 0.052323850243230698 0.021108180515316051 0 0.053216110160960763 0.023172503296350452 0 0.052114335806471832 0.023003214182882089 0 0.054027840290705037 0.022191538842708063 0 0.052323850243230698 0.021108180515316051 0 0.053216110160960763 0.023172503296350452 0 0.052323850243230698 0.021108180515316051 0 0.052114335806471832 0.023003214182882089 0 0.051253623789313911 0.022188618012056419 0 0.052114335806471832 0.023003214182882089 0 0.051376129080725641 0.024009192811043516 0 0.05236202944441485 0.024476715185041749 0 0.053216110160960763 0.023172503296350452 0 0.05236202944441485 0.024476715185041749 0 0.053590882675165367 0.025138415888427541 0 0.053216110160960763 0.023172503296350452 0 0.052114335806471832 0.023003214182882089 0 0.05236202944441485 0.024476715185041749 0 0.049999410513628752 0.023318261037681212 0 0.050736784373900209 0.025134851218504232 0 0.049999651740306551 0.026010864960053462 0 0.051376129080725641 0.024009192811043516 0 0.049999410513628752 0.023318261037681212 0 0.050736784373900209 0.025134851218504232 0 0.052114335806471832 0.023003214182882089 0 0.051376129080725641 0.024009192811043516 0 0.051253623789313911 0.022188618012056419 0 0.051376129080725641 0.024009192811043516 0 0.051253623789313911 0.022188618012056419 0 0.049999410513628752 0.023318261037681212 0 0.051253623789313911 0.022188618012056419 0 0.049999410513628752 0.023318261037681212 0 0.049999625264470902 0.02062330171630292 0 0.051253623789313911 0.022188618012056419 0 0.049999625264470902 0.02062330171630292 0 0.05179025116607032 0.019633439537936313 0 0.051208700401389633 0.021950668916695296 0 0.050875951001096521 0.019628374198384417 0 0.049999625264470902 0.02062330171630292 0 0.05179025116607032 0.019633439537936313 0 0.049999853123833024 0.017927883258767444 0 0.05179025116607032 0.019633439537936313 0 0.049999853123833024 0.017927883258767444 0 0.051764239539431732 0.016928662903694318 0 0.049999853123833024 0.017927883258767444 0 0.051764239539431732 0.016928662903694318 0 0.050000005133713624 0.015232704636261892 0 0.049322627600519441 0.01702688725659323 0 0.051338179068134336 0.017146157598167053 0 0.050420893810744619 0.015663439027774628 0 0.050875951001096521 0.019628374198384417 0 0.050551288892787601 0.016963633287867843 0 0.049955026613065355 0.019689382222930412 0 0.049322627600519441 0.01702688725659323 0 0.051216698980427348 0.018776693242082365 0 0.051216698980427348 0.018776693242082365 0 0.05268102269983857 0.018219685998851352 0 0.051338179068134336 0.017146157598167053 0 0.049322627600519441 0.01702688725659323 0 0.051216698980427348 0.018776693242082365 0 0.051338179068134336 0.017146157598167053 0 0.052609272575886136 0.016647987573026522 0 0.051338179068134336 0.017146157598167053 0 0.051413511363154814 0.015605595738947792 0 0.05268102269983857 0.018219685998851352 0 0.052609272575886136 0.016647987573026522 0 0.051338179068134336 0.017146157598167053 0 0.051338179068134336 0.017146157598167053 0 0.050420893810744619 0.015663439027774628 0 0.051413511363154814 0.015605595738947792 0 0.050420893810744619 0.015663439027774628 0 0.051413511363154814 0.015605595738947792 0 0.050666384595345747 0.014375372725920297 0 0.051413511363154814 0.015605595738947792 0 0.050666384595345747 0.014375372725920297 0 0.051889387074033559 0.014407702366785687 0 0.052609272575886136 0.016647987573026522 0 0.051413511363154814 0.015605595738947792 0 0.051889387074033559 0.014407702366785687 0 0.051476153662094501 0.012522039960288982 0 0.053184120758986771 0.013278695524017141 0 0.051889387074033559 0.014407702366785687 0 0.050523666928391012 0.012529032617258674 0 0.051476153662094501 0.012522039960288982 0 0.051889387074033559 0.014407702366785687 0 0.050523666928391012 0.012529032617258674 0 0.050666384595345747 0.014375372725920297 0 0.051889387074033559 0.014407702366785687 0 0.050523666928391012 0.012529032617258674 0 0.050666384595345747 0.014375372725920297 0 0.049269670503257777 0.014277714507555602 0 0.050271311521368357 0.011843984692567025 0 0.050523666928391012 0.012529032617258674 0 0.049269670503257777 0.014277714507555602 0 0.049999173072449277 0.012536553152331891 0 0.050000005133713624 0.015232704636261892 0 0.051410053980901184 0.014207566268173341 0 0.050271311521368357 0.011843984692567025 0 0.049999173072449277 0.012536553152331891 0 0.051410053980901184 0.014207566268173341 0 0.050260423313426499 0.012096880611576944 0 0.050356600605671854 0.014282345450364964 0 0.051764239539431732 0.016928662903694318 0 0.050000005133713624 0.015232704636261892 0 0.051410053980901184 0.014207566268173341 0 0.049322627600519441 0.01702688725659323 0 0.050420893810744619 0.015663439027774628 0 0.049269670503257777 0.014277714507555602 0 0.050420893810744619 0.015663439027774628 0 0.050666384595345747 0.014375372725920297 0 0.049269670503257777 0.014277714507555602 0 0.050551288892787601 0.016963633287867843 0 0.050356600605671854 0.014282345450364964 0 0.050000210394339849 0.035112591607905912 0 0.049998692293153742 0.03855014749110651 0 0.050913345490822617 0.037893201287970038 0 0.05112996984572523 0.036970597952790771 0 0.050000210394339849 0.035112591607905912 0 0.051170802879981284 0.036987170671513803 0 0.050576157782966757 0.034778171915171206 0 0.050502322498352119 0.034936551212240916 0 0.050593072302563741 0.034338050358496019 0 0.050576157782966757 0.034778171915171206 0 0.050479667328860174 0.034466830038966223 0 0.050593072302563741 0.034338050358496019 0 0.050576157782966757 0.034778171915171206 0 0.050479667328860174 0.034466830038966223 0 0.049999416752868744 0.035108580523699938 0 0.050689130256048834 0.035866521303794641 0 0.049999878579086686 0.035110374613477165 0 0.050000210394339849 0.035112591607905912 0 0.051170802879981284 0.036987170671513803 0 0.050913345490822617 0.037893201287970038 0 0.051170802879981284 0.036987170671513803 0 0.050045666969353739 0.037049332606326972 0 0.049928325200600379 0.036170359671762305 0 0.051185176679227243 0.037328993525900418 0 0.05120323426954624 0.036758396463583788 0 0.051170802879981284 0.036987170671513803 0 0.052193083451452474 0.038692184682165461 0 0.050913345490822617 0.037893201287970038 0 0.05112996984572523 0.036970597952790771 0 0.051170802879981284 0.036987170671513803 0 0.050045666969353739 0.037049332606326972 0 0.050045666969353739 0.037049332606326972 0 0.048937423450982877 0.037005589119579956 0 0.049928325200600379 0.036170359671762305 0 0.05112996984572523 0.036970597952790771 0 0.050045666969353739 0.037049332606326972 0 0.048855212498837931 0.037937133369231851 0 0.050045666969353739 0.037049332606326972 0 0.048937423450982877 0.037005589119579956 0 0.048855212498837931 0.037937133369231851 0 0.049573039207113062 0.036696035536688723 0 0.047131562992038981 0.037489446953317046 0 0.047674103513344092 0.037407065586280888 0 0.048855212498837931 0.037937133369231851 0 0.04669910140850405 0.037776356878252371 0 0.05036197562001659 0.035240164224419238 0 0.049566087319158819 0.036160141396834718 0 0.04669910140850405 0.037776356878252371 0 0.047674103513344092 0.037407065586280888 0 0.048937423450982877 0.037005589119579956 0 0.048855212498837931 0.037937133369231851 0 0.049566087319158819 0.036160141396834718 0 0.050468131051398135 0.034945674893191593 0 0.050379708736872635 0.035678268933752727 0 0.049566087319158819 0.036160141396834718 0 0.050227863806303813 0.03537020825351514 0 0.050468131051398135 0.034945674893191593 0 0.05036197562001659 0.035240164224419238 0 0.049566087319158819 0.036160141396834718 0 0.050227863806303813 0.03537020825351514 0 0.050689130256048834 0.035866521303794641 0 0.049573039207113062 0.036696035536688723 0 0.050576157782966757 0.034778171915171206 0 0.05036197562001659 0.035240164224419238 0 0.050502322498352119 0.034936551212240916 0 0.05036197562001659 0.035240164224419238 0 0.050227863806303813 0.03537020825351514 0 0.050502322498352119 0.034936551212240916 0 0.050227863806303813 0.03537020825351514 0 0.050502322498352119 0.034936551212240916 0 0.050555406205747867 0.034550271312721086 0 0.050555406205747867 0.034550271312721086 0 0.050811426008302567 0.033082357414261646 0 0.050593072302563741 0.034338050358496019 0 0.050502322498352119 0.034936551212240916 0 0.050555406205747867 0.034550271312721086 0 0.050593072302563741 0.034338050358496019 0 0.050227863806303813 0.03537020825351514 0 0.050555406205747867 0.034550271312721086 0 0.050468131051398135 0.034945674893191593 0 0.050555406205747867 0.034550271312721086 0 0.050468131051398135 0.034945674893191593 0 0.050829991698302303 0.033806938533701654 0 0.050829991698302303 0.033806938533701654 0 0.051299438482857215 0.031908685516181479 0 0.051062410624412552 0.03392114766929237 0 0.050468131051398135 0.034945674893191593 0 0.050829991698302303 0.033806938533701654 0 0.051062410624412552 0.03392114766929237 0 0.050829991698302303 0.033806938533701654 0 0.050811426008302567 0.033082357414261646 0 0.051299438482857215 0.031908685516181479 0 0.050555406205747867 0.034550271312721086 0 0.050829991698302303 0.033806938533701654 0 0.050811426008302567 0.033082357414261646 0 0.050811426008302567 0.033082357414261646 0 0.050514717687365832 0.03343448630924805 0 0.050659069488362407 0.03153464631573337 0 0.050811426008302567 0.033082357414261646 0 0.050514717687365832 0.03343448630924805 0 0.050593072302563741 0.034338050358496019 0 0.050479667328860174 0.034466830038966223 0 0.050514717687365832 0.03343448630924805 0 0.050593072302563741 0.034338050358496019 0 0.049999416752868744 0.035108580523699938 0 0.050514717687365832 0.03343448630924805 0 0.04999904365309648 0.032166599010292056 0 0.050479667328860174 0.034466830038966223 0 0.049999416752868744 0.035108580523699938 0 0.050514717687365832 0.03343448630924805 0 0.050514717687365832 0.03343448630924805 0 0.04999904365309648 0.032166599010292056 0 0.050659069488362407 0.03153464631573337 0 0.04999904365309648 0.032166599010292056 0 0.050659069488362407 0.03153464631573337 0 0.049999120138440017 0.029226078132804634 0 0.050659069488362407 0.03153464631573337 0 0.050828685470556308 0.030023675753415757 0 0.051299438482857215 0.031908685516181479 0 0.05224860026275454 0.028165148053421182 0 0.049999987719393221 0.029221823944579037 0 0.049999988185587638 0.027617556661782776 0 0.050659069488362407 0.03153464631573337 0 0.050828685470556308 0.030023675753415757 0 0.049999120138440017 0.029226078132804634 0 0.050285854100498892 0.030391544484322255 0 0.050002237310570755 0.029220729627136247 0 0.049999988185587638 0.027617556661782776 0 0.051126938469343769 0.027092804376521788 0 0.049999997260046405 0.02601322216804898 0 0.05224860026275454 0.028165148053421182 0 0.049999988185587638 0.027617556661782776 0 0.051126938469343769 0.027092804376521788 0 0.050285854100498892 0.030391544484322255 0 0.050653822247109438 0.026570199993943666 0 0.051212691480450247 0.026572690806140425 0 0.050617914588765342 0.026068276175869879 0 0.051482047025589561 0.025572019406646065 0 0.051376129080725641 0.024009192811043516 0 0.051482047025589561 0.025572019406646065 0 0.050736784373900209 0.025134851218504232 0 0.050617914588765342 0.026068276175869879 0 0.051482047025589561 0.025572019406646065 0 0.050736784373900209 0.025134851218504232 0 0.050617914588765342 0.026068276175869879 0 0.050736784373900209 0.025134851218504232 0 0.049999651740306551 0.026010864960053462 0 0.050653822247109438 0.026570199993943666 0 0.05000032010911621 0.026013377038536734 0 0.05236202944441485 0.024476715185041749 0 0.052372697842424543 0.025906805367521272 0 0.053590882675165367 0.025138415888427541 0 0.051376129080725641 0.024009192811043516 0 0.051482047025589561 0.025572019406646065 0 0.05236202944441485 0.024476715185041749 0 0.051482047025589561 0.025572019406646065 0 0.05236202944441485 0.024476715185041749 0 0.052372697842424543 0.025906805367521272 0 0.051212691480450247 0.026572690806140425 0 0.051482047025589561 0.025572019406646065 0 0.052372697842424543 0.025906805367521272 0 0.050285854100498892 0.030391544484322255 0 0.049593864821960112 0.030406295424962398 0 0.047304496827803383 0.034721833327540447 0 0.047815666742720767 0.035194800983045824 0 0.047798044772717249 0.034472814180473696 0 0.049593864821960112 0.030406295424962398 0 0.050660224073301639 0.029793556324936868 0 0.047304496827803383 0.034721833327540447 0 0.047273327786671308 0.035439278155723501 0 0.047815666742720767 0.035194800983045824 0 0.046847481802520151 0.034927116315291579 0 0.047304496827803383 0.034721833327540447 0 0.047273327786671308 0.035439278155723501 0 0.050285854100498892 0.030391544484322255 0 0.04905423482499123 0.033937080421034244 0 0.050811426008302567 0.033082357414261646 0 0.050659069488362407 0.03153464631573337 0 0.051299438482857215 0.031908685516181479 0 0.047273327786671308 0.035439278155723501 0 0.047815666742720767 0.035194800983045824 0 0.047687691961869533 0.035966562438515433 0 0.04905423482499123 0.033937080421034244 0 0.049350640263123385 0.034854103099238393 0 0.048074183210105557 0.035633753846738309 0 0.047815666742720767 0.035194800983045824 0 0.047687691961869533 0.035966562438515433 0 0.048367059000590393 0.035820698779134234 0 0.048074183210105557 0.035633753846738309 0 0.048419826524430463 0.035285799043091808 0 0.048419826524430463 0.035285799043091808 0 0.047815666742720767 0.035194800983045824 0 0.048233422725017801 0.034782031158530041 0 0.048074183210105557 0.035633753846738309 0 0.048419826524430463 0.035285799043091808 0 0.047815666742720767 0.035194800983045824 0 0.047815666742720767 0.035194800983045824 0 0.048233422725017801 0.034782031158530041 0 0.047798044772717249 0.034472814180473696 0 0.048419826524430463 0.035285799043091808 0 0.048233422725017801 0.034782031158530041 0 0.0486770426610467 0.034692056861244373 0 0.048233422725017801 0.034782031158530041 0 0.048437310939390237 0.034161721918372391 0 0.0486770426610467 0.034692056861244373 0 0.054336694606791504 0.023448908245014589 0 0.054681232073011524 0.024434845966413692 0 0.053590882675165367 0.025138415888427541 0 0.051998856211337346 0.029463830610591712 0 0.050660224073301639 0.029793556324936868 0 0.048233422725017801 0.034782031158530041 0 0.048437310939390237 0.034161721918372391 0 0.047798044772717249 0.034472814180473696 0 0.044421580393621048 0.029719477256754324 0 0.042183195677541356 0.028860681082546556 0 0.043625029607166486 0.031520684102741919 0 0.049125093251847878 0.026023619344483034 0 0.046158493216374087 0.033797365602209202 0 0.049012195196374835 0.033900188305421936 0 0.049098383776409384 0.034623912694325118 0 0.0486770426610467 0.034692056861244373 0 0.049012195196374835 0.033900188305421936 0 0.048437310939390237 0.034161721918372391 0 0.0486770426610467 0.034692056861244373 0 0.049098383776409384 0.034623912694325118 0 0.0486770426610467 0.034692056861244373 0 0.04885862923567541 0.03518375120238211 0 0.049098383776409384 0.034623912694325118 0 0.04885862923567541 0.03518375120238211 0 0.049089946754434635 0.035302161378700021 0 0.04885862923567541 0.03518375120238211 0 0.048728510278997585 0.03563085253183388 0 0.048947262264996301 0.035418374681713272 0 0.048419826524430463 0.035285799043091808 0 0.0486770426610467 0.034692056861244373 0 0.04885862923567541 0.03518375120238211 0 0.048419826524430463 0.035285799043091808 0 0.04885862923567541 0.03518375120238211 0 0.048728510278997585 0.03563085253183388 0 0.048367059000590393 0.035820698779134234 0 0.048419826524430463 0.035285799043091808 0 0.048728510278997585 0.03563085253183388 0 0.048728510278997585 0.03563085253183388 0 0.048942924011638127 0.035665265860861342 0 0.048947262264996301 0.035418374681713272 0 0.048728510278997585 0.03563085253183388 0 0.048796381982919475 0.036024902857397116 0 0.048574988555334465 0.036145535164773548 0 0.048728510278997585 0.03563085253183388 0 0.048796381982919475 0.036024902857397116 0 0.048942924011638127 0.035665265860861342 0 0.048796381982919475 0.036024902857397116 0 0.048732633876053033 0.036490834829386976 0 0.048574988555334465 0.036145535164773548 0 0.048796381982919475 0.036024902857397116 0 0.048732633876053033 0.036490834829386976 0 0.049125451225495165 0.036288156004792196 0 0.048732633876053033 0.036490834829386976 0 0.048890871473662716 0.037003461805079761 0 0.049125451225495165 0.036288156004792196 0 0.048732633876053033 0.036490834829386976 0 0.048675521979326224 0.036843545128935791 0 0.048552385531883298 0.036556848773222288 0 0.048732633876053033 0.036490834829386976 0 0.048675521979326224 0.036843545128935791 0 0.048890871473662716 0.037003461805079761 0 0.048552385531883298 0.036556848773222288 0 0.048116262734782388 0.036581813004794218 0 0.048668107975643284 0.036892664825062128 0 0.048675521979326224 0.036843545128935791 0 0.048552385531883298 0.036556848773222288 0 0.048668107975643284 0.036892664825062128 0 0.048732633876053033 0.036490834829386976 0 0.048552385531883298 0.036556848773222288 0 0.048574988555334465 0.036145535164773548 0 0.048552385531883298 0.036556848773222288 0 0.048574988555334465 0.036145535164773548 0 0.048343536585473731 0.036223639515549619 0 0.048367059000590393 0.035820698779134234 0 0.048574988555334465 0.036145535164773548 0 0.048343536585473731 0.036223639515549619 0 0.048367059000590393 0.035820698779134234 0 0.048728510278997585 0.03563085253183388 0 0.048574988555334465 0.036145535164773548 0 0.048367059000590393 0.035820698779134234 0 0.048116051023267659 0.036055115667653501 0 0.048343536585473731 0.036223639515549619 0 0.048367059000590393 0.035820698779134234 0 0.048074183210105557 0.035633753846738309 0 0.048116051023267659 0.036055115667653501 0 0.048074183210105557 0.035633753846738309 0 0.048116051023267659 0.036055115667653501 0 0.047687691961869533 0.035966562438515433 0 0.048116051023267659 0.036055115667653501 0 0.047687691961869533 0.035966562438515433 0 0.048116262734782388 0.036581813004794218 0 0.050468131051398135 0.034945674893191593 0 0.050679241986735013 0.035726532638012606 0 0.050379708736872635 0.035678268933752727 0 0.049350640263123385 0.034854103099238393 0 0.049305829416658474 0.036113976990100181 0 0.050468131051398135 0.034945674893191593 0 0.051062410624412552 0.03392114766929237 0 0.050679241986735013 0.035726532638012606 0 0.048116051023267659 0.036055115667653501 0 0.048343536585473731 0.036223639515549619 0 0.048116262734782388 0.036581813004794218 0 0.048552385531883298 0.036556848773222288 0 0.048343536585473731 0.036223639515549619 0 0.048116262734782388 0.036581813004794218 0 0.050679241986735013 0.035726532638012606 0 0.050444450941445645 0.036005216511843595 0 0.048889410857973568 0.036975204388093048 0 0.049305829416658474 0.036113976990100181 0 0.04891227844148173 0.036773170496592719 0 0.050679241986735013 0.035726532638012606 0 0.050444450941445645 0.036005216511843595 0 0.050379708736872635 0.035678268933752727 0 0.049566087319158819 0.036160141396834718 0 0.050444450941445645 0.036005216511843595 0 0.050379708736872635 0.035678268933752727 0 0.049566087319158819 0.036160141396834718 0 0.045812561553454256 0.038686196898239142 0 0.04669910140850405 0.037776356878252371 0 0.049244951195585272 0.036386285335935742 0 0.04811444173200842 0.037260089897347748 0 0.04669910140850405 0.037776356878252371 0 0.045866786646479564 0.038120931859936237 0 0.045987096238503535 0.038439414478358538 0 0.047674103513344092 0.037407065586280888 0 0.04669910140850405 0.037776356878252371 0 0.045866786646479564 0.038120931859936237 0 0.045812561553454256 0.038686196898239142 0 0.046148111081115183 0.039039854980874145 0 0.04655824225662962 0.039433348107620586 0 0.045812561553454256 0.038686196898239142 0 0.045987096238503535 0.038439414478358538 0 0.046148111081115183 0.039039854980874145 0 0.045812561553454256 0.038686196898239142 0 0.04669910140850405 0.037776356878252371 0 0.045987096238503535 0.038439414478358538 0 0.045987096238503535 0.038439414478358538 0 0.045941379189977469 0.038842079681096132 0 0.046148111081115183 0.039039854980874145 0 0.045941379189977469 0.038842079681096132 0 0.046148111081115183 0.039039854980874145 0 0.045825105734453454 0.040021342935108568 0 0.045866786646479564 0.038120931859936237 0 0.045941379189977469 0.038842079681096132 0 0.045825105734453454 0.040021342935108568 0 0.045866786646479564 0.038120931859936237 0 0.045987096238503535 0.038439414478358538 0 0.045941379189977469 0.038842079681096132 0 0.046148111081115183 0.039039854980874145 0 0.046464177320124374 0.040230375938315223 0 0.045825105734453454 0.040021342935108568 0 0.046148111081115183 0.039039854980874145 0 0.04655824225662962 0.039433348107620586 0 0.046464177320124374 0.040230375938315223 0 0.04655824225662962 0.039433348107620586 0 0.046844878633424104 0.040192105308654795 0 0.047079342484770838 0.039821738061530831 0 0.04655824225662962 0.039433348107620586 0 0.046844878633424104 0.040192105308654795 0 0.046464177320124374 0.040230375938315223 0 0.04811444173200842 0.037260089897347748 0 0.048058444429388308 0.038254487899353387 0 0.045812561553454256 0.038686196898239142 0 0.04655824225662962 0.039433348107620586 0 0.047267253956222513 0.03933543267231638 0 0.04655824225662962 0.039433348107620586 0 0.047267253956222513 0.03933543267231638 0 0.047079342484770838 0.039821738061530831 0 0.047079342484770838 0.039821738061530831 0 0.047677198675159467 0.040109568761663258 0 0.047238344414765363 0.040494539399193834 0 0.047267253956222513 0.03933543267231638 0 0.047079342484770838 0.039821738061530831 0 0.047677198675159467 0.040109568761663258 0 0.046844878633424104 0.040192105308654795 0 0.047079342484770838 0.039821738061530831 0 0.047238344414765363 0.040494539399193834 0 0.047267253956222513 0.03933543267231638 0 0.047677198675159467 0.040109568761663258 0 0.049218545108225896 0.039371783517047378 0 0.048552641650945624 0.037048415201266185 0 0.048771577380844165 0.037613174367425957 0 0.049218545108225896 0.039371783517047378 0 0.047677198675159467 0.040109568761663258 0 0.049218545108225896 0.039371783517047378 0 0.047814604910868475 0.04152951004341144 0 0.048058444429388308 0.038254487899353387 0 0.049270817011074039 0.039191745268209358 0 0.048552641650945624 0.037048415201266185 0 0.048646904605549338 0.037178091979226259 0 0.048771577380844165 0.037613174367425957 0 0.048646904605549338 0.037178091979226259 0 0.048771577380844165 0.037613174367425957 0 0.048675743601502584 0.0371636458895429 0 0.048675521979326224 0.036843545128935791 0 0.048890871473662716 0.037003461805079761 0 0.048675743601502584 0.0371636458895429 0 0.048890871473662716 0.037003461805079761 0 0.048771577380844165 0.037613174367425957 0 0.048675743601502584 0.0371636458895429 0 0.048646904605549338 0.037178091979226259 0 0.048675743601502584 0.0371636458895429 0 0.048668107975643284 0.036892664825062128 0 0.048675521979326224 0.036843545128935791 0 0.048675743601502584 0.0371636458895429 0 0.048668107975643284 0.036892664825062128 0 0.048116262734782388 0.036581813004794218 0 0.048668107975643284 0.036892664825062128 0 0.048889410857973568 0.036975204388093048 0 0.050444450941445645 0.036005216511843595 0 0.048552641650945624 0.037048415201266185 0 0.048889410857973568 0.036975204388093048 0 0.048646904605549338 0.037178091979226259 0 0.048668107975643284 0.036892664825062128 0 0.048889410857973568 0.036975204388093048 0 0.048552641650945624 0.037048415201266185 0 0.048646904605549338 0.037178091979226259 0 0.048889410857973568 0.036975204388093048 0 0.049594283240019667 0.03746752086207298 0 0.049218545108225896 0.039371783517047378 0 0.050695842318764492 0.038943162360847841 0 0.049594283240019667 0.03746752086207298 0 0.050695842318764492 0.038943162360847841 0 0.05131196955237937 0.037475574515072593 0 0.048890871473662716 0.037003461805079761 0 0.048771577380844165 0.037613174367425957 0 0.049594283240019667 0.03746752086207298 0 0.048771577380844165 0.037613174367425957 0 0.049594283240019667 0.03746752086207298 0 0.049218545108225896 0.039371783517047378 0 0.050695842318764492 0.038943162360847841 0 0.05235524498299849 0.040399295652990774 0 0.050583806958325359 0.042405311966404721 0 0.049218545108225896 0.039371783517047378 0 0.050695842318764492 0.038943162360847841 0 0.050583806958325359 0.042405311966404721 0 0.050695842318764492 0.038943162360847841 0 0.05235524498299849 0.040399295652990774 0 0.05131196955237937 0.037475574515072593 0 0.047957341077865194 0.037279906166022864 0 0.048368819967554155 0.036879453301681971 0 0.047911959825460648 0.036573649496699036 0 0.047689843400088992 0.040274756358248509 0 0.049828023800528552 0.036825972141971107 0 0.047689843400088992 0.040274756358248509 0 0.044030820174828442 0.037797908071585576 0 0.038582097498777029 0.039697951511290762 0 0.038887519798128441 0.03957333665640151 0 0.038866013656678224 0.039393527593376429 0 0.038887519798128441 0.03957333665640151 0 0.038866013656678224 0.039393527593376429 0 0.039103306748324282 0.03907547102215566 0 0.032381345950878736 0.04067343188121119 0 0.036905052963584387 0.037474105547706991 0 0.048331114585399695 0.036507490381805736 0 0.048368819967554155 0.036879453301681971 0 0.048701608724883445 0.036499104849542795 0 0.044030820174828442 0.037797908071585576 0 0.036905052963584387 0.037474105547706991 0 0.048331114585399695 0.036507490381805736 0 0.048368819967554155 0.036879453301681971 0 0.047911959825460648 0.036573649496699036 0 0.048331114585399695 0.036507490381805736 0 0.047911959825460648 0.036573649496699036 0 0.048350881924946298 0.03612577570879337 0 0.049828023800528552 0.036825972141971107 0 0.048920369758647123 0.036005184633632829 0 0.047911959825460648 0.036573649496699036 0 0.048350881924946298 0.03612577570879337 0 0.047902659049025471 0.035824770311665234 0 0.048350881924946298 0.03612577570879337 0 0.04866004251271052 0.035981344183706757 0 0.048701608724883445 0.036499104849542795 0 0.048331114585399695 0.036507490381805736 0 0.048350881924946298 0.03612577570879337 0 0.048701608724883445 0.036499104849542795 0 0.048350881924946298 0.03612577570879337 0 0.04866004251271052 0.035981344183706757 0 0.048374996481947742 0.035548103718542966 0 0.04866004251271052 0.035981344183706757 0 0.048374996481947742 0.035548103718542966 0 0.048887110357084214 0.035319550216312258 0 0.048350881924946298 0.03612577570879337 0 0.048374996481947742 0.035548103718542966 0 0.047902659049025471 0.035824770311665234 0 0.048374996481947742 0.035548103718542966 0 0.047902659049025471 0.035824770311665234 0 0.048160722879775339 0.035289619029637086 0 0.050002369511743493 0.035892638428246144 0 0.049125078189253664 0.035625708596416054 0 0.048333826176894815 0.035314310848011655 0 0.050002369511743493 0.035892638428246144 0 0.049125078189253664 0.035625708596416054 0 0.049765955270971891 0.036434906464070702 0 0.049594283240019667 0.03746752086207298 0 0.05131196955237937 0.037475574515072593 0 0.049765955270971891 0.036434906464070702 0 0.05131196955237937 0.037475574515072593 0 0.050002369511743493 0.035892638428246144 0 0.049765955270971891 0.036434906464070702 0 0.049594283240019667 0.03746752086207298 0 0.049765955270971891 0.036434906464070702 0 0.049125451225495165 0.036288156004792196 0 0.048890871473662716 0.037003461805079761 0 0.049594283240019667 0.03746752086207298 0 0.049125451225495165 0.036288156004792196 0 0.049125078189253664 0.035625708596416054 0 0.049125451225495165 0.036288156004792196 0 0.048942924011638127 0.035665265860861342 0 0.048796381982919475 0.036024902857397116 0 0.049125451225495165 0.036288156004792196 0 0.048942924011638127 0.035665265860861342 0 0.049125078189253664 0.035625708596416054 0 0.049765955270971891 0.036434906464070702 0 0.049125451225495165 0.036288156004792196 0 0.049125078189253664 0.035625708596416054 0 0.048942924011638127 0.035665265860861342 0 0.048915012428940731 0.03540768503024868 0 0.048942924011638127 0.035665265860861342 0 0.048915012428940731 0.03540768503024868 0 0.048947262264996301 0.035418374681713272 0 0.048920369758647123 0.036005184633632829 0 0.048385747984575719 0.035334131073051174 0 0.050002369511743493 0.035892638428246144 0 0.048333826176894815 0.035314310848011655 0 0.048229754312571843 0.035214520234918945 0 0.049125078189253664 0.035625708596416054 0 0.048915012428940731 0.03540768503024868 0 0.048333826176894815 0.035314310848011655 0 0.048333826176894815 0.035314310848011655 0 0.048229754312571843 0.035214520234918945 0 0.047647698337020629 0.034452434747006294 0 0.048915012428940731 0.03540768503024868 0 0.048333826176894815 0.035314310848011655 0 0.049089946754434635 0.035302161378700021 0 0.047647698337020629 0.034452434747006294 0 0.045639047932229261 0.033909745209292602 0 0.046885866585236691 0.033092216570420885 0 0.048183854575421882 0.035266973993530452 0 0.047352627289532052 0.034397771612218464 0 0.048333826176894815 0.035314310848011655 0 0.047647698337020629 0.034452434747006294 0 0.045639047932229261 0.033909745209292602 0 0.048229754312571843 0.035214520234918945 0 0.047647698337020629 0.034452434747006294 0 0.048050143775901957 0.034837815164617411 0 0.047647698337020629 0.034452434747006294 0 0.046885866585236691 0.033092216570420885 0 0.047819686592272398 0.033739377917005875 0 0.04885862923567541 0.03518375120238211 0 0.048947262264996301 0.035418374681713272 0 0.049089946754434635 0.035302161378700021 0 0.048915012428940731 0.03540768503024868 0 0.048947262264996301 0.035418374681713272 0 0.049089946754434635 0.035302161378700021 0 0.043625029607166486 0.031520684102741919 0 0.045639047932229261 0.033909745209292602 0 0.045649468904553465 0.031696044898856461 0 0.046158493216374087 0.033797365602209202 0 0.047352627289532052 0.034397771612218464 0 0.045639047932229261 0.033909745209292602 0 0.046885866585236691 0.033092216570420885 0 0.045649468904553465 0.031696044898856461 0 0.046885866585236691 0.033092216570420885 0 0.047570417933608701 0.032484906013999858 0 0.047819686592272398 0.033739377917005875 0 0.046885866585236691 0.033092216570420885 0 0.046843249508224653 0.031494539282900934 0 0.047570417933608701 0.032484906013999858 0 0.046885866585236691 0.033092216570420885 0 0.046843249508224653 0.031494539282900934 0 0.045649468904553465 0.031696044898856461 0 0.046843249508224653 0.031494539282900934 0 0.047116932151206777 0.030749665501236891 0 0.047726215528560004 0.03121397563838909 0 0.046273503726829507 0.030065009594561768 0 0.046843249508224653 0.031494539282900934 0 0.047116932151206777 0.030749665501236891 0 0.046273503726829507 0.030065009594561768 0 0.046843249508224653 0.031494539282900934 0 0.045649468904553465 0.031696044898856461 0 0.044421580393621048 0.029719477256754324 0 0.046273503726829507 0.030065009594561768 0 0.045649468904553465 0.031696044898856461 0 0.044421580393621048 0.029719477256754324 0 0.043625029607166486 0.031520684102741919 0 0.045649468904553465 0.031696044898856461 0 0.048865824771530023 0.030723974032319992 0 0.048989239207627731 0.031982750704101399 0 0.04842687174688632 0.031298055467041126 0 0.048989239207627731 0.031982750704101399 0 0.04842687174688632 0.031298055467041126 0 0.048290490470495002 0.03238901056746913 0 0.048989239207627731 0.031982750704101399 0 0.048290490470495002 0.03238901056746913 0 0.048685986311008962 0.033046795402378766 0 0.04842687174688632 0.031298055467041126 0 0.047726215528560004 0.03121397563838909 0 0.048290490470495002 0.03238901056746913 0 0.046843249508224653 0.031494539282900934 0 0.047726215528560004 0.03121397563838909 0 0.047570417933608701 0.032484906013999858 0 0.047726215528560004 0.03121397563838909 0 0.048290490470495002 0.03238901056746913 0 0.047570417933608701 0.032484906013999858 0 0.048290490470495002 0.03238901056746913 0 0.047570417933608701 0.032484906013999858 0 0.048020714450151367 0.033166280404490621 0 0.048290490470495002 0.03238901056746913 0 0.048020714450151367 0.033166280404490621 0 0.048401141312946851 0.033557460500738774 0 0.047570417933608701 0.032484906013999858 0 0.047819686592272398 0.033739377917005875 0 0.048020714450151367 0.033166280404490621 0 0.048020714450151367 0.033166280404490621 0 0.048401141312946851 0.033557460500738774 0 0.048200879508373207 0.03412161996469578 0 0.047819686592272398 0.033739377917005875 0 0.048020714450151367 0.033166280404490621 0 0.048200879508373207 0.03412161996469578 0 0.048989239207627731 0.031982750704101399 0 0.048685986311008962 0.033046795402378766 0 0.049065058421636984 0.03340300490583694 0 0.048401141312946851 0.033557460500738774 0 0.048685986311008962 0.033046795402378766 0 0.048709133683310604 0.033901749502962063 0 0.048290490470495002 0.03238901056746913 0 0.048401141312946851 0.033557460500738774 0 0.048685986311008962 0.033046795402378766 0 0.048685986311008962 0.033046795402378766 0 0.048709133683310604 0.033901749502962063 0 0.049065058421636984 0.03340300490583694 0 0.048544950516153526 0.034515835614043776 0 0.048887110357084214 0.035319550216312258 0 0.048945297843110511 0.034482125412387925 0 0.048709133683310604 0.033901749502962063 0 0.048544950516153526 0.034515835614043776 0 0.048945297843110511 0.034482125412387925 0 0.048401141312946851 0.033557460500738774 0 0.048709133683310604 0.033901749502962063 0 0.048544950516153526 0.034515835614043776 0 0.048401141312946851 0.033557460500738774 0 0.048544950516153526 0.034515835614043776 0 0.048200879508373207 0.03412161996469578 0 0.048544950516153526 0.034515835614043776 0 0.048205282484288389 0.034817970598379003 0 0.048411045289166905 0.035090958187295865 0 0.047647698337020629 0.034452434747006294 0 0.047819686592272398 0.033739377917005875 0 0.04800519113135384 0.034385935099137149 0 0.047819686592272398 0.033739377917005875 0 0.04800519113135384 0.034385935099137149 0 0.048200879508373207 0.03412161996469578 0 0.048544950516153526 0.034515835614043776 0 0.048200879508373207 0.03412161996469578 0 0.048205282484288389 0.034817970598379003 0 0.04800519113135384 0.034385935099137149 0 0.048200879508373207 0.03412161996469578 0 0.048205282484288389 0.034817970598379003 0 0.047647698337020629 0.034452434747006294 0 0.04800519113135384 0.034385935099137149 0 0.048050143775901957 0.034837815164617411 0 0.04800519113135384 0.034385935099137149 0 0.048205282484288389 0.034817970598379003 0 0.048050143775901957 0.034837815164617411 0 0.048205282484288389 0.034817970598379003 0 0.048050143775901957 0.034837815164617411 0 0.048141237341716089 0.035056215251700926 0 0.047902659049025471 0.035824770311665234 0 0.048229754312571843 0.035214520234918945 0 0.048160722879775339 0.035289619029637086 0 0.048205282484288389 0.034817970598379003 0 0.048141237341716089 0.035056215251700926 0 0.048160722879775339 0.035289619029637086 0 0.048229754312571843 0.035214520234918945 0 0.048141237341716089 0.035056215251700926 0 0.048160722879775339 0.035289619029637086 0 0.048229754312571843 0.035214520234918945 0 0.048050143775901957 0.034837815164617411 0 0.048141237341716089 0.035056215251700926 0 0.048205282484288389 0.034817970598379003 0 0.048160722879775339 0.035289619029637086 0 0.048411045289166905 0.035090958187295865 0 0.048374996481947742 0.035548103718542966 0 0.048160722879775339 0.035289619029637086 0 0.048411045289166905 0.035090958187295865 0 0.048374996481947742 0.035548103718542966 0 0.048411045289166905 0.035090958187295865 0 0.048887110357084214 0.035319550216312258 0 0.048544950516153526 0.034515835614043776 0 0.048411045289166905 0.035090958187295865 0 0.048887110357084214 0.035319550216312258 0 0.048887110357084214 0.035319550216312258 0 0.049371697778485261 0.034880756253641378 0 0.049294151432389854 0.035648891812567397 0 0.048887110357084214 0.035319550216312258 0 0.049294151432389854 0.035648891812567397 0 0.048923508044799807 0.036180215352780057 0 0.048887110357084214 0.035319550216312258 0 0.049371697778485261 0.034880756253641378 0 0.048945297843110511 0.034482125412387925 0 0.049371697778485261 0.034880756253641378 0 0.048945297843110511 0.034482125412387925 0 0.049065058421636984 0.03340300490583694 0 0.048709133683310604 0.033901749502962063 0 0.048945297843110511 0.034482125412387925 0 0.049065058421636984 0.03340300490583694 0 0.049371697778485261 0.034880756253641378 0 0.049065058421636984 0.03340300490583694 0 0.05047952840528875 0.032138173849000848 0 0.049371697778485261 0.034880756253641378 0 0.048981741999922966 0.034733319504976004 0 0.049374714289859498 0.035320392401385403 0 0.049393225751282806 0.034787233172537721 0 0.049690235404963576 0.033429804745290531 0 0.049705215198054702 0.031061288542464253 0 0.048989239207627731 0.031982750704101399 0 0.05047952840528875 0.032138173849000848 0 0.048989239207627731 0.031982750704101399 0 0.049065058421636984 0.03340300490583694 0 0.05047952840528875 0.032138173849000848 0 0.050050520543614078 0.033658611721684543 0 0.050053777258586347 0.034821023878983802 0 0.049488928171674156 0.03437570013753611 0 0.048981741999922966 0.034733319504976004 0 0.049488928171674156 0.03437570013753611 0 0.049374714289859498 0.035320392401385403 0 0.050053777258586347 0.034821023878983802 0 0.049488928171674156 0.03437570013753611 0 0.049374714289859498 0.035320392401385403 0 0.031812449946324123 0.034655029241462056 0 0.031542829533400381 0.035629799019108913 0 0.032052964188435951 0.035839610792596954 0 0.04180578423101973 0.034239274188069824 0 0.040371512171832963 0.035560571244657016 0 0.031542829533400381 0.035629799019108913 0 0.031692085369887546 0.03622815275945903 0 0.032052964188435951 0.035839610792596954 0 0.040371512171832963 0.035560571244657016 0 0.040390587717587807 0.035837592948099975 0 0.031542829533400381 0.035629799019108913 0 0.031682339980208862 0.035898723441461979 0 0.031692085369887546 0.03622815275945903 0 0.049371697778485261 0.034880756253641378 0 0.049374714289859498 0.035320392401385403 0 0.049294151432389854 0.035648891812567397 0 0.031682339980208862 0.035898723441461979 0 0.031692085369887546 0.03622815275945903 0 0.031836480006424389 0.036466667532311155 0 0.031692085369887546 0.03622815275945903 0 0.031836480006424389 0.036466667532311155 0 0.031468600885609536 0.036920822820519575 0 0.031836480006424389 0.036466667532311155 0 0.032010370576953544 0.036834701890339598 0 0.031468600885609536 0.036920822820519575 0 0.032010370576953544 0.036834701890339598 0 0.032533352165281457 0.037163160702772646 0 0.031468600885609536 0.036920822820519575 0 0.031836480006424389 0.036466667532311155 0 0.032010370576953544 0.036834701890339598 0 0.031945810099333005 0.036929693770601499 0 0.032533352165281457 0.037163160702772646 0 0.031994845630519804 0.037499321342145835 0 0.031945810099333005 0.036929693770601499 0 0.032010370576953544 0.036834701890339598 0 0.032533352165281457 0.037163160702772646 0 0.031945810099333005 0.036929693770601499 0 0.032533352165281457 0.037163160702772646 0 0.031994845630519804 0.037499321342145835 0 0.032237106246072997 0.038219815128254543 0 0.031994845630519804 0.037499321342145835 0 0.031507910355137704 0.037232944590858685 0 0.031524319845045431 0.038059982914709536 0 0.031507910355137704 0.037232944590858685 0 0.031154446874837396 0.037492165116934241 0 0.031524319845045431 0.038059982914709536 0 0.031994845630519804 0.037499321342145835 0 0.032237106246072997 0.038219815128254543 0 0.031524319845045431 0.038059982914709536 0 0.031994845630519804 0.037499321342145835 0 0.031945810099333005 0.036929693770601499 0 0.031507910355137704 0.037232944590858685 0 0.031945810099333005 0.036929693770601499 0 0.031507910355137704 0.037232944590858685 0 0.031553085525936324 0.036543767829579854 0 0.031682339980208862 0.035898723441461979 0 0.031836480006424389 0.036466667532311155 0 0.031553085525936324 0.036543767829579854 0 0.031836480006424389 0.036466667532311155 0 0.031945810099333005 0.036929693770601499 0 0.031553085525936324 0.036543767829579854 0 0.040390587717587807 0.035837592948099975 0 0.040557642266520755 0.036004278542861798 0 0.031682339980208862 0.035898723441461979 0 0.031553085525936324 0.036543767829579854 0 0.03115142287326924 0.03652906134447708 0 0.031553085525936324 0.036543767829579854 0 0.03115142287326924 0.03652906134447708 0 0.031109895034721925 0.036646740341935921 0 0.04866004251271052 0.035981344183706757 0 0.048887110357084214 0.035319550216312258 0 0.048923508044799807 0.036180215352780057 0 0.03115142287326924 0.03652906134447708 0 0.031109895034721925 0.036646740341935921 0 0.031438558506980727 0.036471535381336746 0 0.040557642266520755 0.036004278542861798 0 0.036905052963584387 0.037474105547706991 0 0.028794040879442651 0.037325341303343071 0 0.036905052963584387 0.037474105547706991 0 0.04866004251271052 0.035981344183706757 0 0.048923508044799807 0.036180215352780057 0 0.048701608724883445 0.036499104849542795 0 0.031109895034721925 0.036646740341935921 0 0.03045028874391531 0.038071147920371473 0 0.02892387708266117 0.038357127791851679 0 0.031507910355137704 0.037232944590858685 0 0.031109895034721925 0.036646740341935921 0 0.031154446874837396 0.037492165116934241 0 0.031507910355137704 0.037232944590858685 0 0.031553085525936324 0.036543767829579854 0 0.031109895034721925 0.036646740341935921 0 0.031109895034721925 0.036646740341935921 0 0.03045028874391531 0.038071147920371473 0 0.031154446874837396 0.037492165116934241 0 0.03045028874391531 0.038071147920371473 0 0.031154446874837396 0.037492165116934241 0 0.031524319845045431 0.038059982914709536 0 0.03045028874391531 0.038071147920371473 0 0.02892387708266117 0.038357127791851679 0 0.030702469741912784 0.039877004919567791 0 0.03045028874391531 0.038071147920371473 0 0.031217497697560121 0.038974669855609753 0 0.030702469741912784 0.039877004919567791 0 0.03045028874391531 0.038071147920371473 0 0.031217497697560121 0.038974669855609753 0 0.031524319845045431 0.038059982914709536 0 0.031217497697560121 0.038974669855609753 0 0.030702469741912784 0.039877004919567791 0 0.031457346323120791 0.039747624582722567 0 0.027623405691574478 0.040717552309323751 0 0.02892387708266117 0.038357127791851679 0 0.029294259965188578 0.041100124130038301 0 0.02892387708266117 0.038357127791851679 0 0.029294259965188578 0.041100124130038301 0 0.030702469741912784 0.039877004919567791 0 0.029294259965188578 0.041100124130038301 0 0.030702469741912784 0.039877004919567791 0 0.030941882612295177 0.041499773105238079 0 0.030702469741912784 0.039877004919567791 0 0.03133019665037421 0.040501598625280473 0 0.030941882612295177 0.041499773105238079 0 0.030702469741912784 0.039877004919567791 0 0.03133019665037421 0.040501598625280473 0 0.031457346323120791 0.039747624582722567 0 0.03133019665037421 0.040501598625280473 0 0.031609529960703001 0.041063743241422763 0 0.030941882612295177 0.041499773105238079 0 0.031937265813994982 0.040341480116557707 0 0.032862166518526248 0.039328154888151744 0 0.032341699927570966 0.041868236410482845 0 0.02960616952710025 0.041747535894687687 0 0.027559407842484399 0.045344389631948381 0 0.031609529960703001 0.041063743241422763 0 0.031937265813994982 0.040341480116557707 0 0.032341699927570966 0.041868236410482845 0 0.03133019665037421 0.040501598625280473 0 0.031609529960703001 0.041063743241422763 0 0.031937265813994982 0.040341480116557707 0 0.03133019665037421 0.040501598625280473 0 0.031937265813994982 0.040341480116557707 0 0.031457346323120791 0.039747624582722567 0 0.031937265813994982 0.040341480116557707 0 0.031457346323120791 0.039747624582722567 0 0.031919004120920753 0.039143028867298924 0 0.031937265813994982 0.040341480116557707 0 0.032862166518526248 0.039328154888151744 0 0.031919004120920753 0.039143028867298924 0 0.025716890097799972 0.04644757937510012 0 0.026076496658585496 0.044387020673595269 0 0.024845342992881877 0.047657840232570442 0 0.025716890097799972 0.04644757937510012 0 0.025592120985917136 0.046394300325087484 0 0.024172521172358463 0.046950193951783535 0 0.025716890097799972 0.04644757937510012 0 0.026076496658585496 0.044387020673595269 0 0.029397125120169326 0.043202032579142437 0 0.025845961233652699 0.046306714612147012 0 0.026819596847925307 0.044939312900144815 0 0.032533352165281457 0.037163160702772646 0 0.032862166518526248 0.039328154888151744 0 0.032237106246072997 0.038219815128254543 0 0.028708766725292018 0.040115986557360032 0 0.026076496658585496 0.044387020673595269 0 0.029397125120169326 0.043202032579142437 0 0.030570337396016105 0.038829655080970103 0 0.02960616952710025 0.041747535894687687 0 0.032237106246072997 0.038219815128254543 0 0.031524319845045431 0.038059982914709536 0 0.031919004120920753 0.039143028867298924 0 0.031217497697560121 0.038974669855609753 0 0.031524319845045431 0.038059982914709536 0 0.031919004120920753 0.039143028867298924 0 0.031217497697560121 0.038974669855609753 0 0.031457346323120791 0.039747624582722567 0 0.031919004120920753 0.039143028867298924 0 0.032862166518526248 0.039328154888151744 0 0.032237106246072997 0.038219815128254543 0 0.031919004120920753 0.039143028867298924 0 0.025473398069249649 0.047159695250752878 0 0.025433629477240222 0.047505688602691699 0 0.026686729242842863 0.046958428791552355 0 0.025473398069249649 0.047159695250752878 0 0.025045481708620514 0.047137358284292809 0 0.025077932239499206 0.047313399059887767 0 0.025473398069249649 0.047159695250752878 0 0.025350010554766905 0.046954455035442412 0 0.025045481708620514 0.047137358284292809 0 0.025473398069249649 0.047159695250752878 0 0.025350010554766905 0.046954455035442412 0 0.026086093932648192 0.046677021210552151 0 0.025350010554766905 0.046954455035442412 0 0.025045481708620514 0.047137358284292809 0 0.024934155983805856 0.047056424513511372 0 0.025045481708620514 0.047137358284292809 0 0.024934155983805856 0.047056424513511372 0 0.024639817216916549 0.047211659721206813 0 0.025045481708620514 0.047137358284292809 0 0.024839179347378084 0.04727203140453904 0 0.024639817216916549 0.047211659721206813 0 0.025045481708620514 0.047137358284292809 0 0.025077932239499206 0.047313399059887767 0 0.024839179347378084 0.04727203140453904 0 0.025077932239499206 0.047313399059887767 0 0.024839179347378084 0.04727203140453904 0 0.024877260133318504 0.047372713203437784 0 0.025077932239499206 0.047313399059887767 0 0.024877260133318504 0.047372713203437784 0 0.025200146044906533 0.047424824535305353 0 0.024640001281076514 0.047283935651867171 0 0.024839179347378084 0.04727203140453904 0 0.024877260133318504 0.047372713203437784 0 0.024640001281076514 0.047283935651867171 0 0.024839179347378084 0.04727203140453904 0 0.024639817216916549 0.047211659721206813 0 0.02464711377859722 0.047418131761807404 0 0.024530901998376532 0.04730827882161822 0 0.024877260133318504 0.047372713203437784 0 0.024640001281076514 0.047283935651867171 0 0.024530901998376532 0.04730827882161822 0 0.024877260133318504 0.047372713203437784 0 0.024567270321515226 0.047251893693798695 0 0.027559407842484399 0.045344389631948381 0 0.025716890097799972 0.04644757937510012 0 0.025592120985917136 0.046394300325087484 0 0.024845342992881877 0.047657840232570442 0 0.02464711377859722 0.047418131761807404 0 0.024877260133318504 0.047372713203437784 0 0.025327101943195308 0.047554537858523004 0 0.025366568822739608 0.047677850839984708 0 0.025433629477240222 0.047505688602691699 0 0.026686729242842863 0.046958428791552355 0 0.025473398069249649 0.047159695250752878 0 0.025433629477240222 0.047505688602691699 0 0.025291192541561137 0.04735129223434939 0 0.024877260133318504 0.047372713203437784 0 0.025327101943195308 0.047554537858523004 0 0.025200146044906533 0.047424824535305353 0 0.025473398069249649 0.047159695250752878 0 0.025077932239499206 0.047313399059887767 0 0.025291192541561137 0.04735129223434939 0 0.025327101943195308 0.047554537858523004 0 0.025200146044906533 0.047424824535305353 0 0.025433629477240222 0.047505688602691699 0 0.025200146044906533 0.047424824535305353 0 0.025433629477240222 0.047505688602691699 0 0.025291192541561137 0.04735129223434939 0 0.027559407842484399 0.045344389631948381 0 0.027126427358655343 0.046150957489751197 0 0.025077932239499206 0.047313399059887767 0 0.025200146044906533 0.047424824535305353 0 0.025291192541561137 0.04735129223434939 0 0.031609529960703001 0.041063743241422763 0 0.032341699927570966 0.041868236410482845 0 0.030941882612295177 0.041499773105238079 0 0.032341699927570966 0.041868236410482845 0 0.030941882612295177 0.041499773105238079 0 0.030290391439707683 0.043341178957927849 0 0.027559407842484399 0.045344389631948381 0 0.028711374533074492 0.044957224294867128 0 0.029294259965188578 0.041100124130038301 0 0.030941882612295177 0.041499773105238079 0 0.030290391439707683 0.043341178957927849 0 0.029294259965188578 0.041100124130038301 0 0.030290391439707683 0.043341178957927849 0 0.028232980729291705 0.042741443015231209 0 0.028711374533074492 0.044957224294867128 0 0.027889985997993149 0.045044234692183611 0 0.030290391439707683 0.043341178957927849 0 0.028007684676231451 0.044853779578333641 0 0.028232980729291705 0.042741443015231209 0 0.025473398069249649 0.047159695250752878 0 0.026686729242842863 0.046958428791552355 0 0.026086093932648192 0.046677021210552151 0 0.026686729242842863 0.046958428791552355 0 0.026086093932648192 0.046677021210552151 0 0.026933837786389549 0.045814300366895641 0 0.026933837786389549 0.045814300366895641 0 0.025926080023692868 0.046382826009001045 0 0.025573191792659655 0.046684366976321848 0 0.026086093932648192 0.046677021210552151 0 0.026933837786389549 0.045814300366895641 0 0.025573191792659655 0.046684366976321848 0 0.026686729242842863 0.046958428791552355 0 0.026933837786389549 0.045814300366895641 0 0.028007684676231451 0.044853779578333641 0 0.026933837786389549 0.045814300366895641 0 0.02785026847844391 0.045078852030427136 0 0.028007684676231451 0.044853779578333641 0 0.026933837786389549 0.045814300366895641 0 0.027363139606910787 0.045510791304121494 0 0.02785026847844391 0.045078852030427136 0 0.026933837786389549 0.045814300366895641 0 0.025926080023692868 0.046382826009001045 0 0.027363139606910787 0.045510791304121494 0 0.025926080023692868 0.046382826009001045 0 0.025573191792659655 0.046684366976321848 0 0.024899203533101072 0.04718328664950374 0 0.025350010554766905 0.046954455035442412 0 0.026086093932648192 0.046677021210552151 0 0.025573191792659655 0.046684366976321848 0 0.025350010554766905 0.046954455035442412 0 0.025573191792659655 0.046684366976321848 0 0.024934155983805856 0.047056424513511372 0 0.025573191792659655 0.046684366976321848 0 0.024934155983805856 0.047056424513511372 0 0.024899203533101072 0.04718328664950374 0 0.025926080023692868 0.046382826009001045 0 0.024899203533101072 0.04718328664950374 0 0.025102951980122971 0.047374992868632407 0 0.024899203533101072 0.04718328664950374 0 0.025102951980122971 0.047374992868632407 0 0.024863527930269812 0.04789191974025165 0 0.025102951980122971 0.047374992868632407 0 0.025211867204729198 0.048577375242947883 0 0.025001642186916338 0.048639875747181364 0 0.025102951980122971 0.047374992868632407 0 0.025001642186916338 0.048639875747181364 0 0.024863527930269812 0.04789191974025165 0 0.025926080023692868 0.046382826009001045 0 0.025102951980122971 0.047374992868632407 0 0.026508948800891132 0.045419216263339564 0 0.025102951980122971 0.047374992868632407 0 0.025211867204729198 0.048577375242947883 0 0.025324966751259684 0.048498027994680795 0 0.025275974531980508 0.047282642736847354 0 0.025983201483010282 0.046987356523101355 0 0.025211867204729198 0.048577375242947883 0 0.025655688587630853 0.048743258319766981 0 0.025324966751259684 0.048498027994680795 0 0.025211867204729198 0.048577375242947883 0 0.025001642186916338 0.048639875747181364 0 0.025336613548259324 0.049491905770935575 0 0.025001642186916338 0.048639875747181364 0 0.025336613548259324 0.049491905770935575 0 0.024706740826796813 0.049214989790511594 0 0.025336613548259324 0.049491905770935575 0 0.025655688587630853 0.048743258319766981 0 0.026061005771882778 0.049362027143751881 0 0.025211867204729198 0.048577375242947883 0 0.025336613548259324 0.049491905770935575 0 0.025655688587630853 0.048743258319766981 0 0.025655688587630853 0.048743258319766981 0 0.026061005771882778 0.049362027143751881 0 0.025897258011377156 0.048845626300823411 0 0.026061005771882778 0.049362027143751881 0 0.026961833480047291 0.050068590612265491 0 0.026044847834898931 0.049832677080288497 0 0.026961833480047291 0.050068590612265491 0 0.026845573156078505 0.049998719083963673 0 0.029339250466941379 0.050000074086846265 0 0.026061005771882778 0.049362027143751881 0 0.026961833480047291 0.050068590612265491 0 0.025897258011377156 0.048845626300823411 0 0.026961833480047291 0.050068590612265491 0 0.026845573156078505 0.049998719083963673 0 0.026044847834898931 0.049832677080288497 0 0.025336613548259324 0.049491905770935575 0 0.026044847834898931 0.049832677080288497 0 0.024356498999734615 0.049998742399850603 0 0.026845573156078505 0.049998719083963673 0 0.026044847834898931 0.049832677080288497 0 0.024356498999734615 0.049998742399850603 0 0.025336613548259324 0.049491905770935575 0 0.026061005771882778 0.049362027143751881 0 0.026044847834898931 0.049832677080288497 0 0.029943979296433568 0.051120818406033448 0 0.029339250466941379 0.050000074086846265 0 0.031830240116175725 0.049999985757310329 0 0.026961833480047291 0.050068590612265491 0 0.025588156225950259 0.0485383295117661 0 0.025897258011377156 0.048845626300823411 0 0.026961833480047291 0.050068590612265491 0 0.029943979296433568 0.051120818406033448 0 0.029339250466941379 0.050000074086846265 0 0.02699449370250101 0.050009715168822702 0 0.027973769679556795 0.049867678645325243 0 0.025655688587630853 0.048743258319766981 0 0.025897258011377156 0.048845626300823411 0 0.025684844407554076 0.048389256971427347 0 0.025588156225950259 0.0485383295117661 0 0.025897258011377156 0.048845626300823411 0 0.025684844407554076 0.048389256971427347 0 0.025588156225950259 0.0485383295117661 0 0.025684844407554076 0.048389256971427347 0 0.026592834846002861 0.047597293546457108 0 0.025684844407554076 0.048389256971427347 0 0.025324966751259684 0.048498027994680795 0 0.026093779705191111 0.048343521396526624 0 0.025655688587630853 0.048743258319766981 0 0.025684844407554076 0.048389256971427347 0 0.025324966751259684 0.048498027994680795 0 0.025926080023692868 0.046382826009001045 0 0.026508948800891132 0.045419216263339564 0 0.027363139606910787 0.045510791304121494 0 0.027363139606910787 0.045510791304121494 0 0.02781122965003599 0.045556313484055845 0 0.02785026847844391 0.045078852030427136 0 0.026508948800891132 0.045419216263339564 0 0.027363139606910787 0.045510791304121494 0 0.02781122965003599 0.045556313484055845 0 0.025983201483010282 0.046987356523101355 0 0.026846807515712893 0.046956872133478655 0 0.027442268261754974 0.045664803500113663 0 0.02781122965003599 0.045556313484055845 0 0.02785026847844391 0.045078852030427136 0 0.027442268261754974 0.045664803500113663 0 0.027318881639720731 0.045107338485258094 0 0.02785026847844391 0.045078852030427136 0 0.027442268261754974 0.045664803500113663 0 0.026758419660903365 0.046015531861287803 0 0.027318881639720731 0.045107338485258094 0 0.027442268261754974 0.045664803500113663 0 0.026895217248203346 0.047038071538596862 0 0.026758419660903365 0.046015531861287803 0 0.027442268261754974 0.045664803500113663 0 0.026895217248203346 0.047038071538596862 0 0.02781122965003599 0.045556313484055845 0 0.026895217248203346 0.047038071538596862 0 0.026093779705191111 0.048343521396526624 0 0.026592834846002861 0.047597293546457108 0 0.026801101606277352 0.047059043495824716 0 0.026846807515712893 0.046956872133478655 0 0.025684844407554076 0.048389256971427347 0 0.026093779705191111 0.048343521396526624 0 0.026592834846002861 0.047597293546457108 0 0.026895217248203346 0.047038071538596862 0 0.026592834846002861 0.047597293546457108 0 0.02647141280927302 0.047284433915002727 0 0.029052235870590113 0.049719553400307252 0 0.033434732156842978 0.049871157621987711 0 0.032638665591803 0.051870228764334059 0 0.034321062654421773 0.049999959473310727 0 0.035249518582363748 0.052627059517815565 0 0.032638665591803 0.051870228764334059 0 0.034321062654421773 0.049999959473310727 0 0.031830240116175725 0.049999985757310329 0 0.027973769679556795 0.049867678645325243 0 0.029052235870590113 0.049719553400307252 0 0.029943979296433568 0.051120818406033448 0 0.032638665591803 0.051870228764334059 0 0.031830240116175725 0.049999985757310329 0 0.036219264336464718 0.051499257640829722 0 0.036538246814204201 0.04999997191621109 0 0.03788766184133361 0.051611499422659017 0 0.03432402388263487 0.050005780516925301 0 0.033434732156842978 0.049871157621987711 0 0.03432134839091102 0.049999977349616129 0 0.036219264336464718 0.051499257640829722 0 0.036538246814204201 0.04999997191621109 0 0.03432134839091102 0.049999977349616129 0 0.036219264336464718 0.051499257640829722 0 0.035393802701859864 0.052704404011842919 0 0.036219264336464718 0.051499257640829722 0 0.035393802701859864 0.052704404011842919 0 0.03695373471025247 0.053179422863585152 0 0.036219264336464718 0.051499257640829722 0 0.03695373471025247 0.053179422863585152 0 0.03788766184133361 0.051611499422659017 0 0.033434732156842978 0.049871157621987711 0 0.037451101176604475 0.050138077352196581 0 0.038032286712544987 0.047129171380655657 0 0.03732000384904309 0.048189832965497205 0 0.038607067830064415 0.048579383803331232 0 0.036724286644450981 0.04674681796172192 0 0.038032286712544987 0.047129171380655657 0 0.03732000384904309 0.048189832965497205 0 0.033434732156842978 0.049871157621987711 0 0.030996720040276132 0.046119427565264097 0 0.02647141280927302 0.047284433915002727 0 0.026073226854247671 0.046139463187389824 0 0.026758419660903365 0.046015531861287803 0 0.026895217248203346 0.047038071538596862 0 0.02647141280927302 0.047284433915002727 0 0.026758419660903365 0.046015531861287803 0 0.026073226854247671 0.046139463187389824 0 0.026758419660903365 0.046015531861287803 0 0.026736212969938524 0.044935961586195741 0 0.026758419660903365 0.046015531861287803 0 0.026736212969938524 0.044935961586195741 0 0.027318881639720731 0.045107338485258094 0 0.030996720040276132 0.046119427565264097 0 0.040653603025281128 0.047568658669138827 0 0.026073226854247671 0.046139463187389824 0 0.025944141054932274 0.044706796216644765 0 0.026736212969938524 0.044935961586195741 0 0.03732000384904309 0.048189832965497205 0 0.037911385323666197 0.049613520034240619 0 0.038607067830064415 0.048579383803331232 0 0.040653603025281128 0.047568658669138827 0 0.043783061589419525 0.048577909874721735 0 0.049435998284898031 0.047991338648697555 0 0.048651783727913192 0.046496431533187159 0 0.048058078787125647 0.04796364694413284 0 0.040653603025281128 0.047568658669138827 0 0.048939983263166779 0.047964740780016189 0 0.048779087083217376 0.048547687855566186 0 0.048651783727913192 0.046496431533187159 0 0.050280279200461818 0.045994449685261528 0 0.040653603025281128 0.047568658669138827 0 0.038712659630373542 0.04433254996474055 0 0.048651783727913192 0.046496431533187159 0 0.049796960831639106 0.044106512342797617 0 0.048495152280063729 0.043945414418662003 0 0.048651783727913192 0.046496431533187159 0 0.050280279200461818 0.045994449685261528 0 0.049796960831639106 0.044106512342797617 0 0.025944141054932274 0.044706796216644765 0 0.026738547525674981 0.04317373093587426 0 0.026736212969938524 0.044935961586195741 0 0.026738547525674981 0.04317373093587426 0 0.026736212969938524 0.044935961586195741 0 0.027414712627308529 0.044378594577061406 0 0.027318881639720731 0.045107338485258094 0 0.027414712627308529 0.044378594577061406 0 0.02785026847844391 0.045078852030427136 0 0.027414712627308529 0.044378594577061406 0 0.02785026847844391 0.045078852030427136 0 0.028019070052315159 0.043900519893155202 0 0.026736212969938524 0.044935961586195741 0 0.027318881639720731 0.045107338485258094 0 0.027414712627308529 0.044378594577061406 0 0.02785026847844391 0.045078852030427136 0 0.028007684676231451 0.044853779578333641 0 0.028019070052315159 0.043900519893155202 0 0.026738547525674981 0.04317373093587426 0 0.027414712627308529 0.044378594577061406 0 0.028019070052315159 0.043900519893155202 0 0.026477188625732031 0.043291372583719609 0 0.035986528963038181 0.04130896609929529 0 0.038712659630373542 0.04433254996474055 0 0.035986528963038181 0.04130896609929529 0 0.026738547525674981 0.04317373093587426 0 0.028019070052315159 0.043900519893155202 0 0.028847742325642776 0.039378495900640326 0 0.028007684676231451 0.044853779578333641 0 0.028019070052315159 0.043900519893155202 0 0.026906424010486131 0.042979560733470354 0 0.028007684676231451 0.044853779578333641 0 0.028232980729291705 0.042741443015231209 0 0.026906424010486131 0.042979560733470354 0 0.027623405691574478 0.040717552309323751 0 0.029294259965188578 0.041100124130038301 0 0.028232980729291705 0.042741443015231209 0 0.027623405691574478 0.040717552309323751 0 0.028232980729291705 0.042741443015231209 0 0.026906424010486131 0.042979560733470354 0 0.047689843400088992 0.040274756358248509 0 0.035986528963038181 0.04130896609929529 0 0.051571113170460758 0.041773051368796554 0 0.051714087949279806 0.043240118501360725 0 0.050583806958325359 0.042405311966404721 0 0.038582097498777029 0.039697951511290762 0 0.038887519798128441 0.03957333665640151 0 0.038605019730492435 0.040059839153422296 0 0.032381345950878736 0.04067343188121119 0 0.035986528963038181 0.04130896609929529 0 0.047689843400088992 0.040274756358248509 0 0.051476076502105603 0.041782868905170231 0 0.051714087949279806 0.043240118501360725 0 0.050583806958325359 0.042405311966404721 0 0.049796960831639106 0.044106512342797617 0 0.049218545108225896 0.039371783517047378 0 0.049140878898210352 0.042286839734391464 0 0.047814604910868475 0.04152951004341144 0 0.050583806958325359 0.042405311966404721 0 0.049140878898210352 0.042286839734391464 0 0.049796960831639106 0.044106512342797617 0 0.049218545108225896 0.039371783517047378 0 0.050583806958325359 0.042405311966404721 0 0.049140878898210352 0.042286839734391464 0 0.049140878898210352 0.042286839734391464 0 0.049796960831639106 0.044106512342797617 0 0.048495152280063729 0.043945414418662003 0 0.050280279200461818 0.045994449685261528 0 0.051714087949279806 0.043240118501360725 0 0.049796960831639106 0.044106512342797617 0 0.04675580728583132 0.043250212037231846 0 0.047514269055071792 0.043002061357187524 0 0.047000345947432472 0.04142431382000903 0 0.04675580728583132 0.043250212037231846 0 0.045789382866819023 0.043320836225086173 0 0.046367206211544963 0.044989397846643638 0 0.04675580728583132 0.043250212037231846 0 0.047514269055071792 0.043002061357187524 0 0.047501001397778395 0.044901773982793408 0 0.048495152280063729 0.043945414418662003 0 0.047514269055071792 0.043002061357187524 0 0.047814604910868475 0.04152951004341144 0 0.048495152280063729 0.043945414418662003 0 0.047514269055071792 0.043002061357187524 0 0.047501001397778395 0.044901773982793408 0 0.047514269055071792 0.043002061357187524 0 0.047814604910868475 0.04152951004341144 0 0.047000345947432472 0.04142431382000903 0 0.049140878898210352 0.042286839734391464 0 0.048495152280063729 0.043945414418662003 0 0.047814604910868475 0.04152951004341144 0 0.047677198675159467 0.040109568761663258 0 0.047814604910868475 0.04152951004341144 0 0.047238344414765363 0.040494539399193834 0 0.046844878633424104 0.040192105308654795 0 0.047238344414765363 0.040494539399193834 0 0.047000345947432472 0.04142431382000903 0 0.047814604910868475 0.04152951004341144 0 0.047238344414765363 0.040494539399193834 0 0.047000345947432472 0.04142431382000903 0 0.04675580728583132 0.043250212037231846 0 0.047000345947432472 0.04142431382000903 0 0.046177131120155188 0.041699999564947611 0 0.047000345947432472 0.04142431382000903 0 0.046464177320124374 0.040230375938315223 0 0.046177131120155188 0.041699999564947611 0 0.046844878633424104 0.040192105308654795 0 0.047000345947432472 0.04142431382000903 0 0.046464177320124374 0.040230375938315223 0 0.046464177320124374 0.040230375938315223 0 0.045825105734453454 0.040021342935108568 0 0.046177131120155188 0.041699999564947611 0 0.045825105734453454 0.040021342935108568 0 0.046177131120155188 0.041699999564947611 0 0.044803502895772736 0.042533688107284209 0 0.045795123480409865 0.038206963802630049 0 0.044883279491466178 0.038289908280841362 0 0.047674103513344092 0.037407065586280888 0 0.045866786646479564 0.038120931859936237 0 0.047853853122042982 0.035956390048456729 0 0.045866786646479564 0.038120931859936237 0 0.045825105734453454 0.040021342935108568 0 0.042294735018955663 0.041205697532886894 0 0.045825105734453454 0.040021342935108568 0 0.044803502895772736 0.042533688107284209 0 0.042294735018955663 0.041205697532886894 0 0.044803502895772736 0.042533688107284209 0 0.042902213374986252 0.044391173379085005 0 0.042294735018955663 0.041205697532886894 0 0.044803502895772736 0.042533688107284209 0 0.045098362053190483 0.044752416126858929 0 0.042902213374986252 0.044391173379085005 0 0.04675580728583132 0.043250212037231846 0 0.046177131120155188 0.041699999564947611 0 0.045789382866819023 0.043320836225086173 0 0.046177131120155188 0.041699999564947611 0 0.044803502895772736 0.042533688107284209 0 0.045789382866819023 0.043320836225086173 0 0.044803502895772736 0.042533688107284209 0 0.045789382866819023 0.043320836225086173 0 0.045098362053190483 0.044752416126858929 0 0.045789382866819023 0.043320836225086173 0 0.045098362053190483 0.044752416126858929 0 0.046367206211544963 0.044989397846643638 0 0.045098362053190483 0.044752416126858929 0 0.045742174041385322 0.047116892260761406 0 0.046367206211544963 0.044989397846643638 0 0.045098362053190483 0.044752416126858929 0 0.042902213374986252 0.044391173379085005 0 0.044049192556763025 0.047272314859039988 0 0.042902213374986252 0.044391173379085005 0 0.044049192556763025 0.047272314859039988 0 0.041441440226032411 0.047292349450631634 0 0.044049192556763025 0.047272314859039988 0 0.043724569643678983 0.049079410833041778 0 0.041441440226032411 0.047292349450631634 0 0.044049192556763025 0.047272314859039988 0 0.044654517942968479 0.048556073734630507 0 0.043724569643678983 0.049079410833041778 0 0.044049192556763025 0.047272314859039988 0 0.045742174041385322 0.047116892260761406 0 0.044654517942968479 0.048556073734630507 0 0.045098362053190483 0.044752416126858929 0 0.044049192556763025 0.047272314859039988 0 0.045742174041385322 0.047116892260761406 0 0.045742174041385322 0.047116892260761406 0 0.044654517942968479 0.048556073734630507 0 0.045722891357814398 0.048940659783633718 0 0.045742174041385322 0.047116892260761406 0 0.046800157097504555 0.048045207765649571 0 0.047212201010610355 0.046681645070096214 0 0.045742174041385322 0.047116892260761406 0 0.046800157097504555 0.048045207765649571 0 0.045722891357814398 0.048940659783633718 0 0.046800157097504555 0.048045207765649571 0 0.047212201010610355 0.046681645070096214 0 0.048058078787125647 0.04796364694413284 0 0.045742174041385322 0.047116892260761406 0 0.047212201010610355 0.046681645070096214 0 0.046367206211544963 0.044989397846643638 0 0.047212201010610355 0.046681645070096214 0 0.046367206211544963 0.044989397846643638 0 0.047501001397778395 0.044901773982793408 0 0.04675580728583132 0.043250212037231846 0 0.046367206211544963 0.044989397846643638 0 0.047501001397778395 0.044901773982793408 0 0.048651783727913192 0.046496431533187159 0 0.048495152280063729 0.043945414418662003 0 0.047501001397778395 0.044901773982793408 0 0.048651783727913192 0.046496431533187159 0 0.047212201010610355 0.046681645070096214 0 0.047501001397778395 0.044901773982793408 0 0.048651783727913192 0.046496431533187159 0 0.047212201010610355 0.046681645070096214 0 0.048058078787125647 0.04796364694413284 0 0.049435998284898031 0.047991338648697555 0 0.048058078787125647 0.04796364694413284 0 0.048745899317373519 0.049360652512570692 0 0.048745899317373519 0.049360652512570692 0 0.047250342232717658 0.049261870255888816 0 0.047940483413919634 0.050730733659768851 0 0.048058078787125647 0.04796364694413284 0 0.048745899317373519 0.049360652512570692 0 0.047250342232717658 0.049261870255888816 0 0.046800157097504555 0.048045207765649571 0 0.047250342232717658 0.049261870255888816 0 0.045722891357814398 0.048940659783633718 0 0.047250342232717658 0.049261870255888816 0 0.046201625445910749 0.050387990733136004 0 0.045722891357814398 0.048940659783633718 0 0.046800157097504555 0.048045207765649571 0 0.048058078787125647 0.04796364694413284 0 0.047250342232717658 0.049261870255888816 0 0.042683661102050199 0.050921505389416956 0 0.042130193279788265 0.050829459103203863 0 0.042190588634401671 0.050475816113697079 0 0.044985628668201987 0.050788617431572453 0 0.041874409788635582 0.050331804533910729 0 0.047250342232717658 0.049261870255888816 0 0.046201625445910749 0.050387990733136004 0 0.047940483413919634 0.050730733659768851 0 0.038032286712544987 0.047129171380655657 0 0.038607067830064415 0.048579383803331232 0 0.03932791839333976 0.047526258228917595 0 0.043783061589419525 0.048577909874721735 0 0.041874409788635582 0.050331804533910729 0 0.037451101176604475 0.050138077352196581 0 0.041874409788635582 0.050331804533910729 0 0.03695373471025247 0.053179422863585152 0 0.03851304365638071 0.053645526644070116 0 0.03788766184133361 0.051611499422659017 0 0.03851304365638071 0.053645526644070116 0 0.03788766184133361 0.051611499422659017 0 0.039726114867441688 0.051831302599030148 0 0.042683661102050199 0.050921505389416956 0 0.042190588634401671 0.050475816113697079 0 0.042937699482886615 0.050675725747899206 0 0.041874409788635582 0.050331804533910729 0 0.040648329151872616 0.051472621908491993 0 0.040648329151872616 0.051472621908491993 0 0.040972774105750648 0.049999608618889142 0 0.039726114867441688 0.051831302599030148 0 0.038755205307771927 0.049999976799116948 0 0.040972109340036922 0.049999992074303064 0 0.036538246814204201 0.04999997191621109 0 0.03788766184133361 0.051611499422659017 0 0.038755205307771927 0.049999976799116948 0 0.03788766184133361 0.051611499422659017 0 0.039726114867441688 0.051831302599030148 0 0.038755205307771927 0.049999976799116948 0 0.04345524521466676 0.049999302976752841 0 0.043304736002735794 0.050650019738252762 0 0.044187856326365266 0.050507598798803954 0 0.04345524521466676 0.049999302976752841 0 0.042170149063007478 0.050489669589832524 0 0.043304736002735794 0.050650019738252762 0 0.04345524521466676 0.049999302976752841 0 0.042170149063007478 0.050489669589832524 0 0.04097677466378577 0.049999495404928936 0 0.042190588634401671 0.050475816113697079 0 0.042170149063007478 0.050489669589832524 0 0.04097677466378577 0.049999495404928936 0 0.042190588634401671 0.050475816113697079 0 0.042170149063007478 0.050489669589832524 0 0.042937699482886615 0.050675725747899206 0 0.042170149063007478 0.050489669589832524 0 0.042937699482886615 0.050675725747899206 0 0.043304736002735794 0.050650019738252762 0 0.042937699482886615 0.050675725747899206 0 0.043304736002735794 0.050650019738252762 0 0.043615462709985141 0.050743297298839536 0 0.043304736002735794 0.050650019738252762 0 0.044190239538411745 0.050738863130968787 0 0.044187856326365266 0.050507598798803954 0 0.043304736002735794 0.050650019738252762 0 0.043615462709985141 0.050743297298839536 0 0.044190239538411745 0.050738863130968787 0 0.043615462709985141 0.050743297298839536 0 0.043828594341405416 0.050764141109691768 0 0.044190239538411745 0.050738863130968787 0 0.043615462709985141 0.050743297298839536 0 0.043828594341405416 0.050764141109691768 0 0.044000954636213521 0.050482460817629138 0 0.042683661102050199 0.050921505389416956 0 0.042937699482886615 0.050675725747899206 0 0.044000954636213521 0.050482460817629138 0 0.044985628668201987 0.050788617431572453 0 0.043713127678283337 0.050405962893502729 0 0.042937699482886615 0.050675725747899206 0 0.043615462709985141 0.050743297298839536 0 0.044000954636213521 0.050482460817629138 0 0.046201625445910749 0.050387990733136004 0 0.045722891357814398 0.048940659783633718 0 0.044000954636213521 0.050482460817629138 0 0.044654517942968479 0.048556073734630507 0 0.045722891357814398 0.048940659783633718 0 0.044000954636213521 0.050482460817629138 0 0.043828594341405416 0.050764141109691768 0 0.043724569643678983 0.049079410833041778 0 0.041441440226032411 0.047292349450631634 0 0.043828594341405416 0.050764141109691768 0 0.044000954636213521 0.050482460817629138 0 0.043724569643678983 0.049079410833041778 0 0.044654517942968479 0.048556073734630507 0 0.044000954636213521 0.050482460817629138 0 0.043724569643678983 0.049079410833041778 0 0.043828594341405416 0.050764141109691768 0 0.045234195989773983 0.050916636717340487 0 0.045900166362375087 0.05099639391019558 0 0.049995739814431665 0.050000527711580693 0 0.050198605190057172 0.044590565725219196 0 0.050000592567509917 0.043337838369724942 0 0.043884607862579535 0.050286044013412447 0 0.043248229932195702 0.049795623215748985 0 0.045926188216350881 0.050965675299896866 0 0.046169310102129713 0.050922448836669569 0 0.04604379965455959 0.050909949284267064 0 0.045234195989773983 0.050916636717340487 0 0.045926188216350881 0.050965675299896866 0 0.04604379965455959 0.050909949284267064 0 0.045234195989773983 0.050916636717340487 0 0.045926188216350881 0.050965675299896866 0 0.045322761787882589 0.050780330912460703 0 0.043828594341405416 0.050764141109691768 0 0.045234195989773983 0.050916636717340487 0 0.044190239538411745 0.050738863130968787 0 0.045234195989773983 0.050916636717340487 0 0.044190239538411745 0.050738863130968787 0 0.045322761787882589 0.050780330912460703 0 0.044190239538411745 0.050738863130968787 0 0.044187856326365266 0.050507598798803954 0 0.045322761787882589 0.050780330912460703 0 0.045926188216350881 0.050965675299896866 0 0.045322761787882589 0.050780330912460703 0 0.046551643788536157 0.050748716074129868 0 0.045322761787882589 0.050780330912460703 0 0.045939963077163311 0.049999363658283023 0 0.046551643788536157 0.050748716074129868 0 0.044187856326365266 0.050507598798803954 0 0.045322761787882589 0.050780330912460703 0 0.045939963077163311 0.049999363658283023 0 0.04345524521466676 0.049999302976752841 0 0.044187856326365266 0.050507598798803954 0 0.045939963077163311 0.049999363658283023 0 0.049995739814431665 0.050000527711580693 0 0.050754099022941847 0.047345567826018502 0 0.050198605190057172 0.044590565725219196 0 0.049995739814431665 0.050000527711580693 0 0.048430491312904632 0.049998164318203218 0 0.050754099022941847 0.047345567826018502 0 0.048423175621187704 0.049998594873421856 0 0.04859733106911629 0.049213971627148384 0 0.045939963077163311 0.049999363658283023 0 0.048419594000986284 0.049999625369345116 0 0.046551643788536157 0.050748716074129868 0 0.048419594000986284 0.049999625369345116 0 0.046551643788536157 0.050748716074129868 0 0.046749313456186256 0.050903789560368375 0 0.046551643788536157 0.050748716074129868 0 0.046749313456186256 0.050903789560368375 0 0.046346926175755782 0.050949288464424071 0 0.046749313456186256 0.050903789560368375 0 0.046346926175755782 0.050949288464424071 0 0.046157475483755747 0.050929291237336603 0 0.04859733106911629 0.049213971627148384 0 0.049124975273474106 0.046281451160523811 0 0.045926188216350881 0.050965675299896866 0 0.046551643788536157 0.050748716074129868 0 0.046346926175755782 0.050949288464424071 0 0.045926188216350881 0.050965675299896866 0 0.046346926175755782 0.050949288464424071 0 0.046169310102129713 0.050922448836669569 0 0.046346926175755782 0.050949288464424071 0 0.046169310102129713 0.050922448836669569 0 0.046157475483755747 0.050929291237336603 0 0.050754099022941847 0.047345567826018502 0 0.050198605190057172 0.044590565725219196 0 0.050665524626303089 0.044133169740597659 0 0.050198605190057172 0.044590565725219196 0 0.05065888750700439 0.044137575045414004 0 0.050000592567509917 0.043337838369724942 0 0.050155169888083106 0.045052060029022491 0 0.049124975273474106 0.046281451160523811 0 0.050000592567509917 0.043337838369724942 0 0.050201987192280285 0.041769831997664118 0 0.049998692293153742 0.03855014749110651 0 0.049124975273474106 0.046281451160523811 0 0.050397784493790752 0.040890961429678394 0 0.050347295657538878 0.043173628970665651 0 0.050201987192280285 0.041769831997664118 0 0.051298968720814887 0.042220185020289597 0 0.05065888750700439 0.044137575045414004 0 0.050000592567509917 0.043337838369724942 0 0.050201987192280285 0.041769831997664118 0 0.050201987192280285 0.041769831997664118 0 0.051298968720814887 0.042220185020289597 0 0.051212494407755313 0.040086483890182802 0 0.051298968720814887 0.042220185020289597 0 0.052574712870217054 0.040853889014516753 0 0.051212494407755313 0.040086483890182802 0 0.046169310102129713 0.050922448836669569 0 0.04614514149978706 0.050468644285539994 0 0.04604379965455959 0.050909949284267064 0 0.046169310102129713 0.050922448836669569 0 0.046157475483755747 0.050929291237336603 0 0.04614514149978706 0.050468644285539994 0 0.049124975273474106 0.046281451160523811 0 0.048824666347785775 0.046839334604034409 0 0.045234195989773983 0.050916636717340487 0 0.04604379965455959 0.050909949284267064 0 0.045900166362375087 0.05099639391019558 0 0.043248229932195702 0.049795623215748985 0 0.047201316988899865 0.042496826674767736 0 0.042902213374986252 0.044391173379085005 0 0.041441440226032411 0.047292349450631634 0 0.040001193568486679 0.043621013366366708 0 0.048824666347785775 0.046839334604034409 0 0.047201316988899865 0.042496826674767736 0 0.04604379965455959 0.050909949284267064 0 0.045900166362375087 0.05099639391019558 0 0.046671546709589541 0.049743506241186834 0 0.04614514149978706 0.050468644285539994 0 0.04604379965455959 0.050909949284267064 0 0.046671546709589541 0.049743506241186834 0 0.047201316988899865 0.042496826674767736 0 0.05120323426954624 0.036758396463583788 0 0.052574712870217054 0.040853889014516753 0 0.052193083451452474 0.038692184682165461 0 0.051212494407755313 0.040086483890182802 0 0.048933285808896429 0.035063590252021756 0 0.047853853122042982 0.035956390048456729 0 0.049928325200600379 0.036170359671762305 0 0.047201316988899865 0.042496826674767736 0 0.044883279491466178 0.038289908280841362 0 0.042902213374986252 0.044391173379085005 0 0.040001193568486679 0.043621013366366708 0 0.042294735018955663 0.041205697532886894 0 0.047674103513344092 0.037407065586280888 0 0.048937423450982877 0.037005589119579956 0 0.047853853122042982 0.035956390048456729 0 0.048937423450982877 0.037005589119579956 0 0.047853853122042982 0.035956390048456729 0 0.049928325200600379 0.036170359671762305 0 0.052193083451452474 0.038692184682165461 0 0.050913345490822617 0.037893201287970038 0 0.051212494407755313 0.040086483890182802 0 0.050201987192280285 0.041769831997664118 0 0.049998692293153742 0.03855014749110651 0 0.051212494407755313 0.040086483890182802 0 0.049998692293153742 0.03855014749110651 0 0.050913345490822617 0.037893201287970038 0 0.051212494407755313 0.040086483890182802 0 0.0075880757940118048 0.041927996213299276 0 0.0080150365173396534 0.041659226459452262 0 0.0080766395584699162 0.042286816599880969 0 0.0075880757940118048 0.041927996213299276 0 0.0080150365173396534 0.041659226459452262 0 0.0083051414411389034 0.040447289408528056 0 0.0080150365173396534 0.041659226459452262 0 0.0080766395584699162 0.042286816599880969 0 0.0075112268336205192 0.042435474971626981 0 0.0080150365173396534 0.041659226459452262 0 0.0075301378790781914 0.042406425158417652 0 0.0080427388980896051 0.042148577405086173 0 0.0080150365173396534 0.041659226459452262 0 0.0083051414411389034 0.040447289408528056 0 0.0080427388980896051 0.042148577405086173 0 0.0091487387511163046 0.040800074583191626 0 0.0080016178307178807 0.037322974066510334 0 0.0083051414411389034 0.040447289408528056 0 0.0059336221124172131 0.040797158092900784 0 0.0061793285912300185 0.037244815867165576 0 0.0059336221124172131 0.040797158092900784 0 0.0061793285912300185 0.037244815867165576 0 0.002868524988284063 0.039283994660076114 0 0.0059336221124172131 0.040797158092900784 0 0.0057874704960943621 0.042807305426700082 0 0.0038029523134525405 0.041709604978557954 0 0.0075880757940118048 0.041927996213299276 0 0.0083051414411389034 0.040447289408528056 0 0.0059336221124172131 0.040797158092900784 0 0.0075880757940118048 0.041927996213299276 0 0.0059336221124172131 0.040797158092900784 0 0.0057874704960943621 0.042807305426700082 0 0.0075880757940118048 0.041927996213299276 0 0.0057874704960943621 0.042807305426700082 0 0.0073371576785781871 0.043337713369051845 0 0.0057874704960943621 0.042807305426700082 0 0.0041554016670246521 0.044551499889325323 0 0.0038029523134525405 0.041709604978557954 0 0.0057874704960943621 0.042807305426700082 0 0.0041554016670246521 0.044551499889325323 0 0.0055413813923354989 0.045176382783619261 0 0.0057874704960943621 0.042807305426700082 0 0.0055413813923354989 0.045176382783619261 0 0.0073371576785781871 0.043337713369051845 0 0.0055413813923354989 0.045176382783619261 0 0.0069979120607976293 0.044933947931297347 0 0.0073371576785781871 0.043337713369051845 0 0.0069979120607976293 0.044933947931297347 0 0.0073371576785781871 0.043337713369051845 0 0.0085425632573500835 0.043568424815217457 0 0.0075880757940118048 0.041927996213299276 0 0.0073371576785781871 0.043337713369051845 0 0.0080766395584699162 0.042286816599880969 0 0.0073371576785781871 0.043337713369051845 0 0.0080766395584699162 0.042286816599880969 0 0.0085425632573500835 0.043568424815217457 0 0.0027878223250663286 0.049521140725407684 0 0.0035631165820141221 0.049080766155819834 0 0.0030676055787463167 0.047113101515973713 0 0.0056548078665001941 0.046527353098808392 0 0.0055630832009274126 0.044760181877629451 0 0.0027878223250663286 0.049521140725407684 0 0.0035631165820141221 0.049080766155819834 0 0.0031994191911827344 0.050037556171003188 0 0.0035631165820141221 0.049080766155819834 0 0.0051468464810213114 0.047926640691483807 0 0.0041218615637508907 0.050882408179162328 0 0.0051468464810213114 0.047926640691483807 0 0.0055601525619013445 0.045715566337737719 0 0.0030676055787463167 0.047113101515973713 0 0.0035631165820141221 0.049080766155819834 0 0.0051468464810213114 0.047926640691483807 0 0.0030676055787463167 0.047113101515973713 0 0.0055601525619013445 0.045715566337737719 0 0.0030676055787463167 0.047113101515973713 0 0.006228769690719933 0.043230936099255247 0 0.0080766395584699162 0.042286816599880969 0 0.0085425632573500835 0.043568424815217457 0 0.0078620038637423079 0.04233207050520691 0 0.0032861684851270547 0.050910707609187748 0 0.0028087606385823263 0.050452755576875279 0 0.0041218615637508907 0.050882408179162328 0 0.0032861684851270547 0.050910707609187748 0 0.0028087606385823263 0.050452755576875279 0 0.0036162623771794724 0.049900334661389024 0 0.0051468464810213114 0.047926640691483807 0 0.0074956259951290361 0.04754776335975483 0 0.0041218615637508907 0.050882408179162328 0 0.0051168201910244578 0.048827394933585989 0 0.0043054123164006477 0.050610409736121242 0 0.0066193245696769673 0.045754362042651889 0 0.0074956259951290361 0.04754776335975483 0 0.0076828661689909445 0.044488344156223193 0 0.0051468464810213114 0.047926640691483807 0 0.0066193245696769673 0.045754362042651889 0 0.0074956259951290361 0.04754776335975483 0 0.0051468464810213114 0.047926640691483807 0 0.0055601525619013445 0.045715566337737719 0 0.0066193245696769673 0.045754362042651889 0 0.0028087606385823263 0.050452755576875279 0 0.0034931585839606716 0.048796677664168668 0 0.0025877083692498579 0.047565393861097496 0 0.0051168201910244578 0.048827394933585989 0 0.005916767752249359 0.045195120747578199 0 0.0028087606385823263 0.050452755576875279 0 0.0036162623771794724 0.049900334661389024 0 0.0034931585839606716 0.048796677664168668 0 0.0074956259951290361 0.04754776335975483 0 0.0092556152614497404 0.042882971815223825 0 0.0076828661689909445 0.044488344156223193 0 0.0034931585839606716 0.048796677664168668 0 0.0025877083692498579 0.047565393861097496 0 0.0038475741127521495 0.047490015291198409 0 0.0092556152614497404 0.042882971815223825 0 0.0079235838095582396 0.042755259815326414 0 0.0076828661689909445 0.044488344156223193 0 0.0092556152614497404 0.042882971815223825 0 0.0079235838095582396 0.042755259815326414 0 0.0081967289564526761 0.041657119780596046 0 0.0079235838095582396 0.042755259815326414 0 0.0070231766645845722 0.043514954394941074 0 0.0064896207598534872 0.042722267858934258 0 0.0079235838095582396 0.042755259815326414 0 0.0076828661689909445 0.044488344156223193 0 0.0070231766645845722 0.043514954394941074 0 0.0066193245696769673 0.045754362042651889 0 0.0076828661689909445 0.044488344156223193 0 0.0070231766645845722 0.043514954394941074 0 0.0055601525619013445 0.045715566337737719 0 0.0070231766645845722 0.043514954394941074 0 0.006228769690719933 0.043230936099255247 0 0.0055601525619013445 0.045715566337737719 0 0.0066193245696769673 0.045754362042651889 0 0.0070231766645845722 0.043514954394941074 0 0.0078218669643363194 0.042695168464367272 0 0.0062717602652368034 0.041821114001716946 0 0.0079235838095582396 0.042755259815326414 0 0.0073257988005006897 0.040795705974265406 0 0.0056805518696992126 0.040891449201370299 0 0.0064030111047115 0.040123303091588083 0 0.0073257988005006897 0.040795705974265406 0 0.0056805518696992126 0.040891449201370299 0 0.0064030111047115 0.040123303091588083 0 0.0073257988005006897 0.040795705974265406 0 0.0076164186989837656 0.039404929657835264 0 0.0073257988005006897 0.040795705974265406 0 0.0083952953820565345 0.04024778884596239 0 0.0081967289564526761 0.041657119780596046 0 0.0073257988005006897 0.040795705974265406 0 0.0083952953820565345 0.04024778884596239 0 0.0076164186989837656 0.039404929657835264 0 0.0079235838095582396 0.042755259815326414 0 0.0073257988005006897 0.040795705974265406 0 0.0081967289564526761 0.041657119780596046 0 0.0025877083692498579 0.047565393861097496 0 0.0030091811091252306 0.044303672332230967 0 0.0039746367989149491 0.046227517718235134 0 0.0092556152614497404 0.042882971815223825 0 0.0083952953820565345 0.04024778884596239 0 0.0081967289564526761 0.041657119780596046 0 0.005916767752249359 0.045195120747578199 0 0.0064309493479721138 0.041450066654127427 0 0.0092556152614497404 0.042882971815223825 0 0.0083952953820565345 0.04024778884596239 0 0.0099026443158386213 0.038527504835228939 0 0.0025877083692498579 0.047565393861097496 0 0.0038475741127521495 0.047490015291198409 0 0.0039746367989149491 0.046227517718235134 0 0.0080766395584699162 0.042286816599880969 0 0.0078620038637423079 0.04233207050520691 0 0.0075112268336205192 0.042435474971626981 0 0.0078620038637423079 0.04233207050520691 0 0.0075112268336205192 0.042435474971626981 0 0.006228769690719933 0.043230936099255247 0 0.0055630832009274126 0.044760181877629451 0 0.0062062420216273916 0.04339053741694289 0 0.0075112268336205192 0.042435474971626981 0 0.006228769690719933 0.043230936099255247 0 0.0064896207598534872 0.042722267858934258 0 0.0070231766645845722 0.043514954394941074 0 0.006228769690719933 0.043230936099255247 0 0.0064896207598534872 0.042722267858934258 0 0.0056805518696992126 0.040891449201370299 0 0.0038186182822716377 0.039797838845303926 0 0.0053580227612383419 0.039802046487806594 0 0.0062717602652368034 0.041821114001716946 0 0.0052307183869448257 0.041226528842059164 0 0.0064030111047115 0.040123303091588083 0 0.0056805518696992126 0.040891449201370299 0 0.0053580227612383419 0.039802046487806594 0 0.0080150365173396534 0.041659226459452262 0 0.0075112268336205192 0.042435474971626981 0 0.0075301378790781914 0.042406425158417652 0 0.0075112268336205192 0.042435474971626981 0 0.0064896207598534872 0.042722267858934258 0 0.0075301378790781914 0.042406425158417652 0 0.0038186182822716377 0.039797838845303926 0 0.0037127785798541884 0.038474658952884523 0 0.005230606959775605 0.038713664790185016 0 0.0064703267333697584 0.039875063302722988 0 0.0063251850885915175 0.036975203059225234 0 0.0064030111047115 0.040123303091588083 0 0.005230606959775605 0.038713664790185016 0 0.006253880286143528 0.037135533497582834 0 0.0038186182822716377 0.039797838845303926 0 0.0053580227612383419 0.039802046487806594 0 0.005230606959775605 0.038713664790185016 0 0.0064030111047115 0.040123303091588083 0 0.0053580227612383419 0.039802046487806594 0 0.005230606959775605 0.038713664790185016 0 0.005230606959775605 0.038713664790185016 0 0.006253880286143528 0.037135533497582834 0 0.0039098120756609137 0.036529758062273508 0 0.0037127785798541884 0.038474658952884523 0 0.005230606959775605 0.038713664790185016 0 0.0039098120756609137 0.036529758062273508 0 0.0083952953820565345 0.04024778884596239 0 0.0099026443158386213 0.038527504835228939 0 0.0076164186989837656 0.039404929657835264 0 0.0064030111047115 0.040123303091588083 0 0.0066387555716374393 0.036253972611821929 0 0.0077018682995567949 0.038032551009517232 0 0.0099026443158386213 0.038527504835228939 0 0.0077018682995567949 0.038032551009517232 0 0.0076164186989837656 0.039404929657835264 0 0.0064030111047115 0.040123303091588083 0 0.0077018682995567949 0.038032551009517232 0 0.0076164186989837656 0.039404929657835264 0 0.0066387555716374393 0.036253972611821929 0 0.0088995885121811932 0.036225365162651527 0 0.0080433212452072737 0.035083191984882307 0 0.0066387555716374393 0.036253972611821929 0 0.0077018682995567949 0.038032551009517232 0 0.0088995885121811932 0.036225365162651527 0 0.0099026443158386213 0.038527504835228939 0 0.0077018682995567949 0.038032551009517232 0 0.0088995885121811932 0.036225365162651527 0 0.0099026443158386213 0.038527504835228939 0 0.0088995885121811932 0.036225365162651527 0 0.0096148180534068751 0.035576302813060998 0 0.0064309493479721138 0.041450066654127427 0 0.0065874378520173063 0.038425163666672403 0 0.0088995885121811932 0.036225365162651527 0 0.0096148180534068751 0.035576302813060998 0 0.0084991371789694802 0.034455653630618185 0 0.0088995885121811932 0.036225365162651527 0 0.0080433212452072737 0.035083191984882307 0 0.0098948427382390264 0.033003687827323644 0 0.0089303291287650723 0.035979931389128417 0 0.0091392573751467553 0.033758856394192648 0 0.0085748374837896369 0.033625399251300869 0 0.0080433212452072737 0.035083191984882307 0 0.0098948427382390264 0.033003687827323644 0 0.0066387555716374393 0.036253972611821929 0 0.0080433212452072737 0.035083191984882307 0 0.007918940350338478 0.033276725558478534 0 0.0085748374837896369 0.033625399251300869 0 0.0080433212452072737 0.035083191984882307 0 0.007918940350338478 0.033276725558478534 0 0.007918940350338478 0.033276725558478534 0 0.0083184256177527612 0.032473675473925025 0 0.0087440598835735409 0.032832741318022308 0 0.007918940350338478 0.033276725558478534 0 0.0078434771142242132 0.032685984146250673 0 0.0072646911523830213 0.032701685603431084 0 0.007918940350338478 0.033276725558478534 0 0.0078434771142242132 0.032685984146250673 0 0.0083184256177527612 0.032473675473925025 0 0.0078434771142242132 0.032685984146250673 0 0.0083184256177527612 0.032473675473925025 0 0.0077869391924177871 0.032339698348274631 0 0.0084584779551060713 0.031999900357701061 0 0.0083184256177527612 0.032473675473925025 0 0.0077869391924177871 0.032339698348274631 0 0.0084584779551060713 0.031999900357701061 0 0.0083184256177527612 0.032473675473925025 0 0.0090390671990027757 0.03192082678528553 0 0.0083184256177527612 0.032473675473925025 0 0.0090390671990027757 0.03192082678528553 0 0.0087440598835735409 0.032832741318022308 0 0.0090390671990027757 0.03192082678528553 0 0.0087440598835735409 0.032832741318022308 0 0.0098948427382390264 0.033003687827323644 0 0.0085748374837896369 0.033625399251300869 0 0.0087440598835735409 0.032832741318022308 0 0.0098948427382390264 0.033003687827323644 0 0.0085748374837896369 0.033625399251300869 0 0.007918940350338478 0.033276725558478534 0 0.0087440598835735409 0.032832741318022308 0 0.0096148180534068751 0.035576302813060998 0 0.0084991371789694802 0.034455653630618185 0 0.0087196733788227586 0.033948156972255429 0 0.0080024722951351004 0.033446300443106772 0 0.0084991371789694802 0.034455653630618185 0 0.0087196733788227586 0.033948156972255429 0 0.0095239465062953062 0.031346740509700044 0 0.0096661694153417459 0.031879576704605714 0 0.009717902664917278 0.030983221689259439 0 0.0095239465062953062 0.031346740509700044 0 0.0096661694153417459 0.031879576704605714 0 0.0093434647064433891 0.031491972677132475 0 0.0063251850885915175 0.036975203059225234 0 0.0077040121511008763 0.032524643419323457 0 0.0066387555716374393 0.036253972611821929 0 0.007918940350338478 0.033276725558478534 0 0.0072646911523830213 0.032701685603431084 0 0.0064201645475543394 0.034061014094115612 0 0.0077040121511008763 0.032524643419323457 0 0.006253880286143528 0.037135533497582834 0 0.0039098120756609137 0.036529758062273508 0 0.0060661075402626118 0.034113742984728156 0 0.0095239465062953062 0.031346740509700044 0 0.009717902664917278 0.030983221689259439 0 0.0094858869205796028 0.031026826502254252 0 0.0086648607162940761 0.031315977056759467 0 0.0075002222672910374 0.032523595136610434 0 0.0077869391924177871 0.032339698348274631 0 0.0078434771142242132 0.032685984146250673 0 0.0072646911523830213 0.032701685603431084 0 0.0077869391924177871 0.032339698348274631 0 0.0077040121511008763 0.032524643419323457 0 0.0076990579394547037 0.032511824438733003 0 0.009345868404747229 0.030714530871186013 0 0.009717902664917278 0.030983221689259439 0 0.0094858869205796028 0.031026826502254252 0 0.009345868404747229 0.030714530871186013 0 0.0094858869205796028 0.031026826502254252 0 0.0093695870807056717 0.031034190311204565 0 0.0095239465062953062 0.031346740509700044 0 0.0094858869205796028 0.031026826502254252 0 0.0093695870807056717 0.031034190311204565 0 0.0095239465062953062 0.031346740509700044 0 0.0093695870807056717 0.031034190311204565 0 0.0093434647064433891 0.031491972677132475 0 0.0093695870807056717 0.031034190311204565 0 0.0090864118946455043 0.031038758775112228 0 0.0093434647064433891 0.031491972677132475 0 0.0092397682613752571 0.030702555498710652 0 0.0093695870807056717 0.031034190311204565 0 0.0090864118946455043 0.031038758775112228 0 0.0088274505340247538 0.030725918630982847 0 0.0090864118946455043 0.031038758775112228 0 0.0086256764874878128 0.031264223648205823 0 0.0090864118946455043 0.031038758775112228 0 0.0091253715908041801 0.032061584905493871 0 0.0086256764874878128 0.031264223648205823 0 0.0091253715908041801 0.032061584905493871 0 0.0082573850987071925 0.031893373416065032 0 0.0086256764874878128 0.031264223648205823 0 0.0090864118946455043 0.031038758775112228 0 0.0091253715908041801 0.032061584905493871 0 0.0093434647064433891 0.031491972677132475 0 0.0096661694153417459 0.031879576704605714 0 0.0091253715908041801 0.032061584905493871 0 0.0093434647064433891 0.031491972677132475 0 0.0096661694153417459 0.031879576704605714 0 0.0091253715908041801 0.032061584905493871 0 0.009246824742570289 0.033044442178559605 0 0.0083051414411389034 0.040447289408528056 0 0.013075618706630435 0.035766034352000424 0 0.0084395644598257852 0.033180131729630989 0 0.0037127785798541884 0.038474658952884523 0 0.0039098120756609137 0.036529758062273508 0 0.0019096415746775377 0.038849332352531518 0 0.0064201645475543394 0.034061014094115612 0 0.0080016178307178807 0.037322974066510334 0 0.0091253715908041801 0.032061584905493871 0 0.0084395644598257852 0.033180131729630989 0 0.0082573850987071925 0.031893373416065032 0 0.0091253715908041801 0.032061584905493871 0 0.009246824742570289 0.033044442178559605 0 0.0084395644598257852 0.033180131729630989 0 0.0080016178307178807 0.037322974066510334 0 0.0095342497125670157 0.032690559420069688 0 0.0052307183869448257 0.041226528842059164 0 0.0080016178307178807 0.037322974066510334 0 0.0038186182822716377 0.039797838845303926 0 0.0037127785798541884 0.038474658952884523 0 0.0019096415746775377 0.038849332352531518 0 0.0083051414411389034 0.040447289408528056 0 0.0061793285912300185 0.037244815867165576 0 0.0084395644598257852 0.033180131729630989 0 0.0061793285912300185 0.037244815867165576 0 0.0068437253182806763 0.032550458917026778 0 0.0027921192308008572 0.036158444485238118 0 0.0061793285912300185 0.037244815867165576 0 0.0084395644598257852 0.033180131729630989 0 0.0068437253182806763 0.032550458917026778 0 0.0084395644598257852 0.033180131729630989 0 0.0068437253182806763 0.032550458917026778 0 0.0082573850987071925 0.031893373416065032 0 0.0068437253182806763 0.032550458917026778 0 0.0075064411355373296 0.031856661755622559 0 0.0076437346043209797 0.031910590643753574 0 0.0075064411355373296 0.031856661755622559 0 0.008027018778672625 0.031338280700915405 0 0.0078299823831923694 0.031509331680054223 0 0.0068437253182806763 0.032550458917026778 0 0.0075064411355373296 0.031856661755622559 0 0.0082573850987071925 0.031893373416065032 0 0.0075064411355373296 0.031856661755622559 0 0.0082573850987071925 0.031893373416065032 0 0.008027018778672625 0.031338280700915405 0 0.0082573850987071925 0.031893373416065032 0 0.0086256764874878128 0.031264223648205823 0 0.008027018778672625 0.031338280700915405 0 0.0086256764874878128 0.031264223648205823 0 0.0084520079272880598 0.03087256789650266 0 0.008027018778672625 0.031338280700915405 0 0.0088274505340247538 0.030725918630982847 0 0.0086256764874878128 0.031264223648205823 0 0.0084520079272880598 0.03087256789650266 0 0.008027018778672625 0.031338280700915405 0 0.0083162304704870356 0.030796892072586804 0 0.0081080981777935067 0.031054764668707425 0 0.0084520079272880598 0.03087256789650266 0 0.008027018778672625 0.031338280700915405 0 0.0083162304704870356 0.030796892072586804 0 0.008027018778672625 0.031338280700915405 0 0.0081080981777935067 0.031054764668707425 0 0.0078299823831923694 0.031509331680054223 0 0.0082923209980861022 0.030723227316880253 0 0.0083162304704870356 0.030796892072586804 0 0.0081080981777935067 0.031054764668707425 0 0.0082923209980861022 0.030723227316880253 0 0.0081080981777935067 0.031054764668707425 0 0.0082436873118722862 0.030797062998687192 0 0.0081080981777935067 0.031054764668707425 0 0.0080818908417666403 0.03115305843704208 0 0.0082436873118722862 0.030797062998687192 0 0.0081080981777935067 0.031054764668707425 0 0.0078299823831923694 0.031509331680054223 0 0.0080818908417666403 0.03115305843704208 0 0.0078299823831923694 0.031509331680054223 0 0.0080818908417666403 0.03115305843704208 0 0.0080083592485303418 0.031512197103299694 0 0.0078299823831923694 0.031509331680054223 0 0.0076437346043209797 0.031910590643753574 0 0.0080083592485303418 0.031512197103299694 0 0.0075064411355373296 0.031856661755622559 0 0.0078299823831923694 0.031509331680054223 0 0.0076437346043209797 0.031910590643753574 0 0.0081518494705443423 0.031046971098508885 0 0.0080818908417666403 0.03115305843704208 0 0.0080083592485303418 0.031512197103299694 0 0.0081518494705443423 0.031046971098508885 0 0.0080570350513649858 0.031463047022816354 0 0.0080083592485303418 0.031512197103299694 0 0.0081518494705443423 0.031046971098508885 0 0.0082436873118722862 0.030797062998687192 0 0.0083036157977651927 0.030649287378569912 0 0.0081518494705443423 0.031046971098508885 0 0.0080818908417666403 0.03115305843704208 0 0.0082436873118722862 0.030797062998687192 0 0.0081518494705443423 0.031046971098508885 0 0.0083036157977651927 0.030649287378569912 0 0.008152798299671497 0.030981912260620775 0 0.0083036157977651927 0.030649287378569912 0 0.0083247099929250161 0.030536961070875071 0 0.008152798299671497 0.030981912260620775 0 0.0083247099929250161 0.030536961070875071 0 0.0083607787429654488 0.030447682985624478 0 0.0081009327641265397 0.030702722770501768 0 0.0085143173775679808 0.030188783592409736 0 0.0083247099929250161 0.030536961070875071 0 0.0083607787429654488 0.030447682985624478 0 0.0083247099929250161 0.030536961070875071 0 0.008152798299671497 0.030981912260620775 0 0.0081009327641265397 0.030702722770501768 0 0.008152798299671497 0.030981912260620775 0 0.0080152312393595698 0.031347278127873468 0 0.0081009327641265397 0.030702722770501768 0 0.0081518494705443423 0.031046971098508885 0 0.008152798299671497 0.030981912260620775 0 0.0080570350513649858 0.031463047022816354 0 0.008152798299671497 0.030981912260620775 0 0.0080570350513649858 0.031463047022816354 0 0.0080152312393595698 0.031347278127873468 0 0.0080152312393595698 0.031347278127873468 0 0.0078782407281796207 0.031553489110617221 0 0.0081009327641265397 0.030702722770501768 0 0.0078782407281796207 0.031553489110617221 0 0.0075833888978880208 0.032125065632682179 0 0.0082780668236282114 0.033081922730241659 0 0.0064266315683037889 0.028637746976154534 0 0.013272699675312779 0.03970861832557248 0 0.0080152312393595698 0.031347278127873468 0 0.0077605001816460767 0.031881858740854634 0 0.0078782407281796207 0.031553489110617221 0 0.0077605001816460767 0.031881858740854634 0 0.0078782407281796207 0.031553489110617221 0 0.0073088748162174269 0.03240571855652398 0 0.0080570350513649858 0.031463047022816354 0 0.0080152312393595698 0.031347278127873468 0 0.0077605001816460767 0.031881858740854634 0 0.0080570350513649858 0.031463047022816354 0 0.0077605001816460767 0.031881858740854634 0 0.0079265638295998361 0.032023647696753345 0 0.0055563165307910669 0.033857023855779468 0 0.003809860944345603 0.034731222687972477 0 0.0080570350513649858 0.031463047022816354 0 0.0079773837403626681 0.03151977870135015 0 0.0079265638295998361 0.032023647696753345 0 0.0079773837403626681 0.03151977870135015 0 0.0076437346043209797 0.031910590643753574 0 0.0080083592485303418 0.031512197103299694 0 0.0067748583754693456 0.032625213515189752 0 0.0055563165307910669 0.033857023855779468 0 0.0068437253182806763 0.032550458917026778 0 0.0079773837403626681 0.03151977870135015 0 0.0076437346043209797 0.031910590643753574 0 0.0080570350513649858 0.031463047022816354 0 0.0079773837403626681 0.03151977870135015 0 0.0080083592485303418 0.031512197103299694 0 0.031812449946324123 0.034655029241462056 0 0.032509803389664103 0.035226476772763346 0 0.032052964188435951 0.035839610792596954 0 0.036113742415646251 0.034618091581925713 0 0.04180578423101973 0.034239274188069824 0 0.032437439809890882 0.033494689722119581 0 0.031812449946324123 0.034655029241462056 0 0.032763078689406283 0.034467408648393108 0 0.031812449946324123 0.034655029241462056 0 0.032763078689406283 0.034467408648393108 0 0.032509803389664103 0.035226476772763346 0 0.032763078689406283 0.034467408648393108 0 0.032509803389664103 0.035226476772763346 0 0.033078765763697296 0.035360137407830519 0 0.018970584309752663 0.03086905415463306 0 0.021248611459525991 0.033177202702458011 0 0.032509803389664103 0.035226476772763346 0 0.033078765763697296 0.035360137407830519 0 0.032731201757700133 0.036235474161211555 0 0.0085754299037903315 0.030478444401346026 0 0.0081009327641265397 0.030702722770501768 0 0.0084242214516492137 0.030323872085688347 0 0.0085754299037903315 0.030478444401346026 0 0.0085296510095208642 0.030354214625151303 0 0.0081009327641265397 0.030702722770501768 0 0.0086913849657268318 0.029966084313014407 0 0.0086375426441766979 0.030227595570385363 0 0.0085296510095208642 0.030354214625151303 0 0.0086375426441766979 0.030227595570385363 0 0.0085754299037903315 0.030478444401346026 0 0.0085296510095208642 0.030354214625151303 0 0.0085296510095208642 0.030354214625151303 0 0.0083607787429654488 0.030447682985624478 0 0.0081009327641265397 0.030702722770501768 0 0.0085861605746005501 0.030101366003738802 0 0.0085296510095208642 0.030354214625151303 0 0.0083607787429654488 0.030447682985624478 0 0.0078782407281796207 0.031553489110617221 0 0.0081009327641265397 0.030702722770501768 0 0.0073477267758360731 0.031410510318159071 0 0.0060465557565503479 0.030714032182095865 0 0.018348719102436298 0.034799203199032847 0 0.0078782407281796207 0.031553489110617221 0 0.0075833888978880208 0.032125065632682179 0 0.0073477267758360731 0.031410510318159071 0 0.016749219187086585 0.038141058092900186 0 0.018348719102436298 0.034799203199032847 0 0.033484846967041931 0.036372998899053773 0 0.032731201757700133 0.036235474161211555 0 0.032919697493587051 0.037522939477916184 0 0.018348719102436298 0.034799203199032847 0 0.029898679224413926 0.04089942201045868 0 0.025481897316801203 0.043635038600280875 0 0.025013672273936933 0.042314759113530796 0 0.024214383699214439 0.043793537636941791 0 0.033078765763697296 0.035360137407830519 0 0.033484846967041931 0.036372998899053773 0 0.032731201757700133 0.036235474161211555 0 0.021248611459525991 0.033177202702458011 0 0.018348719102436298 0.034799203199032847 0 0.032509803389664103 0.035226476772763346 0 0.032731201757700133 0.036235474161211555 0 0.032052964188435951 0.035839610792596954 0 0.032731201757700133 0.036235474161211555 0 0.032919697493587051 0.037522939477916184 0 0.031468600885609536 0.036920822820519575 0 0.032731201757700133 0.036235474161211555 0 0.032052964188435951 0.035839610792596954 0 0.031468600885609536 0.036920822820519575 0 0.031692085369887546 0.03622815275945903 0 0.032052964188435951 0.035839610792596954 0 0.031468600885609536 0.036920822820519575 0 0.028708766725292018 0.040115986557360032 0 0.032122993545861907 0.03949883976636806 0 0.029397125120169326 0.043202032579142437 0 0.027769371562954611 0.042541892972362133 0 0.026819596847925307 0.044939312900144815 0 0.030570337396016105 0.038829655080970103 0 0.031354493422106798 0.037106580943086213 0 0.028708766725292018 0.040115986557360032 0 0.031468600885609536 0.036920822820519575 0 0.032122993545861907 0.03949883976636806 0 0.029898679224413926 0.04089942201045868 0 0.027769371562954611 0.042541892972362133 0 0.024214383699214439 0.043793537636941791 0 0.023758949293789012 0.045519061938156594 0 0.024347411190754977 0.045200726404308833 0 0.032919697493587051 0.037522939477916184 0 0.031468600885609536 0.036920822820519575 0 0.032122993545861907 0.03949883976636806 0 0.023758949293789012 0.045519061938156594 0 0.024144645003235293 0.046021958967534866 0 0.024347411190754977 0.045200726404308833 0 0.023758949293789012 0.045519061938156594 0 0.024144645003235293 0.046021958967534866 0 0.02404739872332096 0.046721473939520676 0 0.024144645003235293 0.046021958967534866 0 0.024347411190754977 0.045200726404308833 0 0.024537625772985176 0.045992417303215155 0 0.024347411190754977 0.045200726404308833 0 0.024537625772985176 0.045992417303215155 0 0.025000998695504501 0.044814040028695948 0 0.024214383699214439 0.043793537636941791 0 0.024347411190754977 0.045200726404308833 0 0.025000998695504501 0.044814040028695948 0 0.025481897316801203 0.043635038600280875 0 0.024214383699214439 0.043793537636941791 0 0.025000998695504501 0.044814040028695948 0 0.025481897316801203 0.043635038600280875 0 0.025000998695504501 0.044814040028695948 0 0.025781908316103039 0.044831009332546107 0 0.016749219187086585 0.038141058092900186 0 0.013272699675312779 0.03970861832557248 0 0.024537625772985176 0.045992417303215155 0 0.025000998695504501 0.044814040028695948 0 0.025096814185240755 0.045667833326665623 0 0.025000998695504501 0.044814040028695948 0 0.025096814185240755 0.045667833326665623 0 0.025781908316103039 0.044831009332546107 0 0.024537625772985176 0.045992417303215155 0 0.025096814185240755 0.045667833326665623 0 0.024824253684827977 0.046244652016354061 0 0.024824253684827977 0.046244652016354061 0 0.024379647766835554 0.046750659043629843 0 0.025227815871554135 0.046442664599735235 0 0.025096814185240755 0.045667833326665623 0 0.024824253684827977 0.046244652016354061 0 0.025227815871554135 0.046442664599735235 0 0.024537625772985176 0.045992417303215155 0 0.024824253684827977 0.046244652016354061 0 0.024379647766835554 0.046750659043629843 0 0.024379647766835554 0.046750659043629843 0 0.023920708585895994 0.047437635594648003 0 0.025227815871554135 0.046442664599735235 0 0.024070630743827742 0.046930504938151436 0 0.024130742480499831 0.047223134941058585 0 0.023581846776901762 0.047554630763990101 0 0.023920708585895994 0.047437635594648003 0 0.024070630743827742 0.046930504938151436 0 0.023581846776901762 0.047554630763990101 0 0.024379647766835554 0.046750659043629843 0 0.023920708585895994 0.047437635594648003 0 0.024070630743827742 0.046930504938151436 0 0.024537625772985176 0.045992417303215155 0 0.024379647766835554 0.046750659043629843 0 0.024070630743827742 0.046930504938151436 0 0.024144645003235293 0.046021958967534866 0 0.024537625772985176 0.045992417303215155 0 0.024070630743827742 0.046930504938151436 0 0.024144645003235293 0.046021958967534866 0 0.024070630743827742 0.046930504938151436 0 0.02404739872332096 0.046721473939520676 0 0.024070630743827742 0.046930504938151436 0 0.02404739872332096 0.046721473939520676 0 0.024130742480499831 0.047223134941058585 0 0.02404739872332096 0.046721473939520676 0 0.024130742480499831 0.047223134941058585 0 0.024229900568776917 0.04690642363511157 0 0.025592120985917136 0.046394300325087484 0 0.024229900568776917 0.04690642363511157 0 0.024172521172358463 0.046950193951783535 0 0.024130742480499831 0.047223134941058585 0 0.024229900568776917 0.04690642363511157 0 0.024418112991908852 0.047268096555447635 0 0.024567270321515226 0.047251893693798695 0 0.024602238702778147 0.046866821101989226 0 0.02464711377859722 0.047418131761807404 0 0.024530901998376532 0.04730827882161822 0 0.024229900568776917 0.04690642363511157 0 0.023758949293789012 0.045519061938156594 0 0.02404739872332096 0.046721473939520676 0 0.024172521172358463 0.046950193951783535 0 0.02404739872332096 0.046721473939520676 0 0.024229900568776917 0.04690642363511157 0 0.024172521172358463 0.046950193951783535 0 0.002868524988284063 0.039283994660076114 0 0.001059731105465204 0.040232775942737047 0 0.0020821037169050385 0.041807098547684815 0 0.001059731105465204 0.040232775942737047 0 0.00025663383573294149 0.041907868656340781 0 0.0020821037169050385 0.041807098547684815 0 0.0059336221124172131 0.040797158092900784 0 0.002868524988284063 0.039283994660076114 0 0.0038029523134525405 0.041709604978557954 0 0.002868524988284063 0.039283994660076114 0 0.0020821037169050385 0.041807098547684815 0 0.0038029523134525405 0.041709604978557954 0 0.0061793285912300185 0.037244815867165576 0 0.0027921192308008572 0.036158444485238118 0 0.002868524988284063 0.039283994660076114 0 0.002868524988284063 0.039283994660076114 0 0.00096251273330284933 0.038390806562953593 0 0.001059731105465204 0.040232775942737047 0 0.0027921192308008572 0.036158444485238118 0 0.002868524988284063 0.039283994660076114 0 0.00096251273330284933 0.038390806562953593 0 0.003809860944345603 0.034731222687972477 0 0.0080727595196629608 0.041110016896191676 0 0.00096251273330284933 0.038390806562953593 0 -0.00067447278915908049 0.039848031563850007 0 0.001059731105465204 0.040232775942737047 0 0.0077605001816460767 0.031881858740854634 0 0.0079265638295998361 0.032023647696753345 0 0.0073487692742069174 0.032695100369553122 0 0.0077605001816460767 0.031881858740854634 0 0.0073088748162174269 0.03240571855652398 0 0.0073487692742069174 0.032695100369553122 0 0.013272699675312779 0.03970861832557248 0 0.0080727595196629608 0.041110016896191676 0 0.013915376541250921 0.047008391278939139 0 0.014191236418811037 0.046810717833154374 0 0.015803593051452149 0.04949103679632734 0 0.013272699675312779 0.03970861832557248 0 0.020433383182934289 0.049315898136191638 0 0.025096814185240755 0.045667833326665623 0 0.025781908316103039 0.044831009332546107 0 0.025227815871554135 0.046442664599735235 0 0.013510334819565222 0.045827031636234215 0 0.013915376541250921 0.047008391278939139 0 0.013957420800157369 0.049720909435234578 0 0.013510334819565222 0.045827031636234215 0 0.013915376541250921 0.047008391278939139 0 0.014205283238608158 0.04679975384372892 0 0.0086244147009063056 0.041314568979561608 0 0.0080727595196629608 0.041110016896191676 0 -0.00067447278915908049 0.039848031563850007 0 0.001059731105465204 0.040232775942737047 0 0.00025663383573294149 0.041907868656340781 0 0.0080727595196629608 0.041110016896191676 0 0.0079736762221428118 0.045943605562545946 0 0.0079736762221428118 0.045943605562545946 0 0.0094231590397548578 0.047825707992335126 0 0.015803593051452149 0.04949103679632734 0 0.013957420800157369 0.049720909435234578 0 0.015597144025809188 0.051371862481909031 0 0.013915376541250921 0.047008391278939139 0 0.015803593051452149 0.04949103679632734 0 0.013957420800157369 0.049720909435234578 0 0.013957420800157369 0.049720909435234578 0 0.015597144025809188 0.051371862481909031 0 0.014678112943733891 0.052717273030175711 0 0.023920708585895994 0.047437635594648003 0 0.025227815871554135 0.046442664599735235 0 0.024437712958312218 0.047632497232181888 0 0.020433383182934289 0.049315898136191638 0 0.01944238188838885 0.049801827932032729 0 0.015597144025809188 0.051371862481909031 0 0.016399461200229202 0.052845109352867133 0 0.014678112943733891 0.052717273030175711 0 0.015803593051452149 0.04949103679632734 0 0.015597144025809188 0.051371862481909031 0 0.016862443638342477 0.05165849700183385 0 0.015597144025809188 0.051371862481909031 0 0.016862443638342477 0.05165849700183385 0 0.016399461200229202 0.052845109352867133 0 0.0014802342147318902 0.043912044500968375 0 0.0020821037169050385 0.041807098547684815 0 0.0033387573530679875 0.043622156622830997 0 0.0014802342147318902 0.043912044500968375 0 0.0033387573530679875 0.043622156622830997 0 0.0027852363444190015 0.045862672013213396 0 0.00025663383573294149 0.041907868656340781 0 0.0014802342147318902 0.043912044500968375 0 0.0020821037169050385 0.041807098547684815 0 0.0041554016670246521 0.044551499889325323 0 0.0038029523134525405 0.041709604978557954 0 0.0025069562654734122 0.044299838083027281 0 0.0020821037169050385 0.041807098547684815 0 0.0038029523134525405 0.041709604978557954 0 0.0033387573530679875 0.043622156622830997 0 0.0037103336842761493 0.042074126586001057 0 0.0026204380523140716 0.043458924649331557 0 0.0041554016670246521 0.044551499889325323 0 0.0025069562654734122 0.044299838083027281 0 0.0028684557705569835 0.045971082066788543 0 0.0028684557705569835 0.045971082066788543 0 0.0021027445561917039 0.047370712523655663 0 0.0039482238494285516 0.046691634401330763 0 0.0025069562654734122 0.044299838083027281 0 0.0028684557705569835 0.045971082066788543 0 0.0017028633618992632 0.046799918978931009 0 0.0026204380523140716 0.043458924649331557 0 0.0077165730449745224 0.049824423796048137 0 0.0028684557705569835 0.045971082066788543 0 0.0017028633618992632 0.046799918978931009 0 0.0021027445561917039 0.047370712523655663 0 0.0082171796061415014 0.052099847536280962 0 0.0084478737429937896 0.052450818333437031 0 0.0081518678636458685 0.052327254022992827 0 0.0078519755347446919 0.052294876108857496 0 0.010705406841961687 0.052471811191617868 0 0.0077165730449745224 0.049824423796048137 0 0.0078519755347446919 0.052294876108857496 0 0.014750983142273504 0.057667810366040795 0 0.01548726718536164 0.056647408517599238 0 0.013694012587393127 0.056185386524698643 0 0.0078519755347446919 0.052294876108857496 0 0.01041307318682934 0.054921507564501697 0 0.014750983142273504 0.057667810366040795 0 0.01548726718536164 0.056647408517599238 0 0.015066511330082348 0.057786629503633884 0 0.016837962516358388 0.054763983255258129 0 0.016817105849409309 0.054056616360115196 0 0.017518853965217407 0.053615936782353671 0 0.016091024371467859 0.055879461635765154 0 0.010705406841961687 0.052471811191617868 0 0.016837962516358388 0.054763983255258129 0 0.016817105849409309 0.054056616360115196 0 0.016235098792702216 0.054841070316974438 0 0.016817105849409309 0.054056616360115196 0 0.016844284917450231 0.053522228635060405 0 0.017518853965217407 0.053615936782353671 0 0.016817105849409309 0.054056616360115196 0 0.016844284917450231 0.053522228635060405 0 0.016172074267316521 0.0540083557311727 0 0.016862443638342477 0.05165849700183385 0 0.01762178373959427 0.053340302272980478 0 0.016399461200229202 0.052845109352867133 0 0.01762178373959427 0.053340302272980478 0 0.016844284917450231 0.053522228635060405 0 0.016399461200229202 0.052845109352867133 0 0.0094231590397548578 0.047825707992335126 0 0.0077165730449745224 0.049824423796048137 0 0.01762178373959427 0.053340302272980478 0 0.016844284917450231 0.053522228635060405 0 0.017518853965217407 0.053615936782353671 0 0.0077165730449745224 0.049824423796048137 0 0.010705406841961687 0.052471811191617868 0 0.016399461200229202 0.052845109352867133 0 0.014678112943733891 0.052717273030175711 0 0.016172074267316521 0.0540083557311727 0 0.016844284917450231 0.053522228635060405 0 0.016399461200229202 0.052845109352867133 0 0.016172074267316521 0.0540083557311727 0 0.024437712958312218 0.047632497232181888 0 0.023447760885300019 0.049483607011313629 0 0.023082098263819784 0.048545248670997194 0 0.01944238188838885 0.049801827932032729 0 0.019553692763036631 0.052039527773040731 0 0.014678112943733891 0.052717273030175711 0 0.015674854076121153 0.054688237509545393 0 0.016172074267316521 0.0540083557311727 0 0.015674854076121153 0.054688237509545393 0 0.016172074267316521 0.0540083557311727 0 0.016235098792702216 0.054841070316974438 0 0.016817105849409309 0.054056616360115196 0 0.016172074267316521 0.0540083557311727 0 0.016235098792702216 0.054841070316974438 0 0.016235098792702216 0.054841070316974438 0 0.016908030334155055 0.055061463602557877 0 0.016064443632232746 0.055250213822227237 0 0.015674854076121153 0.054688237509545393 0 0.016235098792702216 0.054841070316974438 0 0.016908030334155055 0.055061463602557877 0 0.023447760885300019 0.049483607011313629 0 0.023082098263819784 0.048545248670997194 0 0.02172118305128597 0.050761330716358369 0 0.019553692763036631 0.052039527773040731 0 0.019164969149719793 0.053176191816696396 0 0.023447760885300019 0.049483607011313629 0 0.0215971102837321 0.051814668752321984 0 0.02172118305128597 0.050761330716358369 0 0.0215971102837321 0.051814668752321984 0 0.02172118305128597 0.050761330716358369 0 0.020433344799592627 0.05238141735099329 0 0.016908030334155055 0.055061463602557877 0 0.016064443632232746 0.055250213822227237 0 0.015914831521296635 0.053959760494062384 0 0.016064443632232746 0.055250213822227237 0 0.014326848777302973 0.054646299522493981 0 0.015914831521296635 0.053959760494062384 0 0.016064443632232746 0.055250213822227237 0 0.014326848777302973 0.054646299522493981 0 0.014833614666016751 0.055702630683485153 0 0.014326848777302973 0.054646299522493981 0 0.014833614666016751 0.055702630683485153 0 0.013694012587393127 0.056185386524698643 0 0.01548726718536164 0.056647408517599238 0 0.014833614666016751 0.055702630683485153 0 0.013694012587393127 0.056185386524698643 0 0.016091024371467859 0.055879461635765154 0 0.016161199141837692 0.055184488773668133 0 0.01548726718536164 0.056647408517599238 0 0.016064443632232746 0.055250213822227237 0 0.014833614666016751 0.055702630683485153 0 0.016837962516358388 0.054763983255258129 0 0.016235098792702216 0.054841070316974438 0 0.016064443632232746 0.055250213822227237 0 0.024639817216916549 0.047211659721206813 0 0.024336745221217287 0.047258705689089811 0 0.02461416438542648 0.047230300094936041 0 0.024639817216916549 0.047211659721206813 0 0.024418112991908852 0.047268096555447635 0 0.024336745221217287 0.047258705689089811 0 0.024934155983805856 0.047056424513511372 0 0.024639817216916549 0.047211659721206813 0 0.02461416438542648 0.047230300094936041 0 0.024530901998376532 0.04730827882161822 0 0.024229900568776917 0.04690642363511157 0 0.024418112991908852 0.047268096555447635 0 0.024640001281076514 0.047283935651867171 0 0.024639817216916549 0.047211659721206813 0 0.024418112991908852 0.047268096555447635 0 0.024640001281076514 0.047283935651867171 0 0.024530901998376532 0.04730827882161822 0 0.024418112991908852 0.047268096555447635 0 0.024130742480499831 0.047223134941058585 0 0.024336745221217287 0.047258705689089811 0 0.023581846776901762 0.047554630763990101 0 0.024130742480499831 0.047223134941058585 0 0.024418112991908852 0.047268096555447635 0 0.024336745221217287 0.047258705689089811 0 0.024336745221217287 0.047258705689089811 0 0.023581846776901762 0.047554630763990101 0 0.024469579200545287 0.04729514122007919 0 0.023581846776901762 0.047554630763990101 0 0.023082098263819784 0.048545248670997194 0 0.021449953627708681 0.04973056137473076 0 0.023468084426716919 0.047773070919380947 0 0.02300385344889103 0.048666178554587755 0 0.023920708585895994 0.047437635594648003 0 0.024437712958312218 0.047632497232181888 0 0.023082098263819784 0.048545248670997194 0 0.023920708585895994 0.047437635594648003 0 0.023581846776901762 0.047554630763990101 0 0.023082098263819784 0.048545248670997194 0 0.02172118305128597 0.050761330716358369 0 0.020359581207302621 0.051863826374217645 0 0.021449953627708681 0.04973056137473076 0 0.023082098263819784 0.048545248670997194 0 0.02172118305128597 0.050761330716358369 0 0.021449953627708681 0.04973056137473076 0 0.02172118305128597 0.050761330716358369 0 0.020359581207302621 0.051863826374217645 0 0.020433344799592627 0.05238141735099329 0 0.024966511818956642 0.047837419763947897 0 0.024584403222298316 0.047405666364685586 0 0.024670648511571663 0.047732656616907509 0 0.022783611004374867 0.049753693535963192 0 0.02300385344889103 0.048666178554587755 0 0.024966511818956642 0.047837419763947897 0 0.024469579200545287 0.04729514122007919 0 0.024584403222298316 0.047405666364685586 0 0.024336745221217287 0.047258705689089811 0 0.024469579200545287 0.04729514122007919 0 0.024584403222298316 0.047405666364685586 0 0.024336745221217287 0.047258705689089811 0 0.024584403222298316 0.047405666364685586 0 0.02461416438542648 0.047230300094936041 0 0.024584403222298316 0.047405666364685586 0 0.024670648511571663 0.047732656616907509 0 0.02461416438542648 0.047230300094936041 0 0.024899203533101072 0.04718328664950374 0 0.024670648511571663 0.047732656616907509 0 0.024863527930269812 0.04789191974025165 0 0.024899203533101072 0.04718328664950374 0 0.024670648511571663 0.047732656616907509 0 0.02461416438542648 0.047230300094936041 0 0.024934155983805856 0.047056424513511372 0 0.024899203533101072 0.04718328664950374 0 0.02461416438542648 0.047230300094936041 0 0.025001642186916338 0.048639875747181364 0 0.024863527930269812 0.04789191974025165 0 0.024592819309523742 0.048733955038201278 0 0.025001642186916338 0.048639875747181364 0 0.024592819309523742 0.048733955038201278 0 0.024706740826796813 0.049214989790511594 0 0.024670648511571663 0.047732656616907509 0 0.024863527930269812 0.04789191974025165 0 0.024592819309523742 0.048733955038201278 0 0.024670648511571663 0.047732656616907509 0 0.024592819309523742 0.048733955038201278 0 0.024726664374314762 0.048362660133961788 0 0.024592819309523742 0.048733955038201278 0 0.024446339858301441 0.049038996855227716 0 0.024726664374314762 0.048362660133961788 0 0.024446339858301441 0.049038996855227716 0 0.024726664374314762 0.048362660133961788 0 0.025028433215385441 0.0488222659221881 0 0.024966511818956642 0.047837419763947897 0 0.024726664374314762 0.048362660133961788 0 0.025028433215385441 0.0488222659221881 0 0.024966511818956642 0.047837419763947897 0 0.024670648511571663 0.047732656616907509 0 0.024726664374314762 0.048362660133961788 0 0.020359581207302621 0.051863826374217645 0 0.019995853955171922 0.052568679626152311 0 0.019907330179196395 0.052657344269333245 0 0.022783611004374867 0.049753693535963192 0 0.021483198164870577 0.051401777033249482 0 0.020359581207302621 0.051863826374217645 0 0.020433344799592627 0.05238141735099329 0 0.019995853955171922 0.052568679626152311 0 0.020433344799592627 0.05238141735099329 0 0.019744073865143714 0.052547928396526999 0 0.019995853955171922 0.052568679626152311 0 0.019744073865143714 0.052547928396526999 0 0.019995853955171922 0.052568679626152311 0 0.0195278949641528 0.052241306054009694 0 0.021181485416810621 0.051862845994281065 0 0.021483198164870577 0.051401777033249482 0 0.019995853955171922 0.052568679626152311 0 0.020056593393008339 0.052455991409092094 0 0.0195278949641528 0.052241306054009694 0 0.0195278949641528 0.052241306054009694 0 0.019913822358216815 0.051436829812495151 0 0.018431498312850264 0.051435854077330603 0 0.021483198164870577 0.051401777033249482 0 0.019920831971556904 0.051856074148981898 0 0.020056593393008339 0.052455991409092094 0 0.0195278949641528 0.052241306054009694 0 0.019913822358216815 0.051436829812495151 0 0.020006554528543583 0.051795900544061135 0 0.019686130461232614 0.049999969540404081 0 0.020466697671921788 0.050840584740316878 0 0.019913822358216815 0.051436829812495151 0 0.019685507881951943 0.049999943955386025 0 0.018431498312850264 0.051435854077330603 0 0.019920831971556904 0.051856074148981898 0 0.019685962154757427 0.050000153491159299 0 0.020466697671921788 0.050840584740316878 0 0.021865583722278162 0.049999971046459674 0 0.020964197372747573 0.051798568937326754 0 0.021866214953960458 0.050000066519958579 0 0.022597513129608709 0.05045772674430371 0 0.019686130461232614 0.049999969540404081 0 0.020466697671921788 0.050840584740316878 0 0.021865583722278162 0.049999971046459674 0 0.021483198164870577 0.051401777033249482 0 0.022597513129608709 0.05045772674430371 0 0.024446339858301441 0.049038996855227716 0 0.025028433215385441 0.0488222659221881 0 0.024059317507001281 0.049573534013972742 0 0.020222989152220792 0.053408028369950962 0 0.020006554528543583 0.051795900544061135 0 0.020964197372747573 0.051798568937326754 0 0.020006554528543583 0.051795900544061135 0 0.020466697671921788 0.050840584740316878 0 0.020964197372747573 0.051798568937326754 0 0.024446339858301441 0.049038996855227716 0 0.024059317507001281 0.049573534013972742 0 0.023967077375274318 0.049738674638968569 0 0.024592819309523742 0.048733955038201278 0 0.024446339858301441 0.049038996855227716 0 0.023967077375274318 0.049738674638968569 0 0.021871999408005105 0.049999363779691448 0 0.024059317507001281 0.049573534013972742 0 0.023967077375274318 0.049738674638968569 0 0.021871999408005105 0.049999363779691448 0 0.023967077375274318 0.049738674638968569 0 0.024356498999734615 0.049998742399850603 0 0.025336613548259324 0.049491905770935575 0 0.023967077375274318 0.049738674638968569 0 0.024356498999734615 0.049998742399850603 0 0.024592819309523742 0.048733955038201278 0 0.023967077375274318 0.049738674638968569 0 0.024706740826796813 0.049214989790511594 0 0.025336613548259324 0.049491905770935575 0 0.023967077375274318 0.049738674638968569 0 0.024706740826796813 0.049214989790511594 0 0.013949535039440452 0.052910555812261721 0 0.015914831521296635 0.053959760494062384 0 0.015895055104997814 0.051707481610221123 0 0.014326848777302973 0.054646299522493981 0 0.013949535039440452 0.052910555812261721 0 0.013011586530873524 0.053551868174708264 0 0.014326848777302973 0.054646299522493981 0 0.013949535039440452 0.052910555812261721 0 0.015914831521296635 0.053959760494062384 0 0.016908030334155055 0.055061463602557877 0 0.015914831521296635 0.053959760494062384 0 0.018256034957871106 0.052881515630215849 0 0.0215971102837321 0.051814668752321984 0 0.020433344799592627 0.05238141735099329 0 0.018256034957871106 0.052881515630215849 0 0.019164969149719793 0.053176191816696396 0 0.018419227309180948 0.052688704270141114 0 0.020433344799592627 0.05238141735099329 0 0.019744073865143714 0.052547928396526999 0 0.018256034957871106 0.052881515630215849 0 0.019744073865143714 0.052547928396526999 0 0.0195278949641528 0.052241306054009694 0 0.018256034957871106 0.052881515630215849 0 0.015914831521296635 0.053959760494062384 0 0.018256034957871106 0.052881515630215849 0 0.015895055104997814 0.051707481610221123 0 0.018256034957871106 0.052881515630215849 0 0.018431498312850264 0.051435854077330603 0 0.015895055104997814 0.051707481610221123 0 0.0195278949641528 0.052241306054009694 0 0.018256034957871106 0.052881515630215849 0 0.018431498312850264 0.051435854077330603 0 0.019685507881951943 0.049999943955386025 0 0.018431498312850264 0.051435854077330603 0 0.017011235797214454 0.049999559614963822 0 0.018431498312850264 0.051435854077330603 0 0.017011235797214454 0.049999559614963822 0 0.015895055104997814 0.051707481610221123 0 0.014335599234485861 0.049999760762217522 0 0.015895055104997814 0.051707481610221123 0 0.013311160398979898 0.05127983602301351 0 0.017011235797214454 0.049999559614963822 0 0.014335599234485861 0.049999760762217522 0 0.015895055104997814 0.051707481610221123 0 0.013949535039440452 0.052910555812261721 0 0.015895055104997814 0.051707481610221123 0 0.013311160398979898 0.05127983602301351 0 0.014335599234485861 0.049999760762217522 0 0.013311160398979898 0.05127983602301351 0 0.011660075223945347 0.049999713313246055 0 0.011660075223945347 0.049999713313246055 0 0.010400581177882869 0.050865773695205431 0 0.011219151972464007 0.052298896150876663 0 0.013311160398979898 0.05127983602301351 0 0.011660075223945347 0.049999713313246055 0 0.011219151972464007 0.052298896150876663 0 0.011660075223945347 0.049999713313246055 0 0.010400581177882869 0.050865773695205431 0 0.0089842843499543575 0.049999964976410995 0 0.011497310663545184 0.052195646764120834 0 0.01262244233853704 0.05204378923312613 0 0.010948884841584891 0.051109344592328729 0 0.010400581177882869 0.050865773695205431 0 0.011219151972464007 0.052298896150876663 0 0.0088038009183268422 0.051407951142926192 0 0.01189862730820399 0.052141950255215924 0 0.0099857981827143512 0.051280162414150031 0 0.013949535039440452 0.052910555812261721 0 0.013311160398979898 0.05127983602301351 0 0.011219151972464007 0.052298896150876663 0 0.01377490752774037 0.052878855649985096 0 0.01189862730820399 0.052141950255215924 0 0.0065507362780802018 0.05034778940897211 0 0.0063087944299142868 0.050000006371969961 0 0.0089842843499543575 0.049999964976410995 0 0.0071878637683810672 0.050233534451653905 0 0.0079038160781652895 0.05146125463748448 0 0.0071878637683810672 0.050233534451653905 0 0.0099857981827143512 0.051280162414150031 0 0.0059512524193936498 0.050247995588362945 0 0.0054337297229657749 0.051104463743768681 0 0.005348245733042504 0.050668507279969438 0 0.0090547158364245525 0.050184117837406235 0 0.010948884841584891 0.051109344592328729 0 0.010305676721554273 0.051932070419922205 0 0.0069707201113498483 0.050158764576804231 0 0.0071878637683810672 0.050233534451653905 0 0.0061452765350105479 0.050186202022282377 0 0.0062420506444327058 0.050276138700696846 0 0.0063050292990746932 0.049999729169486279 0 0.0071878637683810672 0.050233534451653905 0 0.0063102319698807949 0.049999802537776132 0 0.0065507362780802018 0.05034778940897211 0 0.0089842843499543575 0.049999964976410995 0 0.0088038009183268422 0.051407951142926192 0 0.010400581177882869 0.050865773695205431 0 0.0089842843499543575 0.049999964976410995 0 0.0088038009183268422 0.051407951142926192 0 0.011497310663545184 0.052195646764120834 0 0.010948884841584891 0.051109344592328729 0 0.010305676721554273 0.051932070419922205 0 0.0054337297229657749 0.051104463743768681 0 0.0045657892081497004 0.051377296443991263 0 0.005348245733042504 0.050668507279969438 0 0.0054337297229657749 0.051104463743768681 0 0.0049470435805641757 0.051489908181785095 0 0.0045657892081497004 0.051377296443991263 0 0.0054337297229657749 0.051104463743768681 0 0.0049470435805641757 0.051489908181785095 0 0.0052729339277364905 0.051424611022130376 0 0.011497310663545184 0.052195646764120834 0 0.010305676721554273 0.051932070419922205 0 0.011491181385947388 0.053430858485746947 0 0.0079038160781652895 0.05146125463748448 0 0.0084079962669475101 0.052445099129095021 0 0.0049470435805641757 0.051489908181785095 0 0.0052729339277364905 0.051424611022130376 0 0.0048049683580683256 0.051651029036315681 0 0.0052729339277364905 0.051424611022130376 0 0.0051865694425926251 0.051823051301101611 0 0.0048049683580683256 0.051651029036315681 0 0.0049470435805641757 0.051489908181785095 0 0.0048049683580683256 0.051651029036315681 0 0.004464165061395165 0.051732956000863729 0 0.013949535039440452 0.052910555812261721 0 0.01262244233853704 0.05204378923312613 0 0.013011586530873524 0.053551868174708264 0 0.011497310663545184 0.052195646764120834 0 0.01262244233853704 0.05204378923312613 0 0.011491181385947388 0.053430858485746947 0 0.01262244233853704 0.05204378923312613 0 0.011491181385947388 0.053430858485746947 0 0.013011586530873524 0.053551868174708264 0 0.0052729339277364905 0.051424611022130376 0 0.0055698288481999796 0.051742571765041954 0 0.0051865694425926251 0.051823051301101611 0 0.011491181385947388 0.053430858485746947 0 0.013011586530873524 0.053551868174708264 0 0.012580910051332208 0.054800939923797282 0 0.0084079962669475101 0.052445099129095021 0 0.0089634013657494873 0.053117731123830642 0 0.014326848777302973 0.054646299522493981 0 0.013011586530873524 0.053551868174708264 0 0.012580910051332208 0.054800939923797282 0 0.01041307318682934 0.054921507564501697 0 0.0089634013657494873 0.053117731123830642 0 0.014326848777302973 0.054646299522493981 0 0.013694012587393127 0.056185386524698643 0 0.012580910051332208 0.054800939923797282 0 0.0060393081162923622 0.05226508768535381 0 0.0054247430594071659 0.052128767088275824 0 0.0055698288481999796 0.051742571765041954 0 0.0060393081162923622 0.05226508768535381 0 0.0054247430594071659 0.052128767088275824 0 0.0056778836721695274 0.052568322241955553 0 0.0054247430594071659 0.052128767088275824 0 0.0049721184631742448 0.052200452821402718 0 0.0056778836721695274 0.052568322241955553 0 0.0049303646910834522 0.05112329406696571 0 0.0043825691809423013 0.050186445894084476 0 0.0054247430594071659 0.052128767088275824 0 0.0055698288481999796 0.051742571765041954 0 0.0051865694425926251 0.051823051301101611 0 0.0051865694425926251 0.051823051301101611 0 0.0048049683580683256 0.051651029036315681 0 0.0049721184631742448 0.052200452821402718 0 0.0048049683580683256 0.051651029036315681 0 0.0041977549073911099 0.051563712126028116 0 0.004464165061395165 0.051732956000863729 0 0.0048049683580683256 0.051651029036315681 0 0.0049721184631742448 0.052200452821402718 0 0.0041977549073911099 0.051563712126028116 0 0.0043341866971725032 0.049750694651691151 0 0.0039874848365795022 0.050429686840801326 0 0.0041977549073911099 0.051563712126028116 0 0.0049303646910834522 0.05112329406696571 0 0.004248124935859722 0.051450687055420809 0 0.0054247430594071659 0.052128767088275824 0 0.0051865694425926251 0.051823051301101611 0 0.0049721184631742448 0.052200452821402718 0 0.0057019243110297416 0.048056470075013957 0 0.0050823754979270278 0.048940996274461905 0 0.0040109926476823666 0.049818720136617173 0 0.0037797999303264785 0.050224926661595934 0 0.005010585867409244 0.048992603352966652 0 0.0043341866971725032 0.049750694651691151 0 0.0040109926476823666 0.049818720136617173 0 0.005010585867409244 0.048992603352966652 0 0.0040109926476823666 0.049818720136617173 0 0.0039874848365795022 0.050429686840801326 0 0.0034670510442123895 0.050083978045961722 0 0.0043341866971725032 0.049750694651691151 0 0.0040109926476823666 0.049818720136617173 0 0.0039874848365795022 0.050429686840801326 0 0.0039874848365795022 0.050429686840801326 0 0.0034670510442123895 0.050083978045961722 0 0.0043941621503949171 0.051004895190151334 0 0.0027878223250663286 0.049521140725407684 0 0.0034670510442123895 0.050083978045961722 0 0.0037797999303264785 0.050224926661595934 0 0.0056548078665001941 0.046527353098808392 0 0.0057019243110297416 0.048056470075013957 0 0.0027878223250663286 0.049521140725407684 0 0.0034670510442123895 0.050083978045961722 0 0.0031994191911827344 0.050037556171003188 0 0.0040109926476823666 0.049818720136617173 0 0.0034670510442123895 0.050083978045961722 0 0.0037797999303264785 0.050224926661595934 0 0.0069979120607976293 0.044933947931297347 0 0.0085425632573500835 0.043568424815217457 0 0.0078490977631084334 0.046036340118684779 0 0.0078490977631084334 0.046036340118684779 0 0.0059023970882024082 0.04655373565297985 0 0.005010585867409244 0.048992603352966652 0 0.0069979120607976293 0.044933947931297347 0 0.0078490977631084334 0.046036340118684779 0 0.0059023970882024082 0.04655373565297985 0 0.0055413813923354989 0.045176382783619261 0 0.0069979120607976293 0.044933947931297347 0 0.0059023970882024082 0.04655373565297985 0 0.0055413813923354989 0.045176382783619261 0 0.0059023970882024082 0.04655373565297985 0 0.0049417342141381054 0.047301402893491898 0 0.0041554016670246521 0.044551499889325323 0 0.0055413813923354989 0.045176382783619261 0 0.0039482238494285516 0.046691634401330763 0 0.0041554016670246521 0.044551499889325323 0 0.0028684557705569835 0.045971082066788543 0 0.0039482238494285516 0.046691634401330763 0 0.0055413813923354989 0.045176382783619261 0 0.0049417342141381054 0.047301402893491898 0 0.0039482238494285516 0.046691634401330763 0 0.0049417342141381054 0.047301402893491898 0 0.0039482238494285516 0.046691634401330763 0 0.0047856203109310595 0.048598893719236751 0 0.0078519755347446919 0.052294876108857496 0 0.0043825691809423013 0.050186445894084476 0 0.0065169363963362261 0.05290267968157588 0 0.0060393081162923622 0.05226508768535381 0 0.0056778836721695274 0.052568322241955553 0 0.0021027445561917039 0.047370712523655663 0 0.0039482238494285516 0.046691634401330763 0 0.0047856203109310595 0.048598893719236751 0 0.0043341866971725032 0.049750694651691151 0 0.0047856203109310595 0.048598893719236751 0 0.005010585867409244 0.048992603352966652 0 0.0059023970882024082 0.04655373565297985 0 0.0049417342141381054 0.047301402893491898 0 0.005010585867409244 0.048992603352966652 0 0.0049417342141381054 0.047301402893491898 0 0.0047856203109310595 0.048598893719236751 0 0.005010585867409244 0.048992603352966652 0 0.0041218615637508907 0.050882408179162328 0 0.0032927245526660496 0.051231189992297074 0 0.0028907324438417867 0.051433370817728433 0 0.0041218615637508907 0.050882408179162328 0 0.0034750351084830988 0.050880698379448579 0 0.0032927245526660496 0.051231189992297074 0 0.003161589777278098 0.051211179326210388 0 0.0041218615637508907 0.050882408179162328 0 0.0028907324438417867 0.051433370817728433 0 0.0032861684851270547 0.050910707609187748 0 0.003161589777278098 0.051211179326210388 0 0.0041218615637508907 0.050882408179162328 0 0.0041218615637508907 0.050882408179162328 0 0.0034208935583513768 0.050294029768169719 0 0.0034750351084830988 0.050880698379448579 0 0.0035631165820141221 0.049080766155819834 0 0.0041218615637508907 0.050882408179162328 0 0.0034208935583513768 0.050294029768169719 0 0.0035631165820141221 0.049080766155819834 0 0.0034208935583513768 0.050294029768169719 0 0.0031994191911827344 0.050037556171003188 0 0.0034958581160291938 0.050197219865477004 0 0.0037608361067893704 0.05100468057299589 0 0.0034670510442123895 0.050083978045961722 0 0.0031994191911827344 0.050037556171003188 0 0.0031891035336167189 0.050990459456971837 0 0.0034208935583513768 0.050294029768169719 0 0.0031994191911827344 0.050037556171003188 0 0.0031891035336167189 0.050990459456971837 0 0.0034750351084830988 0.050880698379448579 0 0.0031891035336167189 0.050990459456971837 0 0.0032927245526660496 0.051231189992297074 0 0.0034208935583513768 0.050294029768169719 0 0.0034750351084830988 0.050880698379448579 0 0.0031891035336167189 0.050990459456971837 0 0.0031891035336167189 0.050990459456971837 0 0.0029104176530052261 0.051540931806199598 0 0.0032927245526660496 0.051231189992297074 0 0.0037608361067893704 0.05100468057299589 0 0.0032911227009367289 0.0518216413218675 0 0.0039874848365795022 0.050429686840801326 0 0.0043941621503949171 0.051004895190151334 0 0.0041977549073911099 0.051563712126028116 0 0.0043941621503949171 0.051004895190151334 0 0.0041977549073911099 0.051563712126028116 0 0.0040935749734576339 0.051913966713673688 0 0.0041977549073911099 0.051563712126028116 0 0.0040935749734576339 0.051913966713673688 0 0.004464165061395165 0.051732956000863729 0 0.0040935749734576339 0.051913966713673688 0 0.003793525997244882 0.0521344806872404 0 0.0035919553433346393 0.051891925746652155 0 0.0043941621503949171 0.051004895190151334 0 0.0040935749734576339 0.051913966713673688 0 0.003793525997244882 0.0521344806872404 0 0.0029104176530052261 0.051540931806199598 0 0.0025166375904550637 0.051741801587797433 0 0.0021051675363432934 0.052089189203734981 0 0.0032911227009367289 0.0518216413218675 0 0.0022596521833360161 0.051994070735056117 0 0.0029104176530052261 0.051540931806199598 0 0.0032927245526660496 0.051231189992297074 0 0.0025166375904550637 0.051741801587797433 0 0.0028907324438417867 0.051433370817728433 0 0.0025166375904550637 0.051741801587797433 0 0.0021163357558870877 0.051843716927063417 0 0.0032927245526660496 0.051231189992297074 0 0.0028907324438417867 0.051433370817728433 0 0.0025166375904550637 0.051741801587797433 0 0.0021051675363432934 0.052089189203734981 0 0.001550821383014744 0.052140087750641176 0 0.0010535673381728019 0.052048567653798672 0 0.0025166375904550637 0.051741801587797433 0 0.0021051675363432934 0.052089189203734981 0 0.001550821383014744 0.052140087750641176 0 0.003793525997244882 0.0521344806872404 0 0.0021051675363432934 0.052089189203734981 0 0.0035919553433346393 0.051891925746652155 0 0.0021051675363432934 0.052089189203734981 0 0.0035919553433346393 0.051891925746652155 0 0.0021757879496612483 0.051437493485193476 0 0.0021051675363432934 0.052089189203734981 0 0.0021757879496612483 0.051437493485193476 0 0.0010535673381728019 0.052048567653798672 0 0.0035919553433346393 0.051891925746652155 0 0.0045657892081497004 0.051377296443991263 0 0.0021757879496612483 0.051437493485193476 0 0.0040935749734576339 0.051913966713673688 0 0.004464165061395165 0.051732956000863729 0 0.0035919553433346393 0.051891925746652155 0 0.0049470435805641757 0.051489908181785095 0 0.004464165061395165 0.051732956000863729 0 0.0045657892081497004 0.051377296443991263 0 0.004464165061395165 0.051732956000863729 0 0.0035919553433346393 0.051891925746652155 0 0.0045657892081497004 0.051377296443991263 0 0.0045657892081497004 0.051377296443991263 0 0.0033345451941925218 0.049999612675194247 0 0.0021757879496612483 0.051437493485193476 0 0.0061452765350105479 0.050186202022282377 0 0.0033345451941925218 0.049999612675194247 0 0.005348245733042504 0.050668507279969438 0 0.0045657892081497004 0.051377296443991263 0 0.0033345451941925218 0.049999612675194247 0 0.005348245733042504 0.050668507279969438 0 0.0061452765350105479 0.050186202022282377 0 0.0063050292990746932 0.049999729169486279 0 0.0033345451941925218 0.049999612675194247 0 0.0061452765350105479 0.050186202022282377 0 0.0059512524193936498 0.050247995588362945 0 0.005348245733042504 0.050668507279969438 0 0.0021757879496612483 0.051437493485193476 0 0.00035984556363340847 0.04999954106242973 0 -0.00023523502540236178 0.05126681731308054 0 0.0021757879496612483 0.051437493485193476 0 -0.00023523502540236178 0.05126681731308054 0 0.0010535673381728019 0.052048567653798672 0 0.0033345451941925218 0.049999612675194247 0 0.0021757879496612483 0.051437493485193476 0 0.00035984556363340847 0.04999954106242973 0 0.00035984556363340847 0.04999954106242973 0 -0.00023523502540236178 0.05126681731308054 0 -0.0026146702002826203 0.04999934239674779 0 -0.00023523502540236178 0.05126681731308054 0 -0.0032464128622686599 0.051607523618240891 0 0.0001026994125253085 0.052688640852424119 0 -0.00023523502540236178 0.05126681731308054 0 -0.0026146702002826203 0.04999934239674779 0 -0.0032464128622686599 0.051607523618240891 0 -0.0026146702002826203 0.04999934239674779 0 -0.0055903463903115838 0.049999562845868949 0 -0.0032464128622686599 0.051607523618240891 0 -0.0055903463903115838 0.049999562845868949 0 -0.0058972909835466438 0.051520392380279008 0 -0.0032464128622686599 0.051607523618240891 0 -0.0058972909835466438 0.051520392380279008 0 -0.0032464128622686599 0.051607523618240891 0 -0.0054358932982416491 0.053044722017115548 0 -0.0014214320384340407 0.05303285515910959 0 9.8120358539776409e-06 0.052758876077974817 0 -0.0032464128622686599 0.051607523618240891 0 -0.0036738551804604441 0.054209454711198195 0 0.0001026994125253085 0.052688640852424119 0 -0.0054358932982416491 0.053044722017115548 0 -0.0036738551804604441 0.054209454711198195 0 -0.006560368367599329 0.054789018074402729 0 -0.0032464128622686599 0.051607523618240891 0 -0.0054358932982416491 0.053044722017115548 0 -0.0036738551804604441 0.054209454711198195 0 -0.0014214320384340407 0.05303285515910959 0 -0.0024682385502700814 0.053237268415934701 0 0.00073570902872750396 0.051834804230608898 0 0.0012998300697601762 0.05194467086802261 0 0.00020751211108806399 0.051395773539021319 0 0.00073570902872750396 0.051834804230608898 0 0.0012998300697601762 0.05194467086802261 0 0.0010698044151937797 0.051982390466971992 0 0.0012998300697601762 0.05194467086802261 0 0.00098521469668482386 0.052036219195805131 0 0.0011990284240427083 0.051922598967603192 0 0.0012998300697601762 0.05194467086802261 0 0.0011990284240427083 0.051922598967603192 0 0.0010698044151937797 0.051982390466971992 0 0.0012998300697601762 0.05194467086802261 0 0.00098521469668482386 0.052036219195805131 0 0.0001026994125253085 0.052688640852424119 0 0.00098521469668482386 0.052036219195805131 0 0.0012688797269182364 0.05198318180554775 0 0.0011990284240427083 0.051922598967603192 0 0.001550821383014744 0.052140087750641176 0 0.0001026994125253085 0.052688640852424119 0 0.0012688797269182364 0.05198318180554775 0 0.00098521469668482386 0.052036219195805131 0 0.0001026994125253085 0.052688640852424119 0 0.0012688797269182364 0.05198318180554775 0 0.001550821383014744 0.052140087750641176 0 0.0010535673381728019 0.052048567653798672 0 0.0001026994125253085 0.052688640852424119 0 -0.00023523502540236178 0.05126681731308054 0 0.0010535673381728019 0.052048567653798672 0 0.0001026994125253085 0.052688640852424119 0 -0.01258371847359434 0.052255638450432171 0 -0.011713515501017098 0.051392106102914156 0 -0.013759837690895723 0.051509312959081462 0 -0.01258371847359434 0.052255638450432171 0 -0.011713515501017098 0.051392106102914156 0 -0.011362311983857114 0.052013039742872386 0 -0.011713515501017098 0.051392106102914156 0 -0.011541378332250243 0.049999734596844543 0 -0.010334307401904866 0.050774651670797033 0 -0.011713515501017098 0.051392106102914156 0 -0.011541378332250243 0.049999734596844543 0 -0.013759837690895723 0.051509312959081462 0 -0.011541378332250243 0.049999734596844543 0 -0.010334307401904866 0.050774651670797033 0 -0.0085657338102867672 0.049999719928111183 0 -0.010334307401904866 0.050774651670797033 0 -0.010453350200511944 0.051770853296126233 0 -0.0092965110419435185 0.051072122065476566 0 -0.010453350200511944 0.051770853296126233 0 -0.010390475564010612 0.052074175745208388 0 -0.0092965110419435185 0.051072122065476566 0 -0.011765271280755768 0.051188230619470622 0 -0.0096978535260001664 0.050950474871372199 0 -0.0099104534472750326 0.052050588203870277 0 -0.0092283708130007584 0.05180517940833234 0 -0.0092965110419435185 0.051072122065476566 0 -0.011362311983857114 0.052013039742872386 0 -0.010459535084521037 0.051999363865941402 0 -0.012275073433320221 0.053202654880865216 0 -0.0093508465062152775 0.052187367804935797 0 -0.0099104534472750326 0.052050588203870277 0 -0.0092283708130007584 0.05180517940833234 0 -0.011599599584669541 0.05143906903567172 0 -0.011765271280755768 0.051188230619470622 0 -0.011713515501017098 0.051392106102914156 0 -0.010334307401904866 0.050774651670797033 0 -0.010453350200511944 0.051770853296126233 0 -0.010453350200511944 0.051770853296126233 0 -0.011362311983857114 0.052013039742872386 0 -0.010459535084521037 0.051999363865941402 0 -0.011713515501017098 0.051392106102914156 0 -0.010453350200511944 0.051770853296126233 0 -0.011362311983857114 0.052013039742872386 0 -0.0093100778325398165 0.052660573897565087 0 -0.0099104534472750326 0.052050588203870277 0 -0.0095287012255369143 0.053523994971148736 0 -0.011765271280755768 0.051188230619470622 0 -0.011729135814003743 0.051752395283703914 0 -0.0093100778325398165 0.052660573897565087 0 -0.0093508465062152775 0.052187367804935797 0 -0.0099104534472750326 0.052050588203870277 0 -0.0093100778325398165 0.052660573897565087 0 -0.0087705611489787144 0.05222869095708782 0 -0.0083348745882047166 0.053013594837288361 0 -0.0093508465062152775 0.052187367804935797 0 -0.0087705611489787144 0.05222869095708782 0 -0.0092283708130007584 0.05180517940833234 0 -0.0093100778325398165 0.052660573897565087 0 -0.0093508465062152775 0.052187367804935797 0 -0.0087705611489787144 0.05222869095708782 0 -0.0087705611489787144 0.05222869095708782 0 -0.0073835000028050317 0.052234312866205834 0 -0.0083348745882047166 0.053013594837288361 0 -0.0085604305117572173 0.051582274927625467 0 -0.0076472542480163714 0.051062727357294072 0 -0.0073835000028050317 0.052234312866205834 0 -0.0087705611489787144 0.05222869095708782 0 -0.0085604305117572173 0.051582274927625467 0 -0.0073835000028050317 0.052234312866205834 0 -0.0085604305117572173 0.051582274927625467 0 -0.0092283708130007584 0.05180517940833234 0 -0.0092965110419435185 0.051072122065476566 0 -0.0087705611489787144 0.05222869095708782 0 -0.0085604305117572173 0.051582274927625467 0 -0.0092283708130007584 0.05180517940833234 0 -0.010334307401904866 0.050774651670797033 0 -0.0092965110419435185 0.051072122065476566 0 -0.0085657338102867672 0.049999719928111183 0 -0.0085604305117572173 0.051582274927625467 0 -0.0092965110419435185 0.051072122065476566 0 -0.0076472542480163714 0.051062727357294072 0 -0.0092965110419435185 0.051072122065476566 0 -0.0085657338102867672 0.049999719928111183 0 -0.0076472542480163714 0.051062727357294072 0 -0.0055903463903115838 0.049999562845868949 0 -0.0085657338102867672 0.049999719928111183 0 -0.0076472542480163714 0.051062727357294072 0 -0.0055903463903115838 0.049999562845868949 0 -0.0058972909835466438 0.051520392380279008 0 -0.0076472542480163714 0.051062727357294072 0 -0.0058972909835466438 0.051520392380279008 0 -0.0076472542480163714 0.051062727357294072 0 -0.0073835000028050317 0.052234312866205834 0 -0.0058972909835466438 0.051520392380279008 0 -0.0054358932982416491 0.053044722017115548 0 -0.0073835000028050317 0.052234312866205834 0 -0.0054358932982416491 0.053044722017115548 0 -0.0073835000028050317 0.052234312866205834 0 -0.0069408991000210864 0.05348275057847747 0 -0.0073835000028050317 0.052234312866205834 0 -0.0069408991000210864 0.05348275057847747 0 -0.0083348745882047166 0.053013594837288361 0 -0.0069408991000210864 0.05348275057847747 0 -0.006560368367599329 0.054789018074402729 0 -0.0079989858023846328 0.053963886402516495 0 -0.0054358932982416491 0.053044722017115548 0 -0.0069408991000210864 0.05348275057847747 0 -0.006560368367599329 0.054789018074402729 0 0.00073570902872750396 0.051834804230608898 0 0.00020751211108806399 0.051395773539021319 0 -0.001485395677593987 0.05247032113708705 0 0.003513939988825696 0.051735742589564593 0 -0.0079307751626322507 0.051778695147069162 0 -0.0024682385502700814 0.053237268415934701 0 -0.0090185152782106728 0.051602000520917228 0 0.00020751211108806399 0.051395773539021319 0 -0.0017476563832595055 0.051617395590059151 0 -0.001485395677593987 0.05247032113708705 0 -0.006560368367599329 0.054789018074402729 0 -0.0091072854051088142 0.05510221462177102 0 -0.0079989858023846328 0.053963886402516495 0 -0.013804711061382398 0.050719929843286181 0 -0.014238971493351925 0.051131006872394885 0 -0.013630095467565266 0.051366910953513298 0 -0.0090185152782106728 0.051602000520917228 0 -0.0079307751626322507 0.051778695147069162 0 -0.0091072854051088142 0.05510221462177102 0 -0.0079989858023846328 0.053963886402516495 0 -0.0095287012255369143 0.053523994971148736 0 -0.0069408991000210864 0.05348275057847747 0 -0.0079989858023846328 0.053963886402516495 0 -0.0083348745882047166 0.053013594837288361 0 -0.0079989858023846328 0.053963886402516495 0 -0.0083348745882047166 0.053013594837288361 0 -0.0095287012255369143 0.053523994971148736 0 -0.0093100778325398165 0.052660573897565087 0 -0.0083348745882047166 0.053013594837288361 0 -0.0095287012255369143 0.053523994971148736 0 -0.011765271280755768 0.051188230619470622 0 -0.013668961747688264 0.051582304457497716 0 -0.014118391870848686 0.050008549484438031 0 -0.014466300095105775 0.050831164902641404 0 -0.015022420112879256 0.050184453654992335 0 -0.014307619807738068 0.049266943747128658 0 -0.014118391870848686 0.050008549484438031 0 -0.015022420112879256 0.050184453654992335 0 -0.0090185152782106728 0.051602000520917228 0 -0.011729135814003743 0.051752395283703914 0 -0.01390032494886928 0.050765048974431896 0 -0.014118391870848686 0.050008549484438031 0 -0.014466300095105775 0.050831164902641404 0 -0.013804711061382398 0.050719929843286181 0 -0.014238971493351925 0.051131006872394885 0 -0.014466300095105775 0.050831164902641404 0 -0.0090185152782106728 0.051602000520917228 0 -0.014898379131451502 0.051410406014414364 0 -0.014238971493351925 0.051131006872394885 0 -0.014466300095105775 0.050831164902641404 0 -0.015036180316234967 0.051574843731904643 0 -0.014466300095105775 0.050831164902641404 0 -0.015075615380427487 0.050936162719082703 0 -0.015022420112879256 0.050184453654992335 0 -0.012275073433320221 0.053202654880865216 0 -0.013735551608479214 0.053021627440305343 0 -0.013937056523741536 0.053866092105750232 0 -0.013668961747688264 0.051582304457497716 0 -0.014829387165756096 0.052457550011585474 0 -0.015075615380427487 0.050936162719082703 0 -0.015022420112879256 0.050184453654992335 0 -0.015761019009105197 0.051153118171054536 0 -0.014466300095105775 0.050831164902641404 0 -0.015075615380427487 0.050936162719082703 0 -0.015036180316234967 0.051574843731904643 0 -0.01258371847359434 0.052255638450432171 0 -0.012275073433320221 0.053202654880865216 0 -0.013735551608479214 0.053021627440305343 0 -0.01258371847359434 0.052255638450432171 0 -0.011362311983857114 0.052013039742872386 0 -0.012275073433320221 0.053202654880865216 0 -0.016341433819853108 0.051374722207879302 0 -0.0164314873038304 0.05141934588998992 0 -0.016466036354810382 0.051313270159487653 0 -0.016341433819853108 0.051374722207879302 0 -0.016466036354810382 0.051313270159487653 0 -0.016390081700173025 0.051257770954208644 0 -0.016341433819853108 0.051374722207879302 0 -0.0164314873038304 0.05141934588998992 0 -0.016046571367371931 0.051500372123451786 0 -0.015036180316234967 0.051574843731904643 0 -0.016046571367371931 0.051500372123451786 0 -0.015761019009105197 0.051153118171054536 0 -0.01719590238402106 0.051640867261986523 0 -0.015408654670219278 0.051402453186483545 0 -0.015075615380427487 0.050936162719082703 0 -0.015036180316234967 0.051574843731904643 0 -0.015761019009105197 0.051153118171054536 0 -0.0164314873038304 0.05141934588998992 0 -0.016382791252113973 0.051373445868950082 0 -0.016300242874602248 0.051317261206530011 0 -0.01719590238402106 0.051640867261986523 0 -0.0079307751626322507 0.051778695147069162 0 -0.014238971493351925 0.051131006872394885 0 -0.015036180316234967 0.051574843731904643 0 -0.013630095467565266 0.051366910953513298 0 -0.0164314873038304 0.05141934588998992 0 -0.016382791252113973 0.051373445868950082 0 -0.016466036354810382 0.051313270159487653 0 -0.013436749863320366 0.046853730382453496 0 -0.014381458922483152 0.047296883280500399 0 -0.013826786594510778 0.047531396976492696 0 -0.010814990174936295 0.050547187220897287 0 -0.016194863291543595 0.049252414743748113 0 -0.016382791252113973 0.051373445868950082 0 -0.016295328854175894 0.051395681999575525 0 -0.016466036354810382 0.051313270159487653 0 -0.013292103600121478 0.047070320116134545 0 -0.01300925694070474 0.046943367292771758 0 -0.013264556618465935 0.047417310535672094 0 -0.010814990174936295 0.050547187220897287 0 -0.013493684386610567 0.046135746860602525 0 -0.010814990174936295 0.050547187220897287 0 -0.0041304427375041981 0.049881293205274298 0 -0.00073907880303100465 0.05297545946687611 0 -0.00048756912061583295 0.052546491176564555 0 -6.8994458479326821e-05 0.052684080274541259 0 -0.016382791252113973 0.051373445868950082 0 -0.016295328854175894 0.051395681999575525 0 -0.016300242874602248 0.051317261206530011 0 -0.00073907880303100465 0.05297545946687611 0 -0.00095316467439304645 0.051900802744994638 0 -0.00048756912061583295 0.052546491176564555 0 -0.010814990174936295 0.050547187220897287 0 -0.0079307751626322507 0.051778695147069162 0 -0.00095316467439304645 0.051900802744994638 0 -0.00048756912061583295 0.052546491176564555 0 -7.5906603494185629e-05 0.052419603386237336 0 -0.0041304427375041981 0.049881293205274298 0 0.0018426245257259308 0.051811809483139883 0 -0.00048756912061583295 0.052546491176564555 0 -6.8994458479326821e-05 0.052684080274541259 0 -7.5906603494185629e-05 0.052419603386237336 0 -0.00095316467439304645 0.051900802744994638 0 -7.5906603494185629e-05 0.052419603386237336 0 0.0001948084730123024 0.052151207456872864 0 -5.4350676973358251e-05 0.052688996722177868 0 0.0001948084730123024 0.052151207456872864 0 0.00089990122210837666 0.052128408414535254 0 -5.4350676973358251e-05 0.052688996722177868 0 -7.5906603494185629e-05 0.052419603386237336 0 0.0001948084730123024 0.052151207456872864 0 0.00089960392914829477 0.052065319638756428 0 0.00089990122210837666 0.052128408414535254 0 0.00093885411772239675 0.05208652773634969 0 0.00073570902872750396 0.051834804230608898 0 -0.00095316467439304645 0.051900802744994638 0 0.0001948084730123024 0.052151207456872864 0 -0.0041304427375041981 0.049881293205274298 0 -0.0032417423602984236 0.051480697418820887 0 -0.0041304427375041981 0.049881293205274298 0 -0.006341527686635433 0.050159409349759265 0 0.00089960392914829477 0.052065319638756428 0 0.00093097789317765221 0.052116073180849307 0 0.00093885411772239675 0.05208652773634969 0 0.00089960392914829477 0.052065319638756428 0 0.00093097789317765221 0.052116073180849307 0 0.00088640265010404785 0.052169172037766887 0 -0.01300925694070474 0.046943367292771758 0 -0.012999555093216377 0.047658537709097629 0 -0.013264556618465935 0.047417310535672094 0 0.00093097789317765221 0.052116073180849307 0 0.0009450819497117299 0.052148456047848631 0 0.00088640265010404785 0.052169172037766887 0 0.0009450819497117299 0.052148456047848631 0 0.00088640265010404785 0.052169172037766887 0 0.0010065915566163446 0.052189996429414798 0 -0.012999555093216377 0.047658537709097629 0 -0.013260813009223818 0.048155395631520229 0 -0.012855947137462046 0.048637641913330296 0 0.00088640265010404785 0.052169172037766887 0 0.00098607136036475392 0.052248097795030098 0 0.00088630956657480514 0.052315885603827134 0 -0.006341527686635433 0.050159409349759265 0 -0.0057284875212015281 0.048925601940669555 0 -0.012999555093216377 0.047658537709097629 0 -0.013463313864381562 0.047797341269575987 0 -0.013260813009223818 0.048155395631520229 0 -0.013463313864381562 0.047797341269575987 0 -0.013260813009223818 0.048155395631520229 0 -0.013685528139929492 0.048144564279706516 0 -0.013463313864381562 0.047797341269575987 0 -0.013685528139929492 0.048144564279706516 0 -0.013898879664979109 0.047911128727868062 0 -0.013436749863320366 0.046853730382453496 0 -0.013264556618465935 0.047417310535672094 0 -0.013826786594510778 0.047531396976492696 0 -0.013463313864381562 0.047797341269575987 0 -0.013826786594510778 0.047531396976492696 0 -0.013898879664979109 0.047911128727868062 0 -0.013463313864381562 0.047797341269575987 0 -0.013264556618465935 0.047417310535672094 0 -0.013826786594510778 0.047531396976492696 0 -0.012999555093216377 0.047658537709097629 0 -0.013463313864381562 0.047797341269575987 0 -0.013264556618465935 0.047417310535672094 0 -0.013826786594510778 0.047531396976492696 0 -0.013898879664979109 0.047911128727868062 0 -0.014469622908804651 0.047811060379642972 0 -0.014381458922483152 0.047296883280500399 0 -0.013826786594510778 0.047531396976492696 0 -0.014469622908804651 0.047811060379642972 0 -0.014469622908804651 0.047811060379642972 0 -0.014639982215682213 0.048154788854711569 0 -0.014105148088110192 0.048237989146187328 0 -0.013685528139929492 0.048144564279706516 0 -0.013898879664979109 0.047911128727868062 0 -0.014105148088110192 0.048237989146187328 0 -0.013898879664979109 0.047911128727868062 0 -0.014469622908804651 0.047811060379642972 0 -0.014105148088110192 0.048237989146187328 0 -0.014469622908804651 0.047811060379642972 0 -0.01483956383312842 0.047989533367603254 0 -0.014639982215682213 0.048154788854711569 0 -0.014469622908804651 0.047811060379642972 0 -0.01483956383312842 0.047989533367603254 0 -0.015003523317795342 0.047846072912944036 0 -0.01483956383312842 0.047989533367603254 0 -0.014639982215682213 0.048154788854711569 0 -0.014881720314614502 0.047992030190936452 0 -0.014381458922483152 0.047296883280500399 0 -0.014469622908804651 0.047811060379642972 0 -0.015003523317795342 0.047846072912944036 0 -0.016466036354810382 0.051313270159487653 0 -0.016531009200008429 0.050741497971592088 0 -0.016390081700173025 0.051257770954208644 0 -0.016194863291543595 0.049252414743748113 0 -0.015486418885805526 0.049215814161101851 0 0.0021203643320217304 0.051935957044405054 0 0.0012596903677364075 0.05201143151289666 0 0.0018388498260061136 0.052381341960529133 0 0.0021203643320217304 0.051935957044405054 0 0.0021163357558870877 0.051843716927063417 0 0.0016064834394420634 0.051898692273566152 0 0.0021203643320217304 0.051935957044405054 0 0.0016064834394420634 0.051898692273566152 0 0.0012596903677364075 0.05201143151289666 0 0.002585475916243178 0.052273645291387963 0 0.0035318139422848764 0.052655363576593034 0 0.0028907324438417867 0.051433370817728433 0 0.0024306582806015581 0.051698229534537093 0 0.0021163357558870877 0.051843716927063417 0 0.0021203643320217304 0.051935957044405054 0 0.0024306582806015581 0.051698229534537093 0 0.0027100658205646724 0.051520867650555732 0 0.0021203643320217304 0.051935957044405054 0 0.0024306582806015581 0.051698229534537093 0 0.0021163357558870877 0.051843716927063417 0 0.001550821383014744 0.052140087750641176 0 0.0021163357558870877 0.051843716927063417 0 0.0012688797269182364 0.05198318180554775 0 0.0025166375904550637 0.051741801587797433 0 0.001550821383014744 0.052140087750641176 0 0.0021163357558870877 0.051843716927063417 0 0.0021163357558870877 0.051843716927063417 0 0.0012688797269182364 0.05198318180554775 0 0.0016064834394420634 0.051898692273566152 0 0.0012688797269182364 0.05198318180554775 0 0.0016064834394420634 0.051898692273566152 0 0.0011990284240427083 0.051922598967603192 0 0.0011990284240427083 0.051922598967603192 0 0.0010698044151937797 0.051982390466971992 0 0.0010478590938381566 0.052064438140786359 0 0.0011990284240427083 0.051922598967603192 0 0.0010478590938381566 0.052064438140786359 0 0.0012596903677364075 0.05201143151289666 0 0.0016064834394420634 0.051898692273566152 0 0.0011990284240427083 0.051922598967603192 0 0.0012596903677364075 0.05201143151289666 0 0.00073570902872750396 0.051834804230608898 0 0.00089990122210837666 0.052128408414535254 0 0.0010698044151937797 0.051982390466971992 0 0.00073570902872750396 0.051834804230608898 0 0.0001948084730123024 0.052151207456872864 0 0.00089990122210837666 0.052128408414535254 0 0.00089990122210837666 0.052128408414535254 0 0.0010698044151937797 0.051982390466971992 0 0.0010478590938381566 0.052064438140786359 0 0.00089990122210837666 0.052128408414535254 0 0.00093885411772239675 0.05208652773634969 0 0.0010478590938381566 0.052064438140786359 0 0.0010478590938381566 0.052064438140786359 0 0.00098895442955039027 0.052125127261318328 0 0.0011105956767390335 0.052143781180582126 0 0.00093885411772239675 0.05208652773634969 0 0.0010478590938381566 0.052064438140786359 0 0.00098895442955039027 0.052125127261318328 0 0.00093097789317765221 0.052116073180849307 0 0.00093885411772239675 0.05208652773634969 0 0.00098895442955039027 0.052125127261318328 0 0.0010478590938381566 0.052064438140786359 0 0.0012596903677364075 0.05201143151289666 0 0.0011105956767390335 0.052143781180582126 0 0.0012596903677364075 0.05201143151289666 0 0.0011105956767390335 0.052143781180582126 0 0.0012720957345812277 0.05214993204031998 0 0.0010249746289899728 0.051618317344455836 0 0.0035318139422848764 0.052655363576593034 0 0.004412021398734348 0.052914024471493591 0 0.0035318139422848764 0.052655363576593034 0 0.0011105956767390335 0.052143781180582126 0 0.0011274376574004271 0.05224900338103413 0 0.0012720957345812277 0.05214993204031998 0 0.0078971819004416601 0.052958076835657085 0 0.006614565693765573 0.053092358202209249 0 0.0066397067874371923 0.054792459995614766 0 0.0011105956767390335 0.052143781180582126 0 0.0010065915566163446 0.052189996429414798 0 0.0011274376574004271 0.05224900338103413 0 0.0009450819497117299 0.052148456047848631 0 0.00098895442955039027 0.052125127261318328 0 0.0010065915566163446 0.052189996429414798 0 0.00093097789317765221 0.052116073180849307 0 0.0009450819497117299 0.052148456047848631 0 0.00098895442955039027 0.052125127261318328 0 0.00098895442955039027 0.052125127261318328 0 0.0011105956767390335 0.052143781180582126 0 0.0010065915566163446 0.052189996429414798 0 0.00098607136036475392 0.052248097795030098 0 0.0011274376574004271 0.05224900338103413 0 0.0010202388677214343 0.052323390857481264 0 0.004412021398734348 0.052914024471493591 0 0.0054796539024285426 0.050617211006191515 0 0.0010065915566163446 0.052189996429414798 0 0.00098607136036475392 0.052248097795030098 0 0.0011274376574004271 0.05224900338103413 0 0.00088640265010404785 0.052169172037766887 0 0.0010065915566163446 0.052189996429414798 0 0.00098607136036475392 0.052248097795030098 0 0.0078971819004416601 0.052958076835657085 0 0.0067244310025564935 0.052275807540400079 0 0.0076191217707018725 0.051221393238846995 0 0.0078971819004416601 0.052958076835657085 0 0.0067244310025564935 0.052275807540400079 0 0.006614565693765573 0.053092358202209249 0 0.0067244310025564935 0.052275807540400079 0 0.006614565693765573 0.053092358202209249 0 0.0051861580022047171 0.052340536507566857 0 0.006614565693765573 0.053092358202209249 0 0.0066397067874371923 0.054792459995614766 0 0.0051861580022047171 0.052340536507566857 0 0.0021203643320217304 0.051935957044405054 0 0.0024978360861688848 0.051690680215968177 0 0.0027100658205646724 0.051520867650555732 0 0.0035318139422848764 0.052655363576593034 0 0.0043984447740970265 0.051874110317915813 0 0.0024978360861688848 0.051690680215968177 0 0.0027100658205646724 0.051520867650555732 0 0.0032762866891227287 0.051212026770879188 0 0.003161589777278098 0.051211179326210388 0 0.0028907324438417867 0.051433370817728433 0 0.0027100658205646724 0.051520867650555732 0 0.0028907324438417867 0.051433370817728433 0 0.0024306582806015581 0.051698229534537093 0 0.0027100658205646724 0.051520867650555732 0 0.003161589777278098 0.051211179326210388 0 0.0027100658205646724 0.051520867650555732 0 0.0032762866891227287 0.051212026770879188 0 0.0032861684851270547 0.050910707609187748 0 0.003161589777278098 0.051211179326210388 0 0.0032762866891227287 0.051212026770879188 0 0.0032861684851270547 0.050910707609187748 0 0.0036162623771794724 0.049900334661389024 0 0.0032762866891227287 0.051212026770879188 0 0.0036162623771794724 0.049900334661389024 0 0.0051861580022047171 0.052340536507566857 0 0.0046837790429999126 0.049355871660500351 0 0.0035107134774344522 0.049890526293958612 0 0.0043984447740970265 0.051874110317915813 0 0.0051861580022047171 0.052340536507566857 0 0.0059078913614529528 0.049763076017857982 0 0.0046837790429999126 0.049355871660500351 0 0.0051861580022047171 0.052340536507566857 0 0.0065411229874202219 0.051113758136394981 0 0.0059078913614529528 0.049763076017857982 0 0.0067244310025564935 0.052275807540400079 0 0.0065411229874202219 0.051113758136394981 0 0.0076191217707018725 0.051221393238846995 0 0.0067244310025564935 0.052275807540400079 0 0.0051861580022047171 0.052340536507566857 0 0.0065411229874202219 0.051113758136394981 0 0.0065411229874202219 0.051113758136394981 0 0.0059078913614529528 0.049763076017857982 0 0.0074022433445886772 0.049860710797143971 0 0.0059078913614529528 0.049763076017857982 0 0.0055490700421747634 0.048390764394707908 0 0.006852493486986311 0.048625355247928083 0 0.0059078913614529528 0.049763076017857982 0 0.006852493486986311 0.048625355247928083 0 0.0074022433445886772 0.049860710797143971 0 0.0059078913614529528 0.049763076017857982 0 0.0046837790429999126 0.049355871660500351 0 0.0055490700421747634 0.048390764394707908 0 0.0036162623771794724 0.049900334661389024 0 0.0034931585839606716 0.048796677664168668 0 0.0046837790429999126 0.049355871660500351 0 0.0034931585839606716 0.048796677664168668 0 0.0044443766337316773 0.048140327546380882 0 0.0038475741127521495 0.047490015291198409 0 0.0034931585839606716 0.048796677664168668 0 0.0046837790429999126 0.049355871660500351 0 0.0044443766337316773 0.048140327546380882 0 0.0044443766337316773 0.048140327546380882 0 0.0038475741127521495 0.047490015291198409 0 0.0050933076151366665 0.046970939239722044 0 0.0044443766337316773 0.048140327546380882 0 0.0055490700421747634 0.048390764394707908 0 0.0050933076151366665 0.046970939239722044 0 0.0046837790429999126 0.049355871660500351 0 0.0044443766337316773 0.048140327546380882 0 0.0055490700421747634 0.048390764394707908 0 0.0055490700421747634 0.048390764394707908 0 0.006852493486986311 0.048625355247928083 0 0.0062848388430293591 0.047407022259574653 0 0.006852493486986311 0.048625355247928083 0 0.0062848388430293591 0.047407022259574653 0 0.0076622586127320872 0.047264331792858563 0 0.0055490700421747634 0.048390764394707908 0 0.0062848388430293591 0.047407022259574653 0 0.0050933076151366665 0.046970939239722044 0 0.0062848388430293591 0.047407022259574653 0 0.0064593115352745388 0.046084097322782271 0 0.0050933076151366665 0.046970939239722044 0 0.0062848388430293591 0.047407022259574653 0 0.0064593115352745388 0.046084097322782271 0 0.0076622586127320872 0.047264331792858563 0 0.0064593115352745388 0.046084097322782271 0 0.0076899225377058521 0.045621369210264086 0 0.0066836177191114598 0.044657144588221558 0 0.0064593115352745388 0.046084097322782271 0 0.0050933076151366665 0.046970939239722044 0 0.0054316269385989964 0.045154426791047232 0 0.0064593115352745388 0.046084097322782271 0 0.0054316269385989964 0.045154426791047232 0 0.0066836177191114598 0.044657144588221558 0 0.0039746367989149491 0.046227517718235134 0 0.0050933076151366665 0.046970939239722044 0 0.0054316269385989964 0.045154426791047232 0 0.0039746367989149491 0.046227517718235134 0 0.0044054845383734095 0.044783179686473246 0 0.0054316269385989964 0.045154426791047232 0 0.0038475741127521495 0.047490015291198409 0 0.0039746367989149491 0.046227517718235134 0 0.0050933076151366665 0.046970939239722044 0 0.0096084522813378124 0.046353646614952601 0 0.0089367736344236354 0.045291965487494264 0 0.010840171604592585 0.045238401382808768 0 0.0096084522813378124 0.046353646614952601 0 0.010758290042306795 0.04707384416702954 0 0.010565902802162883 0.045425982130166354 0 0.0096084522813378124 0.046353646614952601 0 0.0085682942009855916 0.046425766149633473 0 0.0093241161832940088 0.047765047092872777 0 0.010102066220098654 0.043930105774533011 0 -0.00056477798083058562 0.042954091275691532 0 0.0096084522813378124 0.046353646614952601 0 0.0089367736344236354 0.045291965487494264 0 0.0085682942009855916 0.046425766149633473 0 0.0089367736344236354 0.045291965487494264 0 0.0076899225377058521 0.045621369210264086 0 0.0085682942009855916 0.046425766149633473 0 0.0064593115352745388 0.046084097322782271 0 0.0076899225377058521 0.045621369210264086 0 0.0076622586127320872 0.047264331792858563 0 0.0076899225377058521 0.045621369210264086 0 0.0085682942009855916 0.046425766149633473 0 0.0076622586127320872 0.047264331792858563 0 0.0076622586127320872 0.047264331792858563 0 0.0093241161832940088 0.047765047092872777 0 0.0082566019636739884 0.048889016070349144 0 0.0085682942009855916 0.046425766149633473 0 0.0076622586127320872 0.047264331792858563 0 0.0093241161832940088 0.047765047092872777 0 0.006852493486986311 0.048625355247928083 0 0.0076622586127320872 0.047264331792858563 0 0.0082566019636739884 0.048889016070349144 0 0.0093241161832940088 0.047765047092872777 0 0.010882664010716397 0.048834745519224863 0 0.010758290042306795 0.04707384416702954 0 0.0093241161832940088 0.047765047092872777 0 0.0092767415576521014 0.049372755820759132 0 0.0082566019636739884 0.048889016070349144 0 0.0096084522813378124 0.046353646614952601 0 0.0093241161832940088 0.047765047092872777 0 0.010758290042306795 0.04707384416702954 0 0.0093241161832940088 0.047765047092872777 0 0.0092767415576521014 0.049372755820759132 0 0.010882664010716397 0.048834745519224863 0 0.0092767415576521014 0.049372755820759132 0 0.0094092000877393847 0.051102814647139699 0 0.010882664010716397 0.048834745519224863 0 0.0092767415576521014 0.049372755820759132 0 0.0085107357394203602 0.050275721700643865 0 0.0094092000877393847 0.051102814647139699 0 0.0054796539024285426 0.050617211006191515 0 -0.0002220898240221669 0.046267785824515795 0 0.0092767415576521014 0.049372755820759132 0 0.0082566019636739884 0.048889016070349144 0 0.0085107357394203602 0.050275721700643865 0 0.006852493486986311 0.048625355247928083 0 0.0082566019636739884 0.048889016070349144 0 0.0074022433445886772 0.049860710797143971 0 0.0082566019636739884 0.048889016070349144 0 0.0085107357394203602 0.050275721700643865 0 0.0074022433445886772 0.049860710797143971 0 0.0085107357394203602 0.050275721700643865 0 0.0076191217707018725 0.051221393238846995 0 0.0094092000877393847 0.051102814647139699 0 0.0078971819004416601 0.052958076835657085 0 0.0076191217707018725 0.051221393238846995 0 0.0091060371111061373 0.051120223528919199 0 0.0089890995836657411 0.051095183012352073 0 0.0054796539024285426 0.050617211006191515 0 0.0065411229874202219 0.051113758136394981 0 0.0074022433445886772 0.049860710797143971 0 0.0076191217707018725 0.051221393238846995 0 0.0085107357394203602 0.050275721700643865 0 0.0074022433445886772 0.049860710797143971 0 0.0076191217707018725 0.051221393238846995 0 0.00098607136036475392 0.052248097795030098 0 0.0010202388677214343 0.052323390857481264 0 0.00088630956657480514 0.052315885603827134 0 0.0054796539024285426 0.050617211006191515 0 -0.0057284875212015281 0.048925601940669555 0 -0.0057284875212015281 0.048925601940669555 0 -0.01148789573870633 0.046476038738406993 0 -0.0080887740398174843 0.044475691368463736 0 -0.0080156164411101447 0.044442498828726772 0 -0.0080381264132289177 0.044384680554201097 0 -0.013260813009223818 0.048155395631520229 0 -0.012855947137462046 0.048637641913330296 0 -0.013682710370830553 0.048668235934806757 0 -0.013260813009223818 0.048155395631520229 0 -0.013685528139929492 0.048144564279706516 0 -0.013682710370830553 0.048668235934806757 0 -0.0080156164411101447 0.044442498828726772 0 -0.0080381264132289177 0.044384680554201097 0 -0.0079803403923411689 0.044342822032536783 0 -0.0080381264132289177 0.044384680554201097 0 -0.0079803403923411689 0.044342822032536783 0 -0.0080436158046772177 0.044303087964073902 0 -0.0080381264132289177 0.044384680554201097 0 -0.0080684649872326698 0.044358346346986925 0 -0.0080436158046772177 0.044303087964073902 0 -0.0080684649872326698 0.044358346346986925 0 -0.0080879922375825548 0.044323204629832802 0 -0.0080436158046772177 0.044303087964073902 0 -0.0080887740398174843 0.044475691368463736 0 -0.0080381264132289177 0.044384680554201097 0 -0.0080684649872326698 0.044358346346986925 0 0.00032189663113913288 0.048484010876977304 0 0.00010531735572333341 0.048487199327873078 0 0.00012646689363317477 0.048705142305169168 0 -0.0057284875212015281 0.048925601940669555 0 -0.0002220898240221669 0.046267785824515795 0 -0.0080887740398174843 0.044475691368463736 0 -0.0080684649872326698 0.044358346346986925 0 -0.0080958872746203728 0.044345782225656383 0 -0.0080684649872326698 0.044358346346986925 0 -0.0080958872746203728 0.044345782225656383 0 -0.0080879922375825548 0.044323204629832802 0 -0.0002220898240221669 0.046267785824515795 0 -0.0013002316465343814 0.046595171222605744 0 -0.01260636613548083 0.045771213640683588 0 -0.014358582465627507 0.046123976813819148 0 -0.013860668942865502 0.048475131871663885 0 -0.01260636613548083 0.045771213640683588 0 -0.014639982215682213 0.048154788854711569 0 -0.014712639119197337 0.048158957967548884 0 -0.014881720314614502 0.047992030190936452 0 -0.01148789573870633 0.046476038738406993 0 -0.01260636613548083 0.045771213640683588 0 -0.013682710370830553 0.048668235934806757 0 -0.014569842321871928 0.048659296676175398 0 -0.014105148088110192 0.048237989146187328 0 -0.014639982215682213 0.048154788854711569 0 -0.014569842321871928 0.048659296676175398 0 -0.014105148088110192 0.048237989146187328 0 -0.013685528139929492 0.048144564279706516 0 -0.013682710370830553 0.048668235934806757 0 -0.014105148088110192 0.048237989146187328 0 -0.0079232275320470034 0.044435885151087248 0 -0.0079803403923411689 0.044342822032536783 0 -0.00788352166537413 0.044245199199051309 0 -0.0080156164411101447 0.044442498828726772 0 -0.0079232275320470034 0.044435885151087248 0 -0.0079803403923411689 0.044342822032536783 0 -0.01260636613548083 0.045771213640683588 0 -0.01072145926406958 0.043466210946517404 0 -0.013892269935039683 0.044484111048270387 0 -0.013977825963473628 0.043417785415080914 0 -0.013424449373633889 0.043843614916799223 0 -0.013892269935039683 0.044484111048270387 0 -0.013424449373633889 0.043843614916799223 0 -0.013060097627623042 0.044442923005516 0 -0.013977825963473628 0.043417785415080914 0 -0.013168971160600205 0.0427536510407176 0 -0.013424449373633889 0.043843614916799223 0 -0.0079803403923411689 0.044342822032536783 0 -0.00788352166537413 0.044245199199051309 0 -0.0080077160301861381 0.04422429804433526 0 -0.00788352166537413 0.044245199199051309 0 -0.0079746660689378641 0.044090901287337093 0 -0.0078741852651440548 0.043986255545809337 0 -0.01072145926406958 0.043466210946517404 0 -0.010932898916168875 0.043580274900549366 0 -0.00788352166537413 0.044245199199051309 0 -0.0080077160301861381 0.04422429804433526 0 -0.0079746660689378641 0.044090901287337093 0 -0.013977825963473628 0.043417785415080914 0 -0.013961495284325278 0.042247859515473982 0 -0.013168971160600205 0.0427536510407176 0 -0.0002220898240221669 0.046267785824515795 0 0.0012607418618863799 0.04602082377658015 0 -0.0080914281164463503 0.044346540792318465 0 -0.0081182824315788882 0.04421177411002624 0 -0.0080879922375825548 0.044323204629832802 0 -0.0080653761257259704 0.044240338803146782 0 -0.0081182824315788882 0.04421177411002624 0 -0.0080879922375825548 0.044323204629832802 0 -0.0080653761257259704 0.044240338803146782 0 -0.0080879922375825548 0.044323204629832802 0 -0.0080436158046772177 0.044303087964073902 0 -0.0079803403923411689 0.044342822032536783 0 -0.0080436158046772177 0.044303087964073902 0 -0.0080077160301861381 0.04422429804433526 0 -0.0080653761257259704 0.044240338803146782 0 -0.0080077160301861381 0.04422429804433526 0 -0.0080612540905702235 0.044121590614308571 0 -0.0080653761257259704 0.044240338803146782 0 -0.0080436158046772177 0.044303087964073902 0 -0.0080077160301861381 0.04422429804433526 0 -0.0080077160301861381 0.04422429804433526 0 -0.0079746660689378641 0.044090901287337093 0 -0.0080612540905702235 0.044121590614308571 0 -0.0081182824315788882 0.04421177411002624 0 -0.0080612540905702235 0.044121590614308571 0 -0.0081357606726980974 0.044062707787197411 0 0.0012607418618863799 0.04602082377658015 0 -0.00056477798083058562 0.042954091275691532 0 -0.0080653761257259704 0.044240338803146782 0 -0.0081182824315788882 0.04421177411002624 0 -0.0080612540905702235 0.044121590614308571 0 -0.00056477798083058562 0.042954091275691532 0 -0.010568358500263442 0.040438444655872818 0 -0.00056477798083058562 0.042954091275691532 0 0.0003857170206045588 0.039386525917612103 0 -0.010046917835781674 0.036521528708448672 0 -0.010858781381277905 0.037051914117750627 0 -0.010053673418593152 0.037331632888863556 0 -0.0080612540905702235 0.044121590614308571 0 -0.0081357606726980974 0.044062707787197411 0 -0.0080643730401875058 0.043886367892710908 0 -0.0079746660689378641 0.044090901287337093 0 -0.0080612540905702235 0.044121590614308571 0 -0.0080643730401875058 0.043886367892710908 0 -0.010858781381277905 0.037051914117750627 0 -0.011627406792718243 0.037631130817613344 0 -0.010816944452389642 0.037540194940817874 0 -0.010858781381277905 0.037051914117750627 0 -0.010053673418593152 0.037331632888863556 0 -0.010816944452389642 0.037540194940817874 0 -0.013961495284325278 0.042247859515473982 0 -0.013089718351598532 0.041590338040967741 0 -0.013168971160600205 0.0427536510407176 0 -0.0079746660689378641 0.044090901287337093 0 -0.0080643730401875058 0.043886367892710908 0 -0.0078741852651440548 0.043986255545809337 0 -0.0080643730401875058 0.043886367892710908 0 -0.0078741852651440548 0.043986255545809337 0 -0.0079220325487194976 0.043674571906838613 0 -0.010568358500263442 0.040438444655872818 0 -0.01092494750423057 0.040504588825701397 0 -0.010932898916168875 0.043580274900549366 0 -0.01092494750423057 0.040504588825701397 0 -0.013089718351598532 0.041590338040967741 0 -0.012748049201251685 0.040791894577046524 0 -0.013995122668359594 0.040900897051847768 0 -0.013961495284325278 0.042247859515473982 0 -0.013089718351598532 0.041590338040967741 0 -0.013995122668359594 0.040900897051847768 0 -0.01092494750423057 0.040504588825701397 0 -0.013117043488352881 0.039942778825231194 0 -0.012186707655948684 0.03961293943664275 0 -0.01220588143091538 0.039637629081479824 0 -0.012312636989795353 0.039822698067625721 0 -0.012748049201251685 0.040791894577046524 0 -0.013995122668359594 0.040900897051847768 0 -0.012312636989795353 0.039822698067625721 0 -0.011627406792718243 0.037631130817613344 0 -0.011625236615369733 0.038295631372213437 0 -0.011155742757829261 0.037984705122527496 0 -0.01092494750423057 0.040504588825701397 0 -0.012051545552674962 0.038461062686173969 0 -0.012186707655948684 0.03961293943664275 0 -0.012291723699654592 0.039501916539483373 0 -0.01220588143091538 0.039637629081479824 0 -0.012312636989795353 0.039822698067625721 0 -0.011971568821501461 0.039319183832559501 0 -0.011532064578340379 0.03901943036224427 0 -0.012291723699654592 0.039501916539483373 0 -0.01220588143091538 0.039637629081479824 0 -0.011971568821501461 0.039319183832559501 0 -0.01220588143091538 0.039637629081479824 0 -0.012312636989795353 0.039822698067625721 0 -0.011971568821501461 0.039319183832559501 0 -0.010053673418593152 0.037331632888863556 0 -0.010343512981242491 0.037772711551458463 0 -0.010816944452389642 0.037540194940817874 0 -0.010053673418593152 0.037331632888863556 0 -0.010343512981242491 0.037772711551458463 0 -0.010001023620784973 0.03798493736031331 0 -0.010343512981242491 0.037772711551458463 0 -0.011155742757829261 0.037984705122527496 0 -0.010816944452389642 0.037540194940817874 0 -0.011627406792718243 0.037631130817613344 0 -0.011155742757829261 0.037984705122527496 0 -0.010816944452389642 0.037540194940817874 0 -0.011625236615369733 0.038295631372213437 0 -0.011155742757829261 0.037984705122527496 0 -0.011116628724438943 0.038393982429146857 0 -0.010343512981242491 0.037772711551458463 0 -0.011155742757829261 0.037984705122527496 0 -0.011116628724438943 0.038393982429146857 0 -0.010355476356868634 0.037763528904841637 0 -0.010581023243006173 0.038164637060636594 0 -0.010068835769828897 0.038073823519902038 0 -0.010001023620784973 0.03798493736031331 0 -0.009829315245445773 0.038124899394708298 0 -0.010343512981242491 0.037772711551458463 0 -0.010068835769828897 0.038073823519902038 0 -0.010001023620784973 0.03798493736031331 0 0.010413287330062996 0.039461857222826489 0 0.0088087231464744759 0.039829343660907623 0 0.0083252135160566277 0.038165410067359552 0 0.010413287330062996 0.039461857222826489 0 0.0083252135160566277 0.038165410067359552 0 0.010090069984852811 0.036719463351208424 0 0.00020860633055832419 0.038818724257762387 0 0.00010397493386599486 0.037422767348938978 0 0.0003857170206045588 0.039386525917612103 0 0.00020860633055832419 0.038818724257762387 0 0.01066578889653744 0.042330007981220538 0 0.010413287330062996 0.039461857222826489 0 0.0095279878585532024 0.041100201015910567 0 0.010413287330062996 0.039461857222826489 0 0.0095279878585532024 0.041100201015910567 0 0.0088087231464744759 0.039829343660907623 0 0.0095279878585532024 0.041100201015910567 0 0.0084149940806146645 0.041312240713323164 0 0.0088087231464744759 0.039829343660907623 0 0.0084149940806146645 0.041312240713323164 0 0.0072582786707643086 0.039980494925569279 0 0.0072093876244416323 0.041755038480358692 0 0.0084149940806146645 0.041312240713323164 0 0.0088087231464744759 0.039829343660907623 0 0.0072582786707643086 0.039980494925569279 0 0.0088087231464744759 0.039829343660907623 0 0.0072582786707643086 0.039980494925569279 0 0.0083252135160566277 0.038165410067359552 0 0.0072582786707643086 0.039980494925569279 0 0.0083252135160566277 0.038165410067359552 0 0.0068355582935733031 0.038485458318581696 0 0.0083252135160566277 0.038165410067359552 0 0.0068355582935733031 0.038485458318581696 0 0.0069036898635037027 0.037071620416475347 0 0.0068355582935733031 0.038485458318581696 0 0.0057582164322303757 0.039372032648690103 0 0.0059061308916117062 0.037876928988257542 0 0.0072582786707643086 0.039980494925569279 0 0.0068355582935733031 0.038485458318581696 0 0.0057582164322303757 0.039372032648690103 0 0.0065874378520173063 0.038425163666672403 0 0.0065110788995624645 0.03609104380563153 0 0.0057582164322303757 0.039372032648690103 0 0.0043122288195789216 0.038088189655760232 0 0.0047756252407299814 0.040434980757844664 0 0.0057582164322303757 0.039372032648690103 0 0.0043122288195789216 0.038088189655760232 0 0.0059061308916117062 0.037876928988257542 0 0.0057582164322303757 0.039372032648690103 0 0.0047756252407299814 0.040434980757844664 0 0.0057605516925804019 0.041418604019818138 0 0.0036000953520028758 0.041147781007844504 0 0.0043122288195789216 0.038088189655760232 0 0.0047756252407299814 0.040434980757844664 0 0.0047756252407299814 0.040434980757844664 0 0.0057605516925804019 0.041418604019818138 0 0.004469848583702093 0.042194905367133287 0 0.0036000953520028758 0.041147781007844504 0 0.0047756252407299814 0.040434980757844664 0 0.004469848583702093 0.042194905367133287 0 0.0072582786707643086 0.039980494925569279 0 0.0057582164322303757 0.039372032648690103 0 0.0057605516925804019 0.041418604019818138 0 0.0072582786707643086 0.039980494925569279 0 0.0057605516925804019 0.041418604019818138 0 0.0072093876244416323 0.041755038480358692 0 0.0057605516925804019 0.041418604019818138 0 0.006869461362221223 0.043179255136913008 0 0.0072093876244416323 0.041755038480358692 0 0.0057605516925804019 0.041418604019818138 0 0.006869461362221223 0.043179255136913008 0 0.0051916009382276572 0.043441578801238244 0 0.0057605516925804019 0.041418604019818138 0 0.004469848583702093 0.042194905367133287 0 0.0051916009382276572 0.043441578801238244 0 0.0030091811091252306 0.044303672332230967 0 0.0036000953520028758 0.041147781007844504 0 0.004469848583702093 0.042194905367133287 0 0.0030091811091252306 0.044303672332230967 0 0.004469848583702093 0.042194905367133287 0 0.0051916009382276572 0.043441578801238244 0 0.0030091811091252306 0.044303672332230967 0 0.0051916009382276572 0.043441578801238244 0 0.0044054845383734095 0.044783179686473246 0 0.0030091811091252306 0.044303672332230967 0 0.0039746367989149491 0.046227517718235134 0 0.0044054845383734095 0.044783179686473246 0 0.0051916009382276572 0.043441578801238244 0 0.0044054845383734095 0.044783179686473246 0 0.0054316269385989964 0.045154426791047232 0 0.006869461362221223 0.043179255136913008 0 0.0051916009382276572 0.043441578801238244 0 0.0066836177191114598 0.044657144588221558 0 0.0051916009382276572 0.043441578801238244 0 0.0054316269385989964 0.045154426791047232 0 0.0066836177191114598 0.044657144588221558 0 0.0076899225377058521 0.045621369210264086 0 0.0066836177191114598 0.044657144588221558 0 0.0078899999243611033 0.044208436431077643 0 0.006869461362221223 0.043179255136913008 0 0.0078899999243611033 0.044208436431077643 0 0.0080945153575476582 0.042834699707664313 0 0.006869461362221223 0.043179255136913008 0 0.0066836177191114598 0.044657144588221558 0 0.0078899999243611033 0.044208436431077643 0 0.0078899999243611033 0.044208436431077643 0 0.0091425222242796488 0.04393753245487364 0 0.0080945153575476582 0.042834699707664313 0 0.0089367736344236354 0.045291965487494264 0 0.0078899999243611033 0.044208436431077643 0 0.0091425222242796488 0.04393753245487364 0 0.0089367736344236354 0.045291965487494264 0 0.0076899225377058521 0.045621369210264086 0 0.0078899999243611033 0.044208436431077643 0 0.010840171604592585 0.045238401382808768 0 0.01066578889653744 0.042330007981220538 0 0.0091425222242796488 0.04393753245487364 0 0.0089367736344236354 0.045291965487494264 0 0.010840171604592585 0.045238401382808768 0 0.0091425222242796488 0.04393753245487364 0 0.01066578889653744 0.042330007981220538 0 0.0091425222242796488 0.04393753245487364 0 0.0091662949757054576 0.042301111896617852 0 0.01066578889653744 0.042330007981220538 0 0.0095279878585532024 0.041100201015910567 0 0.0091662949757054576 0.042301111896617852 0 0.0095279878585532024 0.041100201015910567 0 0.0084149940806146645 0.041312240713323164 0 0.0091662949757054576 0.042301111896617852 0 0.0084149940806146645 0.041312240713323164 0 0.0091662949757054576 0.042301111896617852 0 0.0080945153575476582 0.042834699707664313 0 0.0084149940806146645 0.041312240713323164 0 0.0072093876244416323 0.041755038480358692 0 0.0080945153575476582 0.042834699707664313 0 0.006869461362221223 0.043179255136913008 0 0.0072093876244416323 0.041755038480358692 0 0.0080945153575476582 0.042834699707664313 0 0.0091425222242796488 0.04393753245487364 0 0.0091662949757054576 0.042301111896617852 0 0.0080945153575476582 0.042834699707664313 0 -0.011041950388333893 0.040451898946394046 0 -0.012909466880778707 0.039027328577236467 0 -0.011971762495183306 0.040643059919579082 0 -0.011041950388333893 0.040451898946394046 0 -0.0091532764108982843 0.040936238328767492 0 -0.009936767392357982 0.042571120047285596 0 -0.011421347882511746 0.040294489066374513 0 -0.010201892687300701 0.040021681597820935 0 -0.011041950388333893 0.040451898946394046 0 -0.011190651483861662 0.041560091207498449 0 -0.011357384027786363 0.040931825411762525 0 -0.011190651483861662 0.041560091207498449 0 -0.011393443937260845 0.042752121166710171 0 -0.009936767392357982 0.042571120047285596 0 -0.011041950388333893 0.040451898946394046 0 -0.011190651483861662 0.041560091207498449 0 -0.009936767392357982 0.042571120047285596 0 -0.0091532764108982843 0.040936238328767492 0 -0.009936767392357982 0.042571120047285596 0 -0.0082340815618475519 0.042663855825987994 0 -0.0091532764108982843 0.040936238328767492 0 -0.0082340815618475519 0.042663855825987994 0 -0.0076656851007384837 0.041370898736624334 0 -0.019061711620554662 0.042502289065458707 0 -0.019089822825554239 0.042493953556947781 0 -0.019051167346825781 0.042375369919141447 0 -0.012962148651694889 0.042330032896895908 0 -0.015489914942489542 0.040979148411750363 0 -0.010201892687300701 0.040021681597820935 0 -0.015489914942489542 0.040979148411750363 0 -0.012909466880778707 0.039027328577236467 0 -0.014066058686296446 0.040134714989910163 0 -0.014954070848747624 0.038328943556346647 0 -0.011971762495183306 0.040643059919579082 0 -0.014066058686296446 0.040134714989910163 0 -0.013356481365245058 0.04127738475505538 0 -0.012909466880778707 0.039027328577236467 0 -0.011971762495183306 0.040643059919579082 0 -0.014066058686296446 0.040134714989910163 0 -0.013356481365245058 0.04127738475505538 0 -0.015282729141237215 0.041177824348353112 0 -0.015011704736383987 0.04249559806850102 0 -0.014066058686296446 0.040134714989910163 0 -0.013356481365245058 0.04127738475505538 0 -0.015282729141237215 0.041177824348353112 0 -0.011971762495183306 0.040643059919579082 0 -0.013356481365245058 0.04127738475505538 0 -0.011469832995584827 0.041260500462483495 0 -0.011971762495183306 0.040643059919579082 0 -0.011165242305468434 0.040732842469186126 0 -0.011469832995584827 0.041260500462483495 0 -0.011041950388333893 0.040451898946394046 0 -0.011971762495183306 0.040643059919579082 0 -0.011165242305468434 0.040732842469186126 0 -0.011041950388333893 0.040451898946394046 0 -0.011165242305468434 0.040732842469186126 0 -0.011357384027786363 0.040931825411762525 0 -0.011165242305468434 0.040732842469186126 0 -0.011250985533993464 0.040748678718457373 0 -0.011469832995584827 0.041260500462483495 0 -0.011165242305468434 0.040732842469186126 0 -0.011288732581454373 0.04050024499499176 0 -0.011250985533993464 0.040748678718457373 0 -0.011165242305468434 0.040732842469186126 0 -0.011457104774846381 0.040512620419456004 0 -0.011288732581454373 0.04050024499499176 0 -0.011165242305468434 0.040732842469186126 0 -0.011457104774846381 0.040512620419456004 0 -0.011560970798192583 0.040780452175691644 0 -0.011457104774846381 0.040512620419456004 0 -0.01170147626604061 0.040537800356247829 0 -0.011695742309047465 0.040198968376999496 0 -0.011457104774846381 0.040512620419456004 0 -0.01170147626604061 0.040537800356247829 0 -0.011560970798192583 0.040780452175691644 0 -0.01170147626604061 0.040537800356247829 0 -0.011925908350542041 0.040359204021602223 0 -0.012005362538583563 0.040715029126688826 0 -0.01170147626604061 0.040537800356247829 0 -0.011925908350542041 0.040359204021602223 0 -0.011695742309047465 0.040198968376999496 0 -0.011560970798192583 0.040780452175691644 0 -0.012005362538583563 0.040715029126688826 0 -0.011777069180054648 0.041158109682005124 0 -0.01170147626604061 0.040537800356247829 0 -0.011560970798192583 0.040780452175691644 0 -0.012005362538583563 0.040715029126688826 0 -0.012005362538583563 0.040715029126688826 0 -0.012155043288222313 0.041267624799939583 0 -0.011777069180054648 0.041158109682005124 0 -0.011560970798192583 0.040780452175691644 0 -0.011357384027786363 0.040931825411762525 0 -0.011777069180054648 0.041158109682005124 0 -0.011165242305468434 0.040732842469186126 0 -0.011560970798192583 0.040780452175691644 0 -0.011357384027786363 0.040931825411762525 0 -0.012137139943035896 0.040325643715048154 0 -0.012285786326070872 0.040476342327997357 0 -0.012400725228803637 0.040020723377978275 0 -0.012214368938988614 0.040360480640339223 0 -0.011995703902541233 0.039494581824166895 0 -0.012312636989795353 0.039822698067625721 0 -0.012285786326070872 0.040476342327997357 0 -0.011532064578340379 0.03901943036224427 0 -0.012137139943035896 0.040325643715048154 0 -0.011925908350542041 0.040359204021602223 0 -0.012005362538583563 0.040715029126688826 0 -0.012137139943035896 0.040325643715048154 0 -0.012005362538583563 0.040715029126688826 0 -0.012285786326070872 0.040476342327997357 0 -0.012137139943035896 0.040325643715048154 0 -0.011925908350542041 0.040359204021602223 0 -0.012029862883985101 0.040030744572876684 0 -0.012005362538583563 0.040715029126688826 0 -0.012285786326070872 0.040476342327997357 0 -0.012424430010881208 0.041099535209691083 0 -0.012005362538583563 0.040715029126688826 0 -0.012424430010881208 0.041099535209691083 0 -0.012155043288222313 0.041267624799939583 0 -0.012748049201251685 0.040791894577046524 0 -0.012312636989795353 0.039822698067625721 0 -0.012285786326070872 0.040476342327997357 0 -0.012748049201251685 0.040791894577046524 0 -0.012285786326070872 0.040476342327997357 0 -0.012424430010881208 0.041099535209691083 0 -0.013089718351598532 0.041590338040967741 0 -0.012424430010881208 0.041099535209691083 0 -0.012541422124875024 0.041841752033578018 0 -0.013089718351598532 0.041590338040967741 0 -0.012748049201251685 0.040791894577046524 0 -0.012424430010881208 0.041099535209691083 0 -0.012155043288222313 0.041267624799939583 0 -0.012541422124875024 0.041841752033578018 0 -0.012067061267781254 0.041785461528766533 0 -0.012424430010881208 0.041099535209691083 0 -0.012155043288222313 0.041267624799939583 0 -0.012541422124875024 0.041841752033578018 0 -0.012541422124875024 0.041841752033578018 0 -0.013168971160600205 0.0427536510407176 0 -0.012434689329786754 0.042586280897891085 0 -0.012541422124875024 0.041841752033578018 0 -0.012067061267781254 0.041785461528766533 0 -0.012434689329786754 0.042586280897891085 0 -0.013089718351598532 0.041590338040967741 0 -0.012541422124875024 0.041841752033578018 0 -0.013168971160600205 0.0427536510407176 0 -0.011190651483861662 0.041560091207498449 0 -0.011357384027786363 0.040931825411762525 0 -0.011616020118733805 0.041635644758079834 0 -0.011357384027786363 0.040931825411762525 0 -0.011777069180054648 0.041158109682005124 0 -0.011616020118733805 0.041635644758079834 0 -0.011777069180054648 0.041158109682005124 0 -0.012067061267781254 0.041785461528766533 0 -0.011616020118733805 0.041635644758079834 0 -0.012155043288222313 0.041267624799939583 0 -0.011777069180054648 0.041158109682005124 0 -0.012067061267781254 0.041785461528766533 0 -0.012067061267781254 0.041785461528766533 0 -0.011921460897510165 0.042440863581413135 0 -0.012434689329786754 0.042586280897891085 0 -0.012067061267781254 0.041785461528766533 0 -0.011616020118733805 0.041635644758079834 0 -0.011921460897510165 0.042440863581413135 0 -0.011190651483861662 0.041560091207498449 0 -0.011616020118733805 0.041635644758079834 0 -0.011393443937260845 0.042752121166710171 0 -0.011616020118733805 0.041635644758079834 0 -0.011393443937260845 0.042752121166710171 0 -0.011921460897510165 0.042440863581413135 0 -0.011393443937260845 0.042752121166710171 0 -0.011921460897510165 0.042440863581413135 0 -0.012144898046594042 0.043360210769554985 0 -0.011921460897510165 0.042440863581413135 0 -0.012144898046594042 0.043360210769554985 0 -0.012434689329786754 0.042586280897891085 0 -0.012144898046594042 0.043360210769554985 0 -0.011668059221944624 0.044006314522077608 0 -0.012379040010929659 0.044630016308338231 0 -0.012144898046594042 0.043360210769554985 0 -0.012781288761329661 0.043618885608235694 0 -0.012379040010929659 0.044630016308338231 0 -0.011393443937260845 0.042752121166710171 0 -0.012144898046594042 0.043360210769554985 0 -0.011668059221944624 0.044006314522077608 0 -0.012144898046594042 0.043360210769554985 0 -0.012434689329786754 0.042586280897891085 0 -0.012781288761329661 0.043618885608235694 0 -0.013168971160600205 0.0427536510407176 0 -0.012434689329786754 0.042586280897891085 0 -0.012781288761329661 0.043618885608235694 0 -0.013168971160600205 0.0427536510407176 0 -0.012781288761329661 0.043618885608235694 0 -0.013424449373633889 0.043843614916799223 0 -0.012781288761329661 0.043618885608235694 0 -0.013424449373633889 0.043843614916799223 0 -0.013060097627623042 0.044442923005516 0 -0.014358582465627507 0.046123976813819148 0 -0.013058768736120946 0.04560473648652956 0 -0.012781288761329661 0.043618885608235694 0 -0.013060097627623042 0.044442923005516 0 -0.012379040010929659 0.044630016308338231 0 -0.014748748643654941 0.047742460937622841 0 -0.015008226237116808 0.047712329022172359 0 -0.014172270397711429 0.0465632358883694 0 -0.014748748643654941 0.047742460937622841 0 -0.015008226237116808 0.047712329022172359 0 -0.014934200619608772 0.048082022644178997 0 -0.014748748643654941 0.047742460937622841 0 -0.014357618603354345 0.047869152217652269 0 -0.014724495464325681 0.04809947566734861 0 -0.015008226237116808 0.047712329022172359 0 -0.014881720314614502 0.047992030190936452 0 -0.014934200619608772 0.048082022644178997 0 -0.014712639119197337 0.048158957967548884 0 -0.015008226237116808 0.047712329022172359 0 -0.014881720314614502 0.047992030190936452 0 -0.011668059221944624 0.044006314522077608 0 -0.011586419109877894 0.04534206364855263 0 -0.012379040010929659 0.044630016308338231 0 -0.011642892001588627 0.045367536745653081 0 -0.013058768736120946 0.04560473648652956 0 -0.014172270397711429 0.0465632358883694 0 -0.014357618603354345 0.047869152217652269 0 -0.013645020803617422 0.047688596465852773 0 -0.014748748643654941 0.047742460937622841 0 -0.014172270397711429 0.0465632358883694 0 -0.014357618603354345 0.047869152217652269 0 -0.014172270397711429 0.0465632358883694 0 -0.013645020803617422 0.047688596465852773 0 -0.012216076062524221 0.047205499414004023 0 -0.011586419109877894 0.04534206364855263 0 -0.014172270397711429 0.0465632358883694 0 -0.012216076062524221 0.047205499414004023 0 -0.011586419109877894 0.04534206364855263 0 -0.012216076062524221 0.047205499414004023 0 -0.010409018198047657 0.047176013538911925 0 -0.011586419109877894 0.04534206364855263 0 -0.010409018198047657 0.047176013538911925 0 -0.0095194754693291393 0.04530909392126705 0 -0.017950998821940033 0.045976708746830033 0 -0.017169009486351694 0.04477635651502522 0 -0.025409976785524039 0.044692472676691387 0 -0.025410945974609959 0.044623381289417112 0 -0.025547779991541543 0.044351264100126894 0 -0.011668059221944624 0.044006314522077608 0 -0.011586419109877894 0.04534206364855263 0 -0.010628191780113115 0.043862975890129864 0 -0.011586419109877894 0.04534206364855263 0 -0.0095194754693291393 0.04530909392126705 0 -0.010628191780113115 0.043862975890129864 0 -0.011393443937260845 0.042752121166710171 0 -0.011668059221944624 0.044006314522077608 0 -0.010628191780113115 0.043862975890129864 0 -0.0095194754693291393 0.04530909392126705 0 -0.010628191780113115 0.043862975890129864 0 -0.00972098222586135 0.04390837312566883 0 -0.010628191780113115 0.043862975890129864 0 -0.00972098222586135 0.04390837312566883 0 -0.009936767392357982 0.042571120047285596 0 -0.011393443937260845 0.042752121166710171 0 -0.010628191780113115 0.043862975890129864 0 -0.009936767392357982 0.042571120047285596 0 -0.022568769205428829 0.04351881020396945 0 -0.019607204007216418 0.043446643652190295 0 -0.019061711620554662 0.042502289065458707 0 -0.019089822825554239 0.042493953556947781 0 -0.01914660001829022 0.042691286185645785 0 -0.012962148651694889 0.042330032896895908 0 -0.019607204007216418 0.043446643652190295 0 -0.009936767392357982 0.042571120047285596 0 -0.0082340815618475519 0.042663855825987994 0 -0.0088068769355673614 0.043983271384292387 0 -0.0095194754693291393 0.04530909392126705 0 -0.00972098222586135 0.04390837312566883 0 -0.0088068769355673614 0.043983271384292387 0 -0.00972098222586135 0.04390837312566883 0 -0.009936767392357982 0.042571120047285596 0 -0.0088068769355673614 0.043983271384292387 0 -0.019607204007216418 0.043446643652190295 0 -0.025399448797855363 0.045144350413082429 0 -0.025692550949229651 0.044221442655307606 0 -0.025697975606434456 0.044208667666684437 0 -0.025464180100390369 0.044170515460659386 0 -0.025692550949229651 0.044221442655307606 0 -0.025697975606434456 0.044208667666684437 0 -0.02565296464549055 0.044192867300883114 0 -0.025656312506065374 0.044086419467132799 0 -0.025692550949229651 0.044221442655307606 0 -0.02565296464549055 0.044192867300883114 0 -0.025697975606434456 0.044208667666684437 0 -0.025812924787206617 0.044171668576121377 0 -0.02565296464549055 0.044192867300883114 0 -0.025812924787206617 0.044171668576121377 0 -0.025832712244451019 0.044385218478101854 0 -0.026358848270626095 0.043810789955642623 0 -0.025832835603437621 0.044031727660121103 0 -0.02606146324785508 0.043750095485984512 0 -0.025697975606434456 0.044208667666684437 0 -0.025812924787206617 0.044171668576121377 0 -0.025464180100390369 0.044170515460659386 0 -0.025547779991541543 0.044351264100126894 0 -0.025326259720794022 0.04372365606993487 0 -0.025464180100390369 0.044170515460659386 0 -0.017169009486351694 0.04477635651502522 0 -0.019607204007216418 0.043446643652190295 0 -0.025812924787206617 0.044171668576121377 0 -0.025464180100390369 0.044170515460659386 0 -0.025538285984623457 0.044399580103333752 0 -0.025547779991541543 0.044351264100126894 0 -0.025464180100390369 0.044170515460659386 0 -0.025538285984623457 0.044399580103333752 0 -0.025410945974609959 0.044623381289417112 0 -0.025547779991541543 0.044351264100126894 0 -0.025538285984623457 0.044399580103333752 0 -0.025410945974609959 0.044623381289417112 0 -0.025538285984623457 0.044399580103333752 0 -0.025345946795719505 0.044761972055402797 0 -0.025538285984623457 0.044399580103333752 0 -0.025832712244451019 0.044385218478101854 0 -0.025345946795719505 0.044761972055402797 0 -0.025812924787206617 0.044171668576121377 0 -0.025538285984623457 0.044399580103333752 0 -0.025832712244451019 0.044385218478101854 0 -0.025832712244451019 0.044385218478101854 0 -0.025345946795719505 0.044761972055402797 0 -0.025563118155287841 0.044959203722649603 0 -0.025345946795719505 0.044761972055402797 0 -0.024734868534683374 0.045349834687144715 0 -0.025563118155287841 0.044959203722649603 0 -0.025345946795719505 0.044761972055402797 0 -0.025152805820951137 0.045062553069592691 0 -0.024734868534683374 0.045349834687144715 0 -0.025410945974609959 0.044623381289417112 0 -0.025345946795719505 0.044761972055402797 0 -0.025152805820951137 0.045062553069592691 0 -0.025409976785524039 0.044692472676691387 0 -0.025410945974609959 0.044623381289417112 0 -0.025152805820951137 0.045062553069592691 0 -0.017950998821940033 0.045976708746830033 0 -0.019099081765771478 0.047089564265491449 0 -0.012216076062524221 0.047205499414004023 0 -0.010409018198047657 0.047176013538911925 0 -0.011936836528062362 0.049418676314285835 0 -0.025409976785524039 0.044692472676691387 0 -0.025152805820951137 0.045062553069592691 0 -0.025531156313933528 0.045102538618964703 0 -0.025152805820951137 0.045062553069592691 0 -0.025278664974887472 0.045731111356406867 0 -0.025531156313933528 0.045102538618964703 0 -0.025152805820951137 0.045062553069592691 0 -0.02471163976040671 0.045749594098539716 0 -0.025278664974887472 0.045731111356406867 0 -0.02471163976040671 0.045749594098539716 0 -0.025278664974887472 0.045731111356406867 0 -0.02492410932499084 0.04651255105876332 0 -0.025278664974887472 0.045731111356406867 0 -0.02492410932499084 0.04651255105876332 0 -0.025728731880364276 0.04655201605199713 0 -0.02471163976040671 0.045749594098539716 0 -0.02492410932499084 0.04651255105876332 0 -0.024077913373852174 0.047075075808953808 0 -0.02471163976040671 0.045749594098539716 0 -0.024108584500050156 0.046291687508711946 0 -0.024077913373852174 0.047075075808953808 0 -0.024108584500050156 0.046291687508711946 0 -0.023788500955346556 0.046291231523605474 0 -0.024734868534683374 0.045349834687144715 0 -0.023788500955346556 0.046291231523605474 0 -0.024734868534683374 0.045349834687144715 0 -0.024980631347107707 0.045164529358836823 0 -0.025152805820951137 0.045062553069592691 0 -0.02471163976040671 0.045749594098539716 0 -0.024734868534683374 0.045349834687144715 0 -0.02471163976040671 0.045749594098539716 0 -0.024108584500050156 0.046291687508711946 0 -0.024734868534683374 0.045349834687144715 0 -0.016531009200008429 0.050741497971592088 0 -0.015984259572201332 0.051217237037061485 0 -0.016390081700173025 0.051257770954208644 0 -0.01483956383312842 0.047989533367603254 0 -0.014881720314614502 0.047992030190936452 0 -0.014934200619608772 0.048082022644178997 0 -0.01483956383312842 0.047989533367603254 0 -0.015003523317795342 0.047846072912944036 0 -0.014934200619608772 0.048082022644178997 0 -0.015486418885805526 0.049215814161101851 0 -0.014689775878027191 0.048679844665890905 0 -0.015003523317795342 0.047846072912944036 0 -0.014934200619608772 0.048082022644178997 0 -0.014643846472132748 0.048649671511059797 0 -0.014934200619608772 0.048082022644178997 0 -0.014724495464325681 0.04809947566734861 0 -0.014643846472132748 0.048649671511059797 0 -0.014748748643654941 0.047742460937622841 0 -0.014934200619608772 0.048082022644178997 0 -0.014724495464325681 0.04809947566734861 0 -0.014357618603354345 0.047869152217652269 0 -0.014724495464325681 0.04809947566734861 0 -0.014643846472132748 0.048649671511059797 0 -0.016531009200008429 0.050741497971592088 0 -0.015984259572201332 0.051217237037061485 0 -0.0151980061516223 0.051074732196350482 0 -0.016531009200008429 0.050741497971592088 0 -0.0151980061516223 0.051074732196350482 0 -0.014643846472132748 0.048649671511059797 0 -0.0151980061516223 0.051074732196350482 0 -0.014316857312026391 0.048896736633326568 0 -0.014653768912652684 0.052019153589719209 0 -0.013349415625662647 0.049763480842540689 0 -0.014316857312026391 0.048896736633326568 0 -0.013428185136203747 0.051102571829764368 0 -0.013387004874463827 0.049865144565400032 0 -0.01663363099866173 0.05024384747482407 0 -0.014316857312026391 0.048896736633326568 0 -0.013840920276478598 0.052809658907764165 0 -0.014653768912652684 0.052019153589719209 0 -0.0151980061516223 0.051074732196350482 0 -0.014316857312026391 0.048896736633326568 0 -0.014643846472132748 0.048649671511059797 0 -0.014316857312026391 0.048896736633326568 0 -0.014096566263178121 0.048341263137251782 0 -0.013735510433321748 0.04891473256403036 0 -0.014316857312026391 0.048896736633326568 0 -0.014643846472132748 0.048649671511059797 0 -0.014096566263178121 0.048341263137251782 0 -0.014357618603354345 0.047869152217652269 0 -0.013645020803617422 0.047688596465852773 0 -0.014096566263178121 0.048341263137251782 0 -0.014357618603354345 0.047869152217652269 0 -0.014643846472132748 0.048649671511059797 0 -0.014096566263178121 0.048341263137251782 0 -0.013645020803617422 0.047688596465852773 0 -0.014096566263178121 0.048341263137251782 0 -0.013191518629467415 0.048610304007488614 0 -0.013349415625662647 0.049763480842540689 0 -0.014316857312026391 0.048896736633326568 0 -0.013735510433321748 0.04891473256403036 0 -0.013349415625662647 0.049763480842540689 0 -0.013735510433321748 0.04891473256403036 0 -0.013191518629467415 0.048610304007488614 0 -0.014096566263178121 0.048341263137251782 0 -0.013735510433321748 0.04891473256403036 0 -0.013191518629467415 0.048610304007488614 0 -0.012216076062524221 0.047205499414004023 0 -0.013191518629467415 0.048610304007488614 0 -0.011936836528062362 0.049418676314285835 0 -0.013645020803617422 0.047688596465852773 0 -0.012216076062524221 0.047205499414004023 0 -0.013191518629467415 0.048610304007488614 0 -0.019099081765771478 0.047089564265491449 0 -0.01663363099866173 0.05024384747482407 0 -0.013349415625662647 0.049763480842540689 0 -0.011936836528062362 0.049418676314285835 0 -0.013428185136203747 0.051102571829764368 0 -0.013349415625662647 0.049763480842540689 0 -0.013191518629467415 0.048610304007488614 0 -0.011936836528062362 0.049418676314285835 0 -0.01575953255135942 0.05371095279115564 0 -0.014480089798185032 0.053200241093864592 0 -0.014436929812822061 0.053180790782558211 0 -0.025278664974887472 0.045731111356406867 0 -0.025728731880364276 0.04655201605199713 0 -0.025983650512987535 0.045703080007746512 0 -0.025278664974887472 0.045731111356406867 0 -0.025531156313933528 0.045102538618964703 0 -0.025983650512987535 0.045703080007746512 0 -0.021180667660465446 0.04972784203981219 0 -0.01663363099866173 0.05024384747482407 0 -0.01575953255135942 0.05371095279115564 0 -0.014897380128045019 0.053491684450374652 0 -0.014480089798185032 0.053200241093864592 0 -0.01575953255135942 0.05371095279115564 0 -0.015114127528819138 0.053631175805154099 0 -0.014897380128045019 0.053491684450374652 0 -0.014897380128045019 0.053491684450374652 0 -0.014750018058245218 0.053112578638138404 0 -0.014480089798185032 0.053200241093864592 0 -0.014897380128045019 0.053491684450374652 0 -0.014750018058245218 0.053112578638138404 0 -0.014918844539351115 0.052947687757675319 0 -0.014750018058245218 0.053112578638138404 0 -0.014480089798185032 0.053200241093864592 0 -0.014522182560333873 0.052747833578958549 0 -0.013840920276478598 0.052809658907764165 0 -0.014653768912652684 0.052019153589719209 0 -0.014522182560333873 0.052747833578958549 0 -0.014480089798185032 0.053200241093864592 0 -0.013840920276478598 0.052809658907764165 0 -0.014522182560333873 0.052747833578958549 0 -0.016445909447528648 0.050784987682550395 0 -0.01663363099866173 0.05024384747482407 0 -0.014750018058245218 0.053112578638138404 0 -0.014653768912652684 0.052019153589719209 0 -0.014522182560333873 0.052747833578958549 0 -0.0151980061516223 0.051074732196350482 0 -0.014653768912652684 0.052019153589719209 0 -0.014918844539351115 0.052947687757675319 0 -0.014750018058245218 0.053112578638138404 0 -0.014653768912652684 0.052019153589719209 0 -0.014918844539351115 0.052947687757675319 0 -0.0151980061516223 0.051074732196350482 0 -0.015346536028574316 0.053588542941595083 0 -0.015111644135497992 0.052909480503763623 0 -0.015984259572201332 0.051217237037061485 0 -0.0151980061516223 0.051074732196350482 0 -0.016166406754402764 0.051620318712789839 0 -0.015148858968826128 0.051157376417429179 0 -0.015633545976406121 0.052468181639004137 0 -0.0151980061516223 0.051074732196350482 0 -0.015111644135497992 0.052909480503763623 0 -0.014918844539351115 0.052947687757675319 0 -0.015346536028574316 0.053588542941595083 0 -0.015111644135497992 0.052909480503763623 0 -0.015060966840827217 0.053551382350745462 0 -0.015111644135497992 0.052909480503763623 0 -0.014918844539351115 0.052947687757675319 0 -0.015060966840827217 0.053551382350745462 0 -0.014897380128045019 0.053491684450374652 0 -0.014918844539351115 0.052947687757675319 0 -0.015060966840827217 0.053551382350745462 0 -0.015114127528819138 0.053631175805154099 0 -0.014897380128045019 0.053491684450374652 0 -0.015060966840827217 0.053551382350745462 0 -0.015114127528819138 0.053631175805154099 0 -0.015060966840827217 0.053551382350745462 0 -0.014902920122690105 0.053700818169488164 0 -0.015346536028574316 0.053588542941595083 0 -0.015060966840827217 0.053551382350745462 0 -0.014902920122690105 0.053700818169488164 0 -0.016166406754402764 0.051620318712789839 0 -0.016046571367371931 0.051500372123451786 0 -0.015761019009105197 0.051153118171054536 0 -0.015633545976406121 0.052468181639004137 0 -0.014829387165756096 0.052457550011585474 0 -0.015346536028574316 0.053588542941595083 0 -0.014902920122690105 0.053700818169488164 0 -0.013937056523741536 0.053866092105750232 0 -0.016341433819853108 0.051374722207879302 0 -0.016204384129197516 0.0514553380991295 0 -0.016390081700173025 0.051257770954208644 0 -0.016341433819853108 0.051374722207879302 0 -0.016046571367371931 0.051500372123451786 0 -0.016204384129197516 0.0514553380991295 0 -0.016166406754402764 0.051620318712789839 0 -0.016046571367371931 0.051500372123451786 0 -0.016204384129197516 0.0514553380991295 0 -0.015984259572201332 0.051217237037061485 0 -0.016204384129197516 0.0514553380991295 0 -0.016390081700173025 0.051257770954208644 0 -0.015984259572201332 0.051217237037061485 0 -0.016166406754402764 0.051620318712789839 0 -0.016204384129197516 0.0514553380991295 0 -0.013735551608479214 0.053021627440305343 0 -0.014909438343376274 0.052754393514884333 0 -0.013759837690895723 0.051509312959081462 0 -0.013735551608479214 0.053021627440305343 0 -0.013937056523741536 0.053866092105750232 0 -0.014756408236442153 0.053448119584243184 0 -0.014902920122690105 0.053700818169488164 0 -0.013937056523741536 0.053866092105750232 0 -0.014756408236442153 0.053448119584243184 0 -0.015114127528819138 0.053631175805154099 0 -0.014756408236442153 0.053448119584243184 0 -0.01569055071496054 0.053213379161138122 0 -0.015114127528819138 0.053631175805154099 0 -0.014902920122690105 0.053700818169488164 0 -0.014756408236442153 0.053448119584243184 0 -0.014756408236442153 0.053448119584243184 0 -0.014909438343376274 0.052754393514884333 0 -0.01569055071496054 0.053213379161138122 0 -0.013735551608479214 0.053021627440305343 0 -0.014756408236442153 0.053448119584243184 0 -0.014909438343376274 0.052754393514884333 0 -0.014909438343376274 0.052754393514884333 0 -0.01569055071496054 0.053213379161138122 0 -0.016140773335356077 0.051911863750195908 0 -0.01575953255135942 0.05371095279115564 0 -0.015114127528819138 0.053631175805154099 0 -0.01569055071496054 0.053213379161138122 0 -0.021180667660465446 0.04972784203981219 0 -0.021131077616276504 0.050475543386611324 0 -0.01575953255135942 0.05371095279115564 0 -0.01569055071496054 0.053213379161138122 0 -0.017353137623426454 0.053108768292980967 0 -0.01569055071496054 0.053213379161138122 0 -0.017353137623426454 0.053108768292980967 0 -0.016140773335356077 0.051911863750195908 0 -0.017353137623426454 0.053108768292980967 0 -0.016140773335356077 0.051911863750195908 0 -0.018904558944718135 0.051769928993649586 0 -0.01748989606197544 0.049999786262060912 0 -0.016140773335356077 0.051911863750195908 0 -0.018904558944718135 0.051769928993649586 0 -0.01748989606197544 0.049999786262060912 0 -0.016140773335356077 0.051911863750195908 0 -0.014515736590242587 0.049999887002854085 0 -0.014909438343376274 0.052754393514884333 0 -0.016140773335356077 0.051911863750195908 0 -0.013759837690895723 0.051509312959081462 0 -0.016140773335356077 0.051911863750195908 0 -0.014515736590242587 0.049999887002854085 0 -0.013759837690895723 0.051509312959081462 0 -0.011541378332250243 0.049999734596844543 0 -0.014515736590242587 0.049999887002854085 0 -0.013759837690895723 0.051509312959081462 0 -0.01258371847359434 0.052255638450432171 0 -0.013735551608479214 0.053021627440305343 0 -0.013759837690895723 0.051509312959081462 0 -0.022847876868083563 0.047989497814328742 0 -0.024077913373852174 0.047075075808953808 0 -0.023379252339870933 0.048610249632852771 0 -0.024790009798583642 0.052483865782679606 0 -0.025649585724518406 0.051219518010273746 0 -0.026836040194789714 0.052594178125873491 0 -0.02720433882051106 0.053010076480843903 0 -0.024790009798583642 0.052483865782679606 0 -0.026836040194789714 0.052594178125873491 0 -0.024108584500050156 0.046291687508711946 0 -0.023788500955346556 0.046291231523605474 0 -0.022847876868083563 0.047989497814328742 0 -0.025500469040520508 0.049599403530674775 0 -0.023809179119673615 0.050236110915745216 0 -0.024108584500050156 0.046291687508711946 0 -0.022847876868083563 0.047989497814328742 0 -0.024077913373852174 0.047075075808953808 0 -0.02492410932499084 0.04651255105876332 0 -0.025052997087152255 0.047828982646873221 0 -0.024077913373852174 0.047075075808953808 0 -0.02492410932499084 0.04651255105876332 0 -0.025728731880364276 0.04655201605199713 0 -0.025052997087152255 0.047828982646873221 0 -0.025052997087152255 0.047828982646873221 0 -0.023379252339870933 0.048610249632852771 0 -0.023553920854622112 0.049458771932661398 0 -0.021131077616276504 0.050475543386611324 0 -0.021213284204196839 0.050376914478359444 0 -0.025052997087152255 0.047828982646873221 0 -0.024077913373852174 0.047075075808953808 0 -0.023379252339870933 0.048610249632852771 0 -0.023379252339870933 0.048610249632852771 0 -0.023553920854622112 0.049458771932661398 0 -0.022282127371336013 0.050362293002133178 0 -0.021213284204196839 0.050376914478359444 0 -0.020466077787129902 0.049999674555194766 0 -0.01748989606197544 0.049999786262060912 0 -0.018904558944718135 0.051769928993649586 0 -0.020464488377100503 0.049999792537344677 0 -0.023553920854622112 0.049458771932661398 0 -0.020472460919676975 0.050000365319831729 0 -0.022282127371336013 0.050362293002133178 0 -0.020472460919676975 0.050000365319831729 0 -0.022380280526039936 0.049999152781476305 0 -0.022282127371336013 0.050362293002133178 0 -0.022380280526039936 0.049999152781476305 0 -0.023183527257803576 0.050323602203317039 0 -0.024299311349766112 0.049999376910002238 0 -0.023183527257803576 0.050323602203317039 0 -0.022282127371336013 0.050362293002133178 0 -0.024127253434415234 0.050818276715309287 0 -0.022380280526039936 0.049999152781476305 0 -0.023183527257803576 0.050323602203317039 0 -0.022282127371336013 0.050362293002133178 0 -0.022847876868083563 0.047989497814328742 0 -0.023379252339870933 0.048610249632852771 0 -0.022282127371336013 0.050362293002133178 0 -0.024790009798583642 0.052483865782679606 0 -0.022282127371336013 0.050362293002133178 0 -0.024127253434415234 0.050818276715309287 0 -0.023809179119673615 0.050236110915745216 0 -0.022491936369188833 0.050308553555033719 0 -0.024790009798583642 0.052483865782679606 0 -0.024127253434415234 0.050818276715309287 0 -0.025649585724518406 0.051219518010273746 0 -0.024127253434415234 0.050818276715309287 0 -0.024299311349766112 0.049999376910002238 0 -0.025649585724518406 0.051219518010273746 0 -0.024298611550755727 0.050000254396211238 0 -0.025674910108656319 0.051412835455040357 0 -0.023183527257803576 0.050323602203317039 0 -0.024127253434415234 0.050818276715309287 0 -0.024299311349766112 0.049999376910002238 0 -0.026583848366730785 0.049999775851793903 0 -0.027067197012951582 0.051304162706843515 0 -0.025691442089424209 0.051577688058526715 0 -0.024298871498901368 0.049999868354888961 0 -0.026583848366730785 0.049999775851793903 0 -0.025691442089424209 0.051577688058526715 0 -0.026583848366730785 0.049999775851793903 0 -0.027067197012951582 0.051304162706843515 0 -0.02886869801560462 0.049999873579679249 0 -0.027067197012951582 0.051304162706843515 0 -0.028250299052528384 0.051902277458219057 0 -0.02886869801560462 0.049999873579679249 0 -0.027067197012951582 0.051304162706843515 0 -0.026836040194789714 0.052594178125873491 0 -0.028250299052528384 0.051902277458219057 0 -0.025674910108656319 0.051412835455040357 0 -0.026664004839340109 0.052536246879840973 0 -0.027067197012951582 0.051304162706843515 0 -0.025691442089424209 0.051577688058526715 0 -0.026836040194789714 0.052594178125873491 0 -0.026836040194789714 0.052594178125873491 0 -0.027912220933800833 0.05273297315509521 0 -0.028250299052528384 0.051902277458219057 0 -0.026836040194789714 0.052594178125873491 0 -0.027485085220845924 0.052856590566117655 0 -0.027912220933800833 0.05273297315509521 0 -0.02720433882051106 0.053010076480843903 0 -0.026836040194789714 0.052594178125873491 0 -0.027485085220845924 0.052856590566117655 0 -0.028267123581385608 0.053357893650254798 0 -0.030991163035856709 0.053918163826872686 0 -0.03012130079978334 0.054961364818901848 0 -0.029920947544812053 0.05296381582896937 0 -0.028267123581385608 0.053357893650254798 0 -0.030991163035856709 0.053918163826872686 0 -0.029920947544812053 0.05296381582896937 0 -0.028267123581385608 0.053357893650254798 0 -0.028752757459222525 0.052679431722099698 0 -0.027485085220845924 0.052856590566117655 0 -0.028267123581385608 0.053357893650254798 0 -0.027912220933800833 0.05273297315509521 0 -0.027485085220845924 0.052856590566117655 0 -0.028267123581385608 0.053357893650254798 0 -0.027274561505699721 0.05248954425552782 0 -0.028267123581385608 0.053357893650254798 0 -0.028752757459222525 0.052679431722099698 0 -0.027912220933800833 0.05273297315509521 0 -0.028752757459222525 0.052679431722099698 0 -0.030026137632626741 0.052192432158296796 0 -0.028250299052528384 0.051902277458219057 0 -0.028752757459222525 0.052679431722099698 0 -0.027912220933800833 0.05273297315509521 0 -0.028250299052528384 0.051902277458219057 0 -0.029920947544812053 0.05296381582896937 0 -0.028752757459222525 0.052679431722099698 0 -0.030026137632626741 0.052192432158296796 0 -0.030026137632626741 0.052192432158296796 0 -0.029982167729042369 0.051152116338497512 0 -0.031720696367742808 0.0513534727601433 0 -0.030026137632626741 0.052192432158296796 0 -0.029982167729042369 0.051152116338497512 0 -0.028250299052528384 0.051902277458219057 0 -0.029982167729042369 0.051152116338497512 0 -0.028250299052528384 0.051902277458219057 0 -0.02886869801560462 0.049999873579679249 0 -0.029982167729042369 0.051152116338497512 0 -0.031153806592868507 0.049999638227698824 0 -0.031720696367742808 0.0513534727601433 0 -0.029982167729042369 0.051152116338497512 0 -0.02886869801560462 0.049999873579679249 0 -0.031153806592868507 0.049999638227698824 0 -0.031153806592868507 0.049999638227698824 0 -0.033439480528804334 0.050000040117778019 0 -0.031720696367742808 0.0513534727601433 0 -0.033439274864825404 0.050000184880414848 0 -0.031746102221696583 0.051151241149204225 0 -0.033439492164976672 0.049999069551128629 0 -0.033220941636162182 0.051468861347162852 0 -0.0318588916724937 0.050937698889995622 0 -0.033439492164976672 0.049999069551128629 0 -0.033220941636162182 0.051468861347162852 0 -0.035085189868000133 0.051559334816271785 0 -0.033220941636162182 0.051468861347162852 0 -0.035085189868000133 0.051559334816271785 0 -0.033470480489910324 0.05264618890946398 0 -0.033220941636162182 0.051468861347162852 0 -0.0318588916724937 0.050937698889995622 0 -0.031764360144698987 0.052528935907904209 0 -0.030265614096787442 0.052174007258777431 0 -0.031746102221696583 0.051151241149204225 0 -0.030026137632626741 0.052192432158296796 0 -0.0318588916724937 0.050937698889995622 0 -0.031764360144698987 0.052528935907904209 0 -0.036018055476058901 0.049999829710884749 0 -0.03689586790553423 0.051667832241692378 0 -0.038597109984692408 0.049999682370223932 0 -0.036018055476058901 0.049999829710884749 0 -0.035085189868000133 0.051559334816271785 0 -0.03689586790553423 0.051667832241692378 0 -0.033439492164976672 0.049999069551128629 0 -0.036018055476058901 0.049999829710884749 0 -0.035085189868000133 0.051559334816271785 0 -0.035085189868000133 0.051559334816271785 0 -0.03689586790553423 0.051667832241692378 0 -0.036152057223485842 0.053078096767352458 0 -0.03689586790553423 0.051667832241692378 0 -0.036152057223485842 0.053078096767352458 0 -0.037894135714822474 0.052971095938660728 0 -0.036152057223485842 0.053078096767352458 0 -0.03586883400006393 0.053580025153464245 0 -0.036528609516660648 0.053724003699489986 0 -0.036152057223485842 0.053078096767352458 0 -0.034826634669653231 0.05297773996976482 0 -0.03586883400006393 0.053580025153464245 0 -0.035085189868000133 0.051559334816271785 0 -0.034826634669653231 0.05297773996976482 0 -0.033470480489910324 0.05264618890946398 0 -0.035085189868000133 0.051559334816271785 0 -0.036152057223485842 0.053078096767352458 0 -0.034826634669653231 0.05297773996976482 0 -0.034826634669653231 0.05297773996976482 0 -0.033969383908485695 0.053734673161766645 0 -0.033470480489910324 0.05264618890946398 0 -0.033969383908485695 0.053734673161766645 0 -0.033223323696092939 0.054695352675615094 0 -0.034527578490411208 0.054632042764674274 0 -0.033969383908485695 0.053734673161766645 0 -0.035058738834283371 0.053918586262259781 0 -0.034527578490411208 0.054632042764674274 0 -0.034826634669653231 0.05297773996976482 0 -0.035058738834283371 0.053918586262259781 0 -0.03586883400006393 0.053580025153464245 0 -0.034826634669653231 0.05297773996976482 0 -0.033969383908485695 0.053734673161766645 0 -0.035058738834283371 0.053918586262259781 0 -0.035058738834283371 0.053918586262259781 0 -0.035981379776414281 0.054482615216276682 0 -0.034527578490411208 0.054632042764674274 0 -0.035058738834283371 0.053918586262259781 0 -0.03586883400006393 0.053580025153464245 0 -0.035981379776414281 0.054482615216276682 0 -0.03586883400006393 0.053580025153464245 0 -0.035981379776414281 0.054482615216276682 0 -0.036528609516660648 0.053724003699489986 0 -0.029920947544812053 0.05296381582896937 0 -0.030026137632626741 0.052192432158296796 0 -0.031764360144698987 0.052528935907904209 0 -0.033220941636162182 0.051468861347162852 0 -0.031764360144698987 0.052528935907904209 0 -0.033470480489910324 0.05264618890946398 0 -0.031764360144698987 0.052528935907904209 0 -0.033470480489910324 0.05264618890946398 0 -0.032594183745215034 0.053582965517476787 0 -0.032594183745215034 0.053582965517476787 0 -0.031789430448540615 0.054889755174635728 0 -0.033223323696092939 0.054695352675615094 0 -0.033969383908485695 0.053734673161766645 0 -0.033470480489910324 0.05264618890946398 0 -0.032594183745215034 0.053582965517476787 0 -0.033969383908485695 0.053734673161766645 0 -0.032594183745215034 0.053582965517476787 0 -0.033223323696092939 0.054695352675615094 0 -0.032594183745215034 0.053582965517476787 0 -0.030991163035856709 0.053918163826872686 0 -0.031789430448540615 0.054889755174635728 0 -0.029920947544812053 0.05296381582896937 0 -0.031764360144698987 0.052528935907904209 0 -0.030991163035856709 0.053918163826872686 0 -0.031764360144698987 0.052528935907904209 0 -0.032594183745215034 0.053582965517476787 0 -0.030991163035856709 0.053918163826872686 0 -0.030991163035856709 0.053918163826872686 0 -0.031789430448540615 0.054889755174635728 0 -0.03012130079978334 0.054961364818901848 0 -0.031789430448540615 0.054889755174635728 0 -0.031128711014039571 0.055852403581464191 0 -0.03012130079978334 0.054961364818901848 0 -0.031128711014039571 0.055852403581464191 0 -0.03012130079978334 0.054961364818901848 0 -0.029789960866646838 0.055950939204914521 0 -0.031789430448540615 0.054889755174635728 0 -0.03274680212761058 0.055714077549887588 0 -0.031128711014039571 0.055852403581464191 0 -0.033223323696092939 0.054695352675615094 0 -0.03274680212761058 0.055714077549887588 0 -0.034064616165555554 0.055496775356707315 0 -0.031789430448540615 0.054889755174635728 0 -0.033223323696092939 0.054695352675615094 0 -0.03274680212761058 0.055714077549887588 0 -0.03274680212761058 0.055714077549887588 0 -0.0320652982204108 0.056701227911743361 0 -0.031128711014039571 0.055852403581464191 0 -0.03274680212761058 0.055714077549887588 0 -0.0320652982204108 0.056701227911743361 0 -0.03367430081726204 0.056748759109001026 0 -0.0320652982204108 0.056701227911743361 0 -0.030570573020785648 0.056599486093227139 0 -0.031128711014039571 0.055852403581464191 0 -0.030570573020785648 0.056599486093227139 0 -0.031128711014039571 0.055852403581464191 0 -0.029789960866646838 0.055950939204914521 0 -0.035981379776414281 0.054482615216276682 0 -0.03536795896380409 0.055350233859701906 0 -0.034527578490411208 0.054632042764674274 0 -0.036419029817583444 0.05537277067509834 0 -0.035981379776414281 0.054482615216276682 0 -0.03536795896380409 0.055350233859701906 0 -0.036419029817583444 0.05537277067509834 0 -0.03536795896380409 0.055350233859701906 0 -0.035860802502229047 0.056022654379327574 0 -0.03536795896380409 0.055350233859701906 0 -0.034527578490411208 0.054632042764674274 0 -0.034064616165555554 0.055496775356707315 0 -0.033223323696092939 0.054695352675615094 0 -0.034527578490411208 0.054632042764674274 0 -0.034064616165555554 0.055496775356707315 0 -0.03367430081726204 0.056748759109001026 0 -0.034866109728261693 0.05612378181527361 0 -0.035250461035862733 0.057163635072688339 0 -0.03274680212761058 0.055714077549887588 0 -0.034064616165555554 0.055496775356707315 0 -0.03367430081726204 0.056748759109001026 0 -0.034064616165555554 0.055496775356707315 0 -0.03367430081726204 0.056748759109001026 0 -0.034866109728261693 0.05612378181527361 0 -0.03536795896380409 0.055350233859701906 0 -0.034064616165555554 0.055496775356707315 0 -0.034866109728261693 0.05612378181527361 0 -0.036419029817583444 0.05537277067509834 0 -0.035860802502229047 0.056022654379327574 0 -0.03672325246190293 0.056430586351942744 0 -0.03536795896380409 0.055350233859701906 0 -0.034866109728261693 0.05612378181527361 0 -0.035860802502229047 0.056022654379327574 0 -0.034866109728261693 0.05612378181527361 0 -0.035860802502229047 0.056022654379327574 0 -0.035250461035862733 0.057163635072688339 0 -0.035860802502229047 0.056022654379327574 0 -0.035250461035862733 0.057163635072688339 0 -0.03672325246190293 0.056430586351942744 0 -0.036420552420572634 0.057667763356980678 0 -0.035105660738119347 0.058163172206491642 0 -0.036058417010586187 0.059125678805980769 0 -0.036420552420572634 0.057667763356980678 0 -0.035250461035862733 0.057163635072688339 0 -0.03672325246190293 0.056430586351942744 0 -0.036420552420572634 0.057667763356980678 0 -0.035250461035862733 0.057163635072688339 0 -0.035105660738119347 0.058163172206491642 0 -0.03367430081726204 0.056748759109001026 0 -0.035250461035862733 0.057163635072688339 0 -0.034152025101497556 0.05781113011487779 0 -0.035250461035862733 0.057163635072688339 0 -0.035105660738119347 0.058163172206491642 0 -0.034152025101497556 0.05781113011487779 0 -0.035105660738119347 0.058163172206491642 0 -0.034152025101497556 0.05781113011487779 0 -0.033739543488813237 0.059006422296753541 0 -0.03367430081726204 0.056748759109001026 0 -0.034152025101497556 0.05781113011487779 0 -0.032928936312827402 0.057625914480785342 0 -0.034152025101497556 0.05781113011487779 0 -0.033739543488813237 0.059006422296753541 0 -0.032928936312827402 0.057625914480785342 0 -0.036754875750068881 0.032140614299373864 0 -0.038155878699180426 0.032904684476624292 0 -0.035821641455969069 0.033116221783324892 0 -0.035830846342821257 0.040945198405370552 0 -0.042197609655209238 0.041812426757335514 0 -0.035830846342821257 0.040945198405370552 0 -0.041308478702156773 0.033986182943040545 0 -0.037256282011922146 0.039358731299698524 0 -0.040020986081947221 0.040787122046029599 0 -0.041904216574123875 0.039342658378007336 0 -0.035105660738119347 0.058163172206491642 0 -0.033739543488813237 0.059006422296753541 0 -0.036058417010586187 0.059125678805980769 0 -0.041308478702156773 0.033986182943040545 0 -0.042197609655209238 0.041812426757335514 0 -0.046372527510518596 0.033432016007761876 0 -0.046967831260527719 0.032996836433362112 0 -0.047355589045916677 0.033853473157345618 0 -0.030570573020785648 0.056599486093227139 0 -0.031181342825939914 0.05780739592049064 0 -0.02870780825764243 0.056672492633162243 0 -0.033655344198680104 0.03107233980351418 0 -0.032798120334274386 0.032108344537704774 0 -0.032137859059536956 0.031410474640028871 0 -0.0320652982204108 0.056701227911743361 0 -0.030570573020785648 0.056599486093227139 0 -0.031181342825939914 0.05780739592049064 0 -0.0320652982204108 0.056701227911743361 0 -0.031181342825939914 0.05780739592049064 0 -0.032928936312827402 0.057625914480785342 0 -0.035830846342821257 0.040945198405370552 0 -0.032542679148603211 0.044735682608899242 0 -0.033739543488813237 0.059006422296753541 0 -0.031181342825939914 0.05780739592049064 0 -0.032928936312827402 0.057625914480785342 0 -0.0320652982204108 0.056701227911743361 0 -0.03367430081726204 0.056748759109001026 0 -0.032928936312827402 0.057625914480785342 0 -0.035821641455969069 0.033116221783324892 0 -0.034364503962120221 0.032260376377850043 0 -0.033031855686701798 0.033695587852154436 0 -0.036537034935303164 0.032376012348647953 0 -0.033655344198680104 0.03107233980351418 0 -0.034364503962120221 0.032260376377850043 0 -0.036754875750068881 0.032140614299373864 0 -0.035821641455969069 0.033116221783324892 0 -0.034364503962120221 0.032260376377850043 0 -0.035830846342821257 0.040945198405370552 0 -0.034908507518798704 0.031829950858917766 0 -0.034364503962120221 0.032260376377850043 0 -0.032798120334274386 0.032108344537704774 0 -0.033031855686701798 0.033695587852154436 0 -0.033655344198680104 0.03107233980351418 0 -0.034364503962120221 0.032260376377850043 0 -0.032798120334274386 0.032108344537704774 0 -0.032798120334274386 0.032108344537704774 0 -0.030860456126441071 0.032247853286857885 0 -0.033031855686701798 0.033695587852154436 0 -0.032798120334274386 0.032108344537704774 0 -0.030860456126441071 0.032247853286857885 0 -0.032137859059536956 0.031410474640028871 0 -0.027476316913342007 0.037657182223524294 0 -0.029133017591843044 0.046342779600885398 0 -0.030860456126441071 0.032247853286857885 0 -0.032137859059536956 0.031410474640028871 0 -0.031386282683527875 0.030270330537184659 0 -0.033655344198680104 0.03107233980351418 0 -0.032137859059536956 0.031410474640028871 0 -0.031386282683527875 0.030270330537184659 0 -0.032542679148603211 0.044735682608899242 0 -0.029133017591843044 0.046342779600885398 0 -0.024464041765636636 0.045535890544736154 0 -0.025702532160036536 0.048314505303351511 0 -0.02395127782282826 0.049896507093220181 0 -0.024464041765636636 0.045535890544736154 0 -0.025702532160036536 0.048314505303351511 0 -0.026647226993196996 0.045275166803802384 0 -0.024464041765636636 0.045535890544736154 0 -0.026647226993196996 0.045275166803802384 0 -0.026316974577001405 0.043905351096252716 0 -0.026647226993196996 0.045275166803802384 0 -0.025563118155287841 0.044959203722649603 0 -0.02643446854825092 0.044214495119652468 0 -0.024734868534683374 0.045349834687144715 0 -0.025563118155287841 0.044959203722649603 0 -0.024980631347107707 0.045164529358836823 0 -0.026647226993196996 0.045275166803802384 0 -0.025563118155287841 0.044959203722649603 0 -0.024980631347107707 0.045164529358836823 0 -0.025702532160036536 0.048314505303351511 0 -0.026647226993196996 0.045275166803802384 0 -0.027078406673832465 0.049754392282012921 0 -0.026605435161808619 0.045493299064650189 0 -0.026774004912312042 0.047881475121402985 0 -0.026647226993196996 0.045275166803802384 0 -0.027078406673832465 0.049754392282012921 0 -0.028723965521844249 0.050659170989099722 0 -0.027078406673832465 0.049754392282012921 0 -0.028723965521844249 0.050659170989099722 0 -0.027638044563511144 0.052065186969686331 0 -0.027078406673832465 0.049754392282012921 0 -0.027638044563511144 0.052065186969686331 0 -0.026496529084898166 0.051324769766216562 0 -0.025500469040520508 0.049599403530674775 0 -0.026774004912312042 0.047881475121402985 0 -0.02720433882051106 0.053010076480843903 0 -0.027485085220845924 0.052856590566117655 0 -0.027638044563511144 0.052065186969686331 0 -0.02720433882051106 0.053010076480843903 0 -0.028723965521844249 0.050659170989099722 0 -0.027638044563511144 0.052065186969686331 0 -0.027485085220845924 0.052856590566117655 0 -0.027638044563511144 0.052065186969686331 0 -0.027274561505699721 0.05248954425552782 0 -0.028267123581385608 0.053357893650254798 0 -0.027274561505699721 0.05248954425552782 0 -0.026665106689053697 0.052151284064468506 0 -0.027638044563511144 0.052065186969686331 0 -0.027274561505699721 0.05248954425552782 0 -0.026496529084898166 0.051324769766216562 0 -0.027274561505699721 0.05248954425552782 0 -0.026665106689053697 0.052151284064468506 0 -0.026496529084898166 0.051324769766216562 0 -0.028267123581385608 0.053357893650254798 0 -0.03012130079978334 0.054961364818901848 0 -0.028639695958098683 0.055258337380992124 0 -0.028023199636397825 0.052846847714325358 0 -0.027819699528163658 0.054881648301717857 0 -0.03012130079978334 0.054961364818901848 0 -0.028639695958098683 0.055258337380992124 0 -0.029789960866646838 0.055950939204914521 0 -0.030570573020785648 0.056599486093227139 0 -0.029789960866646838 0.055950939204914521 0 -0.02870780825764243 0.056672492633162243 0 -0.028639695958098683 0.055258337380992124 0 -0.029789960866646838 0.055950939204914521 0 -0.02870780825764243 0.056672492633162243 0 -0.027819699528163658 0.054881648301717857 0 -0.029133017591843044 0.046342779600885398 0 -0.025702532160036536 0.048314505303351511 0 -0.02395127782282826 0.049896507093220181 0 -0.026496529084898166 0.051324769766216562 0 -0.029133017591843044 0.046342779600885398 0 -0.02636063856136088 0.050210317041915975 0 -0.025702532160036536 0.048314505303351511 0 -0.027078406673832465 0.049754392282012921 0 -0.026496529084898166 0.051324769766216562 0 -0.026665106689053697 0.052151284064468506 0 -0.026325771320400738 0.051294204819106924 0 -0.026496529084898166 0.051324769766216562 0 -0.050249566703457649 0.047651345920434927 0 -0.052327491139552623 0.044421370770879459 0 -0.049999865239765691 0.040742358177396278 0 -0.049992999471214029 0.050000357954002754 0 -0.050249566703457649 0.047651345920434927 0 -0.049999865239765691 0.040742358177396278 0 -0.046979810921215677 0.049996711909644581 0 -0.050249566703457649 0.047651345920434927 0 -0.048704853484427629 0.049353830365695656 0 -0.049992999471214029 0.050000357954002754 0 -0.046979810921215677 0.049996711909644581 0 -0.050249566703457649 0.047651345920434927 0 -0.048510519834949827 0.049346900998202679 0 -0.051859813889883748 0.046185968488939771 0 -0.048510519834949827 0.049346900998202679 0 -0.049132051349296109 0.0492534442845965 0 -0.050249566703457649 0.047651345920434927 0 -0.048704853484427629 0.049353830365695656 0 -0.051412985201799051 0.047233997338389469 0 -0.05192080370718756 0.048038412566487741 0 -0.053672482058789266 0.046295849012990123 0 -0.052054965009718707 0.045667489184188358 0 -0.046333637472993863 0.049999953008189137 0 -0.046302778648200052 0.050604818440350127 0 -0.043754940756109292 0.049999899004977387 0 -0.046336672519497406 0.050000073394184899 0 -0.048510519834949827 0.049346900998202679 0 -0.0469657231618512 0.050000004782496589 0 -0.046333773059338702 0.049999988625514337 0 -0.046325110414051025 0.050626996613286901 0 -0.046966417465877534 0.050000185512844866 0 -0.048510519834949827 0.049346900998202679 0 -0.046302778648200052 0.050604818440350127 0 -0.043754940756109292 0.049999899004977387 0 -0.044406730164970869 0.052311389131549903 0 -0.053672482058789266 0.046295849012990123 0 -0.053450317876051485 0.04467201680999159 0 -0.055228189348012872 0.044634378750234599 0 -0.053672482058789266 0.046295849012990123 0 -0.053450317876051485 0.04467201680999159 0 -0.052054965009718707 0.045667489184188358 0 -0.053450317876051485 0.04467201680999159 0 -0.052054965009718707 0.045667489184188358 0 -0.052306374478908658 0.043400512015102234 0 -0.050249566703457649 0.047651345920434927 0 -0.051412985201799051 0.047233997338389469 0 -0.052327491139552623 0.044421370770879459 0 -0.051859813889883748 0.046185968488939771 0 -0.052296457872837793 0.043924054687607628 0 -0.053450317876051485 0.04467201680999159 0 -0.052306374478908658 0.043400512015102234 0 -0.054027050820744001 0.043493882738616874 0 -0.053450317876051485 0.04467201680999159 0 -0.054027050820744001 0.043493882738616874 0 -0.055228189348012872 0.044634378750234599 0 -0.052306374478908658 0.043400512015102234 0 -0.054027050820744001 0.043493882738616874 0 -0.053538181480210036 0.042193712332758121 0 -0.055054864324194062 0.043224972067852925 0 -0.055673695739768783 0.043241773036634623 0 -0.055228189348012872 0.044634378750234599 0 -0.054027050820744001 0.043493882738616874 0 -0.055054864324194062 0.043224972067852925 0 -0.055228189348012872 0.044634378750234599 0 -0.054027050820744001 0.043493882738616874 0 -0.055054864324194062 0.043224972067852925 0 -0.054439017702248418 0.042514981126576194 0 -0.04781545881436406 0.048672570107483409 0 -0.048974646494339628 0.049449427860608249 0 -0.055673695739768783 0.043241773036634623 0 -0.056652953929822038 0.043138480717397384 0 -0.055228189348012872 0.044634378750234599 0 -0.040661898395749373 0.055901584744134154 0 -0.04256131762448985 0.054022008985517553 0 -0.040513409395308751 0.053876501181329285 0 -0.04256131762448985 0.054022008985517553 0 -0.040691566054340891 0.052267849275783977 0 -0.040513409395308751 0.053876501181329285 0 -0.049132051349296109 0.0492534442845965 0 -0.048974646494339628 0.049449427860608249 0 -0.044406730164970869 0.052311389131549903 0 -0.04256131762448985 0.054022008985517553 0 -0.042514261062508218 0.051707978261599417 0 -0.043754940756109292 0.049999899004977387 0 -0.044406730164970869 0.052311389131549903 0 -0.042514261062508218 0.051707978261599417 0 -0.043754940756109292 0.049999899004977387 0 -0.042514261062508218 0.051707978261599417 0 -0.041176096547190927 0.049999850263813227 0 -0.042514261062508218 0.051707978261599417 0 -0.041176096547190927 0.049999850263813227 0 -0.040691566054340891 0.052267849275783977 0 -0.04256131762448985 0.054022008985517553 0 -0.042514261062508218 0.051707978261599417 0 -0.040691566054340891 0.052267849275783977 0 -0.040691566054340891 0.052267849275783977 0 -0.039703429298026567 0.050964203883526307 0 -0.038761251139733707 0.052123424401373832 0 -0.040691566054340891 0.052267849275783977 0 -0.038761251139733707 0.052123424401373832 0 -0.039300220394071099 0.053165220033468782 0 -0.039703429298026567 0.050964203883526307 0 -0.038597109984692408 0.049999682370223932 0 -0.038761251139733707 0.052123424401373832 0 -0.041176096547190927 0.049999850263813227 0 -0.040691566054340891 0.052267849275783977 0 -0.039703429298026567 0.050964203883526307 0 -0.041176096547190927 0.049999850263813227 0 -0.039703429298026567 0.050964203883526307 0 -0.038597109984692408 0.049999682370223932 0 -0.03689586790553423 0.051667832241692378 0 -0.038597109984692408 0.049999682370223932 0 -0.038761251139733707 0.052123424401373832 0 -0.03689586790553423 0.051667832241692378 0 -0.038761251139733707 0.052123424401373832 0 -0.037894135714822474 0.052971095938660728 0 -0.036624717125782337 0.053227559475059687 0 -0.036806805180775934 0.054426718474727978 0 -0.036152057223485842 0.053078096767352458 0 -0.036528609516660648 0.053724003699489986 0 -0.037254348597733189 0.053621697495065908 0 -0.036152057223485842 0.053078096767352458 0 -0.037894135714822474 0.052971095938660728 0 -0.038540366917876656 0.054740210987334302 0 -0.037894135714822474 0.052971095938660728 0 -0.039300220394071099 0.053165220033468782 0 -0.038540366917876656 0.054740210987334302 0 -0.038761251139733707 0.052123424401373832 0 -0.037894135714822474 0.052971095938660728 0 -0.039300220394071099 0.053165220033468782 0 -0.040513409395308751 0.053876501181329285 0 -0.039300220394071099 0.053165220033468782 0 -0.038540366917876656 0.054740210987334302 0 -0.040691566054340891 0.052267849275783977 0 -0.040513409395308751 0.053876501181329285 0 -0.039300220394071099 0.053165220033468782 0 -0.04781545881436406 0.048672570107483409 0 -0.036806805180775934 0.054426718474727978 0 -0.040661898395749373 0.055901584744134154 0 -0.040513409395308751 0.053876501181329285 0 -0.038540366917876656 0.054740210987334302 0 -0.038665016916457302 0.054311195703568488 0 -0.037254348597733189 0.053621697495065908 0 -0.038098862988046933 0.054846889331002791 0 -0.035981379776414281 0.054482615216276682 0 -0.036528609516660648 0.053724003699489986 0 -0.036908642590914809 0.054854279261150392 0 -0.036528609516660648 0.053724003699489986 0 -0.037254348597733189 0.053621697495065908 0 -0.038098862988046933 0.054846889331002791 0 -0.03548405237576456 0.054777674440911896 0 -0.04189569992601061 0.051060131872929432 0 -0.036908642590914809 0.054854279261150392 0 -0.038093573216776803 0.054966420010209273 0 -0.037338181322273074 0.055726166732794777 0 -0.036528609516660648 0.053724003699489986 0 -0.036908642590914809 0.054854279261150392 0 -0.038093573216776803 0.054966420010209273 0 -0.036419029817583444 0.05537277067509834 0 -0.036908642590914809 0.054854279261150392 0 -0.037338181322273074 0.055726166732794777 0 -0.036419029817583444 0.05537277067509834 0 -0.035981379776414281 0.054482615216276682 0 -0.036908642590914809 0.054854279261150392 0 -0.04781545881436406 0.048672570107483409 0 -0.04189569992601061 0.051060131872929432 0 -0.055718691811305725 0.042138801988703262 0 -0.055811802858412654 0.042002124143562226 0 -0.05570427132769569 0.041906982261970531 0 -0.04189569992601061 0.051060131872929432 0 -0.050957072980257478 0.044394023152817631 0 -0.040299402661246736 0.052429904967526426 0 -0.040137709052237965 0.054709039186429657 0 -0.038412924508287372 0.054425016681016826 0 -0.04189569992601061 0.051060131872929432 0 -0.037467341105708207 0.0555018148402006 0 -0.040137709052237965 0.054709039186429657 0 -0.038412924508287372 0.054425016681016826 0 -0.03895295302543015 0.057387700974933016 0 -0.049174210776083811 0.033806475084800287 0 -0.050025797493414688 0.033734993684176678 0 -0.050315561320099893 0.033154720130240754 0 -0.040137709052237965 0.054709039186429657 0 -0.03895295302543015 0.057387700974933016 0 -0.042923684275478491 0.054517261914252838 0 -0.043026414864510837 0.046521015743587517 0 -0.050957072980257478 0.044394023152817631 0 -0.040299402661246736 0.052429904967526426 0 -0.040137709052237965 0.054709039186429657 0 -0.042923684275478491 0.054517261914252838 0 -0.038412924508287372 0.054425016681016826 0 -0.03672325246190293 0.056430586351942744 0 -0.03895295302543015 0.057387700974933016 0 -0.036419029817583444 0.05537277067509834 0 -0.037338181322273074 0.055726166732794777 0 -0.03672325246190293 0.056430586351942744 0 -0.037467341105708207 0.0555018148402006 0 -0.036992254735800124 0.056081070701347407 0 -0.042197609655209238 0.041812426757335514 0 -0.043026414864510837 0.046521015743587517 0 -0.036420552420572634 0.057667763356980678 0 -0.03672325246190293 0.056430586351942744 0 -0.03895295302543015 0.057387700974933016 0 -0.036420552420572634 0.057667763356980678 0 -0.036058417010586187 0.059125678805980769 0 -0.03895295302543015 0.057387700974933016 0 -0.046967831260527719 0.032996836433362112 0 -0.047355589045916677 0.033853473157345618 0 -0.048012776801012701 0.033636321450575275 0 -0.046967831260527719 0.032996836433362112 0 -0.048673700965243968 0.033083912561998323 0 -0.048012776801012701 0.033636321450575275 0 -0.042197609655209238 0.041812426757335514 0 -0.050116527524823255 0.033189334857442881 0 -0.047601557035349448 0.034941801908214887 0 -0.049345099561501619 0.034778679636591966 0 -0.049174210776083811 0.033806475084800287 0 -0.048673700965243968 0.033083912561998323 0 -0.0505745730444596 0.034158322965548063 0 -0.049514098743763738 0.034132578345099009 0 -0.048673700965243968 0.033083912561998323 0 -0.049514098743763738 0.034132578345099009 0 -0.048012776801012701 0.033636321450575275 0 -0.050116527524823255 0.033189334857442881 0 -0.049901975250245444 0.034255743281698982 0 -0.049345099561501619 0.034778679636591966 0 -0.049888967945247997 0.034120368487062361 0 -0.0505745730444596 0.034158322965548063 0 -0.049174210776083811 0.033806475084800287 0 -0.049888967945247997 0.034120368487062361 0 -0.050025797493414688 0.033734993684176678 0 -0.049345099561501619 0.034778679636591966 0 -0.049174210776083811 0.033806475084800287 0 -0.049888967945247997 0.034120368487062361 0 -0.050312682007251523 0.033923157510893941 0 -0.050025797493414688 0.033734993684176678 0 -0.050503047853822529 0.033649608690075113 0 -0.049888967945247997 0.034120368487062361 0 -0.050312682007251523 0.033923157510893941 0 -0.050025797493414688 0.033734993684176678 0 -0.050312682007251523 0.033923157510893941 0 -0.050503047853822529 0.033649608690075113 0 -0.050676357721594241 0.034025225565681473 0 -0.050312682007251523 0.033923157510893941 0 -0.050676357721594241 0.034025225565681473 0 -0.0505745730444596 0.034158322965548063 0 -0.049888967945247997 0.034120368487062361 0 -0.050312682007251523 0.033923157510893941 0 -0.0505745730444596 0.034158322965548063 0 -0.0505745730444596 0.034158322965548063 0 -0.051348371806974449 0.034643034862163427 0 -0.05098147124230272 0.034592233140979131 0 -0.0505745730444596 0.034158322965548063 0 -0.051348371806974449 0.034643034862163427 0 -0.051114112456571596 0.03443369946617638 0 -0.051348371806974449 0.034643034862163427 0 -0.051114112456571596 0.03443369946617638 0 -0.051933393107346341 0.035038461674877605 0 -0.051114112456571596 0.03443369946617638 0 -0.051016193893847941 0.033661526394754726 0 -0.051933393107346341 0.035038461674877605 0 -0.05499933675332587 0.03946235047565453 0 -0.05462198282108062 0.040290363327737298 0 -0.051933393107346341 0.035038461674877605 0 -0.050676357721594241 0.034025225565681473 0 -0.0505745730444596 0.034158322965548063 0 -0.051114112456571596 0.03443369946617638 0 -0.050676357721594241 0.034025225565681473 0 -0.051114112456571596 0.03443369946617638 0 -0.051016193893847941 0.033661526394754726 0 -0.050503047853822529 0.033649608690075113 0 -0.050676357721594241 0.034025225565681473 0 -0.051016193893847941 0.033661526394754726 0 -0.052663784146676829 0.035858967506280079 0 -0.052023828466446771 0.035325136047430795 0 -0.05462198282108062 0.040290363327737298 0 -0.054162146385124885 0.040704672801431439 0 -0.053913012845810696 0.040252475708462819 0 -0.05462198282108062 0.040290363327737298 0 -0.054548393997347532 0.04082752472400205 0 -0.054162146385124885 0.040704672801431439 0 -0.054956768813743513 0.041293922339544591 0 -0.055393716269727861 0.041945435820406038 0 -0.05413675812375067 0.041300549307709558 0 -0.05462198282108062 0.040290363327737298 0 -0.054548393997347532 0.04082752472400205 0 -0.05487536421370702 0.040674259082267551 0 -0.054548393997347532 0.04082752472400205 0 -0.05413675812375067 0.041300549307709558 0 -0.054162146385124885 0.040704672801431439 0 -0.054548393997347532 0.04082752472400205 0 -0.054956768813743513 0.041293922339544591 0 -0.05413675812375067 0.041300549307709558 0 -0.054548393997347532 0.04082752472400205 0 -0.054956768813743513 0.041293922339544591 0 -0.05487536421370702 0.040674259082267551 0 -0.054956768813743513 0.041293922339544591 0 -0.055272038486398105 0.040969391871923132 0 -0.05487536421370702 0.040674259082267551 0 -0.055395717544928683 0.041484356915634069 0 -0.055272038486398105 0.040969391871923132 0 -0.055606918471406142 0.04115274169600245 0 -0.055395717544928683 0.041484356915634069 0 -0.054956768813743513 0.041293922339544591 0 -0.055272038486398105 0.040969391871923132 0 -0.05499933675332587 0.03946235047565453 0 -0.055272038486398105 0.040969391871923132 0 -0.05487536421370702 0.040674259082267551 0 -0.05499933675332587 0.03946235047565453 0 -0.055272038486398105 0.040969391871923132 0 -0.055606918471406142 0.04115274169600245 0 -0.05499933675332587 0.03946235047565453 0 -0.05462198282108062 0.040290363327737298 0 -0.05487536421370702 0.040674259082267551 0 -0.052663784146676829 0.035858967506280079 0 -0.050957072980257478 0.044394023152817631 0 -0.050503047853822529 0.033649608690075113 0 -0.051016193893847941 0.033661526394754726 0 -0.050315561320099893 0.033154720130240754 0 -0.05499933675332587 0.03946235047565453 0 -0.056231791439333746 0.041454594442254133 0 -0.055606918471406142 0.04115274169600245 0 -0.050025797493414688 0.033734993684176678 0 -0.050503047853822529 0.033649608690075113 0 -0.050315561320099893 0.033154720130240754 0 -0.050957072980257478 0.044394023152817631 0 -0.054166296730089138 0.042172611957530567 0 -0.056231791439333746 0.041454594442254133 0 -0.055606918471406142 0.04115274169600245 0 -0.055655798555492297 0.0416852114908495 0 -0.055664764601379146 0.04170704869466331 0 -0.055655798555492297 0.0416852114908495 0 -0.055666049469691517 0.041783874967750385 0 -0.055395717544928683 0.041484356915634069 0 -0.055606918471406142 0.04115274169600245 0 -0.055655798555492297 0.0416852114908495 0 -0.055655798555492297 0.0416852114908495 0 -0.055666049469691517 0.041783874967750385 0 -0.055393716269727861 0.041945435820406038 0 -0.05570427132769569 0.041906982261970531 0 -0.055666049469691517 0.041783874967750385 0 -0.055393716269727861 0.041945435820406038 0 -0.04781545881436406 0.048672570107483409 0 -0.056172174134117868 0.04223340789661325 0 -0.055395717544928683 0.041484356915634069 0 -0.055655798555492297 0.0416852114908495 0 -0.055393716269727861 0.041945435820406038 0 -0.055718691811305725 0.042138801988703262 0 -0.05570427132769569 0.041906982261970531 0 -0.055393716269727861 0.041945435820406038 0 -0.055673695739768783 0.043241773036634623 0 -0.056652953929822038 0.043138480717397384 0 -0.055460534141420423 0.042289295618357335 0 -0.055811802858412654 0.042002124143562226 0 -0.055664764601379146 0.04170704869466331 0 -0.05570427132769569 0.041906982261970531 0 -0.055664764601379146 0.04170704869466331 0 -0.05570427132769569 0.041906982261970531 0 -0.055666049469691517 0.041783874967750385 0 -0.056172174134117868 0.04223340789661325 0 -0.05401266249491541 0.041253422886691204 0 -0.055054864324194062 0.043224972067852925 0 -0.055673695739768783 0.043241773036634623 0 -0.055460534141420423 0.042289295618357335 0 -0.054439017702248418 0.042514981126576194 0 -0.055460534141420423 0.042289295618357335 0 -0.05413675812375067 0.041300549307709558 0 -0.055054864324194062 0.043224972067852925 0 -0.054439017702248418 0.042514981126576194 0 -0.055460534141420423 0.042289295618357335 0 -0.055395717544928683 0.041484356915634069 0 -0.054956768813743513 0.041293922339544591 0 -0.055393716269727861 0.041945435820406038 0 -0.054439017702248418 0.042514981126576194 0 -0.053538181480210036 0.042193712332758121 0 -0.05413675812375067 0.041300549307709558 0 -0.054027050820744001 0.043493882738616874 0 -0.054439017702248418 0.042514981126576194 0 -0.053538181480210036 0.042193712332758121 0 -0.052306374478908658 0.043400512015102234 0 -0.053538181480210036 0.042193712332758121 0 -0.05274420828826587 0.041549860426788779 0 -0.052296457872837793 0.043924054687607628 0 -0.052676589919496551 0.04167462803664583 0 -0.05274420828826587 0.041549860426788779 0 -0.053111139871053224 0.040417518436637948 0 -0.052072976572419584 0.039921883496284095 0 -0.05274420828826587 0.041549860426788779 0 -0.053594264307968105 0.040891488634421817 0 -0.053111139871053224 0.040417518436637948 0 -0.053538181480210036 0.042193712332758121 0 -0.05274420828826587 0.041549860426788779 0 -0.053594264307968105 0.040891488634421817 0 -0.053594264307968105 0.040891488634421817 0 -0.053536342555162111 0.04026903836265578 0 -0.053111139871053224 0.040417518436637948 0 -0.053594264307968105 0.040891488634421817 0 -0.053913012845810696 0.040252475708462819 0 -0.053536342555162111 0.04026903836265578 0 -0.053538181480210036 0.042193712332758121 0 -0.053594264307968105 0.040891488634421817 0 -0.05413675812375067 0.041300549307709558 0 -0.053594264307968105 0.040891488634421817 0 -0.05413675812375067 0.041300549307709558 0 -0.054162146385124885 0.040704672801431439 0 -0.053594264307968105 0.040891488634421817 0 -0.054162146385124885 0.040704672801431439 0 -0.053913012845810696 0.040252475708462819 0 -0.05462198282108062 0.040290363327737298 0 -0.053913012845810696 0.040252475708462819 0 -0.053532903780346024 0.03960918127712508 0 -0.054638361417567845 0.040069091462350916 0 -0.05223488849368095 0.037406659085797711 0 -0.05462198282108062 0.040290363327737298 0 -0.050748918234937553 0.034864296125845969 0 -0.051933393107346341 0.035038461674877605 0 -0.053913012845810696 0.040252475708462819 0 -0.053536342555162111 0.04026903836265578 0 -0.053532903780346024 0.03960918127712508 0 -0.053536342555162111 0.04026903836265578 0 -0.053532903780346024 0.03960918127712508 0 -0.053111139871053224 0.040417518436637948 0 -0.051348371806974449 0.034643034862163427 0 -0.051933393107346341 0.035038461674877605 0 -0.051213528098166976 0.034738151011724998 0 -0.050748918234937553 0.034864296125845969 0 -0.051933393107346341 0.035038461674877605 0 -0.051213528098166976 0.034738151011724998 0 -0.051348371806974449 0.034643034862163427 0 -0.051213528098166976 0.034738151011724998 0 -0.051342123073477658 0.034857415808743249 0 -0.050748918234937553 0.034864296125845969 0 -0.051213528098166976 0.034738151011724998 0 -0.051144006328469084 0.035247010070909787 0 -0.05223488849368095 0.037406659085797711 0 -0.051528236320209468 0.036531611782016284 0 -0.053532903780346024 0.03960918127712508 0 -0.052072976572419584 0.039921883496284095 0 -0.052165090426828042 0.037900134507671761 0 -0.051213528098166976 0.034738151011724998 0 -0.051144006328469084 0.035247010070909787 0 -0.051342123073477658 0.034857415808743249 0 -0.053532903780346024 0.03960918127712508 0 -0.053111139871053224 0.040417518436637948 0 -0.052072976572419584 0.039921883496284095 0 -0.052072976572419584 0.039921883496284095 0 -0.052165090426828042 0.037900134507671761 0 -0.049999865239765691 0.040742358177396278 0 -0.052165090426828042 0.037900134507671761 0 -0.049999865239765691 0.040742358177396278 0 -0.050415708084232173 0.03600008681742238 0 -0.05274420828826587 0.041549860426788779 0 -0.052072976572419584 0.039921883496284095 0 -0.049999865239765691 0.040742358177396278 0 -0.052327491139552623 0.044421370770879459 0 -0.05274420828826587 0.041549860426788779 0 -0.049999865239765691 0.040742358177396278 0 -0.049999865239765691 0.040742358177396278 0 -0.049998419059268884 0.034087753027588014 0 -0.050415708084232173 0.03600008681742238 0 -0.05094067598014379 0.03263005142445851 0 -0.049998419059268884 0.034087753027588014 0 -0.050874893605542086 0.028394293949616269 0 -0.05094067598014379 0.03263005142445851 0 -0.051394335214354339 0.032667678617824186 0 -0.051066283094936528 0.031035328809624521 0 -0.05094067598014379 0.03263005142445851 0 -0.050998999858038185 0.034327414165712104 0 -0.051534545586368205 0.033963577494283401 0 -0.05094067598014379 0.03263005142445851 0 -0.050998999858038185 0.034327414165712104 0 -0.049998419059268884 0.034087753027588014 0 -0.050998999858038185 0.034327414165712104 0 -0.050415708084232173 0.03600008681742238 0 -0.051424962856584371 0.034926261214159572 0 -0.050998999858038185 0.034327414165712104 0 -0.049998419059268884 0.034087753027588014 0 -0.050415708084232173 0.03600008681742238 0 -0.051144006328469084 0.035247010070909787 0 -0.050415708084232173 0.03600008681742238 0 -0.051424962856584371 0.034926261214159572 0 -0.051528236320209468 0.036531611782016284 0 -0.05046399863054489 0.035965438928733363 0 -0.050998999858038185 0.034327414165712104 0 -0.051424962856584371 0.034926261214159572 0 -0.051534545586368205 0.033963577494283401 0 -0.051144006328469084 0.035247010070909787 0 -0.051424962856584371 0.034926261214159572 0 -0.051342123073477658 0.034857415808743249 0 -0.051424962856584371 0.034926261214159572 0 -0.051342123073477658 0.034857415808743249 0 -0.051445625133669945 0.034843419996128479 0 -0.051348371806974449 0.034643034862163427 0 -0.051342123073477658 0.034857415808743249 0 -0.051383350461826162 0.034733694896701146 0 -0.051342123073477658 0.034857415808743249 0 -0.051445625133669945 0.034843419996128479 0 -0.051383350461826162 0.034733694896701146 0 -0.051445625133669945 0.034843419996128479 0 -0.051383350461826162 0.034733694896701146 0 -0.051586335438831808 0.034835374745774784 0 -0.051424962856584371 0.034926261214159572 0 -0.051586335438831808 0.034835374745774784 0 -0.051844527033842465 0.034600878759786888 0 -0.051424962856584371 0.034926261214159572 0 -0.051445625133669945 0.034843419996128479 0 -0.051586335438831808 0.034835374745774784 0 -0.051586335438831808 0.034835374745774784 0 -0.051844527033842465 0.034600878759786888 0 -0.051545380785443164 0.035118296523677102 0 -0.051844527033842465 0.034600878759786888 0 -0.051534545586368205 0.033963577494283401 0 -0.051890939210798966 0.033726339936900107 0 -0.051424962856584371 0.034926261214159572 0 -0.051844527033842465 0.034600878759786888 0 -0.051534545586368205 0.033963577494283401 0 -0.05094067598014379 0.03263005142445851 0 -0.051534545586368205 0.033963577494283401 0 -0.051394335214354339 0.032667678617824186 0 -0.051534545586368205 0.033963577494283401 0 -0.051394335214354339 0.032667678617824186 0 -0.051890939210798966 0.033726339936900107 0 -0.051890939210798966 0.033726339936900107 0 -0.052649199858487261 0.035040834232631678 0 -0.05243937696540997 0.032237072474933411 0 -0.051844527033842465 0.034600878759786888 0 -0.051890939210798966 0.033726339936900107 0 -0.052649199858487261 0.035040834232631678 0 -0.052649199858487261 0.035040834232631678 0 -0.050607621512401536 0.036006559233890269 0 -0.051545380785443164 0.035118296523677102 0 -0.052649199858487261 0.035040834232631678 0 -0.050607621512401536 0.036006559233890269 0 -0.049454554882939136 0.04018125672709541 0 -0.050607621512401536 0.036006559233890269 0 -0.050197671472494175 0.0357676497033214 0 -0.051545380785443164 0.035118296523677102 0 -0.050607621512401536 0.036006559233890269 0 -0.050197671472494175 0.0357676497033214 0 -0.04888141656957249 0.036764944443139547 0 -0.051844527033842465 0.034600878759786888 0 -0.052649199858487261 0.035040834232631678 0 -0.051545380785443164 0.035118296523677102 0 -0.051586335438831808 0.034835374745774784 0 -0.051545380785443164 0.035118296523677102 0 -0.051243980499730564 0.034903358865405201 0 -0.051545380785443164 0.035118296523677102 0 -0.051243980499730564 0.034903358865405201 0 -0.050435710129348783 0.035034954573836867 0 -0.051243980499730564 0.034903358865405201 0 -0.05098147124230272 0.034592233140979131 0 -0.050435710129348783 0.035034954573836867 0 -0.051383350461826162 0.034733694896701146 0 -0.051586335438831808 0.034835374745774784 0 -0.051243980499730564 0.034903358865405201 0 -0.051383350461826162 0.034733694896701146 0 -0.051243980499730564 0.034903358865405201 0 -0.05098147124230272 0.034592233140979131 0 -0.051348371806974449 0.034643034862163427 0 -0.051383350461826162 0.034733694896701146 0 -0.05098147124230272 0.034592233140979131 0 -0.0505745730444596 0.034158322965548063 0 -0.05098147124230272 0.034592233140979131 0 -0.049514098743763738 0.034132578345099009 0 -0.05098147124230272 0.034592233140979131 0 -0.050435710129348783 0.035034954573836867 0 -0.049514098743763738 0.034132578345099009 0 -0.050197671472494175 0.0357676497033214 0 -0.051545380785443164 0.035118296523677102 0 -0.050435710129348783 0.035034954573836867 0 -0.050197671472494175 0.0357676497033214 0 -0.050435710129348783 0.035034954573836867 0 -0.049109437802159754 0.035260323604446808 0 -0.050435710129348783 0.035034954573836867 0 -0.049109437802159754 0.035260323604446808 0 -0.049514098743763738 0.034132578345099009 0 -0.049109437802159754 0.035260323604446808 0 -0.047956585179887087 0.034007848307103114 0 -0.046315008110463962 0.036435020290358201 0 -0.049109437802159754 0.035260323604446808 0 -0.046315008110463962 0.036435020290358201 0 -0.04888141656957249 0.036764944443139547 0 -0.049109437802159754 0.035260323604446808 0 -0.049514098743763738 0.034132578345099009 0 -0.047956585179887087 0.034007848307103114 0 -0.049514098743763738 0.034132578345099009 0 -0.048012776801012701 0.033636321450575275 0 -0.047956585179887087 0.034007848307103114 0 -0.047355589045916677 0.033853473157345618 0 -0.048012776801012701 0.033636321450575275 0 -0.047956585179887087 0.034007848307103114 0 -0.04474229361032913 0.031821192506012778 0 -0.047956585179887087 0.034007848307103114 0 -0.044534639746121943 0.0345395798612078 0 -0.04617730466802665 0.033028281450425433 0 -0.047619888076409669 0.033774038801216738 0 -0.047956585179887087 0.034007848307103114 0 -0.046315008110463962 0.036435020290358201 0 -0.044534639746121943 0.0345395798612078 0 -0.046315008110463962 0.036435020290358201 0 -0.046872429750000465 0.040367279181875389 0 -0.04356030789058004 0.039381993494351078 0 -0.046315008110463962 0.036435020290358201 0 -0.04888141656957249 0.036764944443139547 0 -0.046872429750000465 0.040367279181875389 0 -0.050197671472494175 0.0357676497033214 0 -0.049109437802159754 0.035260323604446808 0 -0.04888141656957249 0.036764944443139547 0 -0.050607621512401536 0.036006559233890269 0 -0.048155769530288099 0.038062494303202424 0 -0.045009647638384324 0.036324402017649048 0 -0.050607621512401536 0.036006559233890269 0 -0.04888141656957249 0.036764944443139547 0 -0.046872429750000465 0.040367279181875389 0 -0.050220135497948563 0.036333959034720829 0 -0.045805075755550831 0.038295384343019483 0 -0.045009647638384324 0.036324402017649048 0 -0.042776216960201993 0.040520393552481576 0 -0.047012902767148861 0.040629443788169128 0 -0.048155769530288099 0.038062494303202424 0 -0.045009647638384324 0.036324402017649048 0 -0.047012902767148861 0.040629443788169128 0 -0.048155769530288099 0.038062494303202424 0 -0.047012902767148861 0.040629443788169128 0 -0.049454554882939136 0.04018125672709541 0 -0.051803103957486052 0.036196236274756786 0 -0.052512025581243911 0.035664173864984126 0 -0.055888647919458953 0.029753964112127704 0 -0.05721932425126721 0.028797219922081316 0 -0.056288001881579522 0.028898019061229772 0 -0.055888647919458953 0.029753964112127704 0 -0.05721932425126721 0.028797219922081316 0 -0.055866578142437937 0.031301237945337443 0 -0.047012902767148861 0.040629443788169128 0 -0.046109591136667676 0.042849191199723337 0 -0.049454554882939136 0.04018125672709541 0 -0.042776216960201993 0.040520393552481576 0 -0.04315443868913784 0.044756067443674184 0 -0.040968686335330871 0.043850257213346615 0 -0.047012902767148861 0.040629443788169128 0 -0.045423900194336439 0.042505165117916167 0 -0.046109591136667676 0.042849191199723337 0 -0.042776216960201993 0.040520393552481576 0 -0.047012902767148861 0.040629443788169128 0 -0.04315443868913784 0.044756067443674184 0 -0.046935028167679992 0.04080681999530375 0 -0.044028160717415207 0.043905194971759647 0 -0.057007122969399783 0.028178500962526516 0 -0.057269371918486266 0.028344200516263983 0 -0.05780256231027079 0.028012032003972797 0 -0.05721932425126721 0.028797219922081316 0 -0.057269371918486266 0.028344200516263983 0 -0.057652638124144361 0.027896597933958336 0 -0.045423900194336439 0.042505165117916167 0 -0.046109591136667676 0.042849191199723337 0 -0.044417289122509356 0.043380568173578944 0 -0.051803103957486052 0.036196236274756786 0 -0.049876245010770905 0.033571532790879842 0 -0.05721932425126721 0.028797219922081316 0 -0.057007122969399783 0.028178500962526516 0 -0.056700031343937828 0.028451497128679833 0 -0.05721932425126721 0.028797219922081316 0 -0.057007122969399783 0.028178500962526516 0 -0.057269371918486266 0.028344200516263983 0 -0.057007122969399783 0.028178500962526516 0 -0.057507053163815318 0.027092507643086836 0 -0.059142220789249328 0.026424251482468963 0 -0.057683277957876672 0.02652027185783579 0 -0.057507053163815318 0.027092507643086836 0 -0.059142220789249328 0.026424251482468963 0 -0.058605225472700986 0.027854704858441205 0 -0.054288254587895567 0.02705758584710408 0 -0.057683277957876672 0.02652027185783579 0 -0.057507053163815318 0.027092507643086836 0 -0.0566567435354886 0.026863034316726094 0 -0.057007122969399783 0.028178500962526516 0 -0.057507053163815318 0.027092507643086836 0 -0.0566567435354886 0.026863034316726094 0 -0.057683277957876672 0.02652027185783579 0 -0.0566567435354886 0.026863034316726094 0 -0.056810795824252164 0.025109542424459629 0 -0.057683277957876672 0.02652027185783579 0 -0.058538949258606414 0.026190010861014294 0 -0.058102256523780656 0.025502781337759021 0 -0.057683277957876672 0.02652027185783579 0 -0.058102256523780656 0.025502781337759021 0 -0.056810795824252164 0.025109542424459629 0 -0.055673336238860296 0.026223373094909137 0 -0.0566567435354886 0.026863034316726094 0 -0.056810795824252164 0.025109542424459629 0 -0.055673336238860296 0.026223373094909137 0 -0.0566567435354886 0.026863034316726094 0 -0.056156035340947569 0.027778745870154234 0 -0.057007122969399783 0.028178500962526516 0 -0.056156035340947569 0.027778745870154234 0 -0.056700031343937828 0.028451497128679833 0 -0.057007122969399783 0.028178500962526516 0 -0.0566567435354886 0.026863034316726094 0 -0.056156035340947569 0.027778745870154234 0 -0.05721932425126721 0.028797219922081316 0 -0.056700031343937828 0.028451497128679833 0 -0.056288001881579522 0.028898019061229772 0 -0.056156035340947569 0.027778745870154234 0 -0.056700031343937828 0.028451497128679833 0 -0.056288001881579522 0.028898019061229772 0 -0.055888647919458953 0.029753964112127704 0 -0.056288001881579522 0.028898019061229772 0 -0.05525319589574771 0.028744635385378831 0 -0.056156035340947569 0.027778745870154234 0 -0.056288001881579522 0.028898019061229772 0 -0.05525319589574771 0.028744635385378831 0 -0.056156035340947569 0.027778745870154234 0 -0.05525319589574771 0.028744635385378831 0 -0.054670824193873209 0.027217997181963969 0 -0.05525319589574771 0.028744635385378831 0 -0.053928673399037529 0.028570135433279069 0 -0.054689293918659336 0.030068326498585155 0 -0.05525319589574771 0.028744635385378831 0 -0.054670824193873209 0.027217997181963969 0 -0.053928673399037529 0.028570135433279069 0 -0.055673336238860296 0.026223373094909137 0 -0.056156035340947569 0.027778745870154234 0 -0.054670824193873209 0.027217997181963969 0 -0.055673336238860296 0.026223373094909137 0 -0.054670824193873209 0.027217997181963969 0 -0.054304231757870906 0.025392730491629982 0 -0.054670824193873209 0.027217997181963969 0 -0.053257563558266101 0.026940725286030164 0 -0.054304231757870906 0.025392730491629982 0 -0.053257563558266101 0.026940725286030164 0 -0.053928673399037529 0.028570135433279069 0 -0.0525724415883604 0.028518071390070586 0 -0.054670824193873209 0.027217997181963969 0 -0.053257563558266101 0.026940725286030164 0 -0.053928673399037529 0.028570135433279069 0 -0.053928673399037529 0.028570135433279069 0 -0.053265422385098071 0.030230251443961163 0 -0.0525724415883604 0.028518071390070586 0 -0.053265422385098071 0.030230251443961163 0 -0.054689293918659336 0.030068326498585155 0 -0.053744148656269794 0.031640627052304471 0 -0.053928673399037529 0.028570135433279069 0 -0.053265422385098071 0.030230251443961163 0 -0.054689293918659336 0.030068326498585155 0 -0.054689293918659336 0.030068326498585155 0 -0.055866578142437937 0.031301237945337443 0 -0.053744148656269794 0.031640627052304471 0 -0.055888647919458953 0.029753964112127704 0 -0.05525319589574771 0.028744635385378831 0 -0.054689293918659336 0.030068326498585155 0 -0.055888647919458953 0.029753964112127704 0 -0.054689293918659336 0.030068326498585155 0 -0.055866578142437937 0.031301237945337443 0 -0.052597404969537506 0.035244685609309601 0 -0.052512025581243911 0.035664173864984126 0 -0.050607621512401536 0.036006559233890269 0 -0.048155769530288099 0.038062494303202424 0 -0.049454554882939136 0.04018125672709541 0 -0.052649199858487261 0.035040834232631678 0 -0.053744148656269794 0.031640627052304471 0 -0.05243937696540997 0.032237072474933411 0 -0.052649199858487261 0.035040834232631678 0 -0.055866578142437937 0.031301237945337443 0 -0.053744148656269794 0.031640627052304471 0 -0.053265422385098071 0.030230251443961163 0 -0.053744148656269794 0.031640627052304471 0 -0.05243937696540997 0.032237072474933411 0 -0.049998419059268884 0.034087753027588014 0 -0.04999915046510723 0.025871644613932411 0 -0.050874893605542086 0.028394293949616269 0 -0.05243937696540997 0.032237072474933411 0 -0.051591862055986162 0.031693340231358398 0 -0.052018911752862565 0.030253288343827695 0 -0.051890939210798966 0.033726339936900107 0 -0.05243937696540997 0.032237072474933411 0 -0.051591862055986162 0.031693340231358398 0 -0.051394335214354339 0.032667678617824186 0 -0.051890939210798966 0.033726339936900107 0 -0.051591862055986162 0.031693340231358398 0 -0.051394335214354339 0.032667678617824186 0 -0.051591862055986162 0.031693340231358398 0 -0.051066283094936528 0.031035328809624521 0 -0.051591862055986162 0.031693340231358398 0 -0.051175648414528062 0.029897458121309551 0 -0.051066283094936528 0.031035328809624521 0 -0.051591862055986162 0.031693340231358398 0 -0.051175648414528062 0.029897458121309551 0 -0.052018911752862565 0.030253288343827695 0 -0.051175648414528062 0.029897458121309551 0 -0.052018911752862565 0.030253288343827695 0 -0.05155967243656584 0.028963078401887794 0 -0.053265422385098071 0.030230251443961163 0 -0.05243937696540997 0.032237072474933411 0 -0.052018911752862565 0.030253288343827695 0 -0.053265422385098071 0.030230251443961163 0 -0.052018911752862565 0.030253288343827695 0 -0.0525724415883604 0.028518071390070586 0 -0.0525724415883604 0.028518071390070586 0 -0.051574530389219657 0.027086931474981268 0 -0.05155967243656584 0.028963078401887794 0 -0.052018911752862565 0.030253288343827695 0 -0.0525724415883604 0.028518071390070586 0 -0.05155967243656584 0.028963078401887794 0 -0.053257563558266101 0.026940725286030164 0 -0.0525724415883604 0.028518071390070586 0 -0.051574530389219657 0.027086931474981268 0 -0.053257563558266101 0.026940725286030164 0 -0.051574530389219657 0.027086931474981268 0 -0.052740805227540835 0.025003990501349865 0 -0.051574530389219657 0.027086931474981268 0 -0.050736317289888061 0.028383812995967591 0 -0.049968732377620263 0.027012303153844994 0 -0.051574530389219657 0.027086931474981268 0 -0.050736317289888061 0.028383812995967591 0 -0.05155967243656584 0.028963078401887794 0 -0.051175648414528062 0.029897458121309551 0 -0.050736317289888061 0.028383812995967591 0 -0.05155967243656584 0.028963078401887794 0 -0.050374265392554442 0.028805067541364179 0 -0.05204648243908748 0.025790634375879806 0 -0.050082952278519957 0.028789916187661038 0 -0.050736317289888061 0.028383812995967591 0 -0.050374265392554442 0.028805067541364179 0 -0.049968732377620263 0.027012303153844994 0 -0.050405456338451442 0.028569280543581408 0 -0.051021564304779832 0.026379115794414217 0 -0.051175648414528062 0.029897458121309551 0 -0.050736317289888061 0.028383812995967591 0 -0.050374265392554442 0.028805067541364179 0 -0.05204648243908748 0.025790634375879806 0 -0.049997723946164044 0.025868912711640574 0 -0.050766101219290136 0.024990288198074098 0 -0.05204648243908748 0.025790634375879806 0 -0.049997723946164044 0.025868912711640574 0 -0.050082952278519957 0.028789916187661038 0 -0.050000573240892812 0.025668927200172421 0 -0.049997723946164044 0.025868912711640574 0 -0.050766101219290136 0.024990288198074098 0 -0.05000000228456427 0.025869599128224435 0 -0.050503882959047029 0.028621391239035811 0 -0.05094067598014379 0.03263005142445851 0 -0.050874893605542086 0.028394293949616269 0 -0.051066283094936528 0.031035328809624521 0 -0.050374265392554442 0.028805067541364179 0 -0.050082952278519957 0.028789916187661038 0 -0.051066283094936528 0.031035328809624521 0 -0.051175648414528062 0.029897458121309551 0 -0.050374265392554442 0.028805067541364179 0 -0.051066283094936528 0.031035328809624521 0 -0.050503882959047029 0.028621391239035811 0 -0.051082395870361966 0.030783029116646231 0 -0.027407617700070122 0.042306561844917857 0 -0.028327129274164829 0.041170809012436346 0 -0.026830833668643719 0.042805274112955607 0 -0.028327129274164829 0.041170809012436346 0 -0.029786074959986093 0.042159991353752743 0 -0.032084776558322772 0.041491016531037837 0 -0.028327129274164829 0.041170809012436346 0 -0.029786074959986093 0.042159991353752743 0 -0.028432603413649789 0.042606853817848227 0 -0.029786074959986093 0.042159991353752743 0 -0.032084776558322772 0.041491016531037837 0 -0.030559667139840287 0.043210916830153503 0 -0.029786074959986093 0.042159991353752743 0 -0.028432603413649789 0.042606853817848227 0 -0.030559667139840287 0.043210916830153503 0 -0.026017476537444476 0.04347427045980215 0 -0.027945066949336562 0.043324149398178032 0 -0.028432603413649789 0.042606853817848227 0 -0.026784685701595083 0.042744840808911277 0 -0.027802244671014133 0.043914641027964448 0 -0.027407617700070122 0.042306561844917857 0 -0.028432603413649789 0.042606853817848227 0 -0.026784685701595083 0.042744840808911277 0 -0.027407617700070122 0.042306561844917857 0 -0.028327129274164829 0.041170809012436346 0 -0.028432603413649789 0.042606853817848227 0 -0.025656312506065374 0.044086419467132799 0 -0.025560076797137187 0.04409063604046945 0 -0.02558730288190738 0.043985414670983942 0 -0.025656312506065374 0.044086419467132799 0 -0.025560076797137187 0.04409063604046945 0 -0.02565296464549055 0.044192867300883114 0 -0.026017476537444476 0.04347427045980215 0 -0.02606146324785508 0.043750095485984512 0 -0.027407617700070122 0.042306561844917857 0 -0.026784685701595083 0.042744840808911277 0 -0.026830833668643719 0.042805274112955607 0 -0.026784685701595083 0.042744840808911277 0 -0.026558951715354336 0.043339289249209594 0 -0.026830833668643719 0.042805274112955607 0 -0.026830833668643719 0.042805274112955607 0 -0.026358848270626095 0.043810789955642623 0 -0.02643446854825092 0.044214495119652468 0 -0.025812924787206617 0.044171668576121377 0 -0.026558951715354336 0.043339289249209594 0 -0.026358848270626095 0.043810789955642623 0 -0.026558951715354336 0.043339289249209594 0 -0.026830833668643719 0.042805274112955607 0 -0.026358848270626095 0.043810789955642623 0 -0.025832712244451019 0.044385218478101854 0 -0.026358848270626095 0.043810789955642623 0 -0.02643446854825092 0.044214495119652468 0 -0.025832712244451019 0.044385218478101854 0 -0.025563118155287841 0.044959203722649603 0 -0.02643446854825092 0.044214495119652468 0 -0.026647226993196996 0.045275166803802384 0 -0.02643446854825092 0.044214495119652468 0 -0.026316974577001405 0.043905351096252716 0 -0.026830833668643719 0.042805274112955607 0 -0.02643446854825092 0.044214495119652468 0 -0.026316974577001405 0.043905351096252716 0 -0.024464041765636636 0.045535890544736154 0 -0.026316974577001405 0.043905351096252716 0 -0.025908857254183053 0.043182317779045097 0 -0.028327129274164829 0.041170809012436346 0 -0.026830833668643719 0.042805274112955607 0 -0.025908857254183053 0.043182317779045097 0 -0.026830833668643719 0.042805274112955607 0 -0.026316974577001405 0.043905351096252716 0 -0.025908857254183053 0.043182317779045097 0 -0.028227034895038819 0.04112780242982262 0 -0.027869459639746578 0.039859772665240885 0 -0.028327129274164829 0.041170809012436346 0 -0.029662870994761729 0.035434261931304424 0 -0.032402441023268037 0.037524892157098373 0 -0.027476316913342007 0.037657182223524294 0 -0.027869459639746578 0.039859772665240885 0 -0.030860456126441071 0.032247853286857885 0 -0.029662870994761729 0.035434261931304424 0 -0.033031855686701798 0.033695587852154436 0 -0.033031855686701798 0.033695587852154436 0 -0.036022352345785096 0.03466135360681806 0 -0.032402441023268037 0.037524892157098373 0 -0.035821641455969069 0.033116221783324892 0 -0.033031855686701798 0.033695587852154436 0 -0.036022352345785096 0.03466135360681806 0 -0.036022352345785096 0.03466135360681806 0 -0.039278801853850208 0.036977611308273588 0 -0.036215611733006928 0.039521492553058202 0 -0.036022352345785096 0.03466135360681806 0 -0.032402441023268037 0.037524892157098373 0 -0.036215611733006928 0.039521492553058202 0 -0.029662870994761729 0.035434261931304424 0 -0.033031855686701798 0.033695587852154436 0 -0.032402441023268037 0.037524892157098373 0 -0.04140555452403244 0.029982699935856991 0 -0.042964476424932507 0.03270516615293588 0 -0.04108387603878997 0.034397219552617299 0 -0.04474229361032913 0.031821192506012778 0 -0.042964476424932507 0.03270516615293588 0 -0.044534639746121943 0.0345395798612078 0 -0.041308478702156773 0.033986182943040545 0 -0.04617730466802665 0.033028281450425433 0 -0.04140555452403244 0.029982699935856991 0 -0.04474229361032913 0.031821192506012778 0 -0.042964476424932507 0.03270516615293588 0 -0.042964476424932507 0.03270516615293588 0 -0.04108387603878997 0.034397219552617299 0 -0.044534639746121943 0.0345395798612078 0 -0.041308478702156773 0.033986182943040545 0 -0.035846944722919209 0.033785666395147011 0 -0.038155878699180426 0.032904684476624292 0 -0.035821641455969069 0.033116221783324892 0 -0.036022352345785096 0.03466135360681806 0 -0.04140555452403244 0.029982699935856991 0 -0.036022352345785096 0.03466135360681806 0 -0.04108387603878997 0.034397219552617299 0 -0.036022352345785096 0.03466135360681806 0 -0.039278801853850208 0.036977611308273588 0 -0.04108387603878997 0.034397219552617299 0 -0.046315008110463962 0.036435020290358201 0 -0.042682593633104705 0.036994106982860667 0 -0.044534639746121943 0.0345395798612078 0 -0.04108387603878997 0.034397219552617299 0 -0.042682593633104705 0.036994106982860667 0 -0.044534639746121943 0.0345395798612078 0 -0.039278801853850208 0.036977611308273588 0 -0.04108387603878997 0.034397219552617299 0 -0.042682593633104705 0.036994106982860667 0 -0.046315008110463962 0.036435020290358201 0 -0.042682593633104705 0.036994106982860667 0 -0.04356030789058004 0.039381993494351078 0 -0.042682593633104705 0.036994106982860667 0 -0.04356030789058004 0.039381993494351078 0 -0.040430924871600347 0.03925797212063261 0 -0.039278801853850208 0.036977611308273588 0 -0.040430924871600347 0.03925797212063261 0 -0.036215611733006928 0.039521492553058202 0 -0.039278801853850208 0.036977611308273588 0 -0.042682593633104705 0.036994106982860667 0 -0.040430924871600347 0.03925797212063261 0 -0.040430924871600347 0.03925797212063261 0 -0.040560060799479637 0.043140975736290936 0 -0.036215611733006928 0.039521492553058202 0 -0.04356030789058004 0.039381993494351078 0 -0.040430924871600347 0.03925797212063261 0 -0.040560060799479637 0.043140975736290936 0 -0.045805075755550831 0.038295384343019483 0 -0.039350803941236689 0.040491992792392677 0 -0.045009647638384324 0.036324402017649048 0 -0.042776216960201993 0.040520393552481576 0 -0.038122405915443712 0.037863945732090939 0 -0.046872429750000465 0.040367279181875389 0 -0.04356030789058004 0.039381993494351078 0 -0.040560060799479637 0.043140975736290936 0 -0.028327129274164829 0.041170809012436346 0 -0.032402441023268037 0.037524892157098373 0 -0.032084776558322772 0.041491016531037837 0 -0.032402441023268037 0.037524892157098373 0 -0.036215611733006928 0.039521492553058202 0 -0.032084776558322772 0.041491016531037837 0 -0.040560060799479637 0.043140975736290936 0 -0.036215611733006928 0.039521492553058202 0 -0.033676990739454779 0.044331355304602797 0 -0.039350803941236689 0.040491992792392677 0 -0.033483902126273543 0.042140691067568049 0 -0.036215611733006928 0.039521492553058202 0 -0.032084776558322772 0.041491016531037837 0 -0.033676990739454779 0.044331355304602797 0 -0.032084776558322772 0.041491016531037837 0 -0.033676990739454779 0.044331355304602797 0 -0.030559667139840287 0.043210916830153503 0 -0.033483902126273543 0.042140691067568049 0 -0.029977049982276033 0.042793374152060602 0 -0.033021248489448915 0.040110268280054338 0 -0.029606344281733369 0.04283868410628814 0 -0.030842641179183419 0.042799876495296228 0 -0.033676990739454779 0.044331355304602797 0 -0.029606344281733369 0.04283868410628814 0 -0.030559667139840287 0.043210916830153503 0 -0.033021248489448915 0.040110268280054338 0 -0.032070213313311967 0.042993501452980157 0 -0.030842641179183419 0.042799876495296228 0 -0.033021248489448915 0.040110268280054338 0 -0.033962978244637718 0.042524176904303095 0 -0.03586282991858767 0.041173896856349923 0 -0.033021248489448915 0.040110268280054338 0 -0.033962978244637718 0.042524176904303095 0 -0.032070213313311967 0.042993501452980157 0 -0.033962978244637718 0.042524176904303095 0 -0.035807342946516191 0.04420460119079573 0 -0.032872606150529698 0.044430826834502772 0 -0.033962978244637718 0.042524176904303095 0 -0.03586282991858767 0.041173896856349923 0 -0.035807342946516191 0.04420460119079573 0 -0.032070213313311967 0.042993501452980157 0 -0.032872606150529698 0.044430826834502772 0 -0.030662356222593997 0.044342012454394529 0 -0.032070213313311967 0.042993501452980157 0 -0.030662356222593997 0.044342012454394529 0 -0.030842641179183419 0.042799876495296228 0 -0.033962978244637718 0.042524176904303095 0 -0.032070213313311967 0.042993501452980157 0 -0.032872606150529698 0.044430826834502772 0 -0.042776216960201993 0.040520393552481576 0 -0.038122405915443712 0.037863945732090939 0 -0.038552926773439071 0.041768870831801121 0 -0.038122405915443712 0.037863945732090939 0 -0.033021248489448915 0.040110268280054338 0 -0.03586282991858767 0.041173896856349923 0 -0.038122405915443712 0.037863945732090939 0 -0.038552926773439071 0.041768870831801121 0 -0.03586282991858767 0.041173896856349923 0 -0.038552926773439071 0.041768870831801121 0 -0.035807342946516191 0.04420460119079573 0 -0.038243693282252945 0.045838427236726251 0 -0.038552926773439071 0.041768870831801121 0 -0.03586282991858767 0.041173896856349923 0 -0.035807342946516191 0.04420460119079573 0 -0.038552926773439071 0.041768870831801121 0 -0.040968686335330871 0.043850257213346615 0 -0.039487991498927462 0.0482043768939239 0 -0.042776216960201993 0.040520393552481576 0 -0.038552926773439071 0.041768870831801121 0 -0.040968686335330871 0.043850257213346615 0 -0.037598037720973448 0.043432945557713584 0 -0.042844510704661429 0.043375208642511535 0 -0.046109591136667676 0.042849191199723337 0 -0.044417289122509356 0.043380568173578944 0 -0.04447648699796973 0.043807201670274562 0 -0.04315443868913784 0.044756067443674184 0 -0.040968686335330871 0.043850257213346615 0 -0.039487991498927462 0.0482043768939239 0 -0.044028160717415207 0.043905194971759647 0 -0.042844510704661429 0.043375208642511535 0 -0.042844510704661429 0.043375208642511535 0 -0.049876245010770905 0.033571532790879842 0 -0.035807342946516191 0.04420460119079573 0 -0.038243693282252945 0.045838427236726251 0 -0.035902076644853849 0.046005106875238511 0 -0.035807342946516191 0.04420460119079573 0 -0.035902076644853849 0.046005106875238511 0 -0.034303647833090027 0.046060069498200497 0 -0.054288254587895567 0.02705758584710408 0 -0.045480564538532123 0.033373474716131425 0 -0.038243693282252945 0.045838427236726251 0 -0.035902076644853849 0.046005106875238511 0 -0.0352600684616938 0.047830793652883924 0 -0.042964191192037759 0.037464968788127502 0 -0.046277120677071848 0.035711075593500452 0 -0.046566714893204894 0.036499725043465207 0 -0.046137282353863773 0.034562218429004046 0 -0.042964191192037759 0.037464968788127502 0 -0.046277120677071848 0.035711075593500452 0 -0.042964191192037759 0.037464968788127502 0 -0.046566714893204894 0.036499725043465207 0 -0.043087186381899831 0.03851247251515217 0 -0.042844510704661429 0.043375208642511535 0 -0.038539683762963281 0.043097764489127964 0 -0.057269371918486266 0.028344200516263983 0 -0.057652638124144361 0.027896597933958336 0 -0.057595362575787977 0.027753045853747691 0 -0.058149372435970806 0.028065942508446594 0 -0.054288254587895567 0.02705758584710408 0 -0.049876245010770905 0.033571532790879842 0 -0.054288254587895567 0.02705758584710408 0 -0.057683277957876672 0.02652027185783579 0 -0.059142220789249328 0.026424251482468963 0 -0.058538949258606414 0.026190010861014294 0 -0.059142220789249328 0.026424251482468963 0 -0.058538949258606414 0.026190010861014294 0 -0.058102256523780656 0.025502781337759021 0 -0.032872606150529698 0.044430826834502772 0 -0.034303647833090027 0.046060069498200497 0 -0.03183385076994924 0.04630131652194603 0 -0.032872606150529698 0.044430826834502772 0 -0.03183385076994924 0.04630131652194603 0 -0.030662356222593997 0.044342012454394529 0 -0.035807342946516191 0.04420460119079573 0 -0.032872606150529698 0.044430826834502772 0 -0.034303647833090027 0.046060069498200497 0 -0.0352600684616938 0.047830793652883924 0 -0.034303647833090027 0.046060069498200497 0 -0.033017506991498462 0.047697606295953578 0 -0.035902076644853849 0.046005106875238511 0 -0.0352600684616938 0.047830793652883924 0 -0.034303647833090027 0.046060069498200497 0 -0.034303647833090027 0.046060069498200497 0 -0.033017506991498462 0.047697606295953578 0 -0.03183385076994924 0.04630131652194603 0 -0.033017506991498462 0.047697606295953578 0 -0.03183385076994924 0.04630131652194603 0 -0.031096215113904584 0.048404486094186058 0 -0.029013966350298064 0.045925466628584079 0 -0.030956791901290363 0.048226910179753023 0 -0.03183385076994924 0.04630131652194603 0 -0.029443135011845461 0.046526573596720307 0 -0.031096215113904584 0.048404486094186058 0 -0.02853732682853042 0.045209956645680192 0 -0.025018844710217432 0.046015519109031108 0 -0.026653703680730476 0.049094727152839045 0 -0.029013966350298064 0.045925466628584079 0 -0.026977373195705142 0.043263770859848651 0 -0.02853732682853042 0.045209956645680192 0 -0.026009145094111747 0.042224492528215737 0 -0.025018844710217432 0.046015519109031108 0 -0.029443135011845461 0.046526573596720307 0 -0.029229188699372851 0.044309508064615172 0 -0.027817810703267616 0.044602956204807011 0 -0.03183385076994924 0.04630131652194603 0 -0.029443135011845461 0.046526573596720307 0 -0.030662356222593997 0.044342012454394529 0 -0.029443135011845461 0.046526573596720307 0 -0.030662356222593997 0.044342012454394529 0 -0.029229188699372851 0.044309508064615172 0 -0.030662356222593997 0.044342012454394529 0 -0.029568966835126553 0.043139530283409305 0 -0.030842641179183419 0.042799876495296228 0 -0.030662356222593997 0.044342012454394529 0 -0.029568966835126553 0.043139530283409305 0 -0.029229188699372851 0.044309508064615172 0 -0.029229188699372851 0.044309508064615172 0 -0.028601782617003243 0.043492347307935893 0 -0.027817810703267616 0.044602956204807011 0 -0.028601782617003243 0.043492347307935893 0 -0.027664724622380048 0.043204089995343094 0 -0.027817810703267616 0.044602956204807011 0 -0.029568966835126553 0.043139530283409305 0 -0.029229188699372851 0.044309508064615172 0 -0.028601782617003243 0.043492347307935893 0 -0.029193372688509384 0.043125587809841902 0 -0.027945066949336562 0.043324149398178032 0 -0.029568966835126553 0.043139530283409305 0 -0.028623356057342939 0.04245415614832778 0 -0.029606344281733369 0.04283868410628814 0 -0.029568966835126553 0.043139530283409305 0 -0.028601782617003243 0.043492347307935893 0 -0.02866984655655485 0.042220063541417455 0 -0.028601782617003243 0.043492347307935893 0 -0.02866984655655485 0.042220063541417455 0 -0.027664724622380048 0.043204089995343094 0 -0.028623356057342939 0.04245415614832778 0 -0.029606344281733369 0.04283868410628814 0 -0.030559667139840287 0.043210916830153503 0 -0.028432603413649789 0.042606853817848227 0 -0.027802244671014133 0.043914641027964448 0 -0.030559667139840287 0.043210916830153503 0 -0.027945066949336562 0.043324149398178032 0 -0.030357909383358379 0.043093450495518833 0 -0.029568966835126553 0.043139530283409305 0 -0.029606344281733369 0.04283868410628814 0 -0.030842641179183419 0.042799876495296228 0 -0.019061711620554662 0.042502289065458707 0 -0.01902543284948368 0.042388987958492434 0 -0.019051167346825781 0.042375369919141447 0 -0.022568769205428829 0.04351881020396945 0 -0.023992140009129064 0.042185031648331504 0 -0.023992140009129064 0.042185031648331504 0 -0.015489914942489542 0.040979148411750363 0 -0.025560076797137187 0.04409063604046945 0 -0.025513420711710772 0.044013188068671043 0 -0.02558730288190738 0.043985414670983942 0 -0.027945066949336562 0.043324149398178032 0 -0.023992140009129064 0.042185031648331504 0 -0.02866984655655485 0.042220063541417455 0 -0.026289212884211273 0.042801612379953155 0 -0.027664724622380048 0.043204089995343094 0 -0.023992140009129064 0.042185031648331504 0 -0.026977373195705142 0.043263770859848651 0 -0.026289212884211273 0.042801612379953155 0 -0.027664724622380048 0.043204089995343094 0 -0.027817810703267616 0.044602956204807011 0 -0.023459918830451884 0.039260715787616654 0 -0.023367771995180624 0.042862624212778366 0 -0.026009145094111747 0.042224492528215737 0 -0.014066058686296446 0.040134714989910163 0 -0.014954070848747624 0.038328943556346647 0 -0.015897994859524107 0.039826800549836158 0 -0.023459918830451884 0.039260715787616654 0 -0.021724222510464578 0.03970158377666972 0 -0.023367771995180624 0.042862624212778366 0 -0.015489914942489542 0.040979148411750363 0 -0.019851949134086288 0.041148076283873229 0 -0.014066058686296446 0.040134714989910163 0 -0.015897994859524107 0.039826800549836158 0 -0.015282729141237215 0.041177824348353112 0 -0.019851949134086288 0.041148076283873229 0 -0.02099400406946407 0.04363560685766555 0 -0.023367771995180624 0.042862624212778366 0 -0.026009145094111747 0.042224492528215737 0 -0.025018844710217432 0.046015519109031108 0 -0.016983329628177078 0.041283235911521859 0 -0.015282729141237215 0.041177824348353112 0 -0.016480487995398977 0.042519231749863252 0 -0.015897994859524107 0.039826800549836158 0 -0.016983329628177078 0.041283235911521859 0 -0.015282729141237215 0.041177824348353112 0 -0.015011704736383987 0.04249559806850102 0 -0.016480487995398977 0.042519231749863252 0 -0.015917200289127752 0.043621736704275237 0 -0.015282729141237215 0.041177824348353112 0 -0.015011704736383987 0.04249559806850102 0 -0.016480487995398977 0.042519231749863252 0 -0.016983329628177078 0.041283235911521859 0 -0.016480487995398977 0.042519231749863252 0 -0.01813912557328384 0.042941045674628836 0 -0.02099400406946407 0.04363560685766555 0 -0.022254008579075984 0.046376563804160734 0 -0.016480487995398977 0.042519231749863252 0 -0.017097158827985143 0.043668361432296354 0 -0.01813912557328384 0.042941045674628836 0 -0.017097158827985143 0.043668361432296354 0 -0.018096634750540071 0.044057322564177152 0 -0.01813912557328384 0.042941045674628836 0 -0.016480487995398977 0.042519231749863252 0 -0.017097158827985143 0.043668361432296354 0 -0.015917200289127752 0.043621736704275237 0 -0.017097158827985143 0.043668361432296354 0 -0.016610715489872554 0.044325656647560698 0 -0.017301551716798341 0.044256367050579587 0 -0.017097158827985143 0.043668361432296354 0 -0.017301551716798341 0.044256367050579587 0 -0.018096634750540071 0.044057322564177152 0 -0.015011704736383987 0.04249559806850102 0 -0.015917200289127752 0.043621736704275237 0 -0.014663417579497646 0.043671147155287943 0 -0.017097158827985143 0.043668361432296354 0 -0.015917200289127752 0.043621736704275237 0 -0.016610715489872554 0.044325656647560698 0 -0.015917200289127752 0.043621736704275237 0 -0.015622559900552934 0.044720698045317447 0 -0.014663417579497646 0.043671147155287943 0 -0.015622559900552934 0.044720698045317447 0 -0.016607023335901354 0.044887639753582093 0 -0.016409575674679548 0.04535503432877766 0 -0.015622559900552934 0.044720698045317447 0 -0.016167392108205999 0.045531618014300536 0 -0.016409575674679548 0.04535503432877766 0 -0.016607023335901354 0.044887639753582093 0 -0.016883570832091205 0.045273844563403193 0 -0.016409575674679548 0.04535503432877766 0 -0.015917200289127752 0.043621736704275237 0 -0.015622559900552934 0.044720698045317447 0 -0.016610715489872554 0.044325656647560698 0 -0.015622559900552934 0.044720698045317447 0 -0.016607023335901354 0.044887639753582093 0 -0.016610715489872554 0.044325656647560698 0 -0.016610715489872554 0.044325656647560698 0 -0.017301551716798341 0.044256367050579587 0 -0.017114467814133116 0.044663501453049211 0 -0.016607023335901354 0.044887639753582093 0 -0.016610715489872554 0.044325656647560698 0 -0.017114467814133116 0.044663501453049211 0 -0.017301551716798341 0.044256367050579587 0 -0.017114467814133116 0.044663501453049211 0 -0.017581240171061698 0.044637475006824148 0 -0.017301551716798341 0.044256367050579587 0 -0.017882433372698743 0.044456123460501241 0 -0.018096634750540071 0.044057322564177152 0 -0.017301551716798341 0.044256367050579587 0 -0.017581240171061698 0.044637475006824148 0 -0.017882433372698743 0.044456123460501241 0 -0.017581240171061698 0.044637475006824148 0 -0.017882433372698743 0.044456123460501241 0 -0.018107424867479582 0.044884753315387813 0 -0.017581240171061698 0.044637475006824148 0 -0.017548930131729139 0.044981858560246724 0 -0.018107424867479582 0.044884753315387813 0 -0.017114467814133116 0.044663501453049211 0 -0.017581240171061698 0.044637475006824148 0 -0.017548930131729139 0.044981858560246724 0 -0.017548930131729139 0.044981858560246724 0 -0.017304411372468513 0.045294299785924662 0 -0.017857498445393732 0.045250346266359362 0 -0.017548930131729139 0.044981858560246724 0 -0.017857498445393732 0.045250346266359362 0 -0.018107424867479582 0.044884753315387813 0 -0.016607023335901354 0.044887639753582093 0 -0.017114467814133116 0.044663501453049211 0 -0.017071960379748785 0.045047325068303778 0 -0.017114467814133116 0.044663501453049211 0 -0.017548930131729139 0.044981858560246724 0 -0.017071960379748785 0.045047325068303778 0 -0.017548930131729139 0.044981858560246724 0 -0.017071960379748785 0.045047325068303778 0 -0.017304411372468513 0.045294299785924662 0 -0.016607023335901354 0.044887639753582093 0 -0.017071960379748785 0.045047325068303778 0 -0.016883570832091205 0.045273844563403193 0 -0.017071960379748785 0.045047325068303778 0 -0.016883570832091205 0.045273844563403193 0 -0.017304411372468513 0.045294299785924662 0 -0.016883570832091205 0.045273844563403193 0 -0.017255467583951405 0.045718740455422284 0 -0.016409575674679548 0.04535503432877766 0 -0.017255467583951405 0.045718740455422284 0 -0.018734019400373246 0.04538183947459469 0 -0.01820037747577509 0.046779940671474105 0 -0.017255467583951405 0.045718740455422284 0 -0.017857498445393732 0.045250346266359362 0 -0.018734019400373246 0.04538183947459469 0 -0.016883570832091205 0.045273844563403193 0 -0.017304411372468513 0.045294299785924662 0 -0.017255467583951405 0.045718740455422284 0 -0.017304411372468513 0.045294299785924662 0 -0.017255467583951405 0.045718740455422284 0 -0.017857498445393732 0.045250346266359362 0 -0.017255467583951405 0.045718740455422284 0 -0.017075093991701165 0.046215343483962758 0 -0.01820037747577509 0.046779940671474105 0 -0.022908114943969417 0.034282072654280259 0 -0.02143369723192055 0.034350458297700261 0 -0.017255467583951405 0.045718740455422284 0 -0.017075093991701165 0.046215343483962758 0 -0.016661610963695433 0.045378982611386273 0 -0.017075093991701165 0.046215343483962758 0 -0.016242865707961091 0.045682444838409178 0 -0.016661610963695433 0.045378982611386273 0 -0.017154347051360919 0.038017952186591805 0 -0.017952839117900157 0.037409063904183533 0 -0.015693281221166075 0.037295636447088845 0 -0.03014364216938089 0.023773772087156315 0 -0.029089971485356084 0.023282097143248897 0 -0.029266825443502335 0.023865904567774283 0 -0.029089971485356084 0.023282097143248897 0 -0.029266825443502335 0.023865904567774283 0 -0.028647902103201551 0.023612585764444013 0 -0.02143369723192055 0.034350458297700261 0 -0.016385185086264221 0.042337023998321635 0 -0.017571271889748791 0.045009809663243708 0 -0.016385185086264221 0.042337023998321635 0 -0.017255467583951405 0.045718740455422284 0 -0.016204918056318018 0.045515726326257201 0 -0.016409575674679548 0.04535503432877766 0 -0.016385185086264221 0.042337023998321635 0 -0.016077281135883168 0.042826736726920632 0 -0.054044563189283711 0.01952080373341775 0 -0.053994087359388432 0.019514394489601395 0 -0.054573288673396704 0.019663092089555204 0 -0.042268567069851548 0.028683564007740123 0 -0.040929445079314931 0.03284523810111005 0 -0.054044563189283711 0.01952080373341775 0 -0.05401865365405762 0.019620747767705917 0 -0.054407504175247437 0.019587835923902716 0 -0.054044563189283711 0.01952080373341775 0 -0.053941482992781634 0.019422613290874701 0 -0.053717833012771492 0.019643008881320617 0 -0.054044563189283711 0.01952080373341775 0 -0.05401865365405762 0.019620747767705917 0 -0.053717833012771492 0.019643008881320617 0 -0.040929445079314931 0.03284523810111005 0 -0.037056445770583139 0.027142492731773958 0 -0.020213648841663805 0.045175646237520795 0 -0.018734019400373246 0.04538183947459469 0 -0.01820037747577509 0.046779940671474105 0 -0.053941482992781634 0.019422613290874701 0 -0.053170144309389739 0.019741760538093255 0 -0.053717833012771492 0.019643008881320617 0 -0.017857498445393732 0.045250346266359362 0 -0.018734019400373246 0.04538183947459469 0 -0.018107424867479582 0.044884753315387813 0 -0.020213648841663805 0.045175646237520795 0 -0.018734019400373246 0.04538183947459469 0 -0.019827674782221961 0.044326323979196877 0 -0.0186794654287364 0.044862221411761195 0 -0.018928426711597671 0.044542073771353982 0 -0.019215433973112622 0.044868453306869512 0 -0.017398684141678993 0.047234483732014929 0 -0.028320881759608767 0.040916452315383413 0 -0.018734019400373246 0.04538183947459469 0 -0.0186794654287364 0.044862221411761195 0 -0.019215433973112622 0.044868453306869512 0 -0.018734019400373246 0.04538183947459469 0 -0.0186794654287364 0.044862221411761195 0 -0.018107424867479582 0.044884753315387813 0 -0.0186794654287364 0.044862221411761195 0 -0.018107424867479582 0.044884753315387813 0 -0.018341811642157809 0.044585792402492538 0 -0.018341811642157809 0.044585792402492538 0 -0.018928426711597671 0.044542073771353982 0 -0.018096634750540071 0.044057322564177152 0 -0.017882433372698743 0.044456123460501241 0 -0.018107424867479582 0.044884753315387813 0 -0.018341811642157809 0.044585792402492538 0 -0.0186794654287364 0.044862221411761195 0 -0.018341811642157809 0.044585792402492538 0 -0.018928426711597671 0.044542073771353982 0 -0.017882433372698743 0.044456123460501241 0 -0.018341811642157809 0.044585792402492538 0 -0.018096634750540071 0.044057322564177152 0 -0.018928426711597671 0.044542073771353982 0 -0.019086147330289398 0.044496382143568901 0 -0.018096634750540071 0.044057322564177152 0 -0.026231745769925575 0.045466858913175236 0 -0.028320881759608767 0.040916452315383413 0 -0.018928426711597671 0.044542073771353982 0 -0.019029074191774076 0.044485757758417427 0 -0.019215433973112622 0.044868453306869512 0 -0.025340699804634038 0.04576530960270777 0 -0.026231745769925575 0.045466858913175236 0 -0.029190780499384231 0.04276731958670027 0 -0.030237237665415702 0.044838777085525271 0 -0.034054871466286961 0.041293944068681546 0 -0.039617570436388451 0.037227273173439747 0 -0.038757590272387857 0.035562805431771718 0 -0.041609150629819278 0.032912476414664167 0 -0.040929445079314931 0.03284523810111005 0 -0.028320881759608767 0.040916452315383413 0 -0.028320881759608767 0.040916452315383413 0 -0.039253341056086487 0.035816445773047052 0 -0.029190780499384231 0.04276731958670027 0 -0.034054871466286961 0.041293944068681546 0 -0.03353178807248338 0.040262558959636201 0 -0.026231745769925575 0.045466858913175236 0 -0.03155944975322475 0.045874775861184054 0 -0.028208092685022196 0.051879714398107644 0 -0.030608229469859149 0.050733780769498985 0 -0.029042307937949007 0.049166254342637418 0 -0.026231745769925575 0.045466858913175236 0 -0.022254008579075984 0.046376563804160734 0 -0.028208092685022196 0.051879714398107644 0 -0.026653703680730476 0.049094727152839045 0 -0.029042307937949007 0.049166254342637418 0 -0.019086147330289398 0.044496382143568901 0 -0.018096634750540071 0.044057322564177152 0 -0.01813912557328384 0.042941045674628836 0 -0.02853732682853042 0.045209956645680192 0 -0.026653703680730476 0.049094727152839045 0 -0.029042307937949007 0.049166254342637418 0 -0.030608229469859149 0.050733780769498985 0 -0.029042307937949007 0.049166254342637418 0 -0.031096215113904584 0.048404486094186058 0 -0.02853732682853042 0.045209956645680192 0 -0.029042307937949007 0.049166254342637418 0 -0.031096215113904584 0.048404486094186058 0 -0.033017506991498462 0.047697606295953578 0 -0.031096215113904584 0.048404486094186058 0 -0.032793362626116367 0.049562518604904141 0 -0.044414552534182909 0.03034869441645004 0 -0.048146058735063925 0.029602014073988159 0 -0.048397145212859975 0.028070825391349554 0 -0.038653615684965149 0.039798804219911416 0 -0.045480564538532123 0.033373474716131425 0 -0.042964191192037759 0.037464968788127502 0 -0.039700309434340657 0.040415991596448451 0 -0.043087186381899831 0.03851247251515217 0 -0.0352600684616938 0.047830793652883924 0 -0.033017506991498462 0.047697606295953578 0 -0.032793362626116367 0.049562518604904141 0 -0.038539683762963281 0.043097764489127964 0 -0.038653615684965149 0.039798804219911416 0 -0.050444786748125525 0.025439718552779701 0 -0.051664660020132827 0.023476761389846754 0 -0.054553896627181374 0.019310822281708252 0 -0.055255112506077342 0.018774212137262793 0 -0.055241014815235356 0.019653634370619216 0 -0.044414552534182909 0.03034869441645004 0 -0.043925864787451675 0.033349269820609664 0 -0.048146058735063925 0.029602014073988159 0 -0.034054871466286961 0.041293944068681546 0 -0.03353178807248338 0.040262558959636201 0 -0.037868810478530066 0.037822914360061015 0 -0.041609150629819278 0.032912476414664167 0 -0.044414552534182909 0.03034869441645004 0 -0.043925864787451675 0.033349269820609664 0 -0.030608229469859149 0.050733780769498985 0 -0.031096215113904584 0.048404486094186058 0 -0.032793362626116367 0.049562518604904141 0 -0.03155944975322475 0.045874775861184054 0 -0.038653615684965149 0.039798804219911416 0 -0.039253341056086487 0.035816445773047052 0 -0.038653615684965149 0.039798804219911416 0 -0.059142220789249328 0.026424251482468963 0 -0.058447826719722033 0.02338709952383005 0 -0.058102256523780656 0.025502781337759021 0 -0.055995469130668003 0.018275380978823183 0 -0.055255112506077342 0.018774212137262793 0 -0.056157562117725129 0.018968627192995576 0 -0.054288254587895567 0.02705758584710408 0 -0.057649646697214812 0.020157741900317636 0 -0.054288254587895567 0.02705758584710408 0 -0.051664660020132827 0.023476761389846754 0 -0.052621297365599777 0.025702525220566808 0 -0.048146058735063925 0.029602014073988159 0 -0.048397145212859975 0.028070825391349554 0 -0.055255112506077342 0.018774212137262793 0 -0.056157562117725129 0.018968627192995576 0 -0.055241014815235356 0.019653634370619216 0 -0.056157562117725129 0.018968627192995576 0 -0.05668322032788501 0.02030584383657821 0 -0.055241014815235356 0.019653634370619216 0 -0.057649646697214812 0.020157741900317636 0 -0.056734065650774983 0.020882898911577914 0 -0.055241014815235356 0.019653634370619216 0 -0.056063509861438141 0.02000795458196012 0 -0.054566231116866114 0.019955365721878806 0 -0.05668322032788501 0.02030584383657821 0 -0.056063509861438141 0.02000795458196012 0 -0.056047351546466784 0.020012574670491955 0 -0.05668322032788501 0.02030584383657821 0 -0.055241014815235356 0.019653634370619216 0 -0.056063509861438141 0.02000795458196012 0 -0.040929445079314931 0.03284523810111005 0 -0.050444786748125525 0.025439718552779701 0 -0.039617570436388451 0.037227273173439747 0 -0.041609150629819278 0.032912476414664167 0 -0.043925864787451675 0.033349269820609664 0 -0.053994087359388432 0.019514394489601395 0 -0.054553896627181374 0.019310822281708252 0 -0.054573288673396704 0.019663092089555204 0 -0.054553896627181374 0.019310822281708252 0 -0.055241014815235356 0.019653634370619216 0 -0.054573288673396704 0.019663092089555204 0 -0.054573288673396704 0.019663092089555204 0 -0.054891459298001259 0.019590063650018665 0 -0.054566231116866114 0.019955365721878806 0 -0.055241014815235356 0.019653634370619216 0 -0.054573288673396704 0.019663092089555204 0 -0.054566231116866114 0.019955365721878806 0 -0.054044563189283711 0.01952080373341775 0 -0.054573288673396704 0.019663092089555204 0 -0.054407504175247437 0.019587835923902716 0 -0.054573288673396704 0.019663092089555204 0 -0.054407504175247437 0.019587835923902716 0 -0.054891459298001259 0.019590063650018665 0 -0.054407504175247437 0.019587835923902716 0 -0.054891459298001259 0.019590063650018665 0 -0.054067599098318195 0.019721690530396626 0 -0.054891459298001259 0.019590063650018665 0 -0.054067599098318195 0.019721690530396626 0 -0.054158644382589008 0.019875090937303837 0 -0.054891459298001259 0.019590063650018665 0 -0.054566231116866114 0.019955365721878806 0 -0.054641452255461471 0.018219009916223484 0 -0.054566231116866114 0.019955365721878806 0 -0.054641452255461471 0.018219009916223484 0 -0.053514278655351202 0.017368722250156593 0 -0.054641452255461471 0.018219009916223484 0 -0.05450867599936228 0.01677748126937844 0 -0.05599075118446039 0.015598092938293629 0 -0.054641452255461471 0.018219009916223484 0 -0.053514278655351202 0.017368722250156593 0 -0.05450867599936228 0.01677748126937844 0 -0.053514278655351202 0.017368722250156593 0 -0.05203390232771006 0.015810826489166319 0 -0.053911430966190485 0.015552804022906451 0 -0.053514278655351202 0.017368722250156593 0 -0.05450867599936228 0.01677748126937844 0 -0.053911430966190485 0.015552804022906451 0 -0.05450867599936228 0.01677748126937844 0 -0.05599075118446039 0.015598092938293629 0 -0.053911430966190485 0.015552804022906451 0 -0.054891459298001259 0.019590063650018665 0 -0.05421916165125043 0.019998598260560222 0 -0.054158644382589008 0.019875090937303837 0 -0.054891459298001259 0.019590063650018665 0 -0.054641452255461471 0.018219009916223484 0 -0.05599075118446039 0.015598092938293629 0 -0.054891459298001259 0.019590063650018665 0 -0.05421916165125043 0.019998598260560222 0 -0.054136162707875052 0.020052013327625726 0 -0.054741640211524584 0.018857528448893015 0 -0.055783459958846933 0.018930418153284622 0 -0.05421916165125043 0.019998598260560222 0 -0.05401553701050546 0.020194835550829151 0 -0.054136162707875052 0.020052013327625726 0 -0.056063509861438141 0.02000795458196012 0 -0.05618216872782545 0.019809468523202575 0 -0.055890083407095344 0.019476496357546749 0 -0.054366719182173971 0.019800261033313182 0 -0.053204934092435326 0.018731049003149012 0 -0.056063509861438141 0.02000795458196012 0 -0.054566231116866114 0.019955365721878806 0 -0.05618216872782545 0.019809468523202575 0 -0.054566231116866114 0.019955365721878806 0 -0.053514278655351202 0.017368722250156593 0 -0.050018562825079035 0.017655024267558841 0 -0.053514278655351202 0.017368722250156593 0 -0.05203390232771006 0.015810826489166319 0 -0.050018562825079035 0.017655024267558841 0 -0.05203390232771006 0.015810826489166319 0 -0.050018562825079035 0.017655024267558841 0 -0.050005592460590241 0.014429374752887521 0 -0.050018562825079035 0.017655024267558841 0 -0.050005592460590241 0.014429374752887521 0 -0.046586658942626688 0.014866064941305898 0 -0.053204934092435326 0.018731049003149012 0 -0.050525049062978396 0.016223519311025295 0 -0.048080909209532216 0.013044303273139553 0 -0.050005592460590241 0.014429374752887521 0 -0.046586658942626688 0.014866064941305898 0 -0.050005592460590241 0.014429374752887521 0 -0.051254443874638095 0.012967872327658798 0 -0.049781726664851186 0.01221036491952837 0 -0.048080909209532216 0.013044303273139553 0 -0.050005592460590241 0.014429374752887521 0 -0.049781726664851186 0.01221036491952837 0 -0.050005592460590241 0.014429374752887521 0 -0.051254443874638095 0.012967872327658798 0 -0.052650043190700047 0.01414748895608911 0 -0.05203390232771006 0.015810826489166319 0 -0.050005592460590241 0.014429374752887521 0 -0.052650043190700047 0.01414748895608911 0 -0.05203390232771006 0.015810826489166319 0 -0.052650043190700047 0.01414748895608911 0 -0.053911430966190485 0.015552804022906451 0 -0.051254443874638095 0.012967872327658798 0 -0.052650043190700047 0.01414748895608911 0 -0.053072474616436882 0.012346814202273227 0 -0.051254443874638095 0.012967872327658798 0 -0.051366208395102315 0.011202357128397301 0 -0.053072474616436882 0.012346814202273227 0 -0.052549745671245929 0.010573831899311685 0 -0.051366208395102315 0.011202357128397301 0 -0.053072474616436882 0.012346814202273227 0 -0.052549745671245929 0.010573831899311685 0 -0.051366208395102315 0.011202357128397301 0 -0.051606055548056841 0.0093579579989940542 0 -0.051366208395102315 0.011202357128397301 0 -0.049945719121572196 0.0099700719707546577 0 -0.051606055548056841 0.0093579579989940542 0 -0.051366208395102315 0.011202357128397301 0 -0.049781726664851186 0.01221036491952837 0 -0.049945719121572196 0.0099700719707546577 0 -0.051254443874638095 0.012967872327658798 0 -0.051366208395102315 0.011202357128397301 0 -0.049781726664851186 0.01221036491952837 0 -0.049781726664851186 0.01221036491952837 0 -0.048533582884918991 0.011211132708539965 0 -0.049945719121572196 0.0099700719707546577 0 -0.048080909209532216 0.013044303273139553 0 -0.049781726664851186 0.01221036491952837 0 -0.048533582884918991 0.011211132708539965 0 -0.054034000264194845 0.020089742301583002 0 -0.054136162707875052 0.020052013327625726 0 -0.05405260556103024 0.020275177211939194 0 -0.055783459958846933 0.018930418153284622 0 -0.048786071169631205 0.010607845080057219 0 -0.054034000264194845 0.020089742301583002 0 -0.05401553701050546 0.020194835550829151 0 -0.054136162707875052 0.020052013327625726 0 -0.05599075118446039 0.015598092938293629 0 -0.054747548989913422 0.01323268256295438 0 -0.055540643703137778 0.010403765268209466 0 -0.05599075118446039 0.015598092938293629 0 -0.053911430966190485 0.015552804022906451 0 -0.054747548989913422 0.01323268256295438 0 -0.052650043190700047 0.01414748895608911 0 -0.054747548989913422 0.01323268256295438 0 -0.053072474616436882 0.012346814202273227 0 -0.052650043190700047 0.01414748895608911 0 -0.053911430966190485 0.015552804022906451 0 -0.054747548989913422 0.01323268256295438 0 -0.054747548989913422 0.01323268256295438 0 -0.054279276571670115 0.011663947742867678 0 -0.055540643703137778 0.010403765268209466 0 -0.054279276571670115 0.011663947742867678 0 -0.053072474616436882 0.012346814202273227 0 -0.053866375734703674 0.010613237031415276 0 -0.054747548989913422 0.01323268256295438 0 -0.054279276571670115 0.011663947742867678 0 -0.053072474616436882 0.012346814202273227 0 -0.052549745671245929 0.010573831899311685 0 -0.053072474616436882 0.012346814202273227 0 -0.053866375734703674 0.010613237031415276 0 -0.052549745671245929 0.010573831899311685 0 -0.053866375734703674 0.010613237031415276 0 -0.052936196929013427 0.0093917032938119864 0 -0.054010442483114887 0.010169231071812527 0 -0.048786071169631205 0.010607845080057219 0 -0.054279276571670115 0.011663947742867678 0 -0.053866375734703674 0.010613237031415276 0 -0.055540643703137778 0.010403765268209466 0 -0.053866375734703674 0.010613237031415276 0 -0.055289045893101733 0.010319178858392663 0 -0.054118746454241931 0.0085738721601007484 0 -0.048786071169631205 0.010607845080057219 0 -0.048235731922511418 0.011461074850062269 0 -0.05405260556103024 0.020275177211939194 0 -0.053152743099207721 0.020321027694622292 0 -0.052770994718989668 0.020382323893774396 0 -0.05405260556103024 0.020275177211939194 0 -0.053673883369591613 0.020172447181770477 0 -0.053152743099207721 0.020321027694622292 0 -0.054034000264194845 0.020089742301583002 0 -0.05405260556103024 0.020275177211939194 0 -0.053673883369591613 0.020172447181770477 0 -0.054034000264194845 0.020089742301583002 0 -0.053673883369591613 0.020172447181770477 0 -0.053208441334954136 0.020091311281582199 0 -0.053673883369591613 0.020172447181770477 0 -0.053152743099207721 0.020321027694622292 0 -0.053208441334954136 0.020091311281582199 0 -0.052731826532229555 0.020181444434531241 0 -0.052357318753260974 0.019834873324696752 0 -0.052770994718989668 0.020382323893774396 0 -0.051120014196291974 0.019540092054440693 0 -0.049321886788094807 0.020255066336768674 0 -0.053152743099207721 0.020321027694622292 0 -0.052770994718989668 0.020382323893774396 0 -0.051120014196291974 0.019540092054440693 0 -0.053152743099207721 0.020321027694622292 0 -0.052476076236321681 0.020414996262784667 0 -0.053208441334954136 0.020091311281582199 0 -0.052476076236321681 0.020414996262784667 0 -0.053208441334954136 0.020091311281582199 0 -0.052644831987248925 0.019647321589984442 0 -0.054034000264194845 0.020089742301583002 0 -0.053208441334954136 0.020091311281582199 0 -0.052644831987248925 0.019647321589984442 0 -0.054034000264194845 0.020089742301583002 0 -0.05401553701050546 0.020194835550829151 0 -0.053770249830378238 0.020569622987714593 0 -0.053600125963077963 0.020076786723477031 0 -0.053972834808586154 0.02024947042686856 0 -0.05401553701050546 0.020194835550829151 0 -0.053770249830378238 0.020569622987714593 0 -0.053705070806488869 0.020273096103908275 0 -0.053770249830378238 0.020569622987714593 0 -0.05336132226730473 0.020491262257795975 0 -0.052828587424165172 0.020843510827572541 0 -0.053972834808586154 0.02024947042686856 0 -0.048292353455258327 0.018635123819571615 0 -0.053060280253244621 0.020455632680111965 0 -0.053273960285629501 0.02026596831326238 0 -0.05336132226730473 0.020491262257795975 0 -0.053060280253244621 0.020455632680111965 0 -0.053273960285629501 0.02026596831326238 0 -0.052803832698951829 0.020258959329652403 0 -0.053705070806488869 0.020273096103908275 0 -0.053273960285629501 0.02026596831326238 0 -0.05336132226730473 0.020491262257795975 0 -0.053770249830378238 0.020569622987714593 0 -0.053705070806488869 0.020273096103908275 0 -0.05336132226730473 0.020491262257795975 0 -0.053060280253244621 0.020455632680111965 0 -0.05336132226730473 0.020491262257795975 0 -0.052828587424165172 0.020843510827572541 0 -0.052476076236321681 0.020414996262784667 0 -0.052644831987248925 0.019647321589984442 0 -0.051485437071785253 0.020334960640807354 0 -0.052644831987248925 0.019647321589984442 0 -0.051485437071785253 0.020334960640807354 0 -0.051096682762888208 0.019711187741534051 0 -0.052357318753260974 0.019834873324696752 0 -0.046497128770180973 0.014622828000124891 0 -0.051120014196291974 0.019540092054440693 0 -0.048530901338203376 0.01895521308917935 0 -0.049321886788094807 0.020255066336768674 0 -0.046497128770180973 0.014622828000124891 0 -0.043572718079821222 0.0028944717969602305 0 -0.040016377535648483 0.007688775736611737 0 -0.032317365021548652 0.0070861973441981403 0 -0.044961358726255125 0.01592522336235511 0 -0.038598859368408872 0.0067237242673709738 0 -0.043572718079821222 0.0028944717969602305 0 -0.046497128770180973 0.014622828000124891 0 -0.038598859368408872 0.0067237242673709738 0 -0.048292353455258327 0.018635123819571615 0 -0.038389825984233523 0.011875314767018778 0 -0.038598859368408872 0.0067237242673709738 0 -0.038389825984233523 0.011875314767018778 0 -0.042960669893421552 0.014142239979528001 0 -0.043157360965096044 0.012327369135096491 0 -0.040492778991399428 0.012584237983745469 0 -0.046497128770180973 0.014622828000124891 0 -0.048292353455258327 0.018635123819571615 0 -0.04431940180466102 0.014241689813282089 0 -0.042960669893421552 0.014142239979528001 0 -0.043157360965096044 0.012327369135096491 0 -0.037998910247940124 0.0086325610103926038 0 -0.035812545292923034 0.0085129450385531026 0 -0.036770451624190209 0.0078864195270194806 0 -0.038849639628530039 -0.0074975064648501689 0 -0.037366440106627971 -0.0074557388930249933 0 -0.03794511471215406 -0.007170805124491959 0 -0.035812545292923034 0.0085129450385531026 0 -0.036770451624190209 0.0078864195270194806 0 -0.0346629546543223 0.0081503274327420269 0 -0.038389825984233523 0.011875314767018778 0 -0.034240228098640788 0.0075609928016147111 0 -0.038598859368408872 0.0067237242673709738 0 -0.037080236886953263 -0.00030668201277436513 0 -0.038389825984233523 0.011875314767018778 0 -0.031700711528475464 0.014287321417917094 0 -0.038961430378999524 0.018882098912684546 0 -0.038871721468321289 0.013490656811645749 0 -0.035389268916493272 0.016613883253641402 0 -0.037724355670518454 0.018166772128171214 0 -0.031700711528475464 0.014287321417917094 0 -0.025801836672853642 0.015641839017810168 0 -0.027105164184963709 0.014982257941404733 0 -0.027245373819730807 0.014223557196960761 0 -0.053060280253244621 0.020455632680111965 0 -0.052828587424165172 0.020843510827572541 0 -0.052803832698951829 0.020258959329652403 0 -0.052828587424165172 0.020843510827572541 0 -0.052803832698951829 0.020258959329652403 0 -0.052214879455704924 0.020049394888407131 0 -0.04200258673738437 0.018593496978720016 0 -0.038961430378999524 0.018882098912684546 0 -0.038871721468321289 0.013490656811645749 0 -0.048292353455258327 0.018635123819571615 0 -0.037724355670518454 0.018166772128171214 0 -0.052803832698951829 0.020258959329652403 0 -0.052214879455704924 0.020049394888407131 0 -0.053050181494311829 0.01997965470210275 0 -0.037724355670518454 0.018166772128171214 0 -0.037056445770583139 0.027142492731773958 0 -0.052214879455704924 0.020049394888407131 0 -0.052966413194222753 0.019522025415289062 0 -0.053050181494311829 0.01997965470210275 0 -0.025801836672853642 0.015641839017810168 0 -0.026749276182070354 0.015841598523338732 0 -0.027105164184963709 0.014982257941404733 0 -0.025801836672853642 0.015641839017810168 0 -0.026749276182070354 0.015841598523338732 0 -0.026501222063407062 0.01691474356013354 0 -0.037724355670518454 0.018166772128171214 0 -0.02787027591550879 0.020349874421679758 0 -0.03014364216938089 0.023773772087156315 0 -0.029877702412790287 0.025389323191238992 0 -0.029271025078635216 0.024506961934044703 0 -0.03014364216938089 0.023773772087156315 0 -0.029271025078635216 0.024506961934044703 0 -0.029266825443502335 0.023865904567774283 0 -0.029271025078635216 0.024506961934044703 0 -0.029266825443502335 0.023865904567774283 0 -0.028647902103201551 0.023612585764444013 0 -0.03014364216938089 0.023773772087156315 0 -0.029877702412790287 0.025389323191238992 0 -0.031181034384841294 0.024260584354370743 0 -0.022908114943969417 0.034282072654280259 0 -0.037056445770583139 0.027142492731773958 0 -0.053170144309389739 0.019741760538093255 0 -0.053501885608201037 0.019794897299084478 0 -0.053717833012771492 0.019643008881320617 0 -0.052966413194222753 0.019522025415289062 0 -0.053501885608201037 0.019794897299084478 0 -0.053050181494311829 0.01997965470210275 0 -0.037056445770583139 0.027142492731773958 0 -0.053790202474988127 0.023880326621764803 0 -0.053501885608201037 0.019794897299084478 0 -0.053717833012771492 0.019643008881320617 0 -0.053823811153148673 0.01987223108857579 0 -0.05401865365405762 0.019620747767705917 0 -0.053717833012771492 0.019643008881320617 0 -0.054067599098318195 0.019721690530396626 0 -0.05401865365405762 0.019620747767705917 0 -0.054407504175247437 0.019587835923902716 0 -0.054067599098318195 0.019721690530396626 0 -0.054067599098318195 0.019721690530396626 0 -0.053823811153148673 0.01987223108857579 0 -0.054158644382589008 0.019875090937303837 0 -0.053717833012771492 0.019643008881320617 0 -0.054067599098318195 0.019721690530396626 0 -0.053823811153148673 0.01987223108857579 0 -0.053823811153148673 0.01987223108857579 0 -0.053952584453614651 0.020070321695696371 0 -0.053585807170014252 0.020046365288222429 0 -0.05421916165125043 0.019998598260560222 0 -0.054158644382589008 0.019875090937303837 0 -0.053952584453614651 0.020070321695696371 0 -0.053823811153148673 0.01987223108857579 0 -0.054158644382589008 0.019875090937303837 0 -0.053952584453614651 0.020070321695696371 0 -0.05421916165125043 0.019998598260560222 0 -0.05401553701050546 0.020194835550829151 0 -0.053952584453614651 0.020070321695696371 0 -0.05401553701050546 0.020194835550829151 0 -0.053705070806488869 0.020273096103908275 0 -0.053952584453614651 0.020070321695696371 0 -0.053705070806488869 0.020273096103908275 0 -0.053952584453614651 0.020070321695696371 0 -0.053585807170014252 0.020046365288222429 0 -0.053705070806488869 0.020273096103908275 0 -0.053273960285629501 0.02026596831326238 0 -0.053585807170014252 0.020046365288222429 0 -0.053273960285629501 0.02026596831326238 0 -0.052803832698951829 0.020258959329652403 0 -0.053050181494311829 0.01997965470210275 0 -0.053273960285629501 0.02026596831326238 0 -0.053050181494311829 0.01997965470210275 0 -0.053585807170014252 0.020046365288222429 0 -0.053501885608201037 0.019794897299084478 0 -0.053050181494311829 0.01997965470210275 0 -0.053585807170014252 0.020046365288222429 0 -0.053501885608201037 0.019794897299084478 0 -0.053823811153148673 0.01987223108857579 0 -0.053585807170014252 0.020046365288222429 0 -0.050990173211132146 0.019740315763539362 0 -0.051871410378215431 0.019052835245934072 0 -0.049999929325103137 0.017929303434182586 0 -0.050990173211132146 0.019740315763539362 0 -0.049999872247080156 0.020508667639051539 0 -0.049999929325103137 0.017929303434182586 0 -0.050990173211132146 0.019740315763539362 0 -0.051871410378215431 0.019052835245934072 0 -0.051431843684103466 0.021044819423677846 0 -0.051813861130543204 0.019202860819792077 0 -0.051203161039530376 0.021021019861414143 0 -0.051871410378215431 0.019052835245934072 0 -0.052254262184981234 0.020264422502285384 0 -0.050949598689005476 0.020987015483257768 0 -0.051871410378215431 0.019052835245934072 0 -0.052254262184981234 0.020264422502285384 0 -0.052704227064610448 0.019399677936647552 0 -0.052254262184981234 0.020264422502285384 0 -0.050949598689005476 0.020987015483257768 0 -0.051955565652764268 0.022088879046752927 0 -0.051431843684103466 0.021044819423677846 0 -0.049999872247080156 0.020508667639051539 0 -0.049999990311287379 0.023088640980956379 0 -0.050990173211132146 0.019740315763539362 0 -0.051431843684103466 0.021044819423677846 0 -0.049999872247080156 0.020508667639051539 0 -0.051203161039530376 0.021021019861414143 0 -0.050526815894718809 0.023388980791592854 0 -0.051431843684103466 0.021044819423677846 0 -0.049999990311287379 0.023088640980956379 0 -0.050758120155952789 0.023381792888009692 0 -0.050000573240892812 0.025668927200172421 0 -0.050259293620669741 0.02343223593211833 0 -0.050766101219290136 0.024990288198074098 0 -0.050000080815144905 0.025668028755271091 0 -0.050526815894718809 0.023388980791592854 0 -0.049999998494263613 0.025668602824001803 0 -0.049999990311287379 0.023088640980956379 0 -0.050758120155952789 0.023381792888009692 0 -0.050259293620669741 0.02343223593211833 0 -0.050766101219290136 0.024990288198074098 0 -0.051578684274655257 0.024125073856229771 0 -0.05204648243908748 0.025790634375879806 0 -0.050766101219290136 0.024990288198074098 0 -0.051578684274655257 0.024125073856229771 0 -0.05204648243908748 0.025790634375879806 0 -0.051578684274655257 0.024125073856229771 0 -0.05296951570848598 0.023242382580259822 0 -0.051578684274655257 0.024125073856229771 0 -0.051955565652764268 0.022088879046752927 0 -0.05296951570848598 0.023242382580259822 0 -0.050949598689005476 0.020987015483257768 0 -0.050259293620669741 0.02343223593211833 0 -0.051955565652764268 0.022088879046752927 0 -0.050259293620669741 0.02343223593211833 0 -0.051578684274655257 0.024125073856229771 0 -0.051955565652764268 0.022088879046752927 0 -0.051955565652764268 0.022088879046752927 0 -0.05296951570848598 0.023242382580259822 0 -0.053401192697555208 0.020699132457137205 0 -0.050451001448832009 0.024316129362957115 0 -0.052484679985753881 0.023060495458482374 0 -0.051421601919276083 0.021699597610420583 0 -0.051710844679064782 0.023775879946628758 0 -0.052406851130035667 0.021250267773957554 0 -0.051574530389219657 0.027086931474981268 0 -0.049968732377620263 0.027012303153844994 0 -0.050451001448832009 0.024316129362957115 0 -0.051021564304779832 0.026379115794414217 0 -0.051710844679064782 0.023775879946628758 0 -0.051574530389219657 0.027086931474981268 0 -0.050451001448832009 0.024316129362957115 0 -0.052740805227540835 0.025003990501349865 0 -0.050451001448832009 0.024316129362957115 0 -0.052740805227540835 0.025003990501349865 0 -0.052484679985753881 0.023060495458482374 0 -0.052484679985753881 0.023060495458482374 0 -0.051421601919276083 0.021699597610420583 0 -0.053566893486176319 0.021183447172865136 0 -0.052254262184981234 0.020264422502285384 0 -0.051955565652764268 0.022088879046752927 0 -0.053401192697555208 0.020699132457137205 0 -0.053401192697555208 0.020699132457137205 0 -0.052704227064610448 0.019399677936647552 0 -0.053012542319284386 0.019345610026710407 0 -0.052254262184981234 0.020264422502285384 0 -0.053401192697555208 0.020699132457137205 0 -0.052704227064610448 0.019399677936647552 0 -0.052406851130035667 0.021250267773957554 0 -0.052961357736483826 0.019531049534991664 0 -0.051421601919276083 0.021699597610420583 0 -0.053566893486176319 0.021183447172865136 0 -0.053012542319284386 0.019345610026710407 0 -0.053566893486176319 0.021183447172865136 0 -0.053811862736992941 0.019631243370684896 0 -0.053012542319284386 0.019345610026710407 0 -0.054628573538772068 0.020306431777048255 0 -0.053566893486176319 0.021183447172865136 0 -0.053811862736992941 0.019631243370684896 0 -0.054628573538772068 0.020306431777048255 0 -0.054892830452873596 0.021952408712617416 0 -0.055671198079145397 0.020794395676698933 0 -0.054628573538772068 0.020306431777048255 0 -0.054892830452873596 0.021952408712617416 0 -0.053566893486176319 0.021183447172865136 0 -0.052484679985753881 0.023060495458482374 0 -0.053566893486176319 0.021183447172865136 0 -0.053907412958365576 0.023339173328114356 0 -0.054892830452873596 0.021952408712617416 0 -0.053566893486176319 0.021183447172865136 0 -0.053907412958365576 0.023339173328114356 0 -0.052740805227540835 0.025003990501349865 0 -0.052484679985753881 0.023060495458482374 0 -0.053907412958365576 0.023339173328114356 0 -0.053257563558266101 0.026940725286030164 0 -0.052740805227540835 0.025003990501349865 0 -0.054304231757870906 0.025392730491629982 0 -0.052740805227540835 0.025003990501349865 0 -0.053907412958365576 0.023339173328114356 0 -0.054304231757870906 0.025392730491629982 0 -0.055673336238860296 0.026223373094909137 0 -0.054304231757870906 0.025392730491629982 0 -0.05532278030317099 0.023982528591484129 0 -0.053907412958365576 0.023339173328114356 0 -0.054304231757870906 0.025392730491629982 0 -0.05532278030317099 0.023982528591484129 0 -0.054892830452873596 0.021952408712617416 0 -0.053907412958365576 0.023339173328114356 0 -0.05532278030317099 0.023982528591484129 0 -0.05532278030317099 0.023982528591484129 0 -0.056810795824252164 0.025109542424459629 0 -0.056241584843661784 0.022425135354382324 0 -0.054892830452873596 0.021952408712617416 0 -0.05532278030317099 0.023982528591484129 0 -0.056241584843661784 0.022425135354382324 0 -0.055673336238860296 0.026223373094909137 0 -0.05532278030317099 0.023982528591484129 0 -0.056810795824252164 0.025109542424459629 0 -0.058447826719722033 0.02338709952383005 0 -0.058102256523780656 0.025502781337759021 0 -0.056810795824252164 0.025109542424459629 0 -0.058447826719722033 0.02338709952383005 0 -0.05668322032788501 0.02030584383657821 0 -0.056241584843661784 0.022425135354382324 0 -0.058447826719722033 0.02338709952383005 0 -0.056810795824252164 0.025109542424459629 0 -0.056241584843661784 0.022425135354382324 0 -0.05668322032788501 0.02030584383657821 0 -0.056241584843661784 0.022425135354382324 0 -0.055671198079145397 0.020794395676698933 0 -0.054892830452873596 0.021952408712617416 0 -0.056241584843661784 0.022425135354382324 0 -0.055671198079145397 0.020794395676698933 0 -0.054628573538772068 0.020306431777048255 0 -0.055671198079145397 0.020794395676698933 0 -0.055301376531649946 0.019725528148662495 0 -0.055671198079145397 0.020794395676698933 0 -0.056047351546466784 0.020012574670491955 0 -0.055301376531649946 0.019725528148662495 0 -0.05668322032788501 0.02030584383657821 0 -0.055671198079145397 0.020794395676698933 0 -0.056047351546466784 0.020012574670491955 0 -0.056047351546466784 0.020012574670491955 0 -0.055301376531649946 0.019725528148662495 0 -0.055890083407095344 0.019476496357546749 0 -0.056063509861438141 0.02000795458196012 0 -0.056047351546466784 0.020012574670491955 0 -0.055890083407095344 0.019476496357546749 0 -0.055301376531649946 0.019725528148662495 0 -0.055056173570783178 0.018933599457866993 0 -0.054302995982641399 0.019037271904507928 0 -0.055301376531649946 0.019725528148662495 0 -0.055056173570783178 0.018933599457866993 0 -0.055890083407095344 0.019476496357546749 0 -0.05618216872782545 0.019809468523202575 0 -0.055890083407095344 0.019476496357546749 0 -0.055715072501185056 0.018141419778680345 0 -0.055056173570783178 0.018933599457866993 0 -0.055890083407095344 0.019476496357546749 0 -0.055715072501185056 0.018141419778680345 0 -0.048080909209532216 0.013044303273139553 0 -0.046586658942626688 0.014866064941305898 0 -0.046720527958612243 0.01146129738962531 0 -0.048080909209532216 0.013044303273139553 0 -0.048533582884918991 0.011211132708539965 0 -0.046720527958612243 0.01146129738962531 0 -0.048533582884918991 0.011211132708539965 0 -0.046720527958612243 0.01146129738962531 0 -0.048206235983407238 0.0094172694897990336 0 -0.044819042117225649 0.010831833453991831 0 -0.043511733014105616 0.012444521858062869 0 -0.043572686959389186 0.0093204001289669616 0 -0.046720527958612243 0.01146129738962531 0 -0.044819042117225649 0.010831833453991831 0 -0.043511733014105616 0.012444521858062869 0 -0.046720527958612243 0.01146129738962531 0 -0.044819042117225649 0.010831833453991831 0 -0.045075332937683475 0.0093185079269857158 0 -0.055874541807140597 0.019501352824557925 0 -0.051359751248184017 0.015658932037612854 0 -0.055056173570783178 0.018933599457866993 0 -0.055715072501185056 0.018141419778680345 0 -0.053666242096599051 0.016570728311551975 0 -0.046586658942626688 0.014866064941305898 0 -0.046720527958612243 0.01146129738962531 0 -0.043511733014105616 0.012444521858062869 0 -0.050525049062978396 0.016223519311025295 0 -0.051359751248184017 0.015658932037612854 0 -0.055056173570783178 0.018933599457866993 0 -0.054297074883199882 0.018230020767883104 0 -0.054724177870687153 0.017373352849223683 0 -0.054297074883199882 0.018230020767883104 0 -0.054724177870687153 0.017373352849223683 0 -0.053879921175505177 0.01754686926329067 0 -0.054462549456700773 0.017236230768166338 0 -0.054080353856486484 0.016951374208843718 0 -0.054203856880643254 0.016341523324298272 0 -0.051359751248184017 0.015658932037612854 0 -0.055024790574267991 0.017659609657208194 0 -0.054724177870687153 0.017373352849223683 0 -0.054080353856486484 0.016951374208843718 0 -0.053879921175505177 0.01754686926329067 0 -0.054080353856486484 0.016951374208843718 0 -0.053593514431908899 0.016909942080091181 0 -0.053879921175505177 0.01754686926329067 0 -0.053593514431908899 0.016909942080091181 0 -0.053879921175505177 0.01754686926329067 0 -0.053318471085090795 0.017365024955063087 0 -0.053579015335222066 0.018106801620770004 0 -0.053879921175505177 0.01754686926329067 0 -0.053318471085090795 0.017365024955063087 0 -0.054297074883199882 0.018230020767883104 0 -0.053579015335222066 0.018106801620770004 0 -0.053879921175505177 0.01754686926329067 0 -0.053579015335222066 0.018106801620770004 0 -0.054302995982641399 0.019037271904507928 0 -0.053519045668231131 0.018822263170779858 0 -0.054297074883199882 0.018230020767883104 0 -0.053579015335222066 0.018106801620770004 0 -0.054302995982641399 0.019037271904507928 0 -0.055056173570783178 0.018933599457866993 0 -0.054297074883199882 0.018230020767883104 0 -0.054302995982641399 0.019037271904507928 0 -0.054628573538772068 0.020306431777048255 0 -0.054302995982641399 0.019037271904507928 0 -0.053811862736992941 0.019631243370684896 0 -0.054628573538772068 0.020306431777048255 0 -0.055301376531649946 0.019725528148662495 0 -0.054302995982641399 0.019037271904507928 0 -0.053519045668231131 0.018822263170779858 0 -0.053811862736992941 0.019631243370684896 0 -0.053012542319284386 0.019345610026710407 0 -0.054302995982641399 0.019037271904507928 0 -0.053519045668231131 0.018822263170779858 0 -0.053811862736992941 0.019631243370684896 0 -0.053519045668231131 0.018822263170779858 0 -0.053012542319284386 0.019345610026710407 0 -0.052985875984305167 0.018113513075402755 0 -0.052704227064610448 0.019399677936647552 0 -0.053012542319284386 0.019345610026710407 0 -0.052732979658143025 0.017983895572684032 0 -0.051871410378215431 0.019052835245934072 0 -0.052704227064610448 0.019399677936647552 0 -0.052732979658143025 0.017983895572684032 0 -0.053012542319284386 0.019345610026710407 0 -0.052732979658143025 0.017983895572684032 0 -0.052985875984305167 0.018113513075402755 0 -0.052732979658143025 0.017983895572684032 0 -0.053573381539192867 0.015018737285337631 0 -0.052232789293474378 0.016157835830397191 0 -0.052732979658143025 0.017983895572684032 0 -0.052985875984305167 0.018113513075402755 0 -0.052662865329613742 0.017735975711326946 0 -0.052779706899450878 0.01780607974147454 0 -0.05313492083401828 0.016499575047967497 0 -0.053579015335222066 0.018106801620770004 0 -0.053519045668231131 0.018822263170779858 0 -0.052985875984305167 0.018113513075402755 0 -0.053579015335222066 0.018106801620770004 0 -0.052985875984305167 0.018113513075402755 0 -0.053049470310177864 0.017754638987193667 0 -0.053579015335222066 0.018106801620770004 0 -0.053049470310177864 0.017754638987193667 0 -0.053318471085090795 0.017365024955063087 0 -0.052985875984305167 0.018113513075402755 0 -0.053049470310177864 0.017754638987193667 0 -0.052662865329613742 0.017735975711326946 0 -0.053049470310177864 0.017754638987193667 0 -0.053318471085090795 0.017365024955063087 0 -0.052961964284217324 0.017336961981919367 0 -0.053318471085090795 0.017365024955063087 0 -0.052961964284217324 0.017336961981919367 0 -0.053193010297337959 0.016963763898207765 0 -0.052961964284217324 0.017336961981919367 0 -0.053193010297337959 0.016963763898207765 0 -0.052682547404099653 0.016835886076647256 0 -0.053593514431908899 0.016909942080091181 0 -0.053318471085090795 0.017365024955063087 0 -0.053193010297337959 0.016963763898207765 0 -0.052961964284217324 0.017336961981919367 0 -0.052662865329613742 0.017735975711326946 0 -0.052682547404099653 0.016835886076647256 0 -0.05335239948354728 0.013087384285308213 0 -0.053573381539192867 0.015018737285337631 0 -0.053940438472940964 0.01276088854062179 0 -0.05313492083401828 0.016499575047967497 0 -0.052776741509697432 0.014212609125452271 0 -0.053356764667560758 0.013079737047127249 0 -0.053122777880891363 0.0131141905722618 0 -0.053356764667560758 0.013079737047127249 0 -0.052776741509697432 0.014212609125452271 0 -0.053049470310177864 0.017754638987193667 0 -0.052961964284217324 0.017336961981919367 0 -0.052662865329613742 0.017735975711326946 0 -0.053573381539192867 0.015018737285337631 0 -0.051406263316177071 0.014732728630296265 0 -0.052232789293474378 0.016157835830397191 0 -0.051406263316177071 0.014732728630296265 0 -0.051357983711923259 0.016863696267076293 0 -0.052232789293474378 0.016157835830397191 0 -0.051406263316177071 0.014732728630296265 0 -0.051522746425660688 0.012776415517215187 0 -0.052819144105697484 0.013188069562858722 0 -0.053356764667560758 0.013079737047127249 0 -0.051577571265916403 0.014581527842696703 0 -0.05335239948354728 0.013087384285308213 0 -0.053573381539192867 0.015018737285337631 0 -0.051406263316177071 0.014732728630296265 0 -0.053662159605014755 0.012727165766156389 0 -0.051406263316177071 0.014732728630296265 0 -0.052819144105697484 0.013188069562858722 0 -0.053565066717469557 0.012752147766693716 0 -0.052819144105697484 0.013188069562858722 0 -0.052686342952610807 0.012029734957467071 0 -0.051522746425660688 0.012776415517215187 0 -0.052819144105697484 0.013188069562858722 0 -0.052686342952610807 0.012029734957467071 0 -0.051406263316177071 0.014732728630296265 0 -0.051522746425660688 0.012776415517215187 0 -0.049999902670216284 0.012769095902537348 0 -0.051406263316177071 0.014732728630296265 0 -0.049999717683083644 0.015349532066959742 0 -0.051357983711923259 0.016863696267076293 0 -0.051406263316177071 0.014732728630296265 0 -0.049999902670216284 0.012769095902537348 0 -0.049999717683083644 0.015349532066959742 0 -0.049999717683083644 0.015349532066959742 0 -0.051357983711923259 0.016863696267076293 0 -0.049999929325103137 0.017929303434182586 0 -0.052732979658143025 0.017983895572684032 0 -0.051357983711923259 0.016863696267076293 0 -0.052232789293474378 0.016157835830397191 0 -0.051871410378215431 0.019052835245934072 0 -0.052732979658143025 0.017983895572684032 0 -0.051357983711923259 0.016863696267076293 0 -0.051871410378215431 0.019052835245934072 0 -0.051357983711923259 0.016863696267076293 0 -0.049999929325103137 0.017929303434182586 0 -0.051394095070266543 0.0068647999190799853 0 -0.04999994106530474 0.0078700026675276851 0 -0.049999955742890588 0.0055508899758773067 0 -0.051394095070266543 0.0068647999190799853 0 -0.052946224387810936 0.0083621273054377346 0 -0.05297537449250854 0.0063732802682472502 0 -0.052946224387810936 0.0083621273054377346 0 -0.051366145455780977 0.0087254981225023866 0 -0.052196608276621863 0.010121375644907169 0 -0.051394095070266543 0.0068647999190799853 0 -0.052946224387810936 0.0083621273054377346 0 -0.051366145455780977 0.0087254981225023866 0 -0.051394095070266543 0.0068647999190799853 0 -0.04999994106530474 0.0078700026675276851 0 -0.051366145455780977 0.0087254981225023866 0 -0.04999994106530474 0.0078700026675276851 0 -0.051366145455780977 0.0087254981225023866 0 -0.049999968552289123 0.010188976310031168 0 -0.051366145455780977 0.0087254981225023866 0 -0.049999968552289123 0.010188976310031168 0 -0.052196608276621863 0.010121375644907169 0 -0.050000253460218996 0.010189114299513229 0 -0.052373344670363552 0.010245614575157727 0 -0.049999991936170884 0.010189223972974105 0 -0.051489744422668397 0.011466159646127617 0 -0.052246796859302065 0.01024608260388269 0 -0.049999902670216284 0.012769095902537348 0 -0.049999991936170884 0.010189223972974105 0 -0.051489744422668397 0.011466159646127617 0 -0.051522746425660688 0.012776415517215187 0 -0.049999902670216284 0.012769095902537348 0 -0.051489744422668397 0.011466159646127617 0 -0.051522746425660688 0.012776415517215187 0 -0.051489744422668397 0.011466159646127617 0 -0.052686342952610807 0.012029734957467071 0 -0.052686342952610807 0.012029734957467071 0 -0.052755288970751456 0.011061745342069341 0 -0.053598272708244049 0.011317106384145671 0 -0.051489744422668397 0.011466159646127617 0 -0.052686342952610807 0.012029734957467071 0 -0.052755288970751456 0.011061745342069341 0 -0.051489744422668397 0.011466159646127617 0 -0.052755288970751456 0.011061745342069341 0 -0.052246796859302065 0.01024608260388269 0 -0.052755288970751456 0.011061745342069341 0 -0.054518088572174217 0.010269978444233758 0 -0.053598272708244049 0.011317106384145671 0 -0.052373344670363552 0.010245614575157727 0 -0.053706043981318639 0.0095017543079762637 0 -0.052946224387810936 0.0083621273054377346 0 -0.052196608276621863 0.010121375644907169 0 -0.05444203509737193 0.010134063729576707 0 -0.052755288970751456 0.011061745342069341 0 -0.052246796859302065 0.01024608260388269 0 -0.054518088572174217 0.010269978444233758 0 -0.054518088572174217 0.010269978444233758 0 -0.053598272708244049 0.011317106384145671 0 -0.054343381835043635 0.011295234744631517 0 -0.053706043981318639 0.0095017543079762637 0 -0.053441668058103686 0.01093250289817059 0 -0.053598272708244049 0.011317106384145671 0 -0.054356691198140815 0.011299271133068466 0 -0.05421704491136712 0.012146466386398082 0 -0.053805922301690345 0.01108476643808321 0 -0.053441668058103686 0.01093250289817059 0 -0.052989687874044358 0.01134351908375587 0 -0.052920187207015565 0.011760859345287294 0 -0.053384548795698927 0.011331551137369021 0 -0.053441668058103686 0.01093250289817059 0 -0.053065587560490957 0.012688869158269866 0 -0.05267638978680781 0.012572451323743497 0 -0.052670004182750446 0.01261521037880808 0 -0.052825112776879395 0.012424188353909484 0 -0.053356764667560758 0.013079737047127249 0 -0.053065587560490957 0.012688869158269866 0 -0.053287578454280116 0.013074497691635252 0 -0.05270157858600432 0.013594273658524857 0 -0.052740609452504444 0.013372634516311654 0 -0.053065587560490957 0.012688869158269866 0 -0.052776741509697432 0.014212609125452271 0 -0.053565066717469557 0.012752147766693716 0 -0.05421704491136712 0.012146466386398082 0 -0.053515366477140391 0.012041284351083838 0 -0.053598272708244049 0.011317106384145671 0 -0.05421704491136712 0.012146466386398082 0 -0.053515366477140391 0.012041284351083838 0 -0.052686342952610807 0.012029734957467071 0 -0.053598272708244049 0.011317106384145671 0 -0.053515366477140391 0.012041284351083838 0 -0.053565066717469557 0.012752147766693716 0 -0.052686342952610807 0.012029734957467071 0 -0.053515366477140391 0.012041284351083838 0 -0.053193010297337959 0.016963763898207765 0 -0.052682547404099653 0.016835886076647256 0 -0.053409619798508334 0.016374498403340116 0 -0.052776741509697432 0.014212609125452271 0 -0.0525980327805389 0.012110667885187918 0 -0.052670004182750446 0.01261521037880808 0 -0.052825112776879395 0.012424188353909484 0 -0.05299108873737373 0.012415144866261439 0 -0.053593514431908899 0.016909942080091181 0 -0.053193010297337959 0.016963763898207765 0 -0.053409619798508334 0.016374498403340116 0 -0.053441668058103686 0.01093250289817059 0 -0.05274928187689587 0.010824181811664058 0 -0.053065587560490957 0.012688869158269866 0 -0.05274928187689587 0.010824181811664058 0 -0.05274928187689587 0.010824181811664058 0 -0.0525980327805389 0.012110667885187918 0 -0.053178752100704996 0.0075954924744185059 0 -0.053175457022581946 0.0076279069232215863 0 -0.053137814282667846 0.0075875730681840845 0 -0.05274928187689587 0.010824181811664058 0 -0.052328015326665284 0.0085496492121897808 0 -0.053706043981318639 0.0095017543079762637 0 -0.052328015326665284 0.0085496492121897808 0 -0.053034026498889351 0.0097750998306388986 0 -0.053006723952685582 0.0097363106857903305 0 -0.052959030343292371 0.0097672606953197634 0 -0.052377923199852766 0.0091576944883076539 0 -0.051560593828352118 0.0098757140084844534 0 -0.051599102316300376 0.0091677909109347203 0 -0.053034026498889351 0.0097750998306388986 0 -0.053040889195765696 0.0097384573894035292 0 -0.053006723952685582 0.0097363106857903305 0 -0.054707990304346213 0.0042138993245063759 0 -0.054574750722577781 0.0042099811599564342 0 -0.054501968397124949 0.0040610595853656888 0 -0.053175457022581946 0.0076279069232215863 0 -0.053122498842709039 0.0075949467488415478 0 -0.053137814282667846 0.0075875730681840845 0 -0.054200869553967516 0.0067262654583947149 0 -0.052066809275211623 0.0062006279441165352 0 -0.053706043981318639 0.0095017543079762637 0 -0.054200869553967516 0.0067262654583947149 0 -0.052946224387810936 0.0083621273054377346 0 -0.05444203509737193 0.010134063729576707 0 -0.054831513222307969 0.0079101274109888622 0 -0.054384938898618743 0.0074602389178061645 0 -0.05297537449250854 0.0063732802682472502 0 -0.054633268605557762 0.0059684259400553611 0 -0.052946224387810936 0.0083621273054377346 0 -0.054831513222307969 0.0079101274109888622 0 -0.05297537449250854 0.0063732802682472502 0 -0.054200869553967516 0.0067262654583947149 0 -0.053312619408571661 0.0067549900493039392 0 -0.054200869553967516 0.0067262654583947149 0 -0.054692160221730131 0.0049729227960267786 0 -0.054707990304346213 0.0042138993245063759 0 -0.054574750722577781 0.0042099811599564342 0 -0.054704770258095003 0.004354676945407485 0 -0.054523460917064885 0.0042801844537145384 0 -0.054574750722577781 0.0042099811599564342 0 -0.054704770258095003 0.004354676945407485 0 -0.04831762371243168 0.0011032865654184826 0 -0.047692462652775013 0.0008826624699834573 0 -0.047938310109938959 -1.6948170547043252e-05 0 -0.045050640021584293 -0.0063506339250631464 0 -0.045294464862705427 -0.004424349360446278 0 -0.046541827306991128 -0.0052768033322118622 0 -0.04831762371243168 0.0011032865654184826 0 -0.047692462652775013 0.0008826624699834573 0 -0.047780234970549847 0.0015737630432594762 0 -0.04375133014762516 -0.0012219609188141045 0 -0.046826561442623857 -0.0021898487864182446 0 -0.047692462652775013 0.0008826624699834573 0 -0.046864957895495177 0.00090207654006735469 0 -0.047780234970549847 0.0015737630432594762 0 -0.048225674697230492 0.002908878844370457 0 -0.04375133014762516 -0.0012219609188141045 0 -0.043465580540574783 0.0016827274244618853 0 -0.043340647792236758 0.0016507114994667132 0 -0.043352496891939193 0.0017494943123209613 0 -0.047692462652775013 0.0008826624699834573 0 -0.047938310109938959 -1.6948170547043252e-05 0 -0.046864957895495177 0.00090207654006735469 0 -0.054574750722577781 0.0042099811599564342 0 -0.054419457173737792 0.0041235158048195464 0 -0.054501968397124949 0.0040610595853656888 0 -0.054523460917064885 0.0042801844537145384 0 -0.054574750722577781 0.0042099811599564342 0 -0.054419457173737792 0.0041235158048195464 0 -0.051678718275941712 0.0029992004104922895 0 -0.048225674697230492 0.002908878844370457 0 -0.048225674697230492 0.002908878844370457 0 -0.052066809275211623 0.0062006279441165352 0 -0.048817592761897531 0.011160608324071165 0 -0.051458383053709374 0.0094151674500932876 0 -0.047269771061087186 0.0094954914730145477 0 -0.051052053973575505 0.0084240589240738399 0 -0.049894620401092667 0.0074697681442516322 0 -0.052085106758365682 0.0074970129544599017 0 -0.052066809275211623 0.0062006279441165352 0 -0.052328015326665284 0.0085496492121897808 0 -0.048104765996797555 0.005527637549922494 0 -0.04845355438461553 0.005230154786094024 0 -0.048140540503370279 0.005183667790095923 0 -0.052066809275211623 0.0062006279441165352 0 -0.04860702852575717 0.0075789994770515462 0 -0.04845355438461553 0.005230154786094024 0 -0.048140540503370279 0.005183667790095923 0 -0.048145018454028632 0.0049864432279600884 0 -0.048140540503370279 0.005183667790095923 0 -0.048145018454028632 0.0049864432279600884 0 -0.048019168425840565 0.0049852867420568511 0 -0.04860702852575717 0.0075789994770515462 0 -0.0525980327805389 0.012110667885187918 0 -0.050530092107158336 0.0098516168285889705 0 -0.051560593828352118 0.0098757140084844534 0 -0.051599102316300376 0.0091677909109347203 0 -0.04860702852575717 0.0075789994770515462 0 -0.052328015326665284 0.0085496492121897808 0 -0.0525980327805389 0.012110667885187918 0 -0.047528469278573911 0.010769416299032336 0 -0.054080353856486484 0.016951374208843718 0 -0.053593514431908899 0.016909942080091181 0 -0.054203856880643254 0.016341523324298272 0 -0.053593514431908899 0.016909942080091181 0 -0.053409619798508334 0.016374498403340116 0 -0.054203856880643254 0.016341523324298272 0 -0.043511733014105616 0.012444521858062869 0 -0.042198381864569333 0.0084894268927845386 0 -0.043572686959389186 0.0093204001289669616 0 -0.051359751248184017 0.015658932037612854 0 -0.047528469278573911 0.010769416299032336 0 -0.047528469278573911 0.010769416299032336 0 -0.04505836872063624 0.0078936904839695139 0 -0.045933995276486193 0.0098819978168140157 0 -0.046497022757234219 0.0098704437765805928 0 -0.045724797130583375 0.0092153864686280399 0 -0.042198381864569333 0.0084894268927845386 0 -0.042566083323697254 0.0084803555786145766 0 -0.043572686959389186 0.0093204001289669616 0 -0.043034334104601751 0.0087682058004234439 0 -0.04505836872063624 0.0078936904839695139 0 -0.047528469278573911 0.010769416299032336 0 -0.043034334104601751 0.0087682058004234439 0 -0.043034334104601751 0.0087682058004234439 0 -0.043268976055747359 0.0090183212393163854 0 -0.037606581373006959 0.0046755431203858609 0 -0.037360709308403406 0.0038610998475363 0 -0.038900775611757164 0.003836677878110953 0 -0.03804237034832491 0.005055593915818786 0 -0.037606581373006959 0.0046755431203858609 0 -0.038900775611757164 0.003836677878110953 0 -0.043465580540574783 0.0016827274244618853 0 -0.043430587563247185 0.0016236367800089879 0 -0.043340647792236758 0.0016507114994667132 0 -0.042932426694230669 0.0047710388028502394 0 -0.037547751715576137 0.0040781421708794311 0 -0.048817592761897531 0.011160608324071165 0 -0.047269771061087186 0.0094954914730145477 0 -0.047439818822703927 0.010023506881023211 0 -0.04860702852575717 0.0075789994770515462 0 -0.04505836872063624 0.0078936904839695139 0 -0.04505836872063624 0.0078936904839695139 0 -0.042932426694230669 0.0047710388028502394 0 -0.045014916616026628 0.0063446646140235046 0 -0.04519037607739624 0.0068650697883409504 0 -0.045414069687307698 0.006866734812586278 0 -0.045673482514988102 0.0068679386867622136 0 -0.045014916616026628 0.0063446646140235046 0 -0.045414069687307698 0.006866734812586278 0 -0.042932426694230669 0.0047710388028502394 0 -0.045817176422400616 0.0060592524305193582 0 -0.04860702852575717 0.0075789994770515462 0 -0.045817176422400616 0.0060592524305193582 0 -0.048104765996797555 0.005527637549922494 0 -0.048140540503370279 0.005183667790095923 0 -0.04791189344709923 0.0049839359533568849 0 -0.048225674697230492 0.002908878844370457 0 -0.042932426694230669 0.0047710388028502394 0 -0.048140540503370279 0.005183667790095923 0 -0.04791189344709923 0.0049839359533568849 0 -0.048019168425840565 0.0049852867420568511 0 -0.042932426694230669 0.0047710388028502394 0 -0.041181598012200928 0.0021531049160828171 0 -0.037297652947591513 0.003836894396470906 0 -0.038900775611757164 0.003836677878110953 0 -0.039245059646799973 0.0024476554615238005 0 -0.04075850804708013 0.0031477749985152144 0 -0.038900775611757164 0.003836677878110953 0 -0.039245059646799973 0.0024476554615238005 0 -0.04075850804708013 0.0031477749985152144 0 -0.038900775611757164 0.003836677878110953 0 -0.041572569118142444 0.0051419457663611457 0 -0.03804237034832491 0.005055593915818786 0 -0.038900775611757164 0.003836677878110953 0 -0.041572569118142444 0.0051419457663611457 0 -0.042598604058795543 0.0085364529490885403 0 -0.045075332937683475 0.0093185079269857158 0 -0.046250378972073181 0.0083023250522210983 0 -0.042598604058795543 0.0085364529490885403 0 -0.045075332937683475 0.0093185079269857158 0 -0.043572686959389186 0.0093204001289669616 0 -0.043034334104601751 0.0087682058004234439 0 -0.043332514214168408 0.0065188203024908603 0 -0.044819042117225649 0.010831833453991831 0 -0.045075332937683475 0.0093185079269857158 0 -0.043572686959389186 0.0093204001289669616 0 -0.046720527958612243 0.01146129738962531 0 -0.045075332937683475 0.0093185079269857158 0 -0.046250378972073181 0.0083023250522210983 0 -0.046720527958612243 0.01146129738962531 0 -0.046250378972073181 0.0083023250522210983 0 -0.048206235983407238 0.0094172694897990336 0 -0.04075850804708013 0.0031477749985152144 0 -0.041572569118142444 0.0051419457663611457 0 -0.043219317720791808 0.002343162894507248 0 -0.041572569118142444 0.0051419457663611457 0 -0.043219317720791808 0.002343162894507248 0 -0.04498009733788029 0.003551494576004116 0 -0.043219317720791808 0.002343162894507248 0 -0.040484386960156694 0.00030623631072855409 0 -0.043290277225648911 -0.0012692156574202649 0 -0.04075850804708013 0.0031477749985152144 0 -0.043219317720791808 0.002343162894507248 0 -0.041377866880710969 0.0011294722614219872 0 -0.042789751578522356 0.0020059024522613433 0 -0.041658944276848422 0.00071351546649557423 0 -0.041658944276848422 0.00071351546649557423 0 -0.042940946885540607 -0.00095244323143035706 0 -0.041435180253426802 -0.00034781770850243136 0 -0.043290277225648911 -0.0012692156574202649 0 -0.041780091309355741 -0.0022852135736089511 0 -0.041658944276848422 0.00071351546649557423 0 -0.041181598012200928 0.0021531049160828171 0 -0.041658944276848422 0.00071351546649557423 0 -0.04375133014762516 -0.0012219609188141045 0 -0.04075850804708013 0.0031477749985152144 0 -0.041377866880710969 0.0011294722614219872 0 -0.039245059646799973 0.0024476554615238005 0 -0.043241341471622688 0.0016833000006830027 0 -0.043340647792236758 0.0016507114994667132 0 -0.043352496891939193 0.0017494943123209613 0 -0.041435180253426802 -0.00034781770850243136 0 -0.039139185217879645 -0.0021231071063136848 0 -0.041780091309355741 -0.0022852135736089511 0 -0.039139185217879645 -0.0021231071063136848 0 -0.041780091309355741 -0.0022852135736089511 0 -0.041614895682890077 -0.0043379170789454987 0 -0.04375133014762516 -0.0012219609188141045 0 -0.042614864416984297 -0.0045946249601018386 0 -0.041780091309355741 -0.0022852135736089511 0 -0.041614895682890077 -0.0043379170789454987 0 -0.043555299198813131 -0.003334777378962882 0 -0.043290277225648911 -0.0012692156574202649 0 -0.041780091309355741 -0.0022852135736089511 0 -0.043555299198813131 -0.003334777378962882 0 -0.041614895682890077 -0.0043379170789454987 0 -0.043386647678438514 -0.0049936194863532219 0 -0.043807252926504225 -0.0061870982211329924 0 -0.042614864416984297 -0.0045946249601018386 0 -0.040106002184170347 -0.0084862428568987062 0 -0.043412373258295889 -0.0049198104994350412 0 -0.041966410909942298 -0.0032631252153090657 0 -0.041766138375841332 -0.00351537470092683 0 -0.041614895682890077 -0.0043379170789454987 0 -0.043555299198813131 -0.003334777378962882 0 -0.043386647678438514 -0.0049936194863532219 0 -0.043412373258295889 -0.0049198104994350412 0 -0.044002353618555215 -0.0030828355301091453 0 -0.045294464862705427 -0.004424349360446278 0 -0.045050640021584293 -0.0063506339250631464 0 -0.043412373258295889 -0.0049198104994350412 0 -0.045294464862705427 -0.004424349360446278 0 -0.044002353618555215 -0.0030828355301091453 0 -0.046058169100353874 -0.0028957790168133847 0 -0.045294464862705427 -0.004424349360446278 0 -0.044447951627353668 -0.0075760394918564884 0 -0.045427183183073275 -0.0079461890914956351 0 -0.043687980104218309 -0.012560581897156847 0 -0.043594582304185968 -0.0108541920218294 0 -0.04201160365858677 -0.012665036467720256 0 -0.043412373258295889 -0.0049198104994350412 0 -0.044002353618555215 -0.0030828355301091453 0 -0.041966410909942298 -0.0032631252153090657 0 -0.044447951627353668 -0.0075760394918564884 0 -0.0392510747649569 -0.011651135397754343 0 -0.039288383472317515 -0.014690214854026825 0 -0.0392510747649569 -0.011651135397754343 0 -0.035635988394849771 -0.016922007998890581 0 -0.034559596190139062 -0.016915161007214349 0 -0.034570732931938519 -0.017447340359612991 0 -0.035635988394849771 -0.016922007998890581 0 -0.034710280643803333 -0.017951440709546573 0 -0.034570732931938519 -0.017447340359612991 0 -0.035016631901425725 -0.016311216711242606 0 -0.035635988394849771 -0.016922007998890581 0 -0.034559596190139062 -0.016915161007214349 0 -0.036668792292014599 -0.016047980984328927 0 -0.035016631901425725 -0.016311216711242606 0 -0.035635988394849771 -0.016922007998890581 0 -0.041110716041898518 -0.012613222940571472 0 -0.039288383472317515 -0.014690214854026825 0 -0.045164044093324987 -0.0096584273921245904 0 -0.043594582304185968 -0.0108541920218294 0 -0.045080032932114815 -0.010829144932718122 0 -0.043687980104218309 -0.012560581897156847 0 -0.043594582304185968 -0.0108541920218294 0 -0.045080032932114815 -0.010829144932718122 0 -0.045080032932114815 -0.010829144932718122 0 -0.046801827484367488 -0.010558826860101041 0 -0.045282849383445789 -0.01250138399932201 0 -0.045080032932114815 -0.010829144932718122 0 -0.045858647504482104 -0.010084075955742665 0 -0.046801827484367488 -0.010558826860101041 0 -0.045164044093324987 -0.0096584273921245904 0 -0.045080032932114815 -0.010829144932718122 0 -0.045858647504482104 -0.010084075955742665 0 -0.04765520409743159 -0.0077427047808643571 0 -0.046879728282324007 -0.010328835528683064 0 -0.049277603561423487 -0.0048318152525517492 0 -0.046801827484367488 -0.010558826860101041 0 -0.049498056204124778 -0.0073934751114857963 0 -0.046166686359059676 -0.0097529257396710197 0 -0.045858647504482104 -0.010084075955742665 0 -0.046801827484367488 -0.010558826860101041 0 -0.046801827484367488 -0.010558826860101041 0 -0.047706365433647001 -0.012715504836037814 0 -0.048743880932458607 -0.012098240856913894 0 -0.047760568312550405 -0.0031158656662063989 0 -0.046058169100353874 -0.0028957790168133847 0 -0.04674658623193638 -0.003992302524128518 0 -0.046801827484367488 -0.010558826860101041 0 -0.047706365433647001 -0.012715504836037814 0 -0.045282849383445789 -0.01250138399932201 0 -0.04817564278633852 -0.002708926232337179 0 -0.047760568312550405 -0.0031158656662063989 0 -0.048577030763694767 -0.0026817291574411585 0 -0.048163229264428287 -0.0027176684957790939 0 -0.047760568312550405 -0.0031158656662063989 0 -0.046058169100353874 -0.0028957790168133847 0 -0.048655321238201335 -0.00412038104552938 0 -0.045427183183073275 -0.0079461890914956351 0 -0.048655321238201335 -0.00412038104552938 0 -0.048538413081929695 -0.0037492008623824895 0 -0.048655321238201335 -0.00412038104552938 0 -0.052584731089831707 -0.00052593912675293379 0 -0.050976802292898811 0.0015152299893508565 0 -0.052584731089831707 -0.00052593912675293379 0 -0.047760568312550405 -0.0031158656662063989 0 -0.048075571901159006 -0.0041654496923022701 0 -0.048577030763694767 -0.0026817291574411585 0 -0.047760568312550405 -0.0031158656662063989 0 -0.04674658623193638 -0.003992302524128518 0 -0.048075571901159006 -0.0041654496923022701 0 -0.043687980104218309 -0.012560581897156847 0 -0.045080032932114815 -0.010829144932718122 0 -0.045282849383445789 -0.01250138399932201 0 -0.046058169100353874 -0.0028957790168133847 0 -0.04674658623193638 -0.003992302524128518 0 -0.045294464862705427 -0.004424349360446278 0 -0.04674658623193638 -0.003992302524128518 0 -0.045294464862705427 -0.004424349360446278 0 -0.046541827306991128 -0.0052768033322118622 0 -0.046826561442623857 -0.0021898487864182446 0 -0.050976802292898811 0.0015152299893508565 0 -0.051678718275941712 0.0029992004104922895 0 -0.050976802292898811 0.0015152299893508565 0 -0.04831762371243168 0.0011032865654184826 0 -0.047780234970549847 0.0015737630432594762 0 -0.048721721689080087 0.0022438967977125679 0 -0.054523460917064885 0.0042801844537145384 0 -0.05464808079228866 0.0043855453935812043 0 -0.054704770258095003 0.004354676945407485 0 -0.050976802292898811 0.0015152299893508565 0 -0.054432618565324352 0.004133457570587193 0 -0.04674658623193638 -0.003992302524128518 0 -0.046541827306991128 -0.0052768033322118622 0 -0.048075571901159006 -0.0041654496923022701 0 -0.054633268605557762 0.0059684259400553611 0 -0.053814339385396703 0.0050129296184525784 0 -0.054715627017205531 0.0043825694331854105 0 -0.054704770258095003 0.004354676945407485 0 -0.054715627017205531 0.0043825694331854105 0 -0.054738535640122522 0.0044079170638689448 0 -0.054692160221730131 0.0049729227960267786 0 -0.054714043066056019 0.0045440018623773568 0 -0.05464808079228866 0.0043855453935812043 0 -0.054704770258095003 0.004354676945407485 0 -0.054738535640122522 0.0044079170638689448 0 -0.05297537449250854 0.0063732802682472502 0 -0.053814339385396703 0.0050129296184525784 0 -0.052781891798164532 0.0044943767672724925 0 -0.05297537449250854 0.0063732802682472502 0 -0.054633268605557762 0.0059684259400553611 0 -0.053814339385396703 0.0050129296184525784 0 -0.053814339385396703 0.0050129296184525784 0 -0.053692668558353307 0.0037952062802407223 0 -0.054715627017205531 0.0043825694331854105 0 -0.053814339385396703 0.0050129296184525784 0 -0.053692668558353307 0.0037952062802407223 0 -0.052781891798164532 0.0044943767672724925 0 -0.053710793787478756 0.0031350905098010574 0 -0.055319432221430029 0.0031578247245239756 0 -0.055192763291750241 0.0027510834981691913 0 -0.054200451991335954 0.0037049766745177138 0 -0.052584731089831707 -0.00052593912675293379 0 -0.053692668558353307 0.0037952062802407223 0 -0.054715627017205531 0.0043825694331854105 0 -0.05494817016766463 0.004044006948757852 0 -0.054715627017205531 0.0043825694331854105 0 -0.054738535640122522 0.0044079170638689448 0 -0.05494817016766463 0.004044006948757852 0 -0.054876641245087537 0.0045529684700172917 0 -0.054738535640122522 0.0044079170638689448 0 -0.05494817016766463 0.004044006948757852 0 -0.051465252640731589 -0.0029767204787524955 0 -0.051545893004775439 -0.002972958278098048 0 -0.051584653294212739 -0.0028787913863563106 0 -0.052584731089831707 -0.00052593912675293379 0 -0.051563071016328031 -0.003890122051316921 0 -0.048655321238201335 -0.00412038104552938 0 -0.051563071016328031 -0.003890122051316921 0 -0.051563071016328031 -0.003890122051316921 0 -0.052923587692335669 -0.0015217206401188662 0 -0.051222763418330278 -0.0053802066434333372 0 -0.051255475885110514 -0.0053236808336959195 0 -0.051353521872407833 -0.0053036376178950354 0 -0.051563071016328031 -0.003890122051316921 0 -0.050503869518654723 -0.0079011040629788174 0 -0.046801827484367488 -0.010558826860101041 0 -0.048743880932458607 -0.012098240856913894 0 -0.050401625573945653 -0.0091371570821352742 0 -0.046801827484367488 -0.010558826860101041 0 -0.050401625573945653 -0.0091371570821352742 0 -0.049498056204124778 -0.0073934751114857963 0 -0.050503869518654723 -0.0079011040629788174 0 -0.051269682533732056 -0.0053619407371752184 0 -0.050401625573945653 -0.0091371570821352742 0 -0.049498056204124778 -0.0073934751114857963 0 -0.051213329201116549 -0.0052753409018637563 0 -0.051255475885110514 -0.0053236808336959195 0 -0.051213329201116549 -0.0052753409018637563 0 -0.051353521872407833 -0.0053036376178950354 0 -0.049277603561423487 -0.0048318152525517492 0 -0.049498056204124778 -0.0073934751114857963 0 -0.051213329201116549 -0.0052753409018637563 0 -0.051620062831550594 -0.0040871527313708607 0 -0.051213329201116549 -0.0052753409018637563 0 -0.051353521872407833 -0.0053036376178950354 0 -0.053710793787478756 0.0031350905098010574 0 -0.053679137385713782 0.0011652017106227844 0 -0.052812625780282216 0.002192439937636969 0 -0.053710793787478756 0.0031350905098010574 0 -0.055192763291750241 0.0027510834981691913 0 -0.053679137385713782 0.0011652017106227844 0 -0.053710793787478756 0.0031350905098010574 0 -0.052812625780282216 0.002192439937636969 0 -0.051933124174891321 0.0031890740509570828 0 -0.053679137385713782 0.0011652017106227844 0 -0.052812625780282216 0.002192439937636969 0 -0.051864518448988421 0.0012700779475261366 0 -0.052812625780282216 0.002192439937636969 0 -0.051864518448988421 0.0012700779475261366 0 -0.051933124174891321 0.0031890740509570828 0 -0.051573310704812511 -0.002534276641919595 0 -0.052923587692335669 -0.0015217206401188662 0 -0.051994894508990031 -0.00069677503274565304 0 -0.053679137385713782 0.0011652017106227844 0 -0.051864518448988421 0.0012700779475261366 0 -0.051994894508990031 -0.00069677503274565304 0 -0.051864518448988421 0.0012700779475261366 0 -0.049999841544617625 0.00035768432484641234 0 -0.051864518448988421 0.0012700779475261366 0 -0.050000067647309451 0.0032312482436285899 0 -0.051933124174891321 0.0031890740509570828 0 -0.051864518448988421 0.0012700779475261366 0 -0.049999841544617625 0.00035768432484641234 0 -0.050000067647309451 0.0032312482436285899 0 -0.050000541554942733 0.0032319103653276953 0 -0.051803216630500915 0.0033269038497913028 0 -0.050000024031901305 0.003232177140546519 0 -0.051748198827191942 0.0052208594507550761 0 -0.049999955742890588 0.0055508899758773067 0 -0.050000024031901305 0.003232177140546519 0 -0.051933982232982304 0.0034970121415317944 0 -0.051748198827191942 0.0052208594507550761 0 -0.054200451991335954 0.0037049766745177138 0 -0.051803216630500915 0.0033269038497913028 0 -0.051933982232982304 0.0034970121415317944 0 -0.052781891798164532 0.0044943767672724925 0 -0.051748198827191942 0.0052208594507550761 0 -0.053692668558353307 0.0037952062802407223 0 -0.051933982232982304 0.0034970121415317944 0 -0.052781891798164532 0.0044943767672724925 0 -0.051394095070266543 0.0068647999190799853 0 -0.05297537449250854 0.0063732802682472502 0 -0.051748198827191942 0.0052208594507550761 0 -0.05297537449250854 0.0063732802682472502 0 -0.052781891798164532 0.0044943767672724925 0 -0.051748198827191942 0.0052208594507550761 0 -0.051394095070266543 0.0068647999190799853 0 -0.051748198827191942 0.0052208594507550761 0 -0.049999955742890588 0.0055508899758773067 0 -0.03777633533422399 -0.0071950760377463025 0 -0.038248821008308773 -0.0070261930224716227 0 -0.037620120291988565 -0.0070032818286885779 0 -0.03777633533422399 -0.0071950760377463025 0 -0.037620120291988565 -0.0070032818286885779 0 -0.037317467246151231 -0.007265014493510271 0 -0.03777633533422399 -0.0071950760377463025 0 -0.03757597363391154 -0.0073048221689948111 0 -0.037317467246151231 -0.007265014493510271 0 -0.03777633533422399 -0.0071950760377463025 0 -0.03757597363391154 -0.0073048221689948111 0 -0.037962801209663492 -0.0073257199224227923 0 -0.03777633533422399 -0.0071950760377463025 0 -0.038189883509455194 -0.0072613439466999719 0 -0.037962801209663492 -0.0073257199224227923 0 -0.038189883509455194 -0.0072613439466999719 0 -0.038589314729345695 -0.0073144561467020008 0 -0.038248821008308773 -0.0070261930224716227 0 -0.038189883509455194 -0.0072613439466999719 0 -0.037962801209663492 -0.0073257199224227923 0 -0.038341127999427752 -0.0073695214839564795 0 -0.038189883509455194 -0.0072613439466999719 0 -0.038589314729345695 -0.0073144561467020008 0 -0.038341127999427752 -0.0073695214839564795 0 -0.038902454740516686 -0.0074703171364217513 0 -0.038589314729345695 -0.0073144561467020008 0 -0.039117066217753182 -0.007303376692554259 0 -0.038589314729345695 -0.0073144561467020008 0 -0.038771789483380184 -0.0069957666077365031 0 -0.039117066217753182 -0.007303376692554259 0 -0.038902454740516686 -0.0074703171364217513 0 -0.038589314729345695 -0.0073144561467020008 0 -0.038679902949572395 -0.0074464993038345067 0 -0.038589314729345695 -0.0073144561467020008 0 -0.038771789483380184 -0.0069957666077365031 0 -0.038248821008308773 -0.0070261930224716227 0 -0.038771789483380184 -0.0069957666077365031 0 -0.038248821008308773 -0.0070261930224716227 0 -0.038553226186295274 -0.0065240276538582696 0 -0.03777633533422399 -0.0071950760377463025 0 -0.038189883509455194 -0.0072613439466999719 0 -0.038248821008308773 -0.0070261930224716227 0 -0.038248821008308773 -0.0070261930224716227 0 -0.038553226186295274 -0.0065240276538582696 0 -0.037620120291988565 -0.0070032818286885779 0 -0.038553226186295274 -0.0065240276538582696 0 -0.037379069310722227 -0.0067692997600844358 0 -0.039072270439825932 -0.0054060927631734493 0 -0.038771789483380184 -0.0069957666077365031 0 -0.038553226186295274 -0.0065240276538582696 0 -0.039467275877505335 -0.0067291763892639387 0 -0.038553226186295274 -0.0065240276538582696 0 -0.037620120291988565 -0.0070032818286885779 0 -0.037379069310722227 -0.0067692997600844358 0 -0.037620120291988565 -0.0070032818286885779 0 -0.03705975115684728 -0.0072970502135843935 0 -0.037317467246151231 -0.007265014493510271 0 -0.037620120291988565 -0.0070032818286885779 0 -0.03705975115684728 -0.0072970502135843935 0 -0.037379069310722227 -0.0067692997600844358 0 -0.03705975115684728 -0.0072970502135843935 0 -0.037027589424026779 -0.0074213882989515433 0 -0.036693933504839966 -0.0078304144864181219 0 -0.03705975115684728 -0.0072970502135843935 0 -0.037027589424026779 -0.0074213882989515433 0 -0.037317467246151231 -0.007265014493510271 0 -0.036733747790951989 -0.0078398062536238957 0 -0.03688578546144948 -0.0077494056510921394 0 -0.036693933504839966 -0.0078304144864181219 0 -0.037058882581561189 -0.0073889292240060219 0 -0.03727201560413225 -0.0073753751410400694 0 -0.037027589424026779 -0.0074213882989515433 0 -0.036693933504839966 -0.0078304144864181219 0 -0.037058882581561189 -0.0073889292240060219 0 -0.037058882581561189 -0.0073889292240060219 0 -0.037182308907171918 -0.0073045281934066572 0 -0.03727201560413225 -0.0073753751410400694 0 -0.037058882581561189 -0.0073889292240060219 0 -0.037272440057144057 -0.0073330166134046278 0 -0.037182308907171918 -0.0073045281934066572 0 -0.037027589424026779 -0.0074213882989515433 0 -0.037058882581561189 -0.0073889292240060219 0 -0.037272440057144057 -0.0073330166134046278 0 -0.037027589424026779 -0.0074213882989515433 0 -0.037317467246151231 -0.007265014493510271 0 -0.037272440057144057 -0.0073330166134046278 0 -0.03757597363391154 -0.0073048221689948111 0 -0.037317467246151231 -0.007265014493510271 0 -0.037272440057144057 -0.0073330166134046278 0 -0.037272440057144057 -0.0073330166134046278 0 -0.037474941331020251 -0.0074008098261792365 0 -0.037591305070228793 -0.0073683459875912129 0 -0.03757597363391154 -0.0073048221689948111 0 -0.037272440057144057 -0.0073330166134046278 0 -0.037591305070228793 -0.0073683459875912129 0 -0.037272440057144057 -0.0073330166134046278 0 -0.037331442147433433 -0.0073584864434902298 0 -0.037474941331020251 -0.0074008098261792365 0 -0.037331442147433433 -0.0073584864434902298 0 -0.037474941331020251 -0.0074008098261792365 0 -0.037480680153727901 -0.0074646082605802017 0 -0.037474941331020251 -0.0074008098261792365 0 -0.037640766467852423 -0.007508406731125049 0 -0.037765546858780828 -0.0074719920936639258 0 -0.037474941331020251 -0.0074008098261792365 0 -0.037765546858780828 -0.0074719920936639258 0 -0.037591305070228793 -0.0073683459875912129 0 -0.037182308907171918 -0.0073045281934066572 0 -0.037269519491100987 -0.0072729359640403774 0 -0.037240017521737633 -0.0072574359300553049 0 -0.037272440057144057 -0.0073330166134046278 0 -0.037331442147433433 -0.0073584864434902298 0 -0.037182308907171918 -0.0073045281934066572 0 -0.037331442147433433 -0.0073584864434902298 0 -0.037182308907171918 -0.0073045281934066572 0 -0.037269519491100987 -0.0072729359640403774 0 -0.037269519491100987 -0.0072729359640403774 0 -0.037347899667832724 -0.0071441234062877453 0 -0.037369577695250338 -0.0075068603351101954 0 -0.037650175343364199 -0.0071528596341916923 0 -0.03744330534860265 -0.0070132939708825613 0 -0.037347899667832724 -0.0071441234062877453 0 -0.03794511471215406 -0.007170805124491959 0 -0.038408486664839057 -0.0067304992093352957 0 -0.037269519491100987 -0.0072729359640403774 0 -0.037347899667832724 -0.0071441234062877453 0 -0.037258507063628987 -0.0071792723580296576 0 -0.037331442147433433 -0.0073584864434902298 0 -0.037269519491100987 -0.0072729359640403774 0 -0.037369577695250338 -0.0075068603351101954 0 -0.037366440106627971 -0.0074557388930249933 0 -0.037347899667832724 -0.0071441234062877453 0 -0.037274138052122888 -0.0072543365029530205 0 -0.037366440106627971 -0.0074557388930249933 0 -0.037347899667832724 -0.0071441234062877453 0 -0.03794511471215406 -0.007170805124491959 0 -0.038849639628530039 -0.0074975064648501689 0 -0.038408486664839057 -0.0067304992093352957 0 -0.040001602495305121 -0.0066793417703961662 0 -0.037646200404549066 -0.0075895869232193115 0 -0.037369577695250338 -0.0075068603351101954 0 -0.037844935722921885 -0.0077621275222857795 0 -0.03744330534860265 -0.0070132939708825613 0 -0.043572718079821222 0.0028944717969602305 0 -0.037646200404549066 -0.0075895869232193115 0 -0.037480680153727901 -0.0074646082605802017 0 -0.037369577695250338 -0.0075068603351101954 0 -0.037646200404549066 -0.0075895869232193115 0 -0.037640766467852423 -0.007508406731125049 0 -0.037480680153727901 -0.0074646082605802017 0 -0.037474941331020251 -0.0074008098261792365 0 -0.037640766467852423 -0.007508406731125049 0 -0.037480680153727901 -0.0074646082605802017 0 -0.037331442147433433 -0.0073584864434902298 0 -0.037480680153727901 -0.0074646082605802017 0 -0.037369577695250338 -0.0075068603351101954 0 -0.038849639628530039 -0.0074975064648501689 0 -0.03794511471215406 -0.007170805124491959 0 -0.038408486664839057 -0.0067304992093352957 0 -0.043572718079821222 0.0028944717969602305 0 -0.040482383201349635 -0.005607497247919843 0 -0.037844935722921885 -0.0077621275222857795 0 -0.038589280220908309 -0.0075669777598620178 0 -0.038209613641802517 -0.0075057138017086463 0 -0.037844935722921885 -0.0077621275222857795 0 -0.037801002274281445 -0.00766469489159201 0 -0.037845245820658069 -0.0075944799124638028 0 -0.037646200404549066 -0.0075895869232193115 0 -0.037844935722921885 -0.0077621275222857795 0 -0.037801002274281445 -0.00766469489159201 0 -0.037844935722921885 -0.0077621275222857795 0 -0.038007778227903112 -0.007505158756781794 0 -0.038209613641802517 -0.0075057138017086463 0 -0.037844935722921885 -0.0077621275222857795 0 -0.038007778227903112 -0.007505158756781794 0 -0.037845245820658069 -0.0075944799124638028 0 -0.037646200404549066 -0.0075895869232193115 0 -0.037801002274281445 -0.00766469489159201 0 -0.037738216498231371 -0.0075632077934151675 0 -0.037646200404549066 -0.0075895869232193115 0 -0.037640766467852423 -0.007508406731125049 0 -0.037738216498231371 -0.0075632077934151675 0 -0.037801002274281445 -0.00766469489159201 0 -0.037738216498231371 -0.0075632077934151675 0 -0.037845245820658069 -0.0075944799124638028 0 -0.038007778227903112 -0.007505158756781794 0 -0.037845245820658069 -0.0075944799124638028 0 -0.037765546858780828 -0.0074719920936639258 0 -0.037738216498231371 -0.0075632077934151675 0 -0.037845245820658069 -0.0075944799124638028 0 -0.037765546858780828 -0.0074719920936639258 0 -0.037640766467852423 -0.007508406731125049 0 -0.037738216498231371 -0.0075632077934151675 0 -0.037765546858780828 -0.0074719920936639258 0 -0.037765546858780828 -0.0074719920936639258 0 -0.037854851473248415 -0.0073823643124112607 0 -0.037591305070228793 -0.0073683459875912129 0 -0.038007778227903112 -0.007505158756781794 0 -0.037765546858780828 -0.0074719920936639258 0 -0.037854851473248415 -0.0073823643124112607 0 -0.038007778227903112 -0.007505158756781794 0 -0.038166729654326534 -0.0073692128001640054 0 -0.037854851473248415 -0.0073823643124112607 0 -0.038007778227903112 -0.007505158756781794 0 -0.038166729654326534 -0.0073692128001640054 0 -0.038209613641802517 -0.0075057138017086463 0 -0.038166729654326534 -0.0073692128001640054 0 -0.037962801209663492 -0.0073257199224227923 0 -0.037854851473248415 -0.0073823643124112607 0 -0.038166729654326534 -0.0073692128001640054 0 -0.037962801209663492 -0.0073257199224227923 0 -0.038341127999427752 -0.0073695214839564795 0 -0.03757597363391154 -0.0073048221689948111 0 -0.037854851473248415 -0.0073823643124112607 0 -0.037591305070228793 -0.0073683459875912129 0 -0.03757597363391154 -0.0073048221689948111 0 -0.037962801209663492 -0.0073257199224227923 0 -0.037854851473248415 -0.0073823643124112607 0 -0.038934312061134457 -0.0069568211018383105 0 -0.038594214471903379 -0.0072165758307100973 0 -0.038679902949572395 -0.0074464993038345067 0 -0.03843738771120369 -0.0072390619499140049 0 -0.039290287355228638 -0.0078120264374114748 0 -0.038589314729345695 -0.0073144561467020008 0 -0.038679902949572395 -0.0074464993038345067 0 -0.038341127999427752 -0.0073695214839564795 0 -0.038166729654326534 -0.0073692128001640054 0 -0.038341127999427752 -0.0073695214839564795 0 -0.03843738771120369 -0.0072390619499140049 0 -0.038679902949572395 -0.0074464993038345067 0 -0.038341127999427752 -0.0073695214839564795 0 -0.03843738771120369 -0.0072390619499140049 0 -0.03843738771120369 -0.0072390619499140049 0 -0.038589280220908309 -0.0075669777598620178 0 -0.038209613641802517 -0.0075057138017086463 0 -0.038166729654326534 -0.0073692128001640054 0 -0.03843738771120369 -0.0072390619499140049 0 -0.038209613641802517 -0.0075057138017086463 0 -0.03843738771120369 -0.0072390619499140049 0 -0.038589280220908309 -0.0075669777598620178 0 -0.039260007116352004 -0.0056616434476573288 0 -0.048235731922511418 0.011461074850062269 0 -0.043572718079821222 0.0028944717969602305 0 -0.047774575967421913 0.00052510759835839834 0 -0.043718626208360284 -0.0021234669239118009 0 -0.044198283507047124 -0.00018688708308539062 0 -0.04317138984173105 0.0013805293645411316 0 -0.047774575967421913 0.00052510759835839834 0 -0.044198283507047124 -0.00018688708308539062 0 -0.043718626208360284 -0.0021234669239118009 0 -0.04218090376258489 -0.00057200532076230267 0 -0.044198283507047124 -0.00018688708308539062 0 -0.043718626208360284 -0.0021234669239118009 0 -0.04218090376258489 -0.00057200532076230267 0 -0.040439334062092915 -0.0021332216219305186 0 -0.04317138984173105 0.0013805293645411316 0 -0.04218090376258489 -0.00057200532076230267 0 -0.044198283507047124 -0.00018688708308539062 0 -0.037987291888437184 0.0026842934148147328 0 -0.04317138984173105 0.0013805293645411316 0 -0.039995152240194266 3.6219423905304793e-05 0 -0.04317138984173105 0.0013805293645411316 0 -0.04218090376258489 -0.00057200532076230267 0 -0.039995152240194266 3.6219423905304793e-05 0 -0.037987291888437184 0.0026842934148147328 0 -0.039995152240194266 3.6219423905304793e-05 0 -0.037388168536703216 -0.0029126228608365445 0 -0.04218090376258489 -0.00057200532076230267 0 -0.040439334062092915 -0.0021332216219305186 0 -0.039995152240194266 3.6219423905304793e-05 0 -0.040439334062092915 -0.0021332216219305186 0 -0.039995152240194266 3.6219423905304793e-05 0 -0.037388168536703216 -0.0029126228608365445 0 -0.048786071169631205 0.010607845080057219 0 -0.046090624548188033 0.00070104694241107917 0 -0.055289045893101733 0.010319178858392663 0 -0.054118746454241931 0.0085738721601007484 0 -0.054808617993594669 0.0058827974534998943 0 -0.054118746454241931 0.0085738721601007484 0 -0.052936196929013427 0.0093917032938119864 0 -0.052528407630314099 0.008105789132665641 0 -0.053866375734703674 0.010613237031415276 0 -0.054118746454241931 0.0085738721601007484 0 -0.052936196929013427 0.0093917032938119864 0 -0.054118746454241931 0.0085738721601007484 0 -0.052528407630314099 0.008105789132665641 0 -0.053654590866772718 0.0073995073879899583 0 -0.052528407630314099 0.008105789132665641 0 -0.053654590866772718 0.0073995073879899583 0 -0.053493580440029359 0.0063735507579198002 0 -0.054118746454241931 0.0085738721601007484 0 -0.053654590866772718 0.0073995073879899583 0 -0.054808617993594669 0.0058827974534998943 0 -0.053654590866772718 0.0073995073879899583 0 -0.053493580440029359 0.0063735507579198002 0 -0.054808617993594669 0.0058827974534998943 0 -0.046090624548188033 0.00070104694241107917 0 -0.043014827594597072 -0.0045555188097570589 0 -0.054808617993594669 0.0058827974534998943 0 -0.052627285760734784 0.00226843763840011 0 -0.053686592718605826 -0.0020470700970792953 0 -0.037388168536703216 -0.0029126228608365445 0 -0.039117244335778761 -0.0054050850244416627 0 -0.037632164114630183 -0.0073032800690828615 0 -0.053493580440029359 0.0063735507579198002 0 -0.054808617993594669 0.0058827974534998943 0 -0.052627285760734784 0.00226843763840011 0 -0.052627285760734784 0.00226843763840011 0 -0.049659353458939369 0.0042090383663235843 0 -0.050060584916835779 -0.003879015999938307 0 -0.053493580440029359 0.0063735507579198002 0 -0.052627285760734784 0.00226843763840011 0 -0.049659353458939369 0.0042090383663235843 0 -0.040482383201349635 -0.005607497247919843 0 -0.039501369995912951 -0.0052921389130681715 0 -0.038589280220908309 -0.0075669777598620178 0 -0.039117244335778761 -0.0054050850244416627 0 -0.039260007116352004 -0.0056616434476573288 0 -0.039117244335778761 -0.0054050850244416627 0 -0.039260007116352004 -0.0056616434476573288 0 -0.037632164114630183 -0.0073032800690828615 0 -0.043718626208360284 -0.0021234669239118009 0 -0.040439334062092915 -0.0021332216219305186 0 -0.039117244335778761 -0.0054050850244416627 0 -0.038902454740516686 -0.0074703171364217513 0 -0.038679902949572395 -0.0074464993038345067 0 -0.039290287355228638 -0.0078120264374114748 0 -0.040439334062092915 -0.0021332216219305186 0 -0.037388168536703216 -0.0029126228608365445 0 -0.039117244335778761 -0.0054050850244416627 0 -0.043332514214168408 0.0065188203024908603 0 -0.048248196531313729 0.0066980020805556479 0 -0.046250378972073181 0.0083023250522210983 0 -0.048206235983407238 0.0094172694897990336 0 -0.049916963807377333 0.007830720799349428 0 -0.048533582884918991 0.011211132708539965 0 -0.048206235983407238 0.0094172694897990336 0 -0.049945719121572196 0.0099700719707546577 0 -0.048206235983407238 0.0094172694897990336 0 -0.049945719121572196 0.0099700719707546577 0 -0.049916963807377333 0.007830720799349428 0 -0.052528407630314099 0.008105789132665641 0 -0.053493580440029359 0.0063735507579198002 0 -0.049916963807377333 0.007830720799349428 0 -0.053213611514532119 0.0064201937103030536 0 -0.048248196531313729 0.0066980020805556479 0 -0.052528407630314099 0.008105789132665641 0 -0.049916963807377333 0.007830720799349428 0 -0.051606055548056841 0.0093579579989940542 0 -0.049945719121572196 0.0099700719707546577 0 -0.049916963807377333 0.007830720799349428 0 -0.051606055548056841 0.0093579579989940542 0 -0.052549745671245929 0.010573831899311685 0 -0.052936196929013427 0.0093917032938119864 0 -0.051606055548056841 0.0093579579989940542 0 -0.052936196929013427 0.0093917032938119864 0 -0.052528407630314099 0.008105789132665641 0 -0.051606055548056841 0.0093579579989940542 0 -0.053493580440029359 0.0063735507579198002 0 -0.045909596246853507 0.0055969052708765843 0 -0.049659353458939369 0.0042090383663235843 0 -0.049659353458939369 0.0042090383663235843 0 -0.046748908578301863 0.0037516929465599641 0 -0.046648826445261631 0.0016745292122334616 0 -0.045909596246853507 0.0055969052708765843 0 -0.049659353458939369 0.0042090383663235843 0 -0.046748908578301863 0.0037516929465599641 0 -0.041572569118142444 0.0051419457663611457 0 -0.045909596246853507 0.0055969052708765843 0 -0.04498009733788029 0.003551494576004116 0 -0.043219317720791808 0.002343162894507248 0 -0.04498009733788029 0.003551494576004116 0 -0.046648826445261631 0.0016745292122334616 0 -0.045909596246853507 0.0055969052708765843 0 -0.046748908578301863 0.0037516929465599641 0 -0.04498009733788029 0.003551494576004116 0 -0.046748908578301863 0.0037516929465599641 0 -0.04498009733788029 0.003551494576004116 0 -0.046648826445261631 0.0016745292122334616 0 -0.043290277225648911 -0.0012692156574202649 0 -0.045410129324350158 -0.00010250075198068205 0 -0.04687699272126563 -0.0018799563146992279 0 -0.043219317720791808 0.002343162894507248 0 -0.045410129324350158 -0.00010250075198068205 0 -0.046648826445261631 0.0016745292122334616 0 -0.043219317720791808 0.002343162894507248 0 -0.043290277225648911 -0.0012692156574202649 0 -0.045410129324350158 -0.00010250075198068205 0 -0.048086459742529487 -7.0712852413888061e-05 0 -0.04687699272126563 -0.0018799563146992279 0 -0.05034522948569467 -0.00017779541517745561 0 -0.046084676089156333 -0.002202428198979099 0 -0.047592276097455796 -0.0028401097159300812 0 -0.049659353458939369 0.0042090383663235843 0 -0.048086459742529487 -7.0712852413888061e-05 0 -0.046648826445261631 0.0016745292122334616 0 -0.049659353458939369 0.0042090383663235843 0 -0.048086459742529487 -7.0712852413888061e-05 0 -0.05034522948569467 -0.00017779541517745561 0 -0.049876786400119437 0.0037495359381710387 0 -0.047592276097455796 -0.0028401097159300812 0 -0.045410129324350158 -0.00010250075198068205 0 -0.048086459742529487 -7.0712852413888061e-05 0 -0.04687699272126563 -0.0018799563146992279 0 -0.045410129324350158 -0.00010250075198068205 0 -0.048086459742529487 -7.0712852413888061e-05 0 -0.046648826445261631 0.0016745292122334616 0 -0.04553914966931645 -0.0032760230369595486 0 -0.044952684429273686 -0.0028033307425814249 0 -0.046158809199288199 -0.0021782637768304829 0 -0.04553914966931645 -0.0032760230369595486 0 -0.044952684429273686 -0.0028033307425814249 0 -0.044557971203057052 -0.0036396610975675935 0 -0.046084676089156333 -0.002202428198979099 0 -0.043765929951585812 -0.0033095578724532918 0 -0.044952684429273686 -0.0028033307425814249 0 -0.044557971203057052 -0.0036396610975675935 0 -0.043555299198813131 -0.003334777378962882 0 -0.043290277225648911 -0.0012692156574202649 0 -0.04687699272126563 -0.0018799563146992279 0 -0.043555299198813131 -0.003334777378962882 0 -0.044557971203057052 -0.0036396610975675935 0 -0.043555299198813131 -0.003334777378962882 0 -0.044056558492428857 -0.00415179457777929 0 -0.040322122967286871 -0.0066574041915150144 0 -0.039467275877505335 -0.0067291763892639387 0 -0.039794766660032552 -0.0072012555653065318 0 -0.040322122967286871 -0.0066574041915150144 0 -0.039794766660032552 -0.0072012555653065318 0 -0.040923276690905425 -0.007489749843509255 0 -0.039467275877505335 -0.0067291763892639387 0 -0.039117066217753182 -0.007303376692554259 0 -0.039794766660032552 -0.0072012555653065318 0 -0.038771789483380184 -0.0069957666077365031 0 -0.039467275877505335 -0.0067291763892639387 0 -0.039117066217753182 -0.007303376692554259 0 -0.039290287355228638 -0.0078120264374114748 0 -0.039117066217753182 -0.007303376692554259 0 -0.039794766660032552 -0.0072012555653065318 0 -0.038902454740516686 -0.0074703171364217513 0 -0.039290287355228638 -0.0078120264374114748 0 -0.039117066217753182 -0.007303376692554259 0 -0.038594214471903379 -0.0072165758307100973 0 -0.043014827594597072 -0.0045555188097570589 0 -0.039290287355228638 -0.0078120264374114748 0 -0.039794766660032552 -0.0072012555653065318 0 -0.040923276690905425 -0.007489749843509255 0 -0.052627285760734784 0.00226843763840011 0 -0.053686592718605826 -0.0020470700970792953 0 -0.050060584916835779 -0.003879015999938307 0 -0.042384209093186742 -0.0061442871292937329 0 -0.042196073467457289 -0.0063662786000650718 0 -0.041373999180939425 -0.0061272891677023843 0 -0.043014827594597072 -0.0045555188097570589 0 -0.047592276097455796 -0.0028401097159300812 0 -0.043014827594597072 -0.0045555188097570589 0 -0.041710401841456544 -0.0066762811859999906 0 -0.040322122967286871 -0.0066574041915150144 0 -0.040923276690905425 -0.007489749843509255 0 -0.041373999180939425 -0.0061272891677023843 0 -0.047592276097455796 -0.0028401097159300812 0 -0.040372203290064156 -0.0058557578975271434 0 -0.04553914966931645 -0.0032760230369595486 0 -0.046158809199288199 -0.0021782637768304829 0 -0.04660239967423338 -0.0042664407204690237 0 -0.041373999180939425 -0.0061272891677023843 0 -0.039988659595933639 -0.005996011727448766 0 -0.041105352551814085 -0.0049662892407723166 0 -0.042196073467457289 -0.0063662786000650718 0 -0.041373999180939425 -0.0061272891677023843 0 -0.041105352551814085 -0.0049662892407723166 0 -0.038553226186295274 -0.0065240276538582696 0 -0.039467275877505335 -0.0067291763892639387 0 -0.039988659595933639 -0.005996011727448766 0 -0.038553226186295274 -0.0065240276538582696 0 -0.039988659595933639 -0.005996011727448766 0 -0.039072270439825932 -0.0054060927631734493 0 -0.040322122967286871 -0.0066574041915150144 0 -0.041373999180939425 -0.0061272891677023843 0 -0.039988659595933639 -0.005996011727448766 0 -0.040322122967286871 -0.0066574041915150144 0 -0.039467275877505335 -0.0067291763892639387 0 -0.039988659595933639 -0.005996011727448766 0 -0.036784882799019689 -0.006825366633511255 0 -0.036806105716690109 -0.0069946577251587642 0 -0.037068770863687352 -0.0067912671389171609 0 -0.039988659595933639 -0.005996011727448766 0 -0.041105352551814085 -0.0049662892407723166 0 -0.039072270439825932 -0.0054060927631734493 0 -0.040372203290064156 -0.0058557578975271434 0 -0.037796173491355771 -0.0061801650816577063 0 -0.036806105716690109 -0.0069946577251587642 0 -0.037134529372719195 -0.0069651998938494511 0 -0.037068770863687352 -0.0067912671389171609 0 -0.037761313230472209 -0.0082999723313724599 0 -0.037623223857296446 -0.0078033633019506179 0 -0.038324335556449672 -0.0077633294177123606 0 -0.040372203290064156 -0.0058557578975271434 0 -0.034090089360625873 -0.0093591983906374764 0 -0.034090089360625873 -0.0093591983906374764 0 -0.030589730058002959 -0.012007534950088123 0 -0.034090089360625873 -0.0093591983906374764 0 -0.034520702749767485 -0.010398807550989391 0 -0.03074469280376357 -0.012985912307669085 0 -0.031194691085030021 -0.013013590325697585 0 -0.03087745441874545 -0.012726655999152263 0 -0.03074469280376357 -0.012985912307669085 0 -0.03067303270398293 -0.012613536340882041 0 -0.03087745441874545 -0.012726655999152263 0 -0.034090089360625873 -0.0093591983906374764 0 -0.034471488461625899 -0.0080974102086068117 0 -0.030160322861036658 -0.0096448585354948733 0 -0.031215975671701097 -0.010401068566304903 0 -0.030403301415452697 -0.010958462824266159 0 -0.030160322861036658 -0.0096448585354948733 0 -0.031215975671701097 -0.010401068566304903 0 -0.032074555722427109 -0.0095001680504899471 0 -0.043978750977514532 -0.0050769612874686119 0 -0.043030090976512496 -0.0056017248509945758 0 -0.043386647678438514 -0.0049936194863532219 0 -0.044826925581316623 -0.004869067017308752 0 -0.043807252926504225 -0.0061870982211329924 0 -0.043386647678438514 -0.0049936194863532219 0 -0.044056558492428857 -0.00415179457777929 0 -0.044626057107154046 -0.0046841959878050092 0 -0.043555299198813131 -0.003334777378962882 0 -0.043386647678438514 -0.0049936194863532219 0 -0.044056558492428857 -0.00415179457777929 0 -0.044557971203057052 -0.0036396610975675935 0 -0.044056558492428857 -0.00415179457777929 0 -0.044626057107154046 -0.0046841959878050092 0 -0.043030090976512496 -0.0056017248509945758 0 -0.040106002184170347 -0.0084862428568987062 0 -0.040372203290064156 -0.0058557578975271434 0 -0.043030090976512496 -0.0056017248509945758 0 -0.04553914966931645 -0.0032760230369595486 0 -0.04660239967423338 -0.0042664407204690237 0 -0.044555438262376991 -0.0044784507284653359 0 -0.037761313230472209 -0.0082999723313724599 0 -0.038808868422321403 -0.0082066765190291283 0 -0.038324335556449672 -0.0077633294177123606 0 -0.045898273620243173 -0.0029337021895757989 0 -0.043030090976512496 -0.0056017248509945758 0 -0.04553914966931645 -0.0032760230369595486 0 -0.044557971203057052 -0.0036396610975675935 0 -0.044626057107154046 -0.0046841959878050092 0 -0.036935197255830797 -0.011396535323553345 0 -0.031867449155368828 -0.015309330204203045 0 -0.031194691085030021 -0.013013590325697585 0 -0.031791870697900966 -0.012978114298692247 0 -0.031100280712926268 -0.012523267614286798 0 -0.031194691085030021 -0.013013590325697585 0 -0.031100280712926268 -0.012523267614286798 0 -0.03087745441874545 -0.012726655999152263 0 -0.038808868422321403 -0.0082066765190291283 0 -0.038324335556449672 -0.0077633294177123606 0 -0.039020561090373961 -0.0077290377144597858 0 -0.034520702749767485 -0.010398807550989391 0 -0.036935197255830797 -0.011396535323553345 0 -0.034710280643803333 -0.017951440709546573 0 -0.034490496124072199 -0.017970386666207434 0 -0.034570732931938519 -0.017447340359612991 0 -0.038808868422321403 -0.0082066765190291283 0 -0.039020561090373961 -0.0077290377144597858 0 -0.039119885491326507 -0.0078152006079595885 0 -0.0392510747649569 -0.011651135397754343 0 -0.040106002184170347 -0.0084862428568987062 0 -0.0392510747649569 -0.011651135397754343 0 -0.036935197255830797 -0.011396535323553345 0 -0.040102411969376861 -0.011410196117860731 0 -0.03846649947777394 -0.011511607206104868 0 -0.039369770707621397 -0.012324673799364331 0 -0.036935197255830797 -0.011396535323553345 0 -0.040106002184170347 -0.0084862428568987062 0 -0.034490496124072199 -0.017970386666207434 0 -0.034570732931938519 -0.017447340359612991 0 -0.033513504061027204 -0.017158775744120492 0 -0.034559596190139062 -0.016915161007214349 0 -0.034570732931938519 -0.017447340359612991 0 -0.033513504061027204 -0.017158775744120492 0 -0.034559596190139062 -0.016915161007214349 0 -0.033513504061027204 -0.017158775744120492 0 -0.034101237184272423 -0.016426939661972017 0 -0.033513504061027204 -0.017158775744120492 0 -0.033373279836292138 -0.016429190168936136 0 -0.034101237184272423 -0.016426939661972017 0 -0.033373279836292138 -0.016429190168936136 0 -0.033561595754061389 -0.016096976796715918 0 -0.033022532397516971 -0.015985424690091111 0 -0.033373279836292138 -0.016429190168936136 0 -0.033561595754061389 -0.016096976796715918 0 -0.034101237184272423 -0.016426939661972017 0 -0.035016631901425725 -0.016311216711242606 0 -0.034559596190139062 -0.016915161007214349 0 -0.034101237184272423 -0.016426939661972017 0 -0.031101218914715668 -0.011544938341611983 0 -0.030403301415452697 -0.010958462824266159 0 -0.030773105177427294 -0.012441828547931981 0 -0.030589730058002959 -0.012007534950088123 0 -0.030715302161710274 -0.012310056340612172 0 -0.031101218914715668 -0.011544938341611983 0 -0.032102114275864173 -0.012444475529891507 0 -0.031810999941714081 -0.011270124334218744 0 -0.031215975671701097 -0.010401068566304903 0 -0.031101218914715668 -0.011544938341611983 0 -0.031810999941714081 -0.011270124334218744 0 -0.031215975671701097 -0.010401068566304903 0 -0.031101218914715668 -0.011544938341611983 0 -0.030403301415452697 -0.010958462824266159 0 -0.031100280712926268 -0.012523267614286798 0 -0.030734673338588765 -0.01254225994802155 0 -0.030495875361572094 -0.012569286811959573 0 -0.03067303270398293 -0.012613536340882041 0 -0.03087745441874545 -0.012726655999152263 0 -0.030734673338588765 -0.01254225994802155 0 -0.03067303270398293 -0.012613536340882041 0 -0.030734673338588765 -0.01254225994802155 0 -0.030773105177427294 -0.012441828547931981 0 -0.031100280712926268 -0.012523267614286798 0 -0.03087745441874545 -0.012726655999152263 0 -0.030734673338588765 -0.01254225994802155 0 -0.030734673338588765 -0.01254225994802155 0 -0.030495875361572094 -0.012569286811959573 0 -0.030773105177427294 -0.012441828547931981 0 -0.031867449155368828 -0.015309330204203045 0 -0.031695902461427262 -0.014325663841507314 0 -0.033513504061027204 -0.017158775744120492 0 -0.033373279836292138 -0.016429190168936136 0 -0.032569180746949936 -0.016146962899246307 0 -0.033373279836292138 -0.016429190168936136 0 -0.033022532397516971 -0.015985424690091111 0 -0.032569180746949936 -0.016146962899246307 0 -0.032608081273471569 -0.015412489946955418 0 -0.033022532397516971 -0.015985424690091111 0 -0.032569180746949936 -0.016146962899246307 0 -0.032175356519582254 -0.014415568939849681 0 -0.030773105177427294 -0.012441828547931981 0 -0.032102114275864173 -0.012444475529891507 0 -0.031101218914715668 -0.011544938341611983 0 -0.030773105177427294 -0.012441828547931981 0 -0.032102114275864173 -0.012444475529891507 0 -0.032175356519582254 -0.014415568939849681 0 -0.030495875361572094 -0.012569286811959573 0 -0.030773105177427294 -0.012441828547931981 0 -0.032175356519582254 -0.014415568939849681 0 -0.032102114275864173 -0.012444475529891507 0 -0.033319470553943298 -0.012772289246910951 0 -0.033319470553943298 -0.012772289246910951 0 -0.032964293863478114 -0.011240671954899046 0 -0.034508892694407635 -0.011012048376686829 0 -0.032102114275864173 -0.012444475529891507 0 -0.033319470553943298 -0.012772289246910951 0 -0.032964293863478114 -0.011240671954899046 0 -0.032964293863478114 -0.011240671954899046 0 -0.0322223714018465 -0.010516660768875573 0 -0.032994869412420989 -0.010225207356776123 0 -0.032964293863478114 -0.011240671954899046 0 -0.032994869412420989 -0.010225207356776123 0 -0.033893680165915041 -0.010138411053874009 0 -0.032102114275864173 -0.012444475529891507 0 -0.032964293863478114 -0.011240671954899046 0 -0.031810999941714081 -0.011270124334218744 0 -0.032964293863478114 -0.011240671954899046 0 -0.031810999941714081 -0.011270124334218744 0 -0.0322223714018465 -0.010516660768875573 0 -0.031215975671701097 -0.010401068566304903 0 -0.031810999941714081 -0.011270124334218744 0 -0.0322223714018465 -0.010516660768875573 0 -0.031215975671701097 -0.010401068566304903 0 -0.0322223714018465 -0.010516660768875573 0 -0.032074555722427109 -0.0095001680504899471 0 -0.0322223714018465 -0.010516660768875573 0 -0.032074555722427109 -0.0095001680504899471 0 -0.032994869412420989 -0.010225207356776123 0 -0.032074555722427109 -0.0095001680504899471 0 -0.032994869412420989 -0.010225207356776123 0 -0.033781350137279842 -0.0090870602711974509 0 -0.034471488461625899 -0.0080974102086068117 0 -0.035596506588004402 -0.008101285075108532 0 -0.032994869412420989 -0.010225207356776123 0 -0.033781350137279842 -0.0090870602711974509 0 -0.033893680165915041 -0.010138411053874009 0 -0.03705975115684728 -0.0072970502135843935 0 -0.037379069310722227 -0.0067692997600844358 0 -0.037244984307462953 -0.0069943967524610387 0 -0.037134529372719195 -0.0069651998938494511 0 -0.037379069310722227 -0.0067692997600844358 0 -0.037244984307462953 -0.0069943967524610387 0 -0.037134529372719195 -0.0069651998938494511 0 -0.037379069310722227 -0.0067692997600844358 0 -0.037068770863687352 -0.0067912671389171609 0 -0.037615189667736526 -0.0066080799252029058 0 -0.037796173491355771 -0.0061801650816577063 0 -0.036693933504839966 -0.0078304144864181219 0 -0.036124479961091652 -0.0083242642009645658 0 -0.036737881368171271 -0.0076643198727317334 0 -0.036693933504839966 -0.0078304144864181219 0 -0.036124479961091652 -0.0083242642009645658 0 -0.036524307347964115 -0.0082088079631016959 0 -0.036182070734534444 -0.0082478371201520229 0 -0.035596506588004402 -0.008101285075108532 0 -0.03705975115684728 -0.0072970502135843935 0 -0.036693933504839966 -0.0078304144864181219 0 -0.036737881368171271 -0.0076643198727317334 0 -0.03705975115684728 -0.0072970502135843935 0 -0.036737881368171271 -0.0076643198727317334 0 -0.037244984307462953 -0.0069943967524610387 0 -0.036124479961091652 -0.0083242642009645658 0 -0.036737881368171271 -0.0076643198727317334 0 -0.037244984307462953 -0.0069943967524610387 0 -0.036124479961091652 -0.0083242642009645658 0 -0.033781350137279842 -0.0090870602711974509 0 -0.034815259693386238 -0.0097074828136126615 0 -0.033781350137279842 -0.0090870602711974509 0 -0.033893680165915041 -0.010138411053874009 0 -0.034815259693386238 -0.0097074828136126615 0 -0.036124479961091652 -0.0083242642009645658 0 -0.034815259693386238 -0.0097074828136126615 0 -0.035737484348510283 -0.009719716735468802 0 -0.035737484348510283 -0.009719716735468802 0 -0.034508892694407635 -0.011012048376686829 0 -0.036189281122307834 -0.010480653054468032 0 -0.034815259693386238 -0.0097074828136126615 0 -0.035737484348510283 -0.009719716735468802 0 -0.034508892694407635 -0.011012048376686829 0 -0.034395556719057453 -0.012800870503709727 0 -0.035126254548802166 -0.013632675363815369 0 -0.036189281122307834 -0.010480653054468032 0 -0.032964293863478114 -0.011240671954899046 0 -0.033893680165915041 -0.010138411053874009 0 -0.034508892694407635 -0.011012048376686829 0 -0.033893680165915041 -0.010138411053874009 0 -0.034815259693386238 -0.0097074828136126615 0 -0.034508892694407635 -0.011012048376686829 0 -0.034395556719057453 -0.012800870503709727 0 -0.033319470553943298 -0.012772289246910951 0 -0.034508892694407635 -0.011012048376686829 0 -0.034395556719057453 -0.012800870503709727 0 -0.034508892694407635 -0.011012048376686829 0 -0.036189281122307834 -0.010480653054468032 0 -0.035126254548802166 -0.013632675363815369 0 -0.036384270013730492 -0.013155111175207054 0 -0.036189281122307834 -0.010480653054468032 0 -0.036113397896787351 -0.012181448634841678 0 -0.036139922588461125 -0.010588886923715011 0 -0.035850376631307156 -0.011273013510283066 0 -0.036618443501815263 -0.010449853070565951 0 -0.036189281122307834 -0.010480653054468032 0 -0.035850376631307156 -0.011273013510283066 0 -0.036817566488942723 -0.011096954604788547 0 -0.036618443501815263 -0.010449853070565951 0 -0.036618443501815263 -0.010449853070565951 0 -0.036189281122307834 -0.010480653054468032 0 -0.036869565317823517 -0.0095078309362977009 0 -0.032986506695442508 -0.010675650652950893 0 -0.038371650473195344 -0.0098705615701310083 0 -0.013122414602041771 -0.008487423147139685 0 -0.012968134455704623 -0.0074701280050762072 0 -0.013266275633326814 -0.0081425120152173094 0 -0.036976108430014122 -0.010643604232977114 0 -0.037013350157887454 -0.010535252169950495 0 -0.037454954729862815 -0.009888865692973375 0 -0.012735521122476922 -0.0089168654178801432 0 -0.013122414602041771 -0.008487423147139685 0 -0.012968134455704623 -0.0074701280050762072 0 -0.029081370215885912 -0.01050560272744566 0 -0.024626700542344913 -0.0086044986062617512 0 -0.037013350157887454 -0.010535252169950495 0 -0.037321641571326267 -0.0097375675605325899 0 -0.037454954729862815 -0.009888865692973375 0 -0.037561596073715932 -0.011065200588104233 0 -0.037208008706139224 -0.010301283512183288 0 -0.037321641571326267 -0.0097375675605325899 0 -0.037561596073715932 -0.011065200588104233 0 -0.037017595067728615 -0.010509647327232188 0 -0.037208008706139224 -0.010301283512183288 0 -0.037017595067728615 -0.010509647327232188 0 -0.037208008706139224 -0.010301283512183288 0 -0.036997483341217746 -0.0099461006455362905 0 -0.036817566488942723 -0.011096954604788547 0 -0.037561596073715932 -0.011065200588104233 0 -0.037017595067728615 -0.010509647327232188 0 -0.036817566488942723 -0.011096954604788547 0 -0.036618443501815263 -0.010449853070565951 0 -0.037017595067728615 -0.010509647327232188 0 -0.036618443501815263 -0.010449853070565951 0 -0.037017595067728615 -0.010509647327232188 0 -0.036997483341217746 -0.0099461006455362905 0 -0.036618443501815263 -0.010449853070565951 0 -0.036997483341217746 -0.0099461006455362905 0 -0.036869565317823517 -0.0095078309362977009 0 -0.03708116780621417 -0.0095663018029210813 0 -0.036997483341217746 -0.0099461006455362905 0 -0.036869565317823517 -0.0095078309362977009 0 -0.03708116780621417 -0.0095663018029210813 0 -0.036997483341217746 -0.0099461006455362905 0 -0.037321641571326267 -0.0097375675605325899 0 -0.037208008706139224 -0.010301283512183288 0 -0.036997483341217746 -0.0099461006455362905 0 -0.037321641571326267 -0.0097375675605325899 0 -0.037321641571326267 -0.0097375675605325899 0 -0.037454954729862815 -0.009888865692973375 0 -0.037447382415481512 -0.0090268443493607946 0 -0.037321641571326267 -0.0097375675605325899 0 -0.037137249584527035 -0.0091211442831264419 0 -0.037447382415481512 -0.0090268443493607946 0 -0.024626700542344913 -0.0086044986062617512 0 -0.025361647497328728 -0.0075402877058301952 0 -0.03708116780621417 -0.0095663018029210813 0 -0.037321641571326267 -0.0097375675605325899 0 -0.037137249584527035 -0.0091211442831264419 0 -0.037137249584527035 -0.0091211442831264419 0 -0.036869565317823517 -0.0095078309362977009 0 -0.036817290587470484 -0.0086139024799382763 0 -0.03708116780621417 -0.0095663018029210813 0 -0.037137249584527035 -0.0091211442831264419 0 -0.036869565317823517 -0.0095078309362977009 0 -0.037137249584527035 -0.0091211442831264419 0 -0.036817290587470484 -0.0086139024799382763 0 -0.037079989253438528 -0.0085442432769888745 0 -0.037137249584527035 -0.0091211442831264419 0 -0.037079989253438528 -0.0085442432769888745 0 -0.037447382415481512 -0.0090268443493607946 0 -0.035737484348510283 -0.009719716735468802 0 -0.036189281122307834 -0.010480653054468032 0 -0.036514186631325919 -0.0090987522767136883 0 -0.036124479961091652 -0.0083242642009645658 0 -0.035737484348510283 -0.009719716735468802 0 -0.036514186631325919 -0.0090987522767136883 0 -0.036869565317823517 -0.0095078309362977009 0 -0.036514186631325919 -0.0090987522767136883 0 -0.036817290587470484 -0.0086139024799382763 0 -0.036189281122307834 -0.010480653054468032 0 -0.036869565317823517 -0.0095078309362977009 0 -0.036514186631325919 -0.0090987522767136883 0 -0.036514186631325919 -0.0090987522767136883 0 -0.036817290587470484 -0.0086139024799382763 0 -0.036524307347964115 -0.0082088079631016959 0 -0.036124479961091652 -0.0083242642009645658 0 -0.036514186631325919 -0.0090987522767136883 0 -0.036524307347964115 -0.0082088079631016959 0 -0.036693933504839966 -0.0078304144864181219 0 -0.036524307347964115 -0.0082088079631016959 0 -0.036562068196800593 -0.0081691134487053355 0 -0.036524307347964115 -0.0082088079631016959 0 -0.036562068196800593 -0.0081691134487053355 0 -0.03665733073586093 -0.0082460778965538443 0 -0.03688578546144948 -0.0077494056510921394 0 -0.037085658599134277 -0.0077654843812915864 0 -0.037182308907171918 -0.0073045281934066572 0 -0.03727201560413225 -0.0073753751410400694 0 -0.037240017521737633 -0.0072574359300553049 0 -0.036562068196800593 -0.0081691134487053355 0 -0.036714348644997667 -0.0081280703563009447 0 -0.036664186744050017 -0.008037166943450972 0 -0.036562068196800593 -0.0081691134487053355 0 -0.036714348644997667 -0.0081280703563009447 0 -0.03665733073586093 -0.0082460778965538443 0 -0.036714348644997667 -0.0081280703563009447 0 -0.03665733073586093 -0.0082460778965538443 0 -0.036843862397781361 -0.0082471228110848477 0 -0.036817290587470484 -0.0086139024799382763 0 -0.036524307347964115 -0.0082088079631016959 0 -0.03665733073586093 -0.0082460778965538443 0 -0.036817290587470484 -0.0086139024799382763 0 -0.03665733073586093 -0.0082460778965538443 0 -0.036843862397781361 -0.0082471228110848477 0 -0.036817290587470484 -0.0086139024799382763 0 -0.037079989253438528 -0.0085442432769888745 0 -0.036843862397781361 -0.0082471228110848477 0 -0.037079989253438528 -0.0085442432769888745 0 -0.03699378954986976 -0.0081828669716083238 0 -0.037225411457745362 -0.0083901690213639447 0 -0.037079989253438528 -0.0085442432769888745 0 -0.03699378954986976 -0.0081828669716083238 0 -0.036843862397781361 -0.0082471228110848477 0 -0.03699378954986976 -0.0081828669716083238 0 -0.036843862397781361 -0.0082471228110848477 0 -0.036854153677899591 -0.0080977696300412964 0 -0.03699378954986976 -0.0081828669716083238 0 -0.036854153677899591 -0.0080977696300412964 0 -0.036924893302699845 -0.0080435773776747297 0 -0.036714348644997667 -0.0081280703563009447 0 -0.036843862397781361 -0.0082471228110848477 0 -0.036854153677899591 -0.0080977696300412964 0 -0.036714348644997667 -0.0081280703563009447 0 -0.036854153677899591 -0.0080977696300412964 0 -0.03676794583058169 -0.0080297374604219301 0 -0.03676794583058169 -0.0080297374604219301 0 -0.03675570090737116 -0.0079186309425135683 0 -0.036664186744050017 -0.008037166943450972 0 -0.03676794583058169 -0.0080297374604219301 0 -0.036830029427820966 -0.0080125385136476934 0 -0.03675570090737116 -0.0079186309425135683 0 -0.036854153677899591 -0.0080977696300412964 0 -0.03676794583058169 -0.0080297374604219301 0 -0.036830029427820966 -0.0080125385136476934 0 -0.036854153677899591 -0.0080977696300412964 0 -0.036830029427820966 -0.0080125385136476934 0 -0.036924893302699845 -0.0080435773776747297 0 -0.036830029427820966 -0.0080125385136476934 0 -0.036661107568302202 -0.0078351504982483427 0 -0.036847323341338868 -0.0079076500852339245 0 -0.036830029427820966 -0.0080125385136476934 0 -0.036847323341338868 -0.0079076500852339245 0 -0.036924893302699845 -0.0080435773776747297 0 -0.031225020505166075 -0.0031782735104460757 0 -0.030797769070475087 -0.0051978343945087617 0 -0.036830029427820966 -0.0080125385136476934 0 -0.036661107568302202 -0.0078351504982483427 0 -0.036613375818004695 -0.0078758106117734258 0 -0.037333327072991758 -0.0085499256586183663 0 -0.035566162846925313 -0.0061345571039195194 0 -0.031225020505166075 -0.0031782735104460757 0 -0.03224389943389791 -0.0029182217699276788 0 -0.037530701922037453 -0.0069165943626967518 0 -0.037417990107145575 -0.0068073818553537812 0 -0.037346079850347672 -0.0069014906883067264 0 -0.036661107568302202 -0.0078351504982483427 0 -0.03663930033165648 -0.007844097869140261 0 -0.036613375818004695 -0.0078758106117734258 0 -0.03224389943389791 -0.0029182217699276788 0 -0.035566162846925313 -0.0061345571039195194 0 -0.03224389943389791 -0.0029182217699276788 0 -0.034647807517641183 -0.0039685105424423555 0 -0.035566162846925313 -0.0061345571039195194 0 -0.034647807517641183 -0.0039685105424423555 0 -0.034077744442291037 -0.0035374482738497609 0 -0.034326819557039832 -0.0032292631595037184 0 -0.034849913657625575 -0.0037009191106957507 0 -0.037215890582050902 -0.0067860510403335329 0 -0.037346079850347672 -0.0069014906883067264 0 -0.037264529842454749 -0.0070712267086657666 0 -0.037380195951639182 -0.0070057996318199948 0 -0.037264529842454749 -0.0070712267086657666 0 -0.037260877548089169 -0.0072374465406174968 0 -0.037175903465064608 -0.0092339014822166304 0 -0.03298956274681656 -0.0002431547425035992 0 -0.035566162846925313 -0.0061345571039195194 0 -0.037085658599134277 -0.0077654843812915864 0 -0.037215890582050902 -0.0067860510403335329 0 -0.037193301270942156 -0.007153619678801547 0 -0.037175020865926285 -0.0066080865514636291 0 -0.037193301270942156 -0.007153619678801547 0 -0.037174209077852106 -0.0072464093039797377 0 -0.037052322524065963 -0.0072806494500329911 0 -0.037530701922037453 -0.0069165943626967518 0 -0.037346079850347672 -0.0069014906883067264 0 -0.037264529842454749 -0.0070712267086657666 0 -0.037417990107145575 -0.0068073818553537812 0 -0.037215890582050902 -0.0067860510403335329 0 -0.037346079850347672 -0.0069014906883067264 0 -0.034647807517641183 -0.0039685105424423555 0 -0.037064323489382711 -0.005184681538069686 0 -0.035566162846925313 -0.0061345571039195194 0 -0.037494977968876977 -0.0066476377334730753 0 -0.037215890582050902 -0.0067860510403335329 0 -0.037264529842454749 -0.0070712267086657666 0 -0.037193301270942156 -0.007153619678801547 0 -0.037174209077852106 -0.0072464093039797377 0 -0.037219858159687286 -0.0072053889641831006 0 -0.037274138052122888 -0.0072543365029530205 0 -0.037219858159687286 -0.0072053889641831006 0 -0.037274138052122888 -0.0072543365029530205 0 -0.037258507063628987 -0.0071792723580296576 0 -0.037193301270942156 -0.007153619678801547 0 -0.037174209077852106 -0.0072464093039797377 0 -0.037219858159687286 -0.0072053889641831006 0 -0.037347899667832724 -0.0071441234062877453 0 -0.037274138052122888 -0.0072543365029530205 0 -0.037258507063628987 -0.0071792723580296576 0 -0.037193301270942156 -0.007153619678801547 0 -0.037219858159687286 -0.0072053889641831006 0 -0.037258507063628987 -0.0071792723580296576 0 -0.03727201560413225 -0.0073753751410400694 0 -0.037243329761366968 -0.0072341768998931983 0 -0.037240017521737633 -0.0072574359300553049 0 -0.037193301270942156 -0.007153619678801547 0 -0.037258507063628987 -0.0071792723580296576 0 -0.037243329761366968 -0.0072341768998931983 0 -0.03727201560413225 -0.0073753751410400694 0 -0.037243329761366968 -0.0072341768998931983 0 -0.037260877548089169 -0.0072374465406174968 0 -0.037258507063628987 -0.0071792723580296576 0 -0.037243329761366968 -0.0072341768998931983 0 -0.037240017521737633 -0.0072574359300553049 0 -0.037269519491100987 -0.0072729359640403774 0 -0.037258507063628987 -0.0071792723580296576 0 -0.037240017521737633 -0.0072574359300553049 0 -0.036714348644997667 -0.0081280703563009447 0 -0.03676794583058169 -0.0080297374604219301 0 -0.036664186744050017 -0.008037166943450972 0 -0.037264529842454749 -0.0070712267086657666 0 -0.037193301270942156 -0.007153619678801547 0 -0.037260877548089169 -0.0072374465406174968 0 -0.037193301270942156 -0.007153619678801547 0 -0.037243329761366968 -0.0072341768998931983 0 -0.037260877548089169 -0.0072374465406174968 0 -0.0137700870553321 -0.0024988210561545277 0 -0.013621441944189575 -0.0022990074806093588 0 -0.013723306662148207 -0.0025190396602696695 0 -0.015174925426641828 -0.0032333120566746692 0 -0.014102721573246704 -0.003232282988084379 0 -0.013723306662148207 -0.0025190396602696695 0 -0.012145839580741613 -0.0012856097805942447 0 -0.011870809328734485 -0.0023231134567844544 0 -0.012145839580741613 -0.0012856097805942447 0 -0.011870809328734485 -0.0023231134567844544 0 -0.010711693172540032 -0.0023527142939482005 0 -0.011870809328734485 -0.0023231134567844544 0 -0.01111666846110936 -0.003264190278497663 0 -0.012486233061108144 -0.0029608041834562485 0 -0.011870809328734485 -0.0023231134567844544 0 -0.01111666846110936 -0.003264190278497663 0 -0.010711693172540032 -0.0023527142939482005 0 -0.0097924639244538082 -0.0021048011632411596 0 -0.02168365982709591 -0.0059641719378471193 0 -0.013723306662148207 -0.0025190396602696695 0 -0.011870809328734485 -0.0023231134567844544 0 -0.012486233061108144 -0.0029608041834562485 0 -0.013723306662148207 -0.0025190396602696695 0 -0.012486233061108144 -0.0029608041834562485 0 -0.013967185981841287 -0.002795554150096215 0 -0.012486233061108144 -0.0029608041834562485 0 -0.01540701149212359 -0.0022052503991363006 0 -0.013752787530270354 -0.0033294507844140965 0 -0.014893204243298833 -0.0029770446920522882 0 -0.01540701149212359 -0.0022052503991363006 0 -0.013752787530270354 -0.0033294507844140965 0 -0.01540701149212359 -0.0022052503991363006 0 -0.015503140478833952 -0.0034739020224359312 0 -0.015138948557372855 -0.0031315984622441949 0 -0.014893204243298833 -0.0029770446920522882 0 -0.01540701149212359 -0.0022052503991363006 0 -0.015138948557372855 -0.0031315984622441949 0 -0.01540701149212359 -0.0022052503991363006 0 -0.018230102625796132 -0.0038872491609853463 0 -0.015503140478833952 -0.0034739020224359312 0 -0.036808123606126411 -0.0079399392623846071 0 -0.036847323341338868 -0.0079076500852339245 0 -0.036892224661375296 -0.0079780476152252807 0 -0.036847323341338868 -0.0079076500852339245 0 -0.036892224661375296 -0.0079780476152252807 0 -0.036924893302699845 -0.0080435773776747297 0 -0.02168365982709591 -0.0059641719378471193 0 -0.030797769070475087 -0.0051978343945087617 0 -0.01540701149212359 -0.0022052503991363006 0 -0.022229994436610091 -0.0021578269366913567 0 -0.018230102625796132 -0.0038872491609853463 0 -0.036892224661375296 -0.0079780476152252807 0 -0.036924893302699845 -0.0080435773776747297 0 -0.036990612447741739 -0.0080538805273280261 0 -0.013723306662148207 -0.0025190396602696695 0 -0.013512150975971329 -0.0030423562958107188 0 -0.014102721573246704 -0.003232282988084379 0 -0.036808123606126411 -0.0079399392623846071 0 -0.036892224661375296 -0.0079780476152252807 0 -0.036990612447741739 -0.0080538805273280261 0 -0.02168365982709591 -0.0059641719378471193 0 -0.025743032301523264 -0.0053726694979168866 0 -0.013723306662148207 -0.0025190396602696695 0 -0.013967185981841287 -0.002795554150096215 0 -0.013512150975971329 -0.0030423562958107188 0 -0.013512150975971329 -0.0030423562958107188 0 -0.014268088470908635 -0.0042165828736993359 0 -0.014102721573246704 -0.003232282988084379 0 -0.013512150975971329 -0.0030423562958107188 0 -0.013273159677532806 -0.0046293415232853052 0 -0.014268088470908635 -0.0042165828736993359 0 -0.025743032301523264 -0.0053726694979168866 0 -0.025179663930636975 -0.0065723773699310735 0 -0.03699378954986976 -0.0081828669716083238 0 -0.036924893302699845 -0.0080435773776747297 0 -0.036990612447741739 -0.0080538805273280261 0 -0.03699378954986976 -0.0081828669716083238 0 -0.036990612447741739 -0.0080538805273280261 0 -0.037225411457745362 -0.0083901690213639447 0 -0.013273159677532806 -0.0046293415232853052 0 -0.014268088470908635 -0.0042165828736993359 0 -0.013940495944245675 -0.005429957730394383 0 -0.014268088470908635 -0.0042165828736993359 0 -0.014896694152622399 -0.0054217261779274184 0 -0.013940495944245675 -0.005429957730394383 0 -0.014268088470908635 -0.0042165828736993359 0 -0.015274182036564117 -0.0044671085711409297 0 -0.014896694152622399 -0.0054217261779274184 0 -0.015174925426641828 -0.0032333120566746692 0 -0.014268088470908635 -0.0042165828736993359 0 -0.015274182036564117 -0.0044671085711409297 0 -0.015174925426641828 -0.0032333120566746692 0 -0.014268088470908635 -0.0042165828736993359 0 -0.014102721573246704 -0.003232282988084379 0 -0.015174925426641828 -0.0032333120566746692 0 -0.015274182036564117 -0.0044671085711409297 0 -0.016199641286773616 -0.0040804159558466635 0 -0.013621441944189575 -0.0022990074806093588 0 -0.013843387607946886 -0.0020804785909115681 0 -0.015274182036564117 -0.0044671085711409297 0 -0.016000689946386894 -0.0050797514215089948 0 -0.016199641286773616 -0.0040804159558466635 0 -0.015274182036564117 -0.0044671085711409297 0 -0.016000689946386894 -0.0050797514215089948 0 -0.014896694152622399 -0.0054217261779274184 0 -0.016000689946386894 -0.0050797514215089948 0 -0.015701202449831989 -0.0058883817764086447 0 -0.014896694152622399 -0.0054217261779274184 0 -0.015701202449831989 -0.0058883817764086447 0 -0.014896694152622399 -0.0054217261779274184 0 -0.015067918834637775 -0.0062002419982157388 0 -0.015067918834637775 -0.0062002419982157388 0 -0.014084596807342089 -0.0064897743116344702 0 -0.01502607961137133 -0.0068098435585790826 0 -0.014896694152622399 -0.0054217261779274184 0 -0.015067918834637775 -0.0062002419982157388 0 -0.014084596807342089 -0.0064897743116344702 0 -0.015067918834637775 -0.0062002419982157388 0 -0.01557610681003269 -0.0065085053319509506 0 -0.01502607961137133 -0.0068098435585790826 0 -0.01557610681003269 -0.0065085053319509506 0 -0.015974013256114118 -0.0062640128652765607 0 -0.016064512094151134 -0.0067973116868636219 0 -0.015701202449831989 -0.0058883817764086447 0 -0.01557610681003269 -0.0065085053319509506 0 -0.015974013256114118 -0.0062640128652765607 0 -0.015701202449831989 -0.0058883817764086447 0 -0.015067918834637775 -0.0062002419982157388 0 -0.01557610681003269 -0.0065085053319509506 0 -0.013273159677532806 -0.0046293415232853052 0 -0.013940495944245675 -0.005429957730394383 0 -0.013139007861311981 -0.0060667664898285253 0 -0.025179663930636975 -0.0065723773699310735 0 -0.025361647497328728 -0.0075402877058301952 0 -0.037079989253438528 -0.0085442432769888745 0 -0.037225411457745362 -0.0083901690213639447 0 -0.037447382415481512 -0.0090268443493607946 0 -0.014896694152622399 -0.0054217261779274184 0 -0.013940495944245675 -0.005429957730394383 0 -0.014084596807342089 -0.0064897743116344702 0 -0.014084596807342089 -0.0064897743116344702 0 -0.013139007861311981 -0.0060667664898285253 0 -0.013490296656306867 -0.0070534370088935379 0 -0.013940495944245675 -0.005429957730394383 0 -0.014084596807342089 -0.0064897743116344702 0 -0.013139007861311981 -0.0060667664898285253 0 -0.014084596807342089 -0.0064897743116344702 0 -0.013490296656306867 -0.0070534370088935379 0 -0.0138260561962712 -0.0075081295873029065 0 -0.012968134455704623 -0.0074701280050762072 0 -0.013139007861311981 -0.0060667664898285253 0 -0.013490296656306867 -0.0070534370088935379 0 -0.012968134455704623 -0.0074701280050762072 0 -0.013490296656306867 -0.0070534370088935379 0 -0.013423164528799525 -0.0077439295896882749 0 -0.013490296656306867 -0.0070534370088935379 0 -0.0138260561962712 -0.0075081295873029065 0 -0.013423164528799525 -0.0077439295896882749 0 -0.014084596807342089 -0.0064897743116344702 0 -0.0138260561962712 -0.0075081295873029065 0 -0.014588383993356924 -0.0077274079239471882 0 -0.014084596807342089 -0.0064897743116344702 0 -0.014588383993356924 -0.0077274079239471882 0 -0.01502607961137133 -0.0068098435585790826 0 -0.014400742099163954 -0.0086435261143146987 0 -0.014588383993356924 -0.0077274079239471882 0 -0.013708933564759418 -0.0083822725257215371 0 -0.0138260561962712 -0.0075081295873029065 0 -0.014588383993356924 -0.0077274079239471882 0 -0.013708933564759418 -0.0083822725257215371 0 -0.014400742099163954 -0.0086435261143146987 0 -0.014588383993356924 -0.0077274079239471882 0 -0.014850541787653307 -0.0085015935747439139 0 -0.0138260561962712 -0.0075081295873029065 0 -0.013708933564759418 -0.0083822725257215371 0 -0.013423164528799525 -0.0077439295896882749 0 -0.013708933564759418 -0.0083822725257215371 0 -0.01336860475022468 -0.0084834535559687591 0 -0.013266275633326814 -0.0081425120152173094 0 -0.013122414602041771 -0.008487423147139685 0 -0.01336860475022468 -0.0084834535559687591 0 -0.013266275633326814 -0.0081425120152173094 0 -0.012968134455704623 -0.0074701280050762072 0 -0.013266275633326814 -0.0081425120152173094 0 -0.013423164528799525 -0.0077439295896882749 0 -0.013708933564759418 -0.0083822725257215371 0 -0.013266275633326814 -0.0081425120152173094 0 -0.013423164528799525 -0.0077439295896882749 0 -0.010957427735613876 -0.0073834447843083104 0 -0.012652622557931398 -0.0060602323306503938 0 -0.015487523477354848 -0.0070581274871766159 0 -0.015580995436324569 -0.0076766623125999649 0 -0.016064512094151134 -0.0067973116868636219 0 -0.015487523477354848 -0.0070581274871766159 0 -0.015169752941816196 -0.0074555534964343643 0 -0.015580995436324569 -0.0076766623125999649 0 -0.01557610681003269 -0.0065085053319509506 0 -0.015487523477354848 -0.0070581274871766159 0 -0.016064512094151134 -0.0067973116868636219 0 -0.01557610681003269 -0.0065085053319509506 0 -0.015487523477354848 -0.0070581274871766159 0 -0.01502607961137133 -0.0068098435585790826 0 -0.015487523477354848 -0.0070581274871766159 0 -0.01502607961137133 -0.0068098435585790826 0 -0.015169752941816196 -0.0074555534964343643 0 -0.014588383993356924 -0.0077274079239471882 0 -0.01502607961137133 -0.0068098435585790826 0 -0.015169752941816196 -0.0074555534964343643 0 -0.014348014512215035 -0.0073378922319358728 0 -0.015447632032578311 -0.011792525568949306 0 -0.014588383993356924 -0.0077274079239471882 0 -0.015169752941816196 -0.0074555534964343643 0 -0.015327953521303441 -0.0079420881362469477 0 -0.014588383993356924 -0.0077274079239471882 0 -0.014850541787653307 -0.0085015935747439139 0 -0.015752114165743458 -0.0081977422247822996 0 -0.0067767390174932546 -0.0083020421558189315 0 -0.0067437635791688056 -0.0082931754046604977 0 -0.00669896972644741 -0.0082462923243470827 0 -0.015447632032578311 -0.011792525568949306 0 -0.015133202452811637 -0.01781324660558507 0 -0.0068258822068890494 -0.0083015703366327298 0 -0.0067437635791688056 -0.0082931754046604977 0 -0.0067595734335590702 -0.0083216175643684442 0 -0.0068258822068890494 -0.0083015703366327298 0 -0.0067767390174932546 -0.0083020421558189315 0 -0.0067437635791688056 -0.0082931754046604977 0 -0.015447632032578311 -0.011792525568949306 0 -0.010957427735613876 -0.0073834447843083104 0 -0.015169752941816196 -0.0074555534964343643 0 -0.015327953521303441 -0.0079420881362469477 0 -0.015580995436324569 -0.0076766623125999649 0 -0.0067437635791688056 -0.0082931754046604977 0 -0.0067595734335590702 -0.0083216175643684442 0 -0.0067380900738151402 -0.0083061654052749047 0 -0.0067818894577292323 -0.0083863454878400998 0 -0.0067595734335590702 -0.0083216175643684442 0 -0.0067380900738151402 -0.0083061654052749047 0 -0.0067380900738151402 -0.0083061654052749047 0 -0.00669896972644741 -0.0082462923243470827 0 -0.0067105032987192312 -0.0082396776925433603 0 -0.0067437635791688056 -0.0082931754046604977 0 -0.0067380900738151402 -0.0083061654052749047 0 -0.00669896972644741 -0.0082462923243470827 0 -0.00669896972644741 -0.0082462923243470827 0 -0.0066689841424698911 -0.0081605502133102192 0 -0.0066089782988159474 -0.0081378065770876789 0 -0.0096067357808020063 -0.004743559121629843 0 -0.008815873986926067 -0.0059162230583126507 0 -0.0081059172496207432 -0.0061554883593066606 0 -0.0067767390174932546 -0.0083020421558189315 0 -0.00669896972644741 -0.0082462923243470827 0 -0.0066089782988159474 -0.0081378065770876789 0 -0.010957427735613876 -0.0073834447843083104 0 -0.0068763459787195436 -0.0071108910949862049 0 -0.00669896972644741 -0.0082462923243470827 0 -0.0066689841424698911 -0.0081605502133102192 0 -0.0067105032987192312 -0.0082396776925433603 0 -0.0066689841424698911 -0.0081605502133102192 0 -0.0067496006316018608 -0.0082457117991714558 0 -0.0067446738261911386 -0.0080726519499921112 0 -0.0066689841424698911 -0.0081605502133102192 0 -0.0067105032987192312 -0.0082396776925433603 0 -0.0067496006316018608 -0.0082457117991714558 0 -0.011229542379780461 -0.016506213446580195 0 -0.0063645321847438452 -0.0073091036666046811 0 -0.0061353622060070266 -0.009114165492160679 0 -0.0062786552837416935 -0.008763518086778643 0 -0.0063622309370272405 -0.008890946361515481 0 -0.0067818894577292323 -0.0083863454878400998 0 -0.0067380900738151402 -0.0083061654052749047 0 -0.0067496006316018608 -0.0082457117991714558 0 -0.0067380900738151402 -0.0083061654052749047 0 -0.0067105032987192312 -0.0082396776925433603 0 -0.0067496006316018608 -0.0082457117991714558 0 -0.0062786552837416935 -0.008763518086778643 0 -0.0063622309370272405 -0.008890946361515481 0 -0.0064482999755917604 -0.0087494904792794065 0 -0.0064476498926319681 -0.0089785796604974454 0 -0.0063622309370272405 -0.008890946361515481 0 -0.0064482999755917604 -0.0087494904792794065 0 -0.0064476498926319681 -0.0089785796604974454 0 -0.0064482999755917604 -0.0087494904792794065 0 -0.0065220569830179093 -0.0087789812362375121 0 -0.0060326676294073147 -0.010849139193175919 0 -0.006410063687792014 -0.010974529720059356 0 -0.0064482999755917604 -0.0087494904792794065 0 -0.0065220569830179093 -0.0087789812362375121 0 -0.0065179416565943494 -0.0086457057234128644 0 -0.0064482999755917604 -0.0087494904792794065 0 -0.0065127926187737717 -0.0086444452995602192 0 -0.0065179416565943494 -0.0086457057234128644 0 -0.0064482999755917604 -0.0087494904792794065 0 -0.0065127926187737717 -0.0086444452995602192 0 -0.0063691989490725024 -0.0086028524229794651 0 -0.0062786552837416935 -0.008763518086778643 0 -0.0064482999755917604 -0.0087494904792794065 0 -0.0063691989490725024 -0.0086028524229794651 0 -0.0063645321847438452 -0.0073091036666046811 0 -0.006511005368015365 -0.0085543568791614285 0 -0.0067446738261911386 -0.0080726519499921112 0 -0.0066846995139888364 -0.0077473137956330382 0 -0.0066036224356832282 -0.0078419872616941506 0 -0.006511005368015365 -0.0085543568791614285 0 -0.0067197571737752839 -0.0079215311808409107 0 -0.0067446738261911386 -0.0080726519499921112 0 -0.0066036224356832282 -0.0078419872616941506 0 -0.0066346753625865082 -0.0080190242383121231 0 -0.0065127926187737717 -0.0086444452995602192 0 -0.0063691989490725024 -0.0086028524229794651 0 -0.0065556395201772878 -0.0085959645922535546 0 -0.0063691989490725024 -0.0086028524229794651 0 -0.0065556395201772878 -0.0085959645922535546 0 -0.0063610918727113963 -0.0083896091398421146 0 -0.0065556395201772878 -0.0085959645922535546 0 -0.0063610918727113963 -0.0083896091398421146 0 -0.0067285345285294186 -0.0084688716052038083 0 -0.0063610918727113963 -0.0083896091398421146 0 -0.0067285345285294186 -0.0084688716052038083 0 -0.0070523126046015136 -0.0081089974106014085 0 -0.0067446738261911386 -0.0080726519499921112 0 -0.0069782333748498685 -0.0076175745289217061 0 -0.0066846995139888364 -0.0077473137956330382 0 -0.0066846995139888364 -0.0077473137956330382 0 -0.0066036224356832282 -0.0078419872616941506 0 -0.0064115931261642563 -0.0077065058399003227 0 -0.0069782333748498685 -0.0076175745289217061 0 -0.0066846995139888364 -0.0077473137956330382 0 -0.006650625824550704 -0.0074529415973278662 0 -0.0066846995139888364 -0.0077473137956330382 0 -0.006650625824550704 -0.0074529415973278662 0 -0.0064115931261642563 -0.0077065058399003227 0 -0.006650625824550704 -0.0074529415973278662 0 -0.0064115931261642563 -0.0077065058399003227 0 -0.0063268083672791868 -0.0071157391422207901 0 -0.006546066334597667 -0.0072093920018420623 0 -0.0097413913639754369 -0.005199684061090273 0 -0.0064115931261642563 -0.0077065058399003227 0 -0.0065331626952007229 -0.0076970266686982973 0 -0.0072127992858983967 -0.0084515903487101928 0 -0.0065331626952007229 -0.0076970266686982973 0 -0.00802935700770851 -0.0071639038746043812 0 -0.0072127992858983967 -0.0084515903487101928 0 -0.0066036224356832282 -0.0078419872616941506 0 -0.0065331626952007229 -0.0076970266686982973 0 -0.0065935912137974817 -0.0079238898075345253 0 -0.0066036224356832282 -0.0078419872616941506 0 -0.0064115931261642563 -0.0077065058399003227 0 -0.0065331626952007229 -0.0076970266686982973 0 -0.016000689946386894 -0.0050797514215089948 0 -0.015701202449831989 -0.0058883817764086447 0 -0.016561316364711476 -0.0058555817933065753 0 -0.01237506629053284 -0.0066485274269077023 0 -0.0097413913639754369 -0.005199684061090273 0 -0.016000689946386894 -0.0050797514215089948 0 -0.016561316364711476 -0.0058555817933065753 0 -0.017074207803641831 -0.0048864972400916489 0 -0.008815873986926067 -0.0059162230583126507 0 -0.00802935700770851 -0.0071639038746043812 0 -0.0081059172496207432 -0.0061554883593066606 0 -0.015701202449831989 -0.0058883817764086447 0 -0.015974013256114118 -0.0062640128652765607 0 -0.016561316364711476 -0.0058555817933065753 0 -0.012652622557931398 -0.0060602323306503938 0 -0.01237506629053284 -0.0066485274269077023 0 -0.015974013256114118 -0.0062640128652765607 0 -0.016064512094151134 -0.0067973116868636219 0 -0.016561316364711476 -0.0058555817933065753 0 -0.0066689841424698911 -0.0081605502133102192 0 -0.0066089782988159474 -0.0081378065770876789 0 -0.0066346753625865082 -0.0080190242383121231 0 -0.0065331626952007229 -0.0076970266686982973 0 -0.0066089782988159474 -0.0081378065770876789 0 -0.0065935912137974817 -0.0079238898075345253 0 -0.0065331626952007229 -0.0076970266686982973 0 -0.00802935700770851 -0.0071639038746043812 0 -0.0081059172496207432 -0.0061554883593066606 0 -0.0066089782988159474 -0.0081378065770876789 0 -0.0066346753625865082 -0.0080190242383121231 0 -0.0065935912137974817 -0.0079238898075345253 0 -0.0067617651598847733 -0.0076529260785077732 0 -0.0068763459787195436 -0.0071108910949862049 0 -0.0066689841424698911 -0.0081605502133102192 0 -0.0067446738261911386 -0.0080726519499921112 0 -0.0066346753625865082 -0.0080190242383121231 0 -0.0066036224356832282 -0.0078419872616941506 0 -0.0066346753625865082 -0.0080190242383121231 0 -0.0065935912137974817 -0.0079238898075345253 0 -0.0033571117696692596 -0.0096718656424159884 0 -0.0041395219952258411 -0.0093857807296247962 0 -0.0026591514366919593 -0.010635844184748725 0 -0.0029097638941131109 -0.0094332997878426132 0 -0.0033571117696692596 -0.0096718656424159884 0 -0.0026591514366919593 -0.010635844184748725 0 -0.0041395219952258411 -0.0093857807296247962 0 -0.0044984940721693291 -0.0094753151972110788 0 -0.0026591514366919593 -0.010635844184748725 0 -0.0041395219952258411 -0.0093857807296247962 0 -0.0036076902542722515 -0.0096945659901516851 0 -0.0032951694283112594 -0.0098349895100697214 0 -0.0033571117696692596 -0.0096718656424159884 0 -0.0041395219952258411 -0.0093857807296247962 0 -0.0036076902542722515 -0.0096945659901516851 0 -0.0033571117696692596 -0.0096718656424159884 0 -0.0036076902542722515 -0.0096945659901516851 0 -0.0032703760851402479 -0.0099330127262907339 0 -0.0036076902542722515 -0.0096945659901516851 0 -0.0032703760851402479 -0.0099330127262907339 0 -0.0032951694283112594 -0.0098349895100697214 0 -0.0029097638941131109 -0.0094332997878426132 0 -0.0033571117696692596 -0.0096718656424159884 0 -0.0032703760851402479 -0.0099330127262907339 0 0.00086778392374394333 -0.013495976913135931 0 0.00070793307271883345 -0.014238743430938948 0 0.0041492750513319717 -0.017431630831208328 0 0.0046555722214866938 -0.017542891150290386 0 0.0036370751759462949 -0.01734222438239658 0 0.0041492750513319717 -0.017431630831208328 0 0.0045557717475833513 -0.017568444566762802 0 0.0046555722214866938 -0.017542891150290386 0 -0.0029097638941131109 -0.0094332997878426132 0 -0.0032703760851402479 -0.0099330127262907339 0 -0.0029075778945847237 -0.011118766101449623 0 -0.0028170425102409698 -0.010130832534104104 0 -0.0021404938941928311 -0.01059118016335318 0 -0.0020582568036605106 -0.011692393916031612 0 -0.0032703760851402479 -0.0099330127262907339 0 -0.0029075778945847237 -0.011118766101449623 0 -0.0028170425102409698 -0.010130832534104104 0 -0.0026274878737990344 -0.010436269560988235 0 -0.0022558036352528011 -0.011061903663285291 0 -0.0029075778945847237 -0.011118766101449623 0 -0.0028170425102409698 -0.010130832534104104 0 -0.001951736051994075 -0.011266772145176997 0 -0.0028170425102409698 -0.010130832534104104 0 -0.0021080891824223104 -0.0097751841836366243 0 -0.0021404938941928311 -0.01059118016335318 0 -0.0041419513459557203 -0.0092374028997737907 0 -0.0037873044690389995 -0.0090972117965623656 0 -0.0028170425102409698 -0.010130832534104104 0 -0.0032951694283112594 -0.0098349895100697214 0 -0.0021080891824223104 -0.0097751841836366243 0 -0.0041395219952258411 -0.0093857807296247962 0 -0.0052750292197059319 -0.0089024556602732615 0 -0.0058029104526323479 -0.0081832278753510845 0 -0.0041395219952258411 -0.0093857807296247962 0 -0.0032951694283112594 -0.0098349895100697214 0 -0.0021080891824223104 -0.0097751841836366243 0 -0.0032703760851402479 -0.0099330127262907339 0 -0.0028170425102409698 -0.010130832534104104 0 -0.0032951694283112594 -0.0098349895100697214 0 -0.0041395219952258411 -0.0093857807296247962 0 -0.0049406041800851138 -0.0092035925407219082 0 -0.0052750292197059319 -0.0089024556602732615 0 -0.0041395219952258411 -0.0093857807296247962 0 -0.0044984940721693291 -0.0094753151972110788 0 -0.0049406041800851138 -0.0092035925407219082 0 -0.0052750292197059319 -0.0089024556602732615 0 -0.0058998091389478851 -0.0086765460799690004 0 -0.0053856981912965502 -0.0090013704457978586 0 -0.0052750292197059319 -0.0089024556602732615 0 -0.0058998091389478851 -0.0086765460799690004 0 -0.0058029104526323479 -0.0081832278753510845 0 -0.0049406041800851138 -0.0092035925407219082 0 -0.0052750292197059319 -0.0089024556602732615 0 -0.0053856981912965502 -0.0090013704457978586 0 -0.0064023467157160851 -0.0084649923224852756 0 -0.0058029104526323479 -0.0081832278753510845 0 -0.006628200686050351 -0.0079913663130042195 0 -0.0037873044690389995 -0.0090972117965623656 0 -0.0051490875803975756 -0.010502112735907718 0 -0.0058998091389478851 -0.0086765460799690004 0 -0.0063729873227695308 -0.0086246153483808471 0 -0.0061035026079494419 -0.0087377667574333687 0 -0.0058998091389478851 -0.0086765460799690004 0 -0.0063729873227695308 -0.0086246153483808471 0 -0.0064023467157160851 -0.0084649923224852756 0 -0.0065472129525899654 -0.007999487122311584 0 -0.0051490875803975756 -0.010502112735907718 0 -0.0058998091389478851 -0.0086765460799690004 0 -0.0064023467157160851 -0.0084649923224852756 0 -0.0058029104526323479 -0.0081832278753510845 0 -0.0021080891824223104 -0.0097751841836366243 0 -0.0015833026417053403 -0.010781420696656248 0 -0.0021404938941928311 -0.01059118016335318 0 -0.0021080891824223104 -0.0097751841836366243 0 -0.0015833026417053403 -0.010781420696656248 0 -0.00056883582877510623 -0.010560728166087064 0 -0.0009308630892026047 -0.011850856122562746 0 -0.0015833026417053403 -0.010781420696656248 0 -0.0020582568036605106 -0.011692393916031612 0 -0.0015833026417053403 -0.010781420696656248 0 -0.0021404938941928311 -0.01059118016335318 0 -0.0020582568036605106 -0.011692393916031612 0 -0.0009308630892026047 -0.011850856122562746 0 -0.0015833026417053403 -0.010781420696656248 0 -0.00056883582877510623 -0.010560728166087064 0 -0.006410063687792014 -0.010974529720059356 0 -0.0051490875803975756 -0.010502112735907718 0 -0.0065498128675733035 -0.013852801984945991 0 -0.0060381135833793304 -0.013274426989694197 0 -0.0070110910639633569 -0.012792684792712117 0 -0.0065220569830179093 -0.0087789812362375121 0 -0.0064902548833081081 -0.0086073032312232196 0 -0.0065179416565943494 -0.0086457057234128644 0 -0.0031958261151233442 -0.012811174721924369 0 -0.0051490875803975756 -0.010502112735907718 0 -0.0009308630892026047 -0.011850856122562746 0 0.00017084735751937238 -0.012202721046230443 0 -0.00056883582877510623 -0.010560728166087064 0 -0.0064023467157160851 -0.0084649923224852756 0 -0.0064902548833081081 -0.0086073032312232196 0 -0.0065179416565943494 -0.0086457057234128644 0 -0.0064023467157160851 -0.0084649923224852756 0 -0.0065179416565943494 -0.0086457057234128644 0 -0.0065182134465588785 -0.0086077596729459416 0 -0.0063729873227695308 -0.0086246153483808471 0 -0.0064023467157160851 -0.0084649923224852756 0 -0.0065182134465588785 -0.0086077596729459416 0 -0.0065127926187737717 -0.0086444452995602192 0 -0.0065179416565943494 -0.0086457057234128644 0 -0.0065182134465588785 -0.0086077596729459416 0 -0.0065127926187737717 -0.0086444452995602192 0 -0.0065556395201772878 -0.0085959645922535546 0 -0.0065182134465588785 -0.0086077596729459416 0 -0.0065556395201772878 -0.0085959645922535546 0 -0.0065182134465588785 -0.0086077596729459416 0 -0.0066088198223444739 -0.0085904264617276821 0 -0.0063729873227695308 -0.0086246153483808471 0 -0.0065182134465588785 -0.0086077596729459416 0 -0.0064048956245513688 -0.0086611043959359917 0 -0.0065182134465588785 -0.0086077596729459416 0 -0.0066088198223444739 -0.0085904264617276821 0 -0.0064048956245513688 -0.0086611043959359917 0 -0.0066088198223444739 -0.0085904264617276821 0 -0.0064596972119753699 -0.0086281668129288749 0 -0.0064048956245513688 -0.0086611043959359917 0 -0.0065556395201772878 -0.0085959645922535546 0 -0.0066088198223444739 -0.0085904264617276821 0 -0.0067285345285294186 -0.0084688716052038083 0 -0.0066088198223444739 -0.0085904264617276821 0 -0.0067285345285294186 -0.0084688716052038083 0 -0.0067933674079966554 -0.0084432495495620832 0 -0.0067285345285294186 -0.0084688716052038083 0 -0.0070523126046015136 -0.0081089974106014085 0 -0.0067933674079966554 -0.0084432495495620832 0 -0.0070523126046015136 -0.0081089974106014085 0 -0.0069935868571366746 -0.0082489528193221608 0 -0.0067933674079966554 -0.0084432495495620832 0 -0.0069935868571366746 -0.0082489528193221608 0 -0.0067933674079966554 -0.0084432495495620832 0 -0.006589090272687264 -0.0085150137220220447 0 -0.0066088198223444739 -0.0085904264617276821 0 -0.0067933674079966554 -0.0084432495495620832 0 -0.0064596972119753699 -0.0086281668129288749 0 -0.0067933674079966554 -0.0084432495495620832 0 -0.0064596972119753699 -0.0086281668129288749 0 -0.006589090272687264 -0.0085150137220220447 0 -0.0064596972119753699 -0.0086281668129288749 0 -0.006589090272687264 -0.0085150137220220447 0 -0.0061011850808871905 -0.0087367357722886903 0 -0.006589090272687264 -0.0085150137220220447 0 -0.0062237528824430587 -0.0086658410030431357 0 -0.0067229500244298341 -0.0084352816289275639 0 -0.0069935868571366746 -0.0082489528193221608 0 -0.006589090272687264 -0.0085150137220220447 0 -0.0067229500244298341 -0.0084352816289275639 0 -0.006589090272687264 -0.0085150137220220447 0 -0.0062237528824430587 -0.0086658410030431357 0 -0.0061011850808871905 -0.0087367357722886903 0 -0.0062237528824430587 -0.0086658410030431357 0 -0.0061011850808871905 -0.0087367357722886903 0 -0.0058243515476024601 -0.0088091873287242852 0 -0.0061011850808871905 -0.0087367357722886903 0 -0.0061170252108867324 -0.0087645581989700388 0 -0.0058047166780377003 -0.0088689834332495356 0 -0.0064596972119753699 -0.0086281668129288749 0 -0.0061011850808871905 -0.0087367357722886903 0 -0.0061170252108867324 -0.0087645581989700388 0 -0.0061170252108867324 -0.0087645581989700388 0 -0.0057646612490635449 -0.0088846259997625333 0 -0.0058047166780377003 -0.0088689834332495356 0 -0.0064596972119753699 -0.0086281668129288749 0 -0.0061170252108867324 -0.0087645581989700388 0 -0.0064048956245513688 -0.0086611043959359917 0 -0.0061170252108867324 -0.0087645581989700388 0 -0.0064048956245513688 -0.0086611043959359917 0 -0.0061035026079494419 -0.0087377667574333687 0 -0.0063729873227695308 -0.0086246153483808471 0 -0.0064048956245513688 -0.0086611043959359917 0 -0.0061035026079494419 -0.0087377667574333687 0 -0.0058998091389478851 -0.0086765460799690004 0 -0.0061035026079494419 -0.0087377667574333687 0 -0.0057646612490635449 -0.0088846259997625333 0 -0.0061170252108867324 -0.0087645581989700388 0 -0.0061035026079494419 -0.0087377667574333687 0 -0.0057646612490635449 -0.0088846259997625333 0 -0.0058998091389478851 -0.0086765460799690004 0 -0.0057646612490635449 -0.0088846259997625333 0 -0.0053856981912965502 -0.0090013704457978586 0 -0.0053856981912965502 -0.0090013704457978586 0 -0.0050280186113494186 -0.0091810258197806711 0 -0.0054644096573372722 -0.00899220848853414 0 -0.0057646612490635449 -0.0088846259997625333 0 -0.0053856981912965502 -0.0090013704457978586 0 -0.0054644096573372722 -0.00899220848853414 0 -0.0050280186113494186 -0.0091810258197806711 0 -0.0051112216036527276 -0.0090330237811297748 0 -0.0054644096573372722 -0.00899220848853414 0 -0.0044984940721693291 -0.0094753151972110788 0 -0.0050280186113494186 -0.0091810258197806711 0 -0.0051112216036527276 -0.0090330237811297748 0 -0.0049406041800851138 -0.0092035925407219082 0 -0.0053856981912965502 -0.0090013704457978586 0 -0.0050280186113494186 -0.0091810258197806711 0 -0.0044984940721693291 -0.0094753151972110788 0 -0.0049406041800851138 -0.0092035925407219082 0 -0.0050280186113494186 -0.0091810258197806711 0 -0.0051112216036527276 -0.0090330237811297748 0 -0.0055988125768095531 -0.0089001079424522039 0 -0.0054644096573372722 -0.00899220848853414 0 -0.0061011850808871905 -0.0087367357722886903 0 -0.0055988125768095531 -0.0089001079424522039 0 -0.0058047166780377003 -0.0088689834332495356 0 -0.0057646612490635449 -0.0088846259997625333 0 -0.0054644096573372722 -0.00899220848853414 0 -0.0058047166780377003 -0.0088689834332495356 0 -0.0055988125768095531 -0.0089001079424522039 0 -0.0054644096573372722 -0.00899220848853414 0 -0.0058047166780377003 -0.0088689834332495356 0 -0.0061011850808871905 -0.0087367357722886903 0 -0.0055988125768095531 -0.0089001079424522039 0 -0.0058243515476024601 -0.0088091873287242852 0 -0.0062237528824430587 -0.0086658410030431357 0 -0.0058243515476024601 -0.0088091873287242852 0 -0.0057620317296208454 -0.0089265055989648685 0 -0.0058243515476024601 -0.0088091873287242852 0 -0.0057620317296208454 -0.0089265055989648685 0 -0.005425174333161086 -0.0088869118802172801 0 -0.0051112216036527276 -0.0090330237811297748 0 -0.0055988125768095531 -0.0089001079424522039 0 -0.005425174333161086 -0.0088869118802172801 0 -0.0055988125768095531 -0.0089001079424522039 0 -0.0058243515476024601 -0.0088091873287242852 0 -0.005425174333161086 -0.0088869118802172801 0 -0.0051112216036527276 -0.0090330237811297748 0 -0.005425174333161086 -0.0088869118802172801 0 -0.005299137495987912 -0.0088342794652078397 0 -0.005425174333161086 -0.0088869118802172801 0 -0.005299137495987912 -0.0088342794652078397 0 -0.0053021393423996147 -0.0091297742926715521 0 -0.0057620317296208454 -0.0089265055989648685 0 -0.005425174333161086 -0.0088869118802172801 0 -0.0053021393423996147 -0.0091297742926715521 0 -0.0044984940721693291 -0.0094753151972110788 0 -0.0026171196430775875 -0.012759670450097044 0 -0.0026591514366919593 -0.010635844184748725 0 -0.0044984940721693291 -0.0094753151972110788 0 -0.0051112216036527276 -0.0090330237811297748 0 -0.005299137495987912 -0.0088342794652078397 0 -0.004510753929053174 -0.0096317135144168391 0 -0.0038708785917225541 -0.010761180213650032 0 -0.0053079251911273481 -0.0097439519747591422 0 -0.0053021393423996147 -0.0091297742926715521 0 -0.0060680083516614185 -0.0093819205687173703 0 -0.0057620317296208454 -0.0089265055989648685 0 -0.0053021393423996147 -0.0091297742926715521 0 -0.0060680083516614185 -0.0093819205687173703 0 -0.0062237528824430587 -0.0086658410030431357 0 -0.0057620317296208454 -0.0089265055989648685 0 -0.0060680083516614185 -0.0093819205687173703 0 -0.0063794912558700822 -0.0075474062403356225 0 -0.0074920830004182298 -0.0075798135927885851 0 -0.0090855019302444745 -0.0058173053500268435 0 -0.0088680078737279691 -0.0056391550205815572 0 -0.0086662703671912169 -0.0057451966414241483 0 -0.0078316752774658174 -0.0050920587733523839 0 -0.0090855019302444745 -0.0058173053500268435 0 -0.0086662703671912169 -0.0057451966414241483 0 -0.0090855019302444745 -0.0058173053500268435 0 -0.0085239178264983027 -0.0058680896041499323 0 -0.0075231077168424771 -0.0076822186047048472 0 -0.0090855019302444745 -0.0058173053500268435 0 -0.0085239178264983027 -0.0058680896041499323 0 -0.0088680078737279691 -0.0056391550205815572 0 -0.0085239178264983027 -0.0058680896041499323 0 -0.0085056792405809514 -0.0056275321114200912 0 -0.0087029171035477165 -0.0055393234562595064 0 -0.0085239178264983027 -0.0058680896041499323 0 -0.0087029171035477165 -0.0055393234562595064 0 -0.0088680078737279691 -0.0056391550205815572 0 -0.0074920830004182298 -0.0075798135927885851 0 -0.0073927535831808848 -0.0077201081579503627 0 -0.0062237528824430587 -0.0086658410030431357 0 -0.0060680083516614185 -0.0093819205687173703 0 -0.0067229500244298341 -0.0084352816289275639 0 -0.0060680083516614185 -0.0093819205687173703 0 -0.0067229500244298341 -0.0084352816289275639 0 -0.0075231077168424771 -0.0076822186047048472 0 -0.0069935868571366746 -0.0082489528193221608 0 -0.0067229500244298341 -0.0084352816289275639 0 -0.0075231077168424771 -0.0076822186047048472 0 -0.0070523126046015136 -0.0081089974106014085 0 -0.0075231077168424771 -0.0076822186047048472 0 -0.0072768230457366679 -0.0069172114472138817 0 -0.0070523126046015136 -0.0081089974106014085 0 -0.0069935868571366746 -0.0082489528193221608 0 -0.0075231077168424771 -0.0076822186047048472 0 -0.0075231077168424771 -0.0076822186047048472 0 -0.0079043736753826917 -0.006197034145012768 0 -0.0072768230457366679 -0.0069172114472138817 0 -0.0079043736753826917 -0.006197034145012768 0 -0.0072768230457366679 -0.0069172114472138817 0 -0.0075526421245259582 -0.0061719650107916564 0 -0.0085239178264983027 -0.0058680896041499323 0 -0.0075231077168424771 -0.0076822186047048472 0 -0.0079043736753826917 -0.006197034145012768 0 -0.0085239178264983027 -0.0058680896041499323 0 -0.0079043736753826917 -0.006197034145012768 0 -0.0082915683352047433 -0.0057914017537157927 0 -0.0082915683352047433 -0.0057914017537157927 0 -0.0085056792405809514 -0.0056275321114200912 0 -0.0081732402125321377 -0.0055140369247789877 0 -0.0085239178264983027 -0.0058680896041499323 0 -0.0082915683352047433 -0.0057914017537157927 0 -0.0085056792405809514 -0.0056275321114200912 0 -0.0079043736753826917 -0.006197034145012768 0 -0.0075526421245259582 -0.0061719650107916564 0 -0.0078294705020912434 -0.0054555967133287286 0 -0.0079043736753826917 -0.006197034145012768 0 -0.0081732402125321377 -0.0055140369247789877 0 -0.0078294705020912434 -0.0054555967133287286 0 -0.0079043736753826917 -0.006197034145012768 0 -0.0082915683352047433 -0.0057914017537157927 0 -0.0081732402125321377 -0.0055140369247789877 0 -0.008409493775837544 -0.0047409508349841511 0 -0.0086686711461345517 -0.0050950718394978311 0 -0.0081930435894783174 -0.0040481220446302296 0 -0.0081732402125321377 -0.0055140369247789877 0 -0.0081363769318153149 -0.0051366990130513488 0 -0.0078294705020912434 -0.0054555967133287286 0 -0.0081732402125321377 -0.0055140369247789877 0 -0.008351712270447122 -0.0050131032672375815 0 -0.0081363769318153149 -0.0051366990130513488 0 -0.008351712270447122 -0.0050131032672375815 0 -0.0081363769318153149 -0.0051366990130513488 0 -0.0082259370741456419 -0.0047366725780342671 0 -0.0081363769318153149 -0.0051366990130513488 0 -0.0082259370741456419 -0.0047366725780342671 0 -0.0079622263341924803 -0.0047044602041637065 0 -0.0081732402125321377 -0.0055140369247789877 0 -0.008351712270447122 -0.0050131032672375815 0 -0.0085457733896049243 -0.00530116992332429 0 -0.0085056792405809514 -0.0056275321114200912 0 -0.0081732402125321377 -0.0055140369247789877 0 -0.0085457733896049243 -0.00530116992332429 0 -0.008351712270447122 -0.0050131032672375815 0 -0.0085457733896049243 -0.00530116992332429 0 -0.008544907463158391 -0.0050469876955339752 0 -0.008544907463158391 -0.0050469876955339752 0 -0.008409493775837544 -0.0047409508349841511 0 -0.0086686711461345517 -0.0050950718394978311 0 -0.008351712270447122 -0.0050131032672375815 0 -0.008544907463158391 -0.0050469876955339752 0 -0.008409493775837544 -0.0047409508349841511 0 -0.008544907463158391 -0.0050469876955339752 0 -0.0086686711461345517 -0.0050950718394978311 0 -0.008711751819118348 -0.0053020522449882257 0 -0.0085457733896049243 -0.00530116992332429 0 -0.008544907463158391 -0.0050469876955339752 0 -0.008711751819118348 -0.0053020522449882257 0 -0.008409493775837544 -0.0047409508349841511 0 -0.0082259370741456419 -0.0047366725780342671 0 -0.0081930435894783174 -0.0040481220446302296 0 -0.008351712270447122 -0.0050131032672375815 0 -0.008409493775837544 -0.0047409508349841511 0 -0.0082259370741456419 -0.0047366725780342671 0 -0.0083448388011906054 -0.0037770125494380655 0 -0.0087516408334058181 -0.0035291658596225493 0 -0.0081930435894783174 -0.0040481220446302296 0 -0.008665286506579023 -0.0045548032005237856 0 -0.0081736834358873949 -0.0041662209188040224 0 -0.0089651499812574108 -0.005676485602711983 0 -0.0086686711461345517 -0.0050950718394978311 0 -0.0081930435894783174 -0.0040481220446302296 0 -0.0083448388011906054 -0.0037770125494380655 0 -0.008343280422118321 -0.0032283154077873042 0 -0.0081112639801757657 -0.0034449954184559875 0 -0.0083448388011906054 -0.0037770125494380655 0 -0.008343280422118321 -0.0032283154077873042 0 -0.0086007718034799372 -0.0030767038991518451 0 -0.0082002246518743018 -0.0036364126669724776 0 -0.009177831667817285 -0.0032917820556412768 0 -0.0086007718034799372 -0.0030767038991518451 0 -0.0088903195544176809 -0.0026902833584459248 0 -0.0087276255919804882 -0.0028014114721973439 0 -0.0083448388011906054 -0.0037770125494380655 0 -0.0087500871664347186 -0.0035647244331263174 0 -0.0088418963730878472 -0.0033245395695458996 0 -0.0083448388011906054 -0.0037770125494380655 0 -0.0086007718034799372 -0.0030767038991518451 0 -0.0088903195544176809 -0.0026902833584459248 0 -0.0083448388011906054 -0.0037770125494380655 0 -0.0087500871664347186 -0.0035647244331263174 0 -0.0087516408334058181 -0.0035291658596225493 0 -0.0087500871664347186 -0.0035647244331263174 0 -0.0087516408334058181 -0.0035291658596225493 0 -0.0078973697581029394 -0.004167073312582239 0 -0.0089651499812574108 -0.005676485602711983 0 -0.008865413317765072 -0.0056627890677560938 0 -0.008733774463751327 -0.005860293582567927 0 -0.008865413317765072 -0.0056627890677560938 0 -0.0088560398687576366 -0.0055752401855360609 0 -0.0088238659172279101 -0.0056927178568186489 0 -0.008865413317765072 -0.0056627890677560938 0 -0.0088560398687576366 -0.0055752401855360609 0 -0.00887403952607267 -0.0055404399666399307 0 -0.0088560398687576366 -0.0055752401855360609 0 -0.00887403952607267 -0.0055404399666399307 0 -0.0088092712493381218 -0.005426825396285904 0 -0.0088560398687576366 -0.0055752401855360609 0 -0.0088092712493381218 -0.005426825396285904 0 -0.0087977460811394792 -0.0055016862266610905 0 -0.0089651499812574108 -0.005676485602711983 0 -0.00887403952607267 -0.0055404399666399307 0 -0.0088187874277650038 -0.0053996958610018665 0 -0.0089651499812574108 -0.005676485602711983 0 -0.008865413317765072 -0.0056627890677560938 0 -0.00887403952607267 -0.0055404399666399307 0 -0.0089651499812574108 -0.005676485602711983 0 -0.0088187874277650038 -0.0053996958610018665 0 -0.0086686711461345517 -0.0050950718394978311 0 -0.0088187874277650038 -0.0053996958610018665 0 -0.0087583273790811465 -0.0053085324830500205 0 -0.0088092712493381218 -0.005426825396285904 0 -0.00887403952607267 -0.0055404399666399307 0 -0.0088187874277650038 -0.0053996958610018665 0 -0.0088092712493381218 -0.005426825396285904 0 -0.0088187874277650038 -0.0053996958610018665 0 -0.0086686711461345517 -0.0050950718394978311 0 -0.0087583273790811465 -0.0053085324830500205 0 -0.0086686711461345517 -0.0050950718394978311 0 -0.0087583273790811465 -0.0053085324830500205 0 -0.008711751819118348 -0.0053020522449882257 0 -0.008711751819118348 -0.0053020522449882257 0 -0.0088092712493381218 -0.005426825396285904 0 -0.0087977460811394792 -0.0055016862266610905 0 -0.0087583273790811465 -0.0053085324830500205 0 -0.008711751819118348 -0.0053020522449882257 0 -0.0088092712493381218 -0.005426825396285904 0 -0.0087977460811394792 -0.0055016862266610905 0 -0.0087029171035477165 -0.0055393234562595064 0 -0.0088680078737279691 -0.0056391550205815572 0 -0.008711751819118348 -0.0053020522449882257 0 -0.0087977460811394792 -0.0055016862266610905 0 -0.0087029171035477165 -0.0055393234562595064 0 -0.0085457733896049243 -0.00530116992332429 0 -0.008711751819118348 -0.0053020522449882257 0 -0.0087029171035477165 -0.0055393234562595064 0 -0.0085056792405809514 -0.0056275321114200912 0 -0.0085457733896049243 -0.00530116992332429 0 -0.0087029171035477165 -0.0055393234562595064 0 -0.0088560398687576366 -0.0055752401855360609 0 -0.0088680078737279691 -0.0056391550205815572 0 -0.0088238659172279101 -0.0056927178568186489 0 -0.0088560398687576366 -0.0055752401855360609 0 -0.0087977460811394792 -0.0055016862266610905 0 -0.0088680078737279691 -0.0056391550205815572 0 -0.0089651499812574108 -0.005676485602711983 0 -0.0084552277851886442 -0.006193155203865347 0 -0.008733774463751327 -0.005860293582567927 0 -0.0088680078737279691 -0.0056391550205815572 0 -0.0088238659172279101 -0.0056927178568186489 0 -0.0086662703671912169 -0.0057451966414241483 0 -0.0088238659172279101 -0.0056927178568186489 0 -0.0086662703671912169 -0.0057451966414241483 0 -0.008733774463751327 -0.005860293582567927 0 -0.0086662703671912169 -0.0057451966414241483 0 -0.0084552277851886442 -0.006193155203865347 0 -0.008733774463751327 -0.005860293582567927 0 -0.008865413317765072 -0.0056627890677560938 0 -0.0088238659172279101 -0.0056927178568186489 0 -0.008733774463751327 -0.005860293582567927 0 -0.008665286506579023 -0.0045548032005237856 0 -0.007735417441776405 -0.0055365488131766082 0 -0.0087500871664347186 -0.0035647244331263174 0 -0.0088418963730878472 -0.0033245395695458996 0 -0.0089816625615422949 -0.0032783091199414171 0 -0.0089651499812574108 -0.005676485602711983 0 -0.0084552277851886442 -0.006193155203865347 0 -0.0080382769699799128 -0.0068999569218610004 0 -0.0087516408334058181 -0.0035291658596225493 0 -0.0078973697581029394 -0.004167073312582239 0 -0.0070230121081975424 -0.0035570131912317617 0 -0.0085793151231517897 -0.0037765292705668439 0 -0.0077568948612991625 -0.0015157620653059806 0 -0.0078973697581029394 -0.004167073312582239 0 -0.0065168025460393035 -0.0039564072099135079 0 -0.0070230121081975424 -0.0035570131912317617 0 -0.0077568948612991625 -0.0015157620653059806 0 -0.0052507736831326401 -0.0005915156058312526 0 -0.0065558065552287674 -0.0062002859337938129 0 -0.0078316752774658174 -0.0050920587733523839 0 -0.0078093302071995992 -0.0060004016592678329 0 -0.0078316752774658174 -0.0050920587733523839 0 -0.0086662703671912169 -0.0057451966414241483 0 -0.0078093302071995992 -0.0060004016592678329 0 -0.0069334715574124245 -0.0067196351291935706 0 -0.0080382769699799128 -0.0068999569218610004 0 -0.0078093302071995992 -0.0060004016592678329 0 -0.0084552277851886442 -0.006193155203865347 0 -0.0080382769699799128 -0.0068999569218610004 0 -0.0078093302071995992 -0.0060004016592678329 0 -0.0086662703671912169 -0.0057451966414241483 0 -0.0084552277851886442 -0.006193155203865347 0 -0.0078093302071995992 -0.0060004016592678329 0 -0.0097351994397554195 -0.00052959918260869385 0 -0.010159619746221366 -0.001432582469385378 0 -0.0085280116880332227 -0.0010029344771633106 0 -0.012145839580741613 -0.0012856097805942447 0 -0.010159619746221366 -0.001432582469385378 0 -0.010829051997318989 -0.00040184205179306416 0 -0.0097351994397554195 -0.00052959918260869385 0 -0.010159619746221366 -0.001432582469385378 0 -0.010829051997318989 -0.00040184205179306416 0 -0.013843387607946886 -0.0020804785909115681 0 -0.0097413913639754369 -0.005199684061090273 0 -0.0097351994397554195 -0.00052959918260869385 0 -0.010829051997318989 -0.00040184205179306416 0 -0.009517935105217798 0.00063408886499052722 0 -0.016000689946386894 -0.0050797514215089948 0 -0.016199641286773616 -0.0040804159558466635 0 -0.017074207803641831 -0.0048864972400916489 0 -0.0097413913639754369 -0.005199684061090273 0 -0.007140686071897993 -0.0032413312312044745 0 -0.0097351994397554195 -0.00052959918260869385 0 -0.009517935105217798 0.00063408886499052722 0 -0.0085280116880332227 -0.0010029344771633106 0 -0.0056590723504184948 -0.0072472041119573741 0 -0.0063268083672791868 -0.0071157391422207901 0 -0.0060005243359863734 -0.0059988759042055775 0 -0.0064115931261642563 -0.0077065058399003227 0 -0.0056590723504184948 -0.0072472041119573741 0 -0.0063268083672791868 -0.0071157391422207901 0 -0.0063268083672791868 -0.0071157391422207901 0 -0.0067962751138356241 -0.0069744196886655074 0 -0.0060005243359863734 -0.0059988759042055775 0 -0.0069782333748498685 -0.0076175745289217061 0 -0.006650625824550704 -0.0074529415973278662 0 -0.0067962751138356241 -0.0069744196886655074 0 -0.006650625824550704 -0.0074529415973278662 0 -0.0063268083672791868 -0.0071157391422207901 0 -0.0067962751138356241 -0.0069744196886655074 0 -0.0063610918727113963 -0.0083896091398421146 0 -0.0070523126046015136 -0.0081089974106014085 0 -0.0072768230457366679 -0.0069172114472138817 0 -0.0067197571737752839 -0.0079215311808409107 0 -0.0072032961499146802 -0.00703219109679829 0 -0.0067962751138356241 -0.0069744196886655074 0 -0.0072768230457366679 -0.0069172114472138817 0 -0.0072271512656066758 -0.0061332442150551737 0 -0.0069782333748498685 -0.0076175745289217061 0 -0.0067962751138356241 -0.0069744196886655074 0 -0.0072768230457366679 -0.0069172114472138817 0 -0.0072768230457366679 -0.0069172114472138817 0 -0.0075526421245259582 -0.0061719650107916564 0 -0.0072271512656066758 -0.0061332442150551737 0 -0.0072271512656066758 -0.0061332442150551737 0 -0.0078294705020912434 -0.0054555967133287286 0 -0.0074799084072529427 -0.0049502955785255352 0 -0.0075526421245259582 -0.0061719650107916564 0 -0.0072271512656066758 -0.0061332442150551737 0 -0.0078294705020912434 -0.0054555967133287286 0 -0.0072271512656066758 -0.0061332442150551737 0 -0.0060005243359863734 -0.0059988759042055775 0 -0.0074799084072529427 -0.0049502955785255352 0 -0.0067962751138356241 -0.0069744196886655074 0 -0.0072271512656066758 -0.0061332442150551737 0 -0.0060005243359863734 -0.0059988759042055775 0 -0.0060005243359863734 -0.0059988759042055775 0 -0.0074956099876471059 -0.0034512894223247153 0 -0.0074799084072529427 -0.0049502955785255352 0 -0.0085280116880332227 -0.0010029344771633106 0 -0.0074956099876471059 -0.0034512894223247153 0 -0.0092079623411603796 -0.0026057837634048558 0 -0.007140686071897993 -0.0032413312312044745 0 -0.0074771550033141459 -0.0035033775471947719 0 -0.0078294705020912434 -0.0054555967133287286 0 -0.0079622263341924803 -0.0047044602041637065 0 -0.0074799084072529427 -0.0049502955785255352 0 -0.0079622263341924803 -0.0047044602041637065 0 -0.0074799084072529427 -0.0049502955785255352 0 -0.0078053294329693528 -0.00415851555197901 0 -0.0081363769318153149 -0.0051366990130513488 0 -0.0078294705020912434 -0.0054555967133287286 0 -0.0079622263341924803 -0.0047044602041637065 0 -0.0074956099876471059 -0.0034512894223247153 0 -0.0074799084072529427 -0.0049502955785255352 0 -0.0078053294329693528 -0.00415851555197901 0 -0.0074956099876471059 -0.0034512894223247153 0 -0.0078053294329693528 -0.00415851555197901 0 -0.0078876276354462611 -0.0035999145606389949 0 -0.0078053294329693528 -0.00415851555197901 0 -0.0081930435894783174 -0.0040481220446302296 0 -0.0078876276354462611 -0.0035999145606389949 0 -0.0079622263341924803 -0.0047044602041637065 0 -0.0078053294329693528 -0.00415851555197901 0 -0.0081930435894783174 -0.0040481220446302296 0 -0.0082259370741456419 -0.0047366725780342671 0 -0.0079622263341924803 -0.0047044602041637065 0 -0.0081930435894783174 -0.0040481220446302296 0 -0.0074956099876471059 -0.0034512894223247153 0 -0.0078876276354462611 -0.0035999145606389949 0 -0.0081027116904041907 -0.0033385701132199177 0 -0.0081930435894783174 -0.0040481220446302296 0 -0.0078876276354462611 -0.0035999145606389949 0 -0.0081112639801757657 -0.0034449954184559875 0 -0.0083448388011906054 -0.0037770125494380655 0 -0.0081930435894783174 -0.0040481220446302296 0 -0.0081112639801757657 -0.0034449954184559875 0 -0.0078876276354462611 -0.0035999145606389949 0 -0.0081112639801757657 -0.0034449954184559875 0 -0.0081027116904041907 -0.0033385701132199177 0 -0.008343280422118321 -0.0032283154077873042 0 -0.0081112639801757657 -0.0034449954184559875 0 -0.0081027116904041907 -0.0033385701132199177 0 -0.0074956099876471059 -0.0034512894223247153 0 -0.0084118939467591972 -0.0033278574056884681 0 -0.0092079623411603796 -0.0026057837634048558 0 -0.0084118939467591972 -0.0033278574056884681 0 -0.0085676123868213862 -0.0034681147749055022 0 -0.0081027116904041907 -0.0033385701132199177 0 -0.0074956099876471059 -0.0034512894223247153 0 -0.0084118939467591972 -0.0033278574056884681 0 -0.0081027116904041907 -0.0033385701132199177 0 -0.0084118939467591972 -0.0033278574056884681 0 -0.0091974322711261963 -0.003393135712422112 0 -0.0085676123868213862 -0.0034681147749055022 0 -0.0091974322711261963 -0.003393135712422112 0 -0.0092079623411603796 -0.0026057837634048558 0 -0.010092138613830093 -0.0030939051713148721 0 -0.0084118939467591972 -0.0033278574056884681 0 -0.0091974322711261963 -0.003393135712422112 0 -0.0092079623411603796 -0.0026057837634048558 0 -0.010159619746221366 -0.001432582469385378 0 -0.0085280116880332227 -0.0010029344771633106 0 -0.0092079623411603796 -0.0026057837634048558 0 -0.010159619746221366 -0.001432582469385378 0 -0.0092079623411603796 -0.0026057837634048558 0 -0.010711693172540032 -0.0023527142939482005 0 -0.012145839580741613 -0.0012856097805942447 0 -0.010159619746221366 -0.001432582469385378 0 -0.010711693172540032 -0.0023527142939482005 0 -0.0092079623411603796 -0.0026057837634048558 0 -0.010711693172540032 -0.0023527142939482005 0 -0.010092138613830093 -0.0030939051713148721 0 -0.01111666846110936 -0.003264190278497663 0 -0.010711693172540032 -0.0023527142939482005 0 -0.010092138613830093 -0.0030939051713148721 0 -0.01111666846110936 -0.003264190278497663 0 -0.010092138613830093 -0.0030939051713148721 0 -0.0099648760143224695 -0.0037961913876670213 0 -0.01111666846110936 -0.003264190278497663 0 -0.0099648760143224695 -0.0037961913876670213 0 -0.01090906984330962 -0.0041839442952499818 0 -0.0099648760143224695 -0.0037961913876670213 0 -0.010088351710208899 -0.0044019858985356328 0 -0.01090906984330962 -0.0041839442952499818 0 -0.010088351710208899 -0.0044019858985356328 0 -0.010782392215190164 -0.0045436243340860119 0 -0.01090906984330962 -0.0041839442952499818 0 -0.0099648760143224695 -0.0037961913876670213 0 -0.010088351710208899 -0.0044019858985356328 0 -0.0095933049276977437 -0.0040500785274376659 0 -0.010088351710208899 -0.0044019858985356328 0 -0.0096808407790750454 -0.0043678141112879531 0 -0.010334043800037544 -0.0045431143906882578 0 -0.013133799616615092 -0.003221474101499088 0 -0.011144748752424643 0.0070393874554981134 0 -0.010088351710208899 -0.0044019858985356328 0 -0.010782392215190164 -0.0045436243340860119 0 -0.010730123234109035 -0.0051270006007200601 0 -0.0096808407790750454 -0.0043678141112879531 0 -0.0090456576783684642 -0.0039024337977581771 0 -0.0094653165449048414 -0.004673103363645262 0 -0.010088351710208899 -0.0044019858985356328 0 -0.0096808407790750454 -0.0043678141112879531 0 -0.0095933049276977437 -0.0040500785274376659 0 -0.0096808407790750454 -0.0043678141112879531 0 -0.0095933049276977437 -0.0040500785274376659 0 -0.0090456576783684642 -0.0039024337977581771 0 -0.0095933049276977437 -0.0040500785274376659 0 -0.0090456576783684642 -0.0039024337977581771 0 -0.0092748952628589794 -0.0037227949377966669 0 -0.0091974322711261963 -0.003393135712422112 0 -0.010092138613830093 -0.0030939051713148721 0 -0.0099648760143224695 -0.0037961913876670213 0 -0.0090456576783684642 -0.0039024337977581771 0 -0.0092748952628589794 -0.0037227949377966669 0 -0.0085676123868213862 -0.0034681147749055022 0 -0.0099648760143224695 -0.0037961913876670213 0 -0.0095933049276977437 -0.0040500785274376659 0 -0.0092748952628589794 -0.0037227949377966669 0 -0.0091974322711261963 -0.003393135712422112 0 -0.0099648760143224695 -0.0037961913876670213 0 -0.0092748952628589794 -0.0037227949377966669 0 -0.0091974322711261963 -0.003393135712422112 0 -0.0092748952628589794 -0.0037227949377966669 0 -0.0085676123868213862 -0.0034681147749055022 0 -0.0090456576783684642 -0.0039024337977581771 0 -0.0085676123868213862 -0.0034681147749055022 0 -0.0083508039767293766 -0.0033339171097447025 0 -0.0085676123868213862 -0.0034681147749055022 0 -0.0081027116904041907 -0.0033385701132199177 0 -0.0083508039767293766 -0.0033339171097447025 0 -0.008343280422118321 -0.0032283154077873042 0 -0.0081027116904041907 -0.0033385701132199177 0 -0.008393603279962988 -0.0030575065712927433 0 -0.0081027116904041907 -0.0033385701132199177 0 -0.0083508039767293766 -0.0033339171097447025 0 -0.008393603279962988 -0.0030575065712927433 0 -0.010463409818353806 -0.0042622620045846922 0 -0.0086439961762009403 -0.002055994913649186 0 -0.0083508039767293766 -0.0033339171097447025 0 -0.008393603279962988 -0.0030575065712927433 0 -0.0087594584030593406 -0.0023988245627772518 0 -0.0083508039767293766 -0.0033339171097447025 0 -0.0084825923122061973 -0.0037871462834128747 0 -0.0087594584030593406 -0.0023988245627772518 0 -0.0090456576783684642 -0.0039024337977581771 0 -0.0083508039767293766 -0.0033339171097447025 0 -0.0084825923122061973 -0.0037871462834128747 0 -0.0090456576783684642 -0.0039024337977581771 0 -0.0084825923122061973 -0.0037871462834128747 0 -0.0094653165449048414 -0.004673103363645262 0 -0.010969616602223819 -0.0013639820672964797 0 -0.01094678249199838 -0.0028053553389536857 0 -0.01400823333895572 -0.0017358983366837198 0 -0.010463409818353806 -0.0042622620045846922 0 -0.011549166103821916 0.011597287368569537 0 -0.0098652320594538826 0.019282287542049307 0 -0.011549166103821916 0.011597287368569537 0 -0.010969616602223819 -0.0013639820672964797 0 -0.0096793285791884568 -0.0022547813072521868 0 -0.0087594584030593406 -0.0023988245627772518 0 -0.010969616602223819 -0.0013639820672964797 0 -0.0096793285791884568 -0.0022547813072521868 0 -0.01094678249199838 -0.0028053553389536857 0 -0.0096793285791884568 -0.0022547813072521868 0 -0.01094678249199838 -0.0028053553389536857 0 -0.0090374246051860684 -0.0025574885648337342 0 -0.0071648663655529471 0.038065431743729179 0 -0.0080248600388536651 0.039237283814482611 0 -0.0054196948486959044 0.038368262580406404 0 -0.0098652320594538826 0.019282287542049307 0 -0.0073398254033135756 0.016367716442084481 0 -0.0080248600388536651 0.039237283814482611 0 -0.010450996003359515 0.038506259563458982 0 -0.0091020663573509204 0.038078961119183428 0 -0.0071648663655529471 0.038065431743729179 0 -0.0080248600388536651 0.039237283814482611 0 -0.0091020663573509204 0.038078961119183428 0 -0.010450996003359515 0.038506259563458982 0 -0.011566141040167443 0.039062701642889226 0 -0.010228805778228899 0.039666766380424226 0 -0.0080248600388536651 0.039237283814482611 0 -0.010450996003359515 0.038506259563458982 0 -0.010228805778228899 0.039666766380424226 0 -0.010450996003359515 0.038506259563458982 0 -0.011566141040167443 0.039062701642889226 0 -0.011605817166926359 0.038311511820908056 0 -0.010718153765116601 0.018227092152188967 0 -0.010626771726968739 0.016235878762697945 0 -0.013544573797778311 0.01718878274191888 0 -0.011144748752424643 0.0070393874554981134 0 -0.011549166103821916 0.011597287368569537 0 -0.010005367804946382 0.030117499892325591 0 -0.011549166103821916 0.011597287368569537 0 -0.0096808407790750454 -0.0043678141112879531 0 -0.010334043800037544 -0.0045431143906882578 0 -0.0094653165449048414 -0.004673103363645262 0 -0.0083044563160758218 -0.0020805480144798025 0 -0.0085197998649831647 -0.0021886997939536963 0 -0.0085320144152458994 -0.0021051797393071337 0 -0.0085197998649831647 -0.0021886997939536963 0 -0.0085320144152458994 -0.0021051797393071337 0 -0.0087044778799768036 -0.0023202500155716753 0 -0.0077568948612991625 -0.0015157620653059806 0 -0.0069996215124258397 -0.00052629004912149464 0 -0.0070956126399281316 0.0018384758334435837 0 -0.0043911624122577805 0.0023339367535437534 0 -0.0049127764941712176 0.00056717770531994056 0 -0.0088418963730878472 -0.0033245395695458996 0 -0.0089816625615422949 -0.0032783091199414171 0 -0.0091952741720970569 -0.0030293812730264546 0 -0.009177831667817285 -0.0032917820556412768 0 -0.0069996215124258397 -0.00052629004912149464 0 -0.0088903195544176809 -0.0026902833584459248 0 -0.0085320144152458994 -0.0021051797393071337 0 -0.0087535623435851945 -0.0024223059601557874 0 -0.0085320144152458994 -0.0021051797393071337 0 -0.0087535623435851945 -0.0024223059601557874 0 -0.0087044778799768036 -0.0023202500155716753 0 -0.0087535623435851945 -0.0024223059601557874 0 -0.0087044778799768036 -0.0023202500155716753 0 -0.0087811887276073412 -0.0025368532940038212 0 -0.0087044778799768036 -0.0023202500155716753 0 -0.0087674021662732197 -0.0022987657570627167 0 -0.008604190807022228 -0.0022534724254075662 0 -0.0085197998649831647 -0.0021886997939536963 0 -0.0087044778799768036 -0.0023202500155716753 0 -0.008604190807022228 -0.0022534724254075662 0 -0.0087811887276073412 -0.0025368532940038212 0 -0.0087594584030593406 -0.0023988245627772518 0 -0.0087674021662732197 -0.0022987657570627167 0 -0.0087044778799768036 -0.0023202500155716753 0 -0.0087811887276073412 -0.0025368532940038212 0 -0.0087674021662732197 -0.0022987657570627167 0 -0.0088903195544176809 -0.0026902833584459248 0 -0.0087535623435851945 -0.0024223059601557874 0 -0.0087811887276073412 -0.0025368532940038212 0 -0.0088903195544176809 -0.0026902833584459248 0 -0.0087811887276073412 -0.0025368532940038212 0 -0.0087276255919804882 -0.0028014114721973439 0 -0.0086007718034799372 -0.0030767038991518451 0 -0.0087276255919804882 -0.0028014114721973439 0 -0.0086260998437437571 -0.0028839248275659159 0 -0.0087811887276073412 -0.0025368532940038212 0 -0.0087276255919804882 -0.0028014114721973439 0 -0.0086260998437437571 -0.0028839248275659159 0 -0.008393603279962988 -0.0030575065712927433 0 -0.0086260998437437571 -0.0028839248275659159 0 -0.0087594584030593406 -0.0023988245627772518 0 -0.0087811887276073412 -0.0025368532940038212 0 -0.0086260998437437571 -0.0028839248275659159 0 -0.0087594584030593406 -0.0023988245627772518 0 -0.008343280422118321 -0.0032283154077873042 0 -0.0086007718034799372 -0.0030767038991518451 0 -0.0086260998437437571 -0.0028839248275659159 0 -0.008343280422118321 -0.0032283154077873042 0 -0.008393603279962988 -0.0030575065712927433 0 -0.0086260998437437571 -0.0028839248275659159 0 -0.0087594584030593406 -0.0023988245627772518 0 -0.0089019599682877235 -0.0023096768714632068 0 -0.0087674021662732197 -0.0022987657570627167 0 -0.0096793285791884568 -0.0022547813072521868 0 -0.0087594584030593406 -0.0023988245627772518 0 -0.0091804300133529193 -0.0023234135076521467 0 -0.0087594584030593406 -0.0023988245627772518 0 -0.0089019599682877235 -0.0023096768714632068 0 -0.0091804300133529193 -0.0023234135076521467 0 -0.0089019599682877235 -0.0023096768714632068 0 -0.0090374246051860684 -0.0025574885648337342 0 -0.008768735096667462 -0.002376544757848939 0 -0.0089019599682877235 -0.0023096768714632068 0 -0.0091804300133529193 -0.0023234135076521467 0 -0.0090374246051860684 -0.0025574885648337342 0 -0.0096793285791884568 -0.0022547813072521868 0 -0.0091804300133529193 -0.0023234135076521467 0 -0.0090374246051860684 -0.0025574885648337342 0 -0.01094678249199838 -0.0028053553389536857 0 -0.009155642781518581 -0.0029038201705284278 0 -0.0090374246051860684 -0.0025574885648337342 0 -0.0071648663655529471 0.038065431743729179 0 -0.0054196948486959044 0.038368262580406404 0 -0.0055756833744281548 0.037422874465405383 0 -0.0073398254033135756 0.016367716442084481 0 -0.0021402384758685339 0.035453412032838701 0 -0.0020826860198726775 0.014687249394654569 0 -0.0021402384758685339 0.035453412032838701 0 -0.0032729755341571638 0.02684550332349896 0 -0.0054465202078539708 0.027497325895225654 0 -0.0031379092630356964 0.028514713254330488 0 -0.0073398254033135756 0.016367716442084481 0 -0.0020826860198726775 0.014687249394654569 0 -0.0089927745941026822 -0.0024989046547050139 0 -0.0088822240098524134 -0.0024746485947290801 0 -0.0087656795938906538 -0.0024848517833624545 0 -0.0090374246051860684 -0.0025574885648337342 0 -0.008768735096667462 -0.002376544757848939 0 -0.0088822240098524134 -0.0024746485947290801 0 -0.0073398254033135756 0.016367716442084481 0 -0.0085447956338993956 0.0020393557906178248 0 -0.0089927745941026822 -0.0024989046547050139 0 -0.0090374246051860684 -0.0025574885648337342 0 -0.0088822240098524134 -0.0024746485947290801 0 -0.0085705995470148101 -0.0022690147205523285 0 -0.0085932180704001992 -0.002347428421769738 0 -0.0084967685289311628 -0.0023173685684083375 0 -0.008768735096667462 -0.002376544757848939 0 -0.0088822240098524134 -0.0024746485947290801 0 -0.0087656795938906538 -0.0024848517833624545 0 -0.0020826860198726775 0.014687249394654569 0 -0.011367391808337039 0.0031394538051670497 0 -0.008768735096667462 -0.002376544757848939 0 -0.0087656795938906538 -0.0024848517833624545 0 -0.0085932180704001992 -0.002347428421769738 0 -0.008768735096667462 -0.002376544757848939 0 -0.0085932180704001992 -0.002347428421769738 0 -0.0086314919522915319 -0.0023157088197133416 0 -0.008768735096667462 -0.002376544757848939 0 -0.0087674021662732197 -0.0022987657570627167 0 -0.0086314919522915319 -0.0023157088197133416 0 -0.0089019599682877235 -0.0023096768714632068 0 -0.008768735096667462 -0.002376544757848939 0 -0.0087674021662732197 -0.0022987657570627167 0 -0.0087674021662732197 -0.0022987657570627167 0 -0.008604190807022228 -0.0022534724254075662 0 -0.0086314919522915319 -0.0023157088197133416 0 -0.008604190807022228 -0.0022534724254075662 0 -0.00852021116342715 -0.0022674506020028441 0 -0.0086314919522915319 -0.0023157088197133416 0 -0.0085932180704001992 -0.002347428421769738 0 -0.0086314919522915319 -0.0023157088197133416 0 -0.0085313995674577911 -0.0023066371697436036 0 -0.0085932180704001992 -0.002347428421769738 0 -0.0085313995674577911 -0.0023066371697436036 0 -0.0084967685289311628 -0.0023173685684083375 0 -0.0085313995674577911 -0.0023066371697436036 0 -0.008389169723968793 -0.0022650304036943413 0 -0.0084967685289311628 -0.0023173685684083375 0 -0.00852021116342715 -0.0022674506020028441 0 -0.0086314919522915319 -0.0023157088197133416 0 -0.0085313995674577911 -0.0023066371697436036 0 -0.00852021116342715 -0.0022674506020028441 0 -0.0085313995674577911 -0.0023066371697436036 0 -0.008389169723968793 -0.0022650304036943413 0 -0.008389169723968793 -0.0022650304036943413 0 -0.0082543834775315166 -0.0022688053688398446 0 -0.0084967685289311628 -0.0023173685684083375 0 -0.00852021116342715 -0.0022674506020028441 0 -0.008389169723968793 -0.0022650304036943413 0 -0.008394968035825269 -0.0021911697469857872 0 -0.0081633048147537468 -0.0022202083341992356 0 -0.008389169723968793 -0.0022650304036943413 0 -0.0082543834775315166 -0.0022688053688398446 0 -0.0081633048147537468 -0.0022202083341992356 0 -0.008389169723968793 -0.0022650304036943413 0 -0.008394968035825269 -0.0021911697469857872 0 -0.008604190807022228 -0.0022534724254075662 0 -0.00852021116342715 -0.0022674506020028441 0 -0.008394968035825269 -0.0021911697469857872 0 -0.0085197998649831647 -0.0021886997939536963 0 -0.008604190807022228 -0.0022534724254075662 0 -0.008394968035825269 -0.0021911697469857872 0 -0.0083044563160758218 -0.0020805480144798025 0 -0.0085197998649831647 -0.0021886997939536963 0 -0.008394968035825269 -0.0021911697469857872 0 0.0068904533566920643 0.032810494883511586 0 0.0065724885167008362 0.032702127533716617 0 0.0074810534399449369 0.033096442484273458 0 0.0065724885167008362 0.032702127533716617 0 0.0074810534399449369 0.033096442484273458 0 0.0077446747078565087 0.033187685786275664 0 0.0065582316272459439 0.03288984066735965 0 0.0064523685733866758 0.034248741359224184 0 0.0065724885167008362 0.032702127533716617 0 0.0063151583271409848 0.034003641118987196 0 0.0051491130945768683 0.035162599008633229 0 0.00678035815340904 0.032922944405097888 0 0.0068904533566920643 0.032810494883511586 0 0.0074810534399449369 0.033096442484273458 0 0.0070759987477290367 0.031571392205306387 0 0.007659949849748467 0.032886703075567972 0 0.00678035815340904 0.032922944405097888 0 0.0068904533566920643 0.032810494883511586 0 0.0066828020903940489 0.032703742854090799 0 -0.0082543834775315166 -0.0022688053688398446 0 -0.0082108043571945902 -0.0023081564168951686 0 -0.0084967685289311628 -0.0023173685684083375 0 0.0068904533566920643 0.032810494883511586 0 0.0066828020903940489 0.032703742854090799 0 0.0065724885167008362 0.032702127533716617 0 -0.0016336984628346918 0.014052018216358011 0 -0.00043132034166300427 0.015037329241378466 0 0.0066828020903940489 0.032703742854090799 0 0.0065724885167008362 0.032702127533716617 0 0.0066068268559009982 0.032431074966380528 0 -0.0081921310247896877 -0.0023231854134697274 0 -0.0082108043571945902 -0.0023081564168951686 0 -0.0084967685289311628 -0.0023173685684083375 0 -0.0016336984628346918 0.014052018216358011 0 -0.0018106845666029144 0.0079644513358729189 0 0.0066868508804446411 0.032998632683327485 0 0.0066068268559009982 0.032431074966380528 0 0.0070855102637870796 0.033178694131056702 0 -0.0020826860198726775 0.014687249394654569 0 -0.00043132034166300427 0.015037329241378466 0 0.0065724885167008362 0.032702127533716617 0 0.0066868508804446411 0.032998632683327485 0 0.0066068268559009982 0.032431074966380528 0 0.0066068268559009982 0.032431074966380528 0 0.0070855102637870796 0.033178694131056702 0 0.0077342365725257657 0.032550145127550827 0 0.0063151583271409848 0.034003641118987196 0 0.0076504101355515421 0.034238622741737321 0 0.0067303326085358193 0.035054163722143671 0 0.0070855102637870796 0.033178694131056702 0 0.0063151583271409848 0.034003641118987196 0 0.0076504101355515421 0.034238622741737321 0 0.0065724885167008362 0.032702127533716617 0 0.0066868508804446411 0.032998632683327485 0 0.0063151583271409848 0.034003641118987196 0 0.0066868508804446411 0.032998632683327485 0 0.0070855102637870796 0.033178694131056702 0 0.0063151583271409848 0.034003641118987196 0 0.0070855102637870796 0.033178694131056702 0 0.0076504101355515421 0.034238622741737321 0 0.0083401858483557918 0.033114083986810532 0 0.0076504101355515421 0.034238622741737321 0 0.0083401858483557918 0.033114083986810532 0 0.009703248145951953 0.034246347758946097 0 0.0081617636184122006 0.031645926031958087 0 0.0066068268559009982 0.032431074966380528 0 0.0077342365725257657 0.032550145127550827 0 0.0070855102637870796 0.033178694131056702 0 0.0077342365725257657 0.032550145127550827 0 0.0083401858483557918 0.033114083986810532 0 0.0081617636184122006 0.031645926031958087 0 0.0077342365725257657 0.032550145127550827 0 0.0083942958839983411 0.032355660970671732 0 0.0081617636184122006 0.031645926031958087 0 0.0083942958839983411 0.032355660970671732 0 0.0093478321181398403 0.032101248815667775 0 0.0077342365725257657 0.032550145127550827 0 0.0083942958839983411 0.032355660970671732 0 0.0083401858483557918 0.033114083986810532 0 -0.0021402384758685339 0.035453412032838701 0 0.00021722119786152 0.036276573820709201 0 -0.009586380678890111 0.038525659062575796 0 -0.0096874870192927547 0.038276694502874929 0 -0.0098724278968248518 0.038454327621024707 0 0.0083401858483557918 0.033114083986810532 0 0.0093478321181398403 0.032101248815667775 0 0.009703248145951953 0.034246347758946097 0 0.0083942958839983411 0.032355660970671732 0 0.0083401858483557918 0.033114083986810532 0 0.0093478321181398403 0.032101248815667775 0 0.009703248145951953 0.034246347758946097 0 0.010090069984852811 0.036719463351208424 0 0.0080443902018501878 0.035887971316978656 0 0.00021722119786152 0.036276573820709201 0 0.00010397493386599486 0.037422767348938978 0 -0.0096874870192927547 0.038276694502874929 0 -0.009829315245445773 0.038124899394708298 0 -0.0098804935163644882 0.038202405816330956 0 0.0083252135160566277 0.038165410067359552 0 0.0080443902018501878 0.035887971316978656 0 0.0069036898635037027 0.037071620416475347 0 0.0083252135160566277 0.038165410067359552 0 0.010090069984852811 0.036719463351208424 0 0.0080443902018501878 0.035887971316978656 0 0.0076504101355515421 0.034238622741737321 0 0.009703248145951953 0.034246347758946097 0 0.0080443902018501878 0.035887971316978656 0 0.0076504101355515421 0.034238622741737321 0 0.0080443902018501878 0.035887971316978656 0 0.0067303326085358193 0.035054163722143671 0 0.0063151583271409848 0.034003641118987196 0 0.0067303326085358193 0.035054163722143671 0 0.0060723330800561094 0.034928929107184571 0 0.0067303326085358193 0.035054163722143671 0 0.0060723330800561094 0.034928929107184571 0 0.0060475895295124737 0.035512518683272057 0 0.0067303326085358193 0.035054163722143671 0 0.0060475895295124737 0.035512518683272057 0 0.0066464891645560964 0.036096671409644197 0 0.0060475895295124737 0.035512518683272057 0 0.0066464891645560964 0.036096671409644197 0 0.0057465908903098894 0.036489510907756616 0 0.0080443902018501878 0.035887971316978656 0 0.0067303326085358193 0.035054163722143671 0 0.0066464891645560964 0.036096671409644197 0 0.0080443902018501878 0.035887971316978656 0 0.0066464891645560964 0.036096671409644197 0 0.0069036898635037027 0.037071620416475347 0 0.0068355582935733031 0.038485458318581696 0 0.0069036898635037027 0.037071620416475347 0 0.0059061308916117062 0.037876928988257542 0 0.0069036898635037027 0.037071620416475347 0 0.0059061308916117062 0.037876928988257542 0 0.0057465908903098894 0.036489510907756616 0 0.0066464891645560964 0.036096671409644197 0 0.0069036898635037027 0.037071620416475347 0 0.0057465908903098894 0.036489510907756616 0 0.0080024722951351004 0.033446300443106772 0 0.0087196733788227586 0.033948156972255429 0 0.0077446747078565087 0.033187685786275664 0 0.0065110788995624645 0.03609104380563153 0 0.0064523685733866758 0.034248741359224184 0 0.0043122288195789216 0.038088189655760232 0 0.0057465908903098894 0.036489510907756616 0 0.0051491130945768683 0.035162599008633229 0 0.0043122288195789216 0.038088189655760232 0 0.0059061308916117062 0.037876928988257542 0 0.0057465908903098894 0.036489510907756616 0 0.0080024722951351004 0.033446300443106772 0 0.0075408542042429676 0.03306447246036813 0 0.0077446747078565087 0.033187685786275664 0 0.0060475895295124737 0.035512518683272057 0 0.0057465908903098894 0.036489510907756616 0 0.0051491130945768683 0.035162599008633229 0 0.0060723330800561094 0.034928929107184571 0 0.0060475895295124737 0.035512518683272057 0 0.0051491130945768683 0.035162599008633229 0 0.0063151583271409848 0.034003641118987196 0 0.0060723330800561094 0.034928929107184571 0 0.0051491130945768683 0.035162599008633229 0 0.0075408542042429676 0.03306447246036813 0 0.0074810534399449369 0.033096442484273458 0 0.0077446747078565087 0.033187685786275664 0 -0.011244466872854238 0.037762281736726286 0 -0.011094617595224832 0.03787569935041684 0 -0.010720737585808507 0.037626368245425236 0 -0.011244466872854238 0.037762281736726286 0 -0.010253525085069716 0.037308578355469572 0 -0.010720737585808507 0.037626368245425236 0 -0.011237736112287948 0.037645177877159548 0 -0.010419592140384076 0.037917499293548616 0 -0.011244466872854238 0.037762281736726286 0 -0.011879957222692181 0.037710353297199406 0 -0.011582839205792525 0.038014743814122565 0 -0.010419592140384076 0.037917499293548616 0 -0.010304045723571553 0.037592236310115171 0 -0.011879957222692181 0.037710353297199406 0 -0.011582839205792525 0.038014743814122565 0 -0.011741728481745544 0.038222813815353758 0 -0.011244466872854238 0.037762281736726286 0 -0.011582839205792525 0.038014743814122565 0 -0.011587016204233327 0.038262811072543659 0 -0.011244466872854238 0.037762281736726286 0 -0.011311141158495439 0.037934822353775745 0 -0.011094617595224832 0.03787569935041684 0 -0.011803646230384999 0.038564537241927592 0 -0.011634853432503162 0.038386780161841619 0 -0.011244466872854238 0.037762281736726286 0 -0.011311141158495439 0.037934822353775745 0 -0.011587016204233327 0.038262811072543659 0 -0.011311141158495439 0.037934822353775745 0 -0.011605817166926359 0.038311511820908056 0 -0.011094617595224832 0.03787569935041684 0 -0.010450996003359515 0.038506259563458982 0 -0.011605817166926359 0.038311511820908056 0 -0.011094617595224832 0.03787569935041684 0 -0.010450996003359515 0.038506259563458982 0 -0.011094617595224832 0.03787569935041684 0 -0.010414993262238506 0.037964715220835291 0 -0.011094617595224832 0.03787569935041684 0 -0.010720737585808507 0.037626368245425236 0 -0.010414993262238506 0.037964715220835291 0 -0.010720737585808507 0.037626368245425236 0 -0.010222191021587198 0.037405755147075934 0 -0.010414993262238506 0.037964715220835291 0 -0.010253525085069716 0.037308578355469572 0 -0.010720737585808507 0.037626368245425236 0 -0.010222191021587198 0.037405755147075934 0 -0.010222191021587198 0.037405755147075934 0 -0.010414993262238506 0.037964715220835291 0 -0.0091020663573509204 0.038078961119183428 0 -0.010450996003359515 0.038506259563458982 0 -0.010414993262238506 0.037964715220835291 0 -0.0091020663573509204 0.038078961119183428 0 -0.010055401396198045 0.036914472815018737 0 -0.010222191021587198 0.037405755147075934 0 -0.0078170762250396285 0.037035613632443086 0 -0.010419592140384076 0.037917499293548616 0 -0.0096054242465308838 0.037738099958630068 0 -0.010222191021587198 0.037405755147075934 0 -0.0091020663573509204 0.038078961119183428 0 -0.0078170762250396285 0.037035613632443086 0 -0.0021402384758685339 0.035453412032838701 0 -0.0096054242465308838 0.037738099958630068 0 -0.0071648663655529471 0.038065431743729179 0 -0.0055756833744281548 0.037422874465405383 0 -0.0078170762250396285 0.037035613632443086 0 -0.0071648663655529471 0.038065431743729179 0 -0.0091020663573509204 0.038078961119183428 0 -0.0078170762250396285 0.037035613632443086 0 -0.0096874870192927547 0.038276694502874929 0 -0.0098724278968248518 0.038454327621024707 0 -0.00991415658772247 0.038294263141838404 0 -0.0096874870192927547 0.038276694502874929 0 -0.00991415658772247 0.038294263141838404 0 -0.0098804935163644882 0.038202405816330956 0 -0.011879957222692181 0.037710353297199406 0 -0.01179839777943468 0.038551160391212175 0 -0.011741728481745544 0.038222813815353758 0 -0.010078679702544937 0.038375201901185305 0 -0.00991415658772247 0.038294263141838404 0 -0.010013792767611378 0.038190060923874954 0 -0.010419592140384076 0.037917499293548616 0 -0.010950387122750527 0.038379593547818738 0 -0.010078679702544937 0.038375201901185305 0 -0.0098724278968248518 0.038454327621024707 0 -0.00991415658772247 0.038294263141838404 0 -0.01179839777943468 0.038551160391212175 0 -0.011567078681394985 0.038470510477939646 0 -0.011843546572259037 0.038564449074000536 0 -0.00991415658772247 0.038294263141838404 0 -0.010013792767611378 0.038190060923874954 0 -0.0098804935163644882 0.038202405816330956 0 -0.010068835769828897 0.038073823519902038 0 -0.009829315245445773 0.038124899394708298 0 -0.0098804935163644882 0.038202405816330956 0 -0.010581023243006173 0.038164637060636594 0 -0.010950387122750527 0.038379593547818738 0 -0.011116628724438943 0.038393982429146857 0 -0.01179839777943468 0.038551160391212175 0 -0.011567078681394985 0.038470510477939646 0 -0.010068835769828897 0.038073823519902038 0 -0.010013792767611378 0.038190060923874954 0 -0.0098804935163644882 0.038202405816330956 0 -0.011625236615369733 0.038295631372213437 0 -0.011116628724438943 0.038393982429146857 0 -0.011567078681394985 0.038470510477939646 0 -0.012291723699654592 0.039501916539483373 0 -0.011843546572259037 0.038564449074000536 0 -0.011840213568514757 0.038827467636756506 0 -0.012051545552674962 0.038461062686173969 0 -0.011838828229031186 0.038824472409637455 0 -0.011625236615369733 0.038295631372213437 0 -0.011567078681394985 0.038470510477939646 0 -0.011843546572259037 0.038564449074000536 0 -0.011843546572259037 0.038564449074000536 0 -0.011587016204233327 0.038262811072543659 0 -0.011840213568514757 0.038827467636756506 0 -0.011582839205792525 0.038014743814122565 0 -0.011587016204233327 0.038262811072543659 0 -0.011741728481745544 0.038222813815353758 0 -0.011843546572259037 0.038564449074000536 0 -0.011587016204233327 0.038262811072543659 0 -0.011741728481745544 0.038222813815353758 0 -0.01179839777943468 0.038551160391212175 0 -0.011843546572259037 0.038564449074000536 0 -0.011741728481745544 0.038222813815353758 0 -0.011311141158495439 0.037934822353775745 0 -0.011587016204233327 0.038262811072543659 0 -0.011588529939023909 0.038495653679305165 0 -0.011311141158495439 0.037934822353775745 0 -0.011588529939023909 0.038495653679305165 0 -0.011532064578340379 0.03901943036224427 0 -0.011587016204233327 0.038262811072543659 0 -0.011588529939023909 0.038495653679305165 0 -0.011840213568514757 0.038827467636756506 0 -0.011588529939023909 0.038495653679305165 0 -0.011840213568514757 0.038827467636756506 0 -0.011532064578340379 0.03901943036224427 0 -0.011840213568514757 0.038827467636756506 0 -0.011971568821501461 0.039319183832559501 0 -0.011532064578340379 0.03901943036224427 0 -0.012291723699654592 0.039501916539483373 0 -0.011840213568514757 0.038827467636756506 0 -0.011971568821501461 0.039319183832559501 0 -0.012400725228803637 0.040020723377978275 0 -0.012029862883985101 0.040030744572876684 0 -0.012072946817430744 0.039390753789243574 0 -0.012137139943035896 0.040325643715048154 0 -0.012400725228803637 0.040020723377978275 0 -0.012029862883985101 0.040030744572876684 0 -0.011925908350542041 0.040359204021602223 0 -0.012029862883985101 0.040030744572876684 0 -0.011695742309047465 0.040198968376999496 0 -0.012029862883985101 0.040030744572876684 0 -0.011824546195990542 0.039681217604276585 0 -0.011695742309047465 0.040198968376999496 0 -0.012029862883985101 0.040030744572876684 0 -0.011824546195990542 0.039681217604276585 0 -0.012072946817430744 0.039390753789243574 0 -0.011824546195990542 0.039681217604276585 0 -0.011886824758549082 0.039312429891291044 0 -0.012072946817430744 0.039390753789243574 0 -0.011824546195990542 0.039681217604276585 0 -0.011886824758549082 0.039312429891291044 0 -0.011703132774502403 0.039375212951989827 0 -0.012312388178707546 0.039102668691466107 0 -0.012400725228803637 0.040020723377978275 0 -0.012072946817430744 0.039390753789243574 0 -0.011803646230384999 0.038564537241927592 0 -0.011995703902541233 0.039494581824166895 0 -0.012312388178707546 0.039102668691466107 0 -0.011605817166926359 0.038311511820908056 0 -0.011988816888014616 0.038860324294971021 0 -0.012312388178707546 0.039102668691466107 0 -0.012072946817430744 0.039390753789243574 0 -0.011988816888014616 0.038860324294971021 0 -0.011886824758549082 0.039312429891291044 0 -0.012072946817430744 0.039390753789243574 0 -0.011988816888014616 0.038860324294971021 0 -0.011886824758549082 0.039312429891291044 0 -0.011988816888014616 0.038860324294971021 0 -0.011801969972861502 0.039037352583963507 0 -0.011886824758549082 0.039312429891291044 0 -0.011801969972861502 0.039037352583963507 0 -0.011703132774502403 0.039375212951989827 0 -0.011801969972861502 0.039037352583963507 0 -0.011865000326258982 0.038764582923406191 0 -0.011675928181391229 0.038831104657575458 0 -0.011988816888014616 0.038860324294971021 0 -0.011801969972861502 0.039037352583963507 0 -0.011865000326258982 0.038764582923406191 0 -0.011988816888014616 0.038860324294971021 0 -0.011865000326258982 0.038764582923406191 0 -0.011917999187338889 0.038592845642919024 0 -0.011865000326258982 0.038764582923406191 0 -0.011836962096707235 0.038585890594930276 0 -0.011675928181391229 0.038831104657575458 0 -0.011865000326258982 0.038764582923406191 0 -0.011836962096707235 0.038585890594930276 0 -0.011917999187338889 0.038592845642919024 0 -0.011605817166926359 0.038311511820908056 0 -0.011988816888014616 0.038860324294971021 0 -0.011917999187338889 0.038592845642919024 0 -0.014148734197756117 0.018637661537247243 0 -0.014125589416637156 0.018661109889167544 0 -0.014142951874922243 0.018634586362297458 0 -0.014148734197756117 0.018637661537247243 0 -0.014179663141549049 0.018611199423931274 0 -0.014122528459463927 0.018651527222620586 0 -0.014148734197756117 0.018637661537247243 0 -0.014142951874922243 0.018634586362297458 0 -0.014150993355473125 0.018553579618948764 0 -0.014148734197756117 0.018637661537247243 0 -0.014179663141549049 0.018611199423931274 0 -0.014150993355473125 0.018553579618948764 0 -0.013939176325731172 0.018696056025442373 0 -0.014179663141549049 0.018611199423931274 0 -0.014122528459463927 0.018651527222620586 0 -0.013939176325731172 0.018696056025442373 0 -0.014179663141549049 0.018611199423931274 0 -0.013951897233636526 0.01891146008721676 0 -0.011836962096707235 0.038585890594930276 0 -0.011513336352301366 0.038874097459247241 0 -0.011675928181391229 0.038831104657575458 0 -0.012829881485283339 0.028827810269959099 0 -0.013534520987996968 0.031876737757594455 0 -0.013534520987996968 0.031876737757594455 0 -0.010600834641619469 0.035960886061189919 0 -0.011461465451418953 0.038966338803917595 0 -0.011675928181391229 0.038831104657575458 0 -0.011636413050451364 0.039110999440771982 0 -0.011801969972861502 0.039037352583963507 0 -0.011675928181391229 0.038831104657575458 0 -0.011636413050451364 0.039110999440771982 0 -0.011636413050451364 0.039110999440771982 0 -0.011506884443775569 0.039334849763839157 0 -0.011703132774502403 0.039375212951989827 0 -0.011801969972861502 0.039037352583963507 0 -0.011636413050451364 0.039110999440771982 0 -0.011703132774502403 0.039375212951989827 0 -0.011461465451418953 0.038966338803917595 0 -0.011636413050451364 0.039110999440771982 0 -0.011506884443775569 0.039334849763839157 0 -0.014148734197756117 0.018637661537247243 0 -0.014122528459463927 0.018651527222620586 0 -0.014125589416637156 0.018661109889167544 0 -0.013534520987996968 0.031876737757594455 0 -0.012486014676200703 0.036635659631305897 0 -0.011461465451418953 0.038966338803917595 0 -0.011506884443775569 0.039334849763839157 0 -0.01118900602068813 0.039449556454919522 0 -0.013534520987996968 0.031876737757594455 0 -0.014609211080270138 0.02554624078536593 0 -0.015161967775605118 0.032367174876444083 0 -0.014012669928228595 0.033636487374430327 0 -0.013546628116462969 0.033074202143104185 0 -0.01118900602068813 0.039449556454919522 0 -0.011530569195848708 0.039805309102549098 0 -0.011195803961217997 0.040222351849786994 0 -0.014012669928228595 0.033636487374430327 0 -0.013546628116462969 0.033074202143104185 0 -0.012939886071808496 0.034313928773800025 0 -0.01118900602068813 0.039449556454919522 0 -0.011195803961217997 0.040222351849786994 0 -0.010785669650810086 0.040037916314964304 0 -0.012486014676200703 0.036635659631305897 0 -0.011539347194610821 0.039914189625792525 0 -0.011506884443775569 0.039334849763839157 0 -0.01118900602068813 0.039449556454919522 0 -0.011530569195848708 0.039805309102549098 0 -0.011824546195990542 0.039681217604276585 0 -0.011703132774502403 0.039375212951989827 0 -0.011530569195848708 0.039805309102549098 0 -0.011506884443775569 0.039334849763839157 0 -0.011703132774502403 0.039375212951989827 0 -0.011530569195848708 0.039805309102549098 0 -0.011824546195990542 0.039681217604276585 0 -0.011530569195848708 0.039805309102549098 0 -0.011695742309047465 0.040198968376999496 0 -0.011530569195848708 0.039805309102549098 0 -0.011695742309047465 0.040198968376999496 0 -0.011436269236574452 0.040253946653495874 0 -0.011457104774846381 0.040512620419456004 0 -0.011695742309047465 0.040198968376999496 0 -0.011436269236574452 0.040253946653495874 0 -0.011195803961217997 0.040222351849786994 0 -0.011436269236574452 0.040253946653495874 0 -0.011288732581454373 0.04050024499499176 0 -0.011195803961217997 0.040222351849786994 0 -0.011288732581454373 0.04050024499499176 0 -0.011250985533993464 0.040748678718457373 0 -0.011530569195848708 0.039805309102549098 0 -0.011195803961217997 0.040222351849786994 0 -0.011436269236574452 0.040253946653495874 0 -0.011457104774846381 0.040512620419456004 0 -0.011436269236574452 0.040253946653495874 0 -0.011288732581454373 0.04050024499499176 0 -0.01093115257874416 0.041851205768325642 0 -0.011539347194610821 0.039914189625792525 0 -0.011250985533993464 0.040748678718457373 0 -0.011469832995584827 0.041260500462483495 0 -0.011142612073711472 0.040352936283652913 0 -0.011195803961217997 0.040222351849786994 0 -0.011250985533993464 0.040748678718457373 0 -0.011142612073711472 0.040352936283652913 0 -0.011469832995584827 0.041260500462483495 0 -0.011993868264465937 0.042540791048121279 0 -0.012754172272524655 0.041964723921088604 0 -0.011469832995584827 0.041260500462483495 0 -0.011993868264465937 0.042540791048121279 0 -0.0099166360117008655 0.042939793813633574 0 -0.011993868264465937 0.042540791048121279 0 -0.011391868916610126 0.043592212856419649 0 -0.013129121694781162 0.042978197826908343 0 -0.011993868264465937 0.042540791048121279 0 -0.011391868916610126 0.043592212856419649 0 -0.0099166360117008655 0.042939793813633574 0 -0.011889681143831739 0.038206484351168281 0 -0.013199741159803033 0.030514577797714739 0 -0.011190712000023612 0.034174622209995627 0 -0.01194008645061876 0.03384438948658109 0 -0.012836732783868248 0.034902413471377833 0 -0.013546628116462969 0.033074202143104185 0 -0.011891304789066746 0.033766647539654963 0 -0.012939886071808496 0.034313928773800025 0 -0.011889681143831739 0.038206484351168281 0 -0.011539347194610821 0.039914189625792525 0 -0.013199741159803033 0.030514577797714739 0 -0.013245149998276183 0.033231063944740895 0 -0.01194008645061876 0.03384438948658109 0 -0.012939886071808496 0.034313928773800025 0 -0.012836732783868248 0.034902413471377833 0 -0.014012669928228595 0.033636487374430327 0 -0.012939886071808496 0.034313928773800025 0 -0.012836732783868248 0.034902413471377833 0 -0.011208396869163162 0.040032704892436023 0 -0.011539347194610821 0.039914189625792525 0 -0.013356481365245058 0.04127738475505538 0 -0.015011704736383987 0.04249559806850102 0 -0.012754172272524655 0.041964723921088604 0 -0.015034899113207451 0.04238501646419477 0 -0.013186119390911862 0.043567212865500554 0 -0.015011704736383987 0.04249559806850102 0 -0.012754172272524655 0.041964723921088604 0 -0.013129121694781162 0.042978197826908343 0 -0.013356481365245058 0.04127738475505538 0 -0.011469832995584827 0.041260500462483495 0 -0.012754172272524655 0.041964723921088604 0 -0.011993868264465937 0.042540791048121279 0 -0.012754172272524655 0.041964723921088604 0 -0.013129121694781162 0.042978197826908343 0 -0.012491171054782028 0.043536471339828714 0 -0.01329360969475977 0.04334363341375555 0 -0.013654453798126539 0.043098991852035209 0 -0.012491171054782028 0.043536471339828714 0 -0.01329360969475977 0.04334363341375555 0 -0.01375221703266217 0.044037737908980648 0 -0.011889681143831739 0.038206484351168281 0 -0.013186119390911862 0.043567212865500554 0 -0.014049743817037628 0.044546135597340386 0 -0.014448186264079911 0.039290524427742599 0 -0.01329360969475977 0.04334363341375555 0 -0.013907525381603225 0.043720705044603486 0 -0.013812626821904921 0.044501083861311713 0 -0.01329360969475977 0.04334363341375555 0 -0.013907525381603225 0.043720705044603486 0 -0.013654453798126539 0.043098991852035209 0 -0.015011704736383987 0.04249559806850102 0 -0.013654453798126539 0.043098991852035209 0 -0.014663417579497646 0.043671147155287943 0 -0.013907525381603225 0.043720705044603486 0 -0.013654453798126539 0.043098991852035209 0 -0.014663417579497646 0.043671147155287943 0 -0.013907525381603225 0.043720705044603486 0 -0.014663417579497646 0.043671147155287943 0 -0.013812626821904921 0.044501083861311713 0 -0.017952839117900157 0.037409063904183533 0 -0.01493090896427403 0.036060839005718631 0 -0.015693281221166075 0.037295636447088845 0 -0.016385185086264221 0.042337023998321635 0 -0.014448186264079911 0.039290524427742599 0 -0.015622559900552934 0.044720698045317447 0 -0.014663417579497646 0.043671147155287943 0 -0.013812626821904921 0.044501083861311713 0 -0.015622559900552934 0.044720698045317447 0 -0.016167392108205999 0.045531618014300536 0 -0.013812626821904921 0.044501083861311713 0 -0.014448186264079911 0.039290524427742599 0 -0.015394349860257166 0.028312224143907164 0 -0.013703936919668027 0.024486842659501129 0 -0.015394349860257166 0.028312224143907164 0 -0.011889681143831739 0.038206484351168281 0 -0.014448186264079911 0.039290524427742599 0 -0.013795623866292425 0.031870212462928461 0 -0.013961491413791318 0.031847080027695852 0 -0.014062827409691237 0.031949474860245818 0 -0.013631057746585434 0.031733419532999359 0 -0.013795623866292425 0.031870212462928461 0 -0.013961491413791318 0.031847080027695852 0 -0.014484024304585541 0.018535071601144121 0 -0.014725069108889514 0.018956777851215589 0 -0.015189213699609945 0.018770359368033267 0 -0.014725069108889514 0.018956777851215589 0 -0.015088061803911895 0.019052950207978345 0 -0.014981397541396633 0.019417369415094258 0 -0.014725069108889514 0.018956777851215589 0 -0.015189213699609945 0.018770359368033267 0 -0.015088061803911895 0.019052950207978345 0 -0.015189213699609945 0.018770359368033267 0 -0.015088061803911895 0.019052950207978345 0 -0.015451426877230546 0.019123529256947411 0 -0.021315375158831369 0.028927283967856324 0 -0.01754388385315437 0.027059470159894336 0 -0.019522884465225918 0.030306323028184472 0 -0.02143369723192055 0.034350458297700261 0 -0.023236874493890145 0.022606390701442273 0 -0.02143369723192055 0.034350458297700261 0 -0.015394349860257166 0.028312224143907164 0 -0.015394349860257166 0.028312224143907164 0 -0.023236874493890145 0.022606390701442273 0 -0.014125589416637156 0.018661109889167544 0 -0.014186524217570997 0.018569224584530732 0 -0.014152576774192601 0.018654734419268671 0 -0.014125589416637156 0.018661109889167544 0 -0.014152576774192601 0.018654734419268671 0 -0.014142951874922243 0.018634586362297458 0 -0.014609211080270138 0.02554624078536593 0 -0.013199741159803033 0.030514577797714739 0 -0.013631057746585434 0.031733419532999359 0 -0.013526502226932243 0.031768853205001731 0 -0.013795623866292425 0.031870212462928461 0 -0.014484024304585541 0.018535071601144121 0 -0.014152576774192601 0.018654734419268671 0 -0.014219282616571058 0.018747415880012986 0 -0.014186524217570997 0.018569224584530732 0 -0.014484024304585541 0.018535071601144121 0 -0.014152576774192601 0.018654734419268671 0 -0.013199741159803033 0.030514577797714739 0 -0.013703936919668027 0.024486842659501129 0 -0.014484024304585541 0.018535071601144121 0 -0.014725069108889514 0.018956777851215589 0 -0.014219282616571058 0.018747415880012986 0 -0.014201199451664178 0.018674617626078489 0 -0.014511901371342046 0.019098915592343346 0 -0.014725069108889514 0.018956777851215589 0 -0.014219282616571058 0.018747415880012986 0 -0.014397027186941561 0.019284132882358626 0 -0.014219282616571058 0.018747415880012986 0 -0.014144902776307974 0.018579912254211371 0 -0.014026447660612049 0.018529394728164703 0 -0.014152576774192601 0.018654734419268671 0 -0.014219282616571058 0.018747415880012986 0 -0.014142951874922243 0.018634586362297458 0 -0.014219282616571058 0.018747415880012986 0 -0.014142951874922243 0.018634586362297458 0 -0.014144902776307974 0.018579912254211371 0 -0.014142951874922243 0.018634586362297458 0 -0.014144902776307974 0.018579912254211371 0 -0.014150993355473125 0.018553579618948764 0 -0.014144347985214157 0.018426888741171911 0 -0.014144902776307974 0.018579912254211371 0 -0.014150993355473125 0.018553579618948764 0 -0.014144347985214157 0.018426888741171911 0 -0.014144902776307974 0.018579912254211371 0 -0.014081205773647616 0.018396901824598931 0 -0.014144902776307974 0.018579912254211371 0 -0.014026447660612049 0.018529394728164703 0 -0.014081205773647616 0.018396901824598931 0 -0.014511901371342046 0.019098915592343346 0 -0.019657796247169446 0.01583004443530317 0 -0.014026447660612049 0.018529394728164703 0 -0.014081205773647616 0.018396901824598931 0 -0.013986374730237021 0.018339802509666554 0 -0.014081205773647616 0.018396901824598931 0 -0.013986374730237021 0.018339802509666554 0 -0.014111080509367059 0.018179219325069308 0 -0.019657796247169446 0.01583004443530317 0 -0.017967968513647067 0.014904979445069825 0 -0.014081205773647616 0.018396901824598931 0 -0.01412764735003443 0.018319394583589107 0 -0.014111080509367059 0.018179219325069308 0 -0.01412764735003443 0.018319394583589107 0 -0.014111080509367059 0.018179219325069308 0 -0.014177326535226234 0.018282090568949784 0 -0.014144347985214157 0.018426888741171911 0 -0.01412764735003443 0.018319394583589107 0 -0.014177326535226234 0.018282090568949784 0 -0.014144347985214157 0.018426888741171911 0 -0.014081205773647616 0.018396901824598931 0 -0.01412764735003443 0.018319394583589107 0 -0.026501222063407062 0.01691474356013354 0 -0.027539480951759489 0.016964086794640388 0 -0.027597963189984715 0.015826403242535231 0 -0.026501222063407062 0.01691474356013354 0 -0.027220170679960992 0.0182108909714663 0 -0.027539480951759489 0.016964086794640388 0 -0.02787027591550879 0.020349874421679758 0 -0.023236874493890145 0.022606390701442273 0 -0.015088061803911895 0.019052950207978345 0 -0.015451426877230546 0.019123529256947411 0 -0.014981397541396633 0.019417369415094258 0 -0.023236874493890145 0.022606390701442273 0 -0.022004746560327425 0.018081368894444377 0 -0.027220170679960992 0.0182108909714663 0 -0.027539480951759489 0.016964086794640388 0 -0.02857422872028181 0.017129305984571679 0 -0.027539480951759489 0.016964086794640388 0 -0.02857422872028181 0.017129305984571679 0 -0.028740090987437131 0.016018466979731121 0 -0.014397027186941561 0.019284132882358626 0 -0.014563208436352386 0.019709898546769144 0 -0.014981397541396633 0.019417369415094258 0 -0.014725069108889514 0.018956777851215589 0 -0.014397027186941561 0.019284132882358626 0 -0.014981397541396633 0.019417369415094258 0 -0.019657796247169446 0.01583004443530317 0 -0.022004746560327425 0.018081368894444377 0 -0.019657796247169446 0.01583004443530317 0 -0.026054919590377999 0.012901099633059717 0 -0.029927935865662891 0.016048554410748563 0 -0.028740090987437131 0.016018466979731121 0 -0.029577329166116516 0.014385065813507313 0 -0.028740090987437131 0.016018466979731121 0 -0.028458107073093816 0.014931375407231419 0 -0.029577329166116516 0.014385065813507313 0 -0.029927935865662891 0.016048554410748563 0 -0.02857422872028181 0.017129305984571679 0 -0.028740090987437131 0.016018466979731121 0 -0.027539480951759489 0.016964086794640388 0 -0.028740090987437131 0.016018466979731121 0 -0.027597963189984715 0.015826403242535231 0 -0.028740090987437131 0.016018466979731121 0 -0.027597963189984715 0.015826403242535231 0 -0.028458107073093816 0.014931375407231419 0 -0.027597963189984715 0.015826403242535231 0 -0.027699873639170702 0.015054525569896922 0 -0.028458107073093816 0.014931375407231419 0 -0.026749276182070354 0.015841598523338732 0 -0.027597963189984715 0.015826403242535231 0 -0.027105164184963709 0.014982257941404733 0 -0.027597963189984715 0.015826403242535231 0 -0.027699873639170702 0.015054525569896922 0 -0.027105164184963709 0.014982257941404733 0 -0.026749276182070354 0.015841598523338732 0 -0.026501222063407062 0.01691474356013354 0 -0.027597963189984715 0.015826403242535231 0 -0.036619890567848895 0.0080341929807692669 0 -0.03520190578749776 0.0070941676852262978 0 -0.0346629546543223 0.0081503274327420269 0 -0.031700711528475464 0.014287321417917094 0 -0.032460857382933202 0.0047271504330498064 0 -0.027231287008455556 0.014210413620035415 0 -0.028415000553968964 0.013751230024858861 0 -0.028857791757758971 0.012622774829834092 0 -0.027105164184963709 0.014982257941404733 0 -0.027404545886171999 0.014324371855968908 0 -0.027245373819730807 0.014223557196960761 0 -0.027699873639170702 0.015054525569896922 0 -0.027105164184963709 0.014982257941404733 0 -0.027548470093446433 0.014720657757744549 0 -0.027105164184963709 0.014982257941404733 0 -0.027548470093446433 0.014720657757744549 0 -0.027404545886171999 0.014324371855968908 0 -0.031162858679535971 0.014061223183630666 0 -0.031700711528475464 0.014287321417917094 0 -0.027404545886171999 0.014324371855968908 0 -0.027991702584301795 0.014518137782897832 0 -0.028415000553968964 0.013751230024858861 0 -0.027699873639170702 0.015054525569896922 0 -0.027991702584301795 0.014518137782897832 0 -0.028458107073093816 0.014931375407231419 0 -0.027991702584301795 0.014518137782897832 0 -0.028415000553968964 0.013751230024858861 0 -0.028458107073093816 0.014931375407231419 0 -0.027548470093446433 0.014720657757744549 0 -0.027404545886171999 0.014324371855968908 0 -0.027991702584301795 0.014518137782897832 0 -0.027699873639170702 0.015054525569896922 0 -0.027548470093446433 0.014720657757744549 0 -0.027991702584301795 0.014518137782897832 0 -0.027404545886171999 0.014324371855968908 0 -0.027231287008455556 0.014210413620035415 0 -0.028415000553968964 0.013751230024858861 0 -0.022245209673528488 0.010338855985662447 0 -0.022326964272570343 0.010363431711308692 0 -0.022198984454086697 0.010331202147438158 0 -0.026054919590377999 0.012901099633059717 0 -0.029986522563684705 0.0059995280778999726 0 -0.028415000553968964 0.013751230024858861 0 -0.029577329166116516 0.014385065813507313 0 -0.029198729868346693 0.01264824412217967 0 -0.028415000553968964 0.013751230024858861 0 -0.028458107073093816 0.014931375407231419 0 -0.029577329166116516 0.014385065813507313 0 -0.029806845687002221 0.0025239672319512358 0 -0.030795688985815573 0.0023109969868192613 0 -0.031708301909943511 0.0010404623627444844 0 -0.030795688985815573 0.0023109969868192613 0 -0.031708301909943511 0.0010404623627444844 0 -0.031804652016139495 0.001401180783849871 0 -0.03737422592026559 -0.0067840336556333506 0 -0.037215890582050902 -0.0067860510403335329 0 -0.037175020865926285 -0.0066080865514636291 0 -0.034647807517641183 -0.0039685105424423555 0 -0.03298956274681656 -0.0002431547425035992 0 -0.029986522563684705 0.0059995280778999726 0 -0.03298956274681656 -0.0002431547425035992 0 -0.037174209077852106 -0.0072464093039797377 0 -0.037052322524065963 -0.0072806494500329911 0 -0.037073139731770025 -0.0073069579407733145 0 -0.03298956274681656 -0.0002431547425035992 0 -0.032460857382933202 0.0047271504330498064 0 -0.030135809081570108 0.0046416320013932325 0 -0.030617357364485041 0.0065120180984061067 0 -0.032486013857409048 0.0048169068620889611 0 -0.028415000553968964 0.013751230024858861 0 -0.029198729868346693 0.01264824412217967 0 -0.028857791757758971 0.012622774829834092 0 -0.029986522563684705 0.0059995280778999726 0 -0.032460857382933202 0.0047271504330498064 0 -0.035812545292923034 0.0085129450385531026 0 -0.033708715179885475 0.0083659608358833456 0 -0.0346629546543223 0.0081503274327420269 0 -0.037366440106627971 -0.0074557388930249933 0 -0.037174209077852106 -0.0072464093039797377 0 -0.037073139731770025 -0.0073069579407733145 0 -0.037080236886953263 -0.00030668201277436513 0 -0.032460857382933202 0.0047271504330498064 0 -0.03520190578749776 0.0070941676852262978 0 -0.033708715179885475 0.0083659608358833456 0 -0.0346629546543223 0.0081503274327420269 0 -0.037366440106627971 -0.0074557388930249933 0 -0.037174209077852106 -0.0072464093039797377 0 -0.037274138052122888 -0.0072543365029530205 0 -0.022116425960067854 0.010327688881426884 0 -0.022138138853002347 0.010316222260302672 0 -0.021989084140643267 0.01030587746980071 0 -0.017967968513647067 0.014904979445069825 0 -0.01554924910219076 0.0071845254330512526 0 -0.022116425960067854 0.010327688881426884 0 -0.022198984454086697 0.010331202147438158 0 -0.022165972641930612 0.010364289296143449 0 -0.022116425960067854 0.010327688881426884 0 -0.022138138853002347 0.010316222260302672 0 -0.022198984454086697 0.010331202147438158 0 -0.022199236428657794 0.010355137901316197 0 -0.022245209673528488 0.010338855985662447 0 -0.022198984454086697 0.010331202147438158 0 -0.022199236428657794 0.010355137901316197 0 -0.022138138853002347 0.010316222260302672 0 -0.022198984454086697 0.010331202147438158 0 -0.022326964272570343 0.010363431711308692 0 -0.022198984454086697 0.010331202147438158 0 -0.022165972641930612 0.010364289296143449 0 -0.029806845687002221 0.0025239672319512358 0 -0.031708301909943511 0.0010404623627444844 0 -0.028394442752482062 0.00081707921744457121 0 -0.029986522563684705 0.0059995280778999726 0 -0.024725826880917026 0.0050465717959641242 0 -0.028136762545422023 0.0022147479258697172 0 -0.028547171822893885 0.002425637809442811 0 -0.026251967150059126 -0.00035533377484065111 0 -0.03224389943389791 -0.0029182217699276788 0 -0.024725826880917026 0.0050465717959641242 0 -0.028136762545422023 0.0022147479258697172 0 -0.026251967150059126 -0.00035533377484065111 0 -0.022697888112786297 -0.00057716499632739994 0 -0.024725826880917026 0.0050465717959641242 0 -0.020316579055566983 0.0020234113313881297 0 -0.031225020505166075 -0.0031782735104460757 0 -0.020316579055566983 0.0020234113313881297 0 -0.022116425960067854 0.010327688881426884 0 -0.022150936103988994 0.010336255322789157 0 -0.022027433680895266 0.010327705349115807 0 -0.022116425960067854 0.010327688881426884 0 -0.021989084140643267 0.01030587746980071 0 -0.022027433680895266 0.010327705349115807 0 -0.029350323521029394 -0.0025838270305155071 0 -0.022229994436610091 -0.0021578269366913567 0 -0.021649096585200422 -0.0066450183440261374 0 -0.024351963363943279 0.0083811196980855679 0 -0.024725826880917026 0.0050465717959641242 0 -0.022229994436610091 -0.0021578269366913567 0 -0.018230102625796132 -0.0038872491609853463 0 -0.021649096585200422 -0.0066450183440261374 0 -0.015720752335016838 -0.0030718783229348669 0 -0.015969320120827361 -0.003244932320772624 0 -0.013953871482187795 -0.0040093841440494082 0 -0.018230102625796132 -0.0038872491609853463 0 -0.019531536164546545 -0.0067916458263854035 0 -0.015503140478833952 -0.0034739020224359312 0 -0.018230102625796132 -0.0038872491609853463 0 -0.019531536164546545 -0.0067916458263854035 0 -0.021649096585200422 -0.0066450183440261374 0 -0.017839042042237071 -0.00018013629443552063 0 -0.01554924910219076 0.0071845254330512526 0 -0.017839042042237071 -0.00018013629443552063 0 -0.020316579055566983 0.0020234113313881297 0 -0.015369698930136309 0.0013134423108373549 0 -0.016934628546989253 9.9364315701666828e-05 0 -0.019830855435536518 0.0016565603682170693 0 -0.01554924910219076 0.0071845254330512526 0 -0.020316579055566983 0.0020234113313881297 0 -0.014111080509367059 0.018179219325069308 0 -0.014210442606079343 0.018031557103440548 0 -0.014208562426992031 0.018160953523521175 0 -0.014210442606079343 0.018031557103440548 0 -0.014208562426992031 0.018160953523521175 0 -0.014241170837130073 0.018143968116123173 0 -0.014208562426992031 0.018160953523521175 0 -0.014241170837130073 0.018143968116123173 0 -0.014225342475419331 0.018202991979492707 0 -0.014210442606079343 0.018031557103440548 0 -0.014269289862964196 0.018128311323398146 0 -0.014241170837130073 0.018143968116123173 0 -0.011380196899122161 0.015570737178095043 0 -0.012826739949812855 0.01632317298884774 0 -0.012896325616208452 0.016805050108704346 0 -0.01554924910219076 0.0071845254330512526 0 -0.01297141697807886 0.0059053740272955535 0 -0.01554924910219076 0.0071845254330512526 0 -0.013599801200167417 0.018501012874428506 0 -0.014269289862964196 0.018128311323398146 0 -0.014241170837130073 0.018143968116123173 0 -0.014263051087178359 0.018161931213141948 0 -0.015720752335016838 -0.0030718783229348669 0 -0.013953871482187795 -0.0040093841440494082 0 -0.013077141013700513 -0.0035397104283407485 0 -0.017214465515138166 -0.0047606629703563696 0 -0.015642253571648241 -0.0043796975217182607 0 -0.013714176707827944 -0.0049016168900308911 0 -0.017839042042237071 -0.00018013629443552063 0 -0.013075593640878878 -0.0046560255243752874 0 -0.014634077699740048 -0.0042257209569412403 0 -0.015642253571648241 -0.0043796975217182607 0 -0.013714176707827944 -0.0049016168900308911 0 -0.014634077699740048 -0.0042257209569412403 0 -0.015642253571648241 -0.0043796975217182607 0 -0.015175908492246931 -0.0039470349245706556 0 -0.017839042042237071 -0.00018013629443552063 0 -0.016834013329352054 -0.0045578458714677266 0 -0.015642253571648241 -0.0043796975217182607 0 -0.015503140478833952 -0.0034739020224359312 0 -0.015175908492246931 -0.0039470349245706556 0 -0.017214465515138166 -0.0047606629703563696 0 -0.015642253571648241 -0.0043796975217182607 0 -0.015503140478833952 -0.0034739020224359312 0 -0.014634077699740048 -0.0042257209569412403 0 -0.014815984260474825 -0.0034959698966563809 0 -0.013752787530270354 -0.0033294507844140965 0 -0.014893204243298833 -0.0029770446920522882 0 -0.014815984260474825 -0.0034959698966563809 0 -0.013752787530270354 -0.0033294507844140965 0 -0.014634077699740048 -0.0042257209569412403 0 -0.015175908492246931 -0.0039470349245706556 0 -0.014815984260474825 -0.0034959698966563809 0 -0.015503140478833952 -0.0034739020224359312 0 -0.015138948557372855 -0.0031315984622441949 0 -0.014815984260474825 -0.0034959698966563809 0 -0.015503140478833952 -0.0034739020224359312 0 -0.015175908492246931 -0.0039470349245706556 0 -0.014815984260474825 -0.0034959698966563809 0 -0.014893204243298833 -0.0029770446920522882 0 -0.015138948557372855 -0.0031315984622441949 0 -0.014815984260474825 -0.0034959698966563809 0 -0.014634077699740048 -0.0042257209569412403 0 -0.013752787530270354 -0.0033294507844140965 0 -0.013180137893777767 -0.0039444338415482302 0 -0.012486233061108144 -0.0029608041834562485 0 -0.013180137893777767 -0.0039444338415482302 0 -0.012205325390084298 -0.0039487882010670961 0 -0.012486233061108144 -0.0029608041834562485 0 -0.013752787530270354 -0.0033294507844140965 0 -0.013180137893777767 -0.0039444338415482302 0 -0.013180137893777767 -0.0039444338415482302 0 -0.013714176707827944 -0.0049016168900308911 0 -0.012205325390084298 -0.0039487882010670961 0 -0.014634077699740048 -0.0042257209569412403 0 -0.013180137893777767 -0.0039444338415482302 0 -0.013714176707827944 -0.0049016168900308911 0 -0.013714176707827944 -0.0049016168900308911 0 -0.012205325390084298 -0.0039487882010670961 0 -0.01090906984330962 -0.0041839442952499818 0 -0.01111666846110936 -0.003264190278497663 0 -0.012205325390084298 -0.0039487882010670961 0 -0.01090906984330962 -0.0041839442952499818 0 -0.013075593640878878 -0.0046560255243752874 0 -0.011271991466353671 -0.0040982124736931042 0 -0.01111666846110936 -0.003264190278497663 0 -0.012486233061108144 -0.0029608041834562485 0 -0.012205325390084298 -0.0039487882010670961 0 -0.011144748752424643 0.0070393874554981134 0 -0.013510684517997333 0.0062511679361556792 0 -0.013077141013700513 -0.0035397104283407485 0 -0.01090906984330962 -0.0041839442952499818 0 -0.012194688943562172 -0.0046604492989909679 0 -0.010782392215190164 -0.0045436243340860119 0 -0.01090906984330962 -0.0041839442952499818 0 -0.012194688943562172 -0.0046604492989909679 0 -0.010782392215190164 -0.0045436243340860119 0 -0.010730123234109035 -0.0051270006007200601 0 -0.012194688943562172 -0.0046604492989909679 0 -0.01297141697807886 0.0059053740272955535 0 -0.013510684517997333 0.0062511679361556792 0 -0.013953871482187795 -0.0040093841440494082 0 -0.013077141013700513 -0.0035397104283407485 0 -0.012194688943562172 -0.0046604492989909679 0 -0.013599801200167417 0.018501012874428506 0 -0.014275487820981989 0.017597363852802205 0 -0.012896325616208452 0.016805050108704346 0 -0.01418726512617993 0.017061909306998864 0 -0.014396687922104988 0.017841838142325914 0 -0.012826739949812855 0.01632317298884774 0 -0.012896325616208452 0.016805050108704346 0 -0.01418726512617993 0.017061909306998864 0 -0.014269289862964196 0.018128311323398146 0 -0.014295566759440655 0.018076277617259603 0 -0.014396687922104988 0.017841838142325914 0 -0.014318852673980434 0.018124549682406545 0 -0.014396687922104988 0.017841838142325914 0 -0.014370920688355384 0.018348792443933896 0 -0.014295566759440655 0.018076277617259603 0 -0.014318852673980434 0.018124549682406545 0 -0.014396687922104988 0.017841838142325914 0 -0.014295566759440655 0.018076277617259603 0 -0.014318852673980434 0.018124549682406545 0 -0.014280527814769921 0.018174376274707624 0 -0.014318852673980434 0.018124549682406545 0 -0.014280527814769921 0.018174376274707624 0 -0.014293930852292256 0.018268299345477298 0 -0.01501480639307568 0.017611768043605765 0 -0.014396687922104988 0.017841838142325914 0 -0.014370920688355384 0.018348792443933896 0 -0.01501480639307568 0.017611768043605765 0 -0.01418726512617993 0.017061909306998864 0 -0.014396687922104988 0.017841838142325914 0 -0.010718153765116601 0.018227092152188967 0 -0.010626771726968739 0.016235878762697945 0 -0.0079033645819732018 0.019267368450773932 0 -0.011144748752424643 0.0070393874554981134 0 -0.011450886924340979 0.024215174398237359 0 -0.011566141040167443 0.039062701642889226 0 -0.011605817166926359 0.038311511820908056 0 -0.012002104904434999 0.038682897989021407 0 -0.011605817166926359 0.038311511820908056 0 -0.011917999187338889 0.038592845642919024 0 -0.012002104904434999 0.038682897989021407 0 -0.010005367804946382 0.030117499892325591 0 -0.011450886924340979 0.024215174398237359 0 -0.014293930852292256 0.018268299345477298 0 -0.014370920688355384 0.018348792443933896 0 -0.014295088163944362 0.018392100590638154 0 -0.014318852673980434 0.018124549682406545 0 -0.014293930852292256 0.018268299345477298 0 -0.014370920688355384 0.018348792443933896 0 -0.011836962096707235 0.038585890594930276 0 -0.011917999187338889 0.038592845642919024 0 -0.012002104904434999 0.038682897989021407 0 -0.012829881485283339 0.028827810269959099 0 -0.011450886924340979 0.024215174398237359 0 -0.011450886924340979 0.024215174398237359 0 -0.014769211202759798 0.018520872726657884 0 -0.013939176325731172 0.018696056025442373 0 -0.013458553878519144 0.019130689704513287 0 -0.013951897233636526 0.01891146008721676 0 -0.014293930852292256 0.018268299345477298 0 -0.014295088163944362 0.018392100590638154 0 -0.014252361541860385 0.018315574034002732 0 -0.014252361541860385 0.018315574034002732 0 -0.014178415146498346 0.018406945022456205 0 -0.01422812385570728 0.018270691063726821 0 -0.014179663141549049 0.018611199423931274 0 -0.014252361541860385 0.018315574034002732 0 -0.014178415146498346 0.018406945022456205 0 -0.013943255460573381 0.018702161606397646 0 -0.014769211202759798 0.018520872726657884 0 -0.014179663141549049 0.018611199423931274 0 -0.014295088163944362 0.018392100590638154 0 -0.014252361541860385 0.018315574034002732 0 -0.014179663141549049 0.018611199423931274 0 -0.014150993355473125 0.018553579618948764 0 -0.014178415146498346 0.018406945022456205 0 -0.014144347985214157 0.018426888741171911 0 -0.014150993355473125 0.018553579618948764 0 -0.014178415146498346 0.018406945022456205 0 -0.014111080509367059 0.018179219325069308 0 -0.014208562426992031 0.018160953523521175 0 -0.014177326535226234 0.018282090568949784 0 -0.014178415146498346 0.018406945022456205 0 -0.014177326535226234 0.018282090568949784 0 -0.01422812385570728 0.018270691063726821 0 -0.014177326535226234 0.018282090568949784 0 -0.014225342475419331 0.018202991979492707 0 -0.01422812385570728 0.018270691063726821 0 -0.014144347985214157 0.018426888741171911 0 -0.014178415146498346 0.018406945022456205 0 -0.014177326535226234 0.018282090568949784 0 -0.014208562426992031 0.018160953523521175 0 -0.014177326535226234 0.018282090568949784 0 -0.014225342475419331 0.018202991979492707 0 -0.014241170837130073 0.018143968116123173 0 -0.014225342475419331 0.018202991979492707 0 -0.014263051087178359 0.018161931213141948 0 -0.014225342475419331 0.018202991979492707 0 -0.014263051087178359 0.018161931213141948 0 -0.01422812385570728 0.018270691063726821 0 -0.014269289862964196 0.018128311323398146 0 -0.014295566759440655 0.018076277617259603 0 -0.014263051087178359 0.018161931213141948 0 -0.014295566759440655 0.018076277617259603 0 -0.014280527814769921 0.018174376274707624 0 -0.014263051087178359 0.018161931213141948 0 -0.014280527814769921 0.018174376274707624 0 -0.014252361541860385 0.018315574034002732 0 -0.014263051087178359 0.018161931213141948 0 -0.014280527814769921 0.018174376274707624 0 -0.014293930852292256 0.018268299345477298 0 -0.014252361541860385 0.018315574034002732 0 -0.014252361541860385 0.018315574034002732 0 -0.014263051087178359 0.018161931213141948 0 -0.01422812385570728 0.018270691063726821 0 
</DataArray>
</PointData>
<CellData Scalars="region_id,cross_section_updated," Vectors="" Tensors="stress,">
<DataArray type="Float64" Name="region_id" format="ascii">
5 5 5 5 5 5 5 5 5 5 5 5 6 5 5 5 5 5 5 5 5 6 5 5 5 5 5 6 5 5 6 5 5 5 6 5 5 6 5 5 5 5 5 5 5 6 5 5 5 5 5 5 6 5 5 5 5 5 5 5 5 6 5 5 5 5 6 5 5 5 5 5 5 5 5 5 5 5 6 6 5 5 5 5 5 5 5 5 5 5 6 6 5 5 5 6 5 5 5 6 5 5 5 6 5 5 5 5 5 5 5 5 6 5 5 5 5 5 5 5 5 5 5 5 5 5 5 5 5 5 5 5 5 5 5 5 5 5 6 5 5 5 5 6 5 5 5 5 5 5 5 5 5 6 6 5 5 6 5 5 5 5 6 5 6 5 5 5 5 5 5 5 5 6 5 5 5 5 5 5 5 5 5 5 6 5 5 6 5 5 6 5 5 5 5 6 5 6 5 5 5 5 5 5 5 5 5 5 5 5 5 5 5 5 5 5 5 5 5 5 5 5 5 5 5 5 5 5 5 5 5 5 5 5 5 6 5 5 6 5 6 5 5 5 5 6 5 6 6 5 5 5 5 6 5 6 5 5 6 5 5 5 5 5 5 5 5 5 5 5 5 5 5 6 5 5 5 5 5 5 5 6 5 5 5 5 5 5 5 5 5 5 5 5 5 5 5 5 5 5 5 5 5 5 5 5 5 5 6 5 5 5 5 6 5 5 5 5 5 6 5 6 5 5 5 6 5 5 5 5 5 5 5 5 5 5 5 6 5 5 5 5 5 5 5 5 5 5 5 5 5 5 5 5 5 5 5 5 5 5 5 5 5 5 5 5 5 6 5 5 5 5 6 5 5 5 5 5 5 5 6 5 5 5 5 5 5 5 5 6 5 6 5 5 6 5 5 5 5 5 5 6 5 6 5 5 5 5 5 5 5 5 5 5 5 5 6 6 5 5 5 6 6 5 5 5 5 5 5 5 6 6 5 5 5 6 5 5 5 6 5 5 5 5 6 6 5 6 5 5 5 5 6 5 5 5 5 5 5 5 5 5 5 5 5 5 5 5 5 5 5 5 5 5 5 5 5 5 5 5 5 5 5 6 5 5 5 5 5 5 5 5 5 5 5 5 5 5 5 5 5 5 5 5 5 6 5 5 5 5 5 5 5 5 5 6 5 5 5 5 6 5 5 5 6 5 5 6 5 5 5 5 5 5 5 5 5 5 6 6 6 5 5 5 5 5 5 6 5 5 5 5 5 5 5 5 6 5 5 5 5 5 5 6 5 5 5 5 5 5 5 5 5 5 5 5 5 6 5 5 6 5 5 5 5 6 5 5 6 5 5 5 5 5 5 5 5 5 5 5 5 5 5 5 5 5 5 5 5 6 5 5 5 5 5 5 6 5 5 5 6 6 5 5 5 6 5 5 5 5 5 5 5 5 5 5 5 5 6 5 5 6 5 5 5 5 6 5 6 5 5 5 5 5 5 5 5 5 5 6 5 5 5 5 5 5 5 5 5 5 6 5 5 5 5 5 5 5 5 5 5 5 5 5 5 5 5 5 6 5 5 5 5 5 5 5 5 5 5 5 5 6 6 5 5 6 5 5 5 5 6 5 5 6 5 5 5 5 5 5 6 5 5 6 5 6 5 5 5 5 6 5 6 5 5 5 5 5 5 6 5 5 5 5 6 5 5 5 6 5 5 6 5 6 5 5 5 6 5 5 5 6 5 5 5 5 5 5 5 5 5 5 6 5 6 5 6 5 5 5 6 5 5 5 5 5 5 5 6 5 5 5 5 5 5 5 5 5 5 5 5 5 5 5 6 5 5 5 5 6 5 5 5 5 6 5 5 5 5 5 6 5 5 5 5 5 5 5 5 5 5 5 5 5 5 5 5 5 5 5 5 5 5 5 5 5 5 5 5 5 5 5 5 5 5 5 5 5 5 5 5 5 5 5 5 5 5 6 5 5 5 5 5 5 6 5 5 5 5 5 5 5 5 5 5 5 5 5 5 5 6 5 5 5 5 5 6 5 5 5 5 5 5 5 6 5 5 5 5 5 5 5 5 5 5 5 5 5 5 5 5 5 5 5 5 5 5 5 6 5 5 5 5 5 5 5 5 5 5 5 5 6 5 5 5 5 5 5 5 5 5 6 5 5 5 5 5 5 5 5 5 5 6 5 5 5 5 5 5 5 5 5 5 5 6 6 5 5 5 5 5 5 5 6 5 5 5 5 6 5 5 5 5 5 5 6 5 5 5 5 5 5 5 5 5 5 6 5 5 5 5 5 5 6 5 5 5 5 5 5 5 6 5 5 6 5 6 5 5 5 5 5 5 5 6 5 5 5 5 6 5 5 5 5 5 5 5 6 5 5 5 5 6 5 5 6 5 6 5 5 5 5 5 6 5 5 5 5 6 6 5 5 5 5 5 5 5 5 5 5 5 6 5 5 5 5 5 5 6 5 5 5 5 5 5 5 5 6 5 5 5 5 5 5 5 5 5 5 5 5 5 5 6 5 5 5 6 5 5 5 5 5 5 5 5 5 5 5 5 6 5 5 5 5 5 5 5 6 5 6 5 6 5 6 5 5 5 5 5 5 5 5 6 5 5 6 5 5 6 5 5 5 5 6 5 5 5 5 5 5 5 5 6 5 6 5 6 5 5 6 5 5 5 6 5 5 5 6 5 6 5 5 5 5 5 5 5 5 5 5 6 6 5 6 5 5 6 5 5 6 5 6 5 5 5 6 5 5 5 5 5 5 5 5 5 5 5 6 5 6 5 5 5 6 5 5 5 5 6 5 5 6 5 5 5 6 5 5 5 6 5 6 6 5 5 5 5 5 5 5 5 5 6 5 5 5 5 5 5 5 5 5 5 5 5 5 5 5 6 5 5 5 5 5 5 5 5 5 5 5 6 5 6 5 5 5 5 5 5 6 5 5 5 5 5 5 6 5 5 5 5 6 5 5 5 5 6 5 5 6 5 6 5 5 5 6 6 5 5 5 5 5 5 5 5 5 5 5 5 6 5 5 5 5 5 5 5 5 5 5 5 6 6 5 5 6 5 5 5 6 6 5 5 5 5 5 5 5 5 5 5 5 5 5 6 5 5 6 5 5 5 5 5 5 5 6 5 5 5 6 5 5 5 5 5 6 5 6 5 5 5 5 5 5 5 5 5 5 6 5 5 5 5 6 6 5 5 5 5 5 5 5 5 5 5 5 5 5 5 6 5 5 5 5 5 5 5 6 5 5 5 6 5 5 5 5 5 5 5 5 6 5 5 5 5 5 5 5 5 5 5 5 5 5 6 5 5 5 5 5 5 6 5 5 6 5 5 5 5 5 5 5 5 5 5 5 5 6 5 5 5 5 5 5 6 5 5 5 5 5 5 5 5 6 5 5 5 6 5 5 5 5 6 5 5 5 5 5 5 6 5 5 5 5 5 5 6 5 5 6 5 5 5 5 6 5 5 5 5 5 6 5 5 5 5 5 5 5 5 5 6 5 5 5 6 5 6 5 5 5 5 5 5 5 5 5 5 5 5 5 5 6 5 5 5 6 5 5 5 5 5 5 5 5 5 5 5 5 5 5 5 5 6 5 5 5 5 6 5 5 5 5 5 5 6 5 5 5 5 5 5 5 5 5 5 5 6 5 5 6 5 5 5 5 5 5 5 5 5 5 6 5 5 5 5 5 5 5 5 5 5 6 5 5 5 5 5 5 5 5 5 5 5 5 5 5 6 5 5 5 6 5 6 5 5 6 5 5 5 5 5 5 5 5 5 5 5 6 5 5 5 6 5 5 5 5 5 5 5 5 5 5 5 5 5 5 5 5 5 5 6 5 5 5 5 5 5 5 5 5 5 5 5 5 5 5 5 5 6 5 6 5 5 5 5 6 6 6 5 5 5 5 5 5 5 5 5 5 5 6 5 6 5 5 6 5 6 5 5 5 5 5 5 6 5 5 6 5 5 6 5 5 5 5 5 5 6 5 6 6 5 5 5 5 5 6 5 5 6 5 5 5 5 5 5 5 5 5 5 5 5 5 5 5 5 5 5 5 5 5 5 6 5 5 5 5 5 5 5 5 5 6 5 5 5 5 5 5 6 5 5 5 5 5 5 5 5 6 5 5 5 5 6 5 5 5 5 5 5 5 5 5 5 5 6 5 5 5 5 5 5 5 5 5 5 5 5 5 5 5 5 5 5 5 5 6 5 6 5 5 5 5 5 5 5 5 5 5 5 5 5 5 5 5 5 5 5 5 5 5 5 5 5 5 6 5 5 5 6 5 5 5 5 5 5 5 5 6 5 5 5 5 6 6 5 5 6 5 5 6 6 5 5 6 5 5 5 5 5 5 6 5 5 5 5 5 5 5 5 5 5 5 5 5 5 5 5 6 5 5 5 5 6 5 5 5 5 5 5 5 5 5 5 5 5 6 5 5 6 5 5 6 6 6 5 5 5 5 5 5 5 5 6 5 6 5 5 5 5 5 5 5 5 6 5 6 5 5 5 5 6 5 6 5 5 5 6 6 5 5 5 5 5 6 5 5 6 5 5 6 6 5 5 5 5 6 5 5 6 5 6 6 5 5 5 5 5 5 5 5 5 5 5 5 5 5 5 5 6 5 5 5 5 5 5 5 5 5 5 5 5 5 5 5 6 5 6 5 5 5 5 6 5 5 5 5 5 5 6 5 6 5 5 5 5 5 5 5 6 5 5 6 5 5 5 5 5 6 6 5 5 5 5 5 5 5 5 6 6 5 5 6 6 5 5 5 5 5 5 5 5 6 5 5 5 5 6 5 5 5 5 5 5 5 5 5 6 5 6 5 5 5 6 5 5 5 5 5 5 5 5 5 5 6 5 5 5 5 6 5 6 5 5 6 6 5 5 5 5 5 5 5 5 5 5 6 5 5 5 5 5 5 5 5 5 5 5 5 5 5 5 5 5 5 5 5 5 5 5 5 5 5 5 5 5 5 5 5 5 6 5 6 5 5 5 5 5 5 5 5 5 6 5 5 6 5 5 5 5 5 5 5 5 5 5 5 5 5 5 5 5 5 5 5 6 5 5 5 5 5 5 5 5 5 5 5 5 5 5 5 5 5 5 6 5 5 5 5 5 5 5 5 5 5 6 5 5 5 5 5 5 5 5 5 5 6 5 5 5 5 5 5 5 5 5 5 5 5 5 5 5 5 6 5 5 5 5 5 5 5 5 5 5 6 5 5 5 5 6 5 5 5 5 5 5 5 5 6 5 6 5 5 5 5 5 5 5 5 5 5 5 6 5 5 5 5 5 6 5 5 5 5 5 5 5 5 5 5 5 6 5 5 6 5 5 5 6 5 5 5 5 6 5 5 5 6 5 5 5 5 5 5 5 6 5 5 5 6 5 5 5 5 5 5 5 5 5 5 5 5 5 6 5 5 6 5 5 5 5 5 5 5 5 5 6 5 5 5 5 5 5 5 5 6 5 5 5 5 6 6 5 6 5 5 5 5 5 5 6 5 5 5 5 6 5 5 6 5 5 5 5 5 5 5 5 5 5 5 5 5 6 5 5 5 5 6 5 5 6 5 5 5 5 5 6 5 5 5 5 5 5 5 5 5 5 5 5 5 5 5 5 5 6 5 5 6 5 5 5 5 5 5 6 5 5 5 5 5 5 5 5 6 5 5 5 6 5 5 5 5 5 5 5 5 6 6 5 5 5 5 6 5 5 5 6 5 5 6 5 5 5 5 5 5 5 5 5 5 5 5 5 5 5 5 5 5 6 5 5 5 5 5 5 5 5 5 5 5 5 5 5 5 6 5 5 5 5 5 5 5 5 5 5 5 6 5 5 5 5 5 5 5 5 5 5 5 5 5 5 5 5 5 5 5 5 6 5 5 5 5 5 5 6 5 5 5 5 5 5 5 5 5 5 5 5 5 5 6 5 5 6 5 5 5 5 5 5 5 5 5 5 5 5 5 6 5 5 5 5 5 5 5 5 5 5 5 5 5 5 5 5 5 5 5 5 5 5 5 5 5 5 5 5 5 5 5 5 5 5 5 6 5 5 5 5 5 5 5 5 6 5 5 5 5 5 5 5 5 5 5 5 5 5 5 5 5 5 5 5 6 6 5 5 5 5 5 5 5 5 5 5 5 5 5 5 5 5 5 5 5 5 5 5 5 5 5 5 5 5 5 5 5 5 5 5 6 5 5 6 5 5 5 5 5 5 5 5 5 5 5 5 5 6 5 5 5 6 5 5 6 5 6 5 5 6 5 5 5 5 5 5 5 6 5 5 5 5 6 5 6 6 5 5 5 5 5 5 6 6 6 5 5 5 5 5 5 6 5 5 5 5 5 5 5 5 5 5 5 6 5 6 6 5 5 5 6 5 5 6 6 5 5 5 5 5 5 5 5 5 5 5 5 5 5 6 5 5 5 5 5 5 5 5 5 5 5 5 5 5 5 5 5 5 5 5 5 6 5 6 5 5 5 5 5 5 5 5 5 5 6 5 5 5 5 5 5 5 5 5 5 5 5 5 5 5 5 5 5 5 5 5 5 5 5 5 5 5 5 5 5 5 5 5 5 5 5 5 5 5 5 5 5 5 5 5 5 5 5 6 5 6 5 6 5 5 5 5 5 5 5 5 5 5 5 5 5 5 5 5 5 5 5 6 5 5 5 5 6 5 5 5 5 5 5 5 5 6 5 5 5 5 5 5 5 5 5 5 5 5 6 5 6 5 6 5 5 5 5 5 6 5 5 6 5 5 5 6 6 5 5 5 6 5 5 5 6 5 6 5 5 5 5 5 5 5 5 5 5 5 5 5 5 6 5 6 5 5 5 5 5 5 5 5 6 5 5 5 5 5 5 5 5 5 5 6 5 5 5 5 5 5 5 5 5 5 5 5 5 5 5 5 6 5 5 5 5 5 6 5 5 5 5 6 5 6 5 5 5 6 5 5 5 5 5 5 5 5 5 5 5 5 5 5 5 5 5 5 5 5 5 5 5 5 5 5 5 5 5 5 5 5 6 6 5 6 5 5 6 5 6 5 5 5 6 5 5 5 5 5 6 5 5 5 6 5 5 6 5 5 6 5 5 5 5 5 5 5 5 5 6 5 5 5 5 5 5 5 6 5 5 5 6 5 5 6 5 5 5 5 5 5 5 5 6 6 5 5 5 5 6 5 5 6 5 5 5 5 5 5 5 5 5 5 5 5 5 5 5 5 5 6 5 5 6 5 6 5 6 5 5 5 5 5 6 5 5 6 5 6 5 5 5 5 5 6 5 5 5 6 5 5 5 6 5 5 6 5 5 5 5 6 6 5 5 5 5 5 5 5 6 6 5 5 5 6 5 5 5 5 5 5 5 5 5 5 6 5 5 5 5 5 5 5 5 6 5 5 6 5 5 5 5 5 5 5 5 5 5 5 5 5 5 5 5 5 5 6 5 6 5 5 5 5 5 5 5 5 5 5 5 5 5 5 5 5 5 5 5 5 5 5 5 5 5 5 5 5 5 5 5 5 5 5 5 5 5 5 5 5 5 5 5 5 5 5 5 5 5 5 5 6 5 5 5 5 5 5 5 5 5 5 5 5 5 5 5 5 5 5 6 5 5 5 6 5 6 5 5 5 5 5 6 5 6 5 5 5 5 5 6 6 5 5 5 5 5 5 5 5 5 5 5 5 5 5 6 6 5 5 5 5 5 5 5 5 5 5 5 6 5 6 5 6 5 5 5 6 5 6 5 5 5 5 5 5 5 5 5 5 5 5 6 6 5 5 5 5 5 5 5 5 5 5 5 5 5 5 5 5 5 5 5 5 5 5 5 5 5 5 5 5 5 6 5 5 5 6 5 5 5 5 5 5 6 5 5 5 5 5 5 5 5 5 5 5 5 5 5 5 6 5 5 5 5 5 5 5 5 5 5 5 5 5 5 5 5 5 5 5 5 5 5 6 5 5 5 6 6 5 5 5 5 5 5 5 6 5 5 5 5 5 5 5 5 6 5 5 6 5 5 6 5 5 5 5 5 5 5 6 5 5 5 5 5 5 5 5 6 5 5 5 5 5 5 5 5 5 5 5 5 5 5 5 5 5 5 5 5 5 6 5 6 5 5 5 5 5 5 5 5 5 5 5 5 5 5 5 5 5 5 5 5 5 5 5 5 5 5 5 5 5 5 6 5 5 5 5 5 5 5 5 5 6 5 5 5 5 5 5 5 5 5 5 5 5 5 5 6 5 5 5 5 5 5 5 5 5 5 5 5 5 5 5 5 5 5 5 6 5 5 5 6 5 5 5 5 5 5 5 5 5 5 5 5 5 5 5 5 5 6 5 5 5 5 5 5 5 5 6 5 5 5 5 5 5 5 5 5 5 5 5 5 5 5 5 5 5 5 5 5 5 5 5 5 5 5 5 5 6 5 5 5 6 5 5 6 5 5 5 6 5 6 5 6 6 5 5 5 5 6 6 5 5 5 5 5 6 5 5 5 6 5 5 5 5 5 5 5 5 5 5 5 5 5 5 5 5 5 5 6 5 5 5 6 5 5 5 5 5 5 5 5 5 5 5 5 5 5 5 5 5 5 5 5 6 5 5 5 5 5 5 5 5 6 5 5 5 5 6 6 5 5 5 5 5 5 5 5 5 5 5 5 5 5 5 5 5 5 5 6 5 5 5 6 5 6 5 5 6 5 5 5 5 5 5 5 6 5 5 5 6 5 5 6 5 5 5 5 5 6 6 5 5 5 5 5 5 5 5 5 5 5 6 5 5 5 6 5 5 5 6 5 6 5 5 5 5 6 5 5 5 5 5 5 5 5 5 5 5 5 5 6 5 5 5 6 5 5 5 6 5 5 5 5 5 5 5 5 5 5 5 6 5 5 5 5 5 5 5 5 5 5 5 5 5 5 5 5 5 5 5 5 5 5 5 5 5 5 5 5 5 5 5 5 5 5 5 6 5 5 5 5 5 5 5 5 5 5 5 5 5 5 5 5 5 5 5 6 5 5 5 5 5 5 6 5 5 5 5 5 6 5 5 5 5 5 5 5 5 5 5 6 5 5 5 5 5 5 5 5 5 5 5 5 6 5 5 5 5 5 5 5 5 5 5 5 5 5 5 5 5 5 5 5 5 5 5 5 5 6 5 5 5 5 5 5 5 5 5 5 5 5 5 6 5 5 5 5 5 5 5 5 5 5 5 5 5 5 5 5 5 5 5 5 5 5 5 5 5 5 5 5 5 5 6 6 5 5 5 5 5 5 5 5 5 5 5 5 5 5 5 5 5 5 5 5 5 5 5 5 5 5 5 5 6 5 5 5 6 5 5 5 5 5 6 5 5 5 5 5 5 5 5 6 5 5 5 5 5 6 5 5 5 6 5 5 5 5 6 5 5 5 5 5 5 5 5 5 5 5 6 5 5 5 5 5 5 5 5 5 5 5 5 5 5 6 5 5 5 5 5 5 5 5 6 5 5 5 5 5 5 5 5 5 5 5 5 5 5 5 5 5 5 5 5 5 5 5 5 5 5 5 6 5 5 5 5 5 5 5 5 5 5 5 6 5 5 5 5 5 5 5 5 5 5 5 5 5 5 6 5 5 5 5 5 5 5 5 6 5 5 6 5 5 5 5 6 5 5 6 5 6 5 6 5 5 6 5 5 5 5 5 5 5 5 5 5 5 5 6 6 5 5 6 5 5 5 5 5 5 5 5 5 5 5 5 6 5 5 5 5 5 5 5 5 5 5 5 5 5 5 6 5 6 5 5 5 5 5 5 6 5 5 5 5 5 5 6 5 5 5 5 6 5 6 5 5 5 6 6 5 5 6 5 6 5 5 6 5 5 5 5 5 5 5 5 5 5 5 5 6 5 5 5 5 5 5 5 6 5 5 5 5 5 5 5 5 5 5 5 5 5 6 5 6 5 6 5 6 5 6 6 6 5 5 5 6 5 5 5 6 5 5 6 6 5 5 5 6 5 5 5 5 5 5 6 5 5 5 5 5 5 5 5 5 5 5 5 5 5 5 5 5 5 6 6 5 5 5 6 6 5 5 6 5 6 5 5 5 5 5 5 5 5 6 5 5 5 5 5 5 5 5 5 5 5 6 5 5 6 6 5 5 5 6 5 5 6 5 5 5 5 5 5 5 5 5 5 6 5 6 6 5 5 6 5 6 5 5 6 6 5 5 5 5 5 5 6 5 6 5 5 6 5 5 5 5 5 5 6 5 5 5 5 5 5 5 5 5 6 5 6 5 5 5 5 5 5 6 5 5 5 5 5 5 5 5 5 5 5 5 5 5 5 5 5 5 5 5 5 5 5 5 5 5 5 5 5 5 5 5 6 5 5 5 5 5 6 5 5 5 5 5 5 6 5 5 5 5 5 5 5 5 5 5 5 5 6 5 5 5 5 5 6 5 5 5 5 5 6 5 5 5 5 5 5 5 5 5 5 5 5 5 5 5 5 5 5 5 5 6 6 5 5 5 6 5 5 5 5 5 5 5 5 5 5 5 5 5 6 5 5 6 5 5 5 5 5 5 5 5 5 5 5 5 5 5 5 5 5 5 5 5 5 5 5 5 5 5 5 5 5 5 5 5 5 5 5 5 5 5 6 5 5 5 5 5 5 5 6 5 5 5 5 5 5 5 5 5 6 5 5 5 5 5 5 5 6 5 5 6 5 6 6 5 5 6 5 5 6 5 6 5 6 5 5 5 5 5 6 5 5 5 5 5 5 6 5 5 5 5 5 5 5 5 5 5 5 6 5 5 6 5 6 5 5 5 6 5 5 5 5 5 5 5 5 5 5 5 5 6 5 5 5 5 5 5 5 5 5 6 5 5 5 5 5 6 5 5 5 6 5 6 5 5 5 6 6 6 6 5 6 5 5 5 5 5 6 5 5 5 5 5 5 5 6 5 5 5 5 5 6 6 5 5 5 5 5 5 5 5 6 5 5 5 6 6 5 5 5 5 5 5 6 5 5 5 5 5 5 5 5 6 5 5 5 5 5 5 6 5 5 5 5 5 5 5 5 5 5 5 5 5 5 5 5 6 5 5 5 6 6 5 5 5 5 5 5 6 5 5 5 6 5 5 5 5 5 5 5 5 5 5 5 5 5 5 5 5 6 5 5 5 5 6 5 5 6 5 5 5 6 6 5 5 5 5 5 5 5 5 5 5 5 6 5 5 6 5 5 5 5 5 5 5 5 5 5 5 5 5 5 5 5 5 5 5 5 5 5 5 5 5 5 5 5 5 6 5 6 5 5 5 5 5 5 5 5 5 5 5 5 5 5 5 5 5 5 5 5 5 6 5 5 5 5 5 5 5 5 5 5 5 5 5 5 5 5 5 5 5 5 5 5 5 5 5 5 5 5 5 5 5 5 5 5 5 5 5 5 5 5 5 5 5 5 5 5 6 5 5 5 5 5 5 5 5 5 5 5 5 6 6 5 5 5 5 5 5 5 6 5 5 5 5 5 5 5 5 6 6 5 5 5 6 5 5 5 5 5 5 5 5 5 5 5 5 5 5 5 5 6 5 5 5 6 5 5 5 5 5 6 5 5 5 5 5 5 5 5 5 5 6 5 5 5 6 5 5 5 6 5 5 5 5 5 5 5 5 5 5 6 5 5 5 6 5 5 5 5 6 5 5 5 5 5 5 5 6 5 5 6 5 5 5 5 5 6 5 5 5 5 5 5 6 6 5 6 6 5 5 5 5 6 6 6 5 6 5 6 5 6 5 5 6 5 6 6 5 5 6 5 5 5 6 5 5 5 5 5 5 5 5 5 5 5 5 5 5 6 5 5 6 5 5 6 5 5 5 5 6 6 5 6 5 5 5 6 5 6 6 5 6 6 5 5 5 6 5 5 5 5 5 5 5 5 5 5 6 5 5 6 5 6 5 5 5 5 5 6 5 5 6 5 5 5 6 5 6 6 5 5 5 6 5 5 5 6 5 5 6 5 5 5 5 5 5 5 5 5 5 5 5 5 5 5 5 5 5 6 5 6 5 5 6 5 5 5 5 5 6 5 5 6 5 5 5 6 5 5 5 6 5 5 5 6 5 5 5 5 5 5 5 5 5 5 5 5 5 5 5 5 5 5 5 5 5 5 5 5 5 5 5 5 5 5 5 5 5 5 5 5 5 5 5 5 5 5 5 5 5 5 5 5 5 5 5 5 5 5 5 5 5 5 5 5 5 5 5 5 5 5 5 5 5 5 5 5 5 5 5 5 5 5 5 5 5 5 5 5 6 5 5 5 5 5 5 5 5 5 5 5 5 5 6 5 5 6 5 5 5 5 5 5 5 5 5 5 6 5 6 5 5 6 6 5 5 5 5 6 5 5 5 6 6 5 6 5 5 5 5 6 5 5 5 5 5 5 5 5 5 6 5 5 5 6 5 5 5 5 5 6 5 6 5 5 5 5 6 5 5 5 5 5 5 5 6 5 5 5 5 5 5 5 5 5 5 6 5 5 5 5 5 5 5 6 6 5 6 5 5 5 5 5 5 6 5 5 5 5 5 6 5 5 5 5 5 5 6 5 6 5 6 6 5 6 5 5 5 5 6 5 5 5 6 5 5 6 5 6 5 5 5 5 5 5 5 6 5 5 5 5 6 5 5 5 5 5 5 5 5 5 5 5 5 5 5 5 5 6 5 5 5 5 5 6 5 6 5 5 5 5 5 6 5 5 5 6 5 5 5 5 5 5 5 5 6 5 6 5 5 5 5 5 5 5 5 5 5 6 6 5 5 5 6 5 5 5 5 5 5 5 5 5 5 5 5 5 5 5 5 5 5 5 5 5 5 5 5 5 5 5 5 5 5 5 5 5 5 5 5 5 5 5 5 5 5 5 5 5 5 5 5 5 5 5 5 5 5 5 5 5 5 5 6 6 5 5 5 5 5 5 5 5 6 5 5 6 5 5 5 5 6 5 6 5 5 5 5 5 5 5 5 5 5 5 5 5 5 5 5 5 5 5 5 5 5 5 6 5 6 5 5 5 5 5 5 5 5 5 6 5 5 5 5 6 6 5 5 5 5 6 5 6 5 5 5 5 5 5 5 5 5 5 6 5 5 5 6 5 5 5 5 5 5 5 5 5 5 5 5 6 5 5 6 5 5 5 6 5 6 5 5 6 5 6 5 5 5 5 5 5 5 6 5 5 6 5 5 6 5 5 5 5 5 5 5 5 5 5 5 5 5 5 5 6 5 5 5 5 5 6 5 5 5 5 5 5 5 5 5 5 5 5 5 6 5 5 5 5 5 5 5 5 5 5 5 5 5 5 5 5 5 5 5 6 6 6 5 5 5 6 5 6 5 5 5 6 6 6 5 5 5 5 5 5 6 5 5 5 5 5 5 5 5 5 5 5 6 5 5 5 5 5 5 5 5 5 5 6 5 6 5 5 5 5 6 6 5 5 6 5 5 5 6 5 5 5 5 5 5 5 5 6 5 5 5 5 5 5 5 5 5 6 5 5 5 6 5 5 6 5 5 5 6 6 5 5 5 5 5 5 5 5 5 5 5 5 5 5 5 5 5 5 5 5 5 5 5 5 5 5 5 5 5 5 5 5 5 5 5 5 5 5 5 5 5 5 5 5 5 5 5 5 5 5 6 5 5 5 6 5 5 5 5 5 5 5 5 5 5 5 5 6 5 5 6 5 5 5 5 5 5 5 5 5 5 5 5 5 5 5 5 5 5 6 5 5 5 5 5 5 5 5 5 5 5 5 5 5 5 6 5 5 5 5 5 5 5 5 5 5 5 5 6 5 5 5 5 5 5 5 5 6 5 5 5 5 6 5 5 5 6 5 5 5 5 5 5 5 5 5 5 5 5 5 5 5 5 5 5 5 5 5 5 5 5 5 5 5 5 5 5 5 5 5 5 5 5 5 6 5 5 5 5 5 6 5 6 5 5 5 5 5 5 5 6 5 5 5 5 5 5 5 5 5 5 5 5 5 5 5 5 5 5 5 5 5 5 5 5 5 5 5 5 5 5 5 5 5 5 5 5 5 6 5 5 6 5 5 5 5 5 5 5 5 5 6 5 5 5 6 6 5 5 5 5 6 5 5 5 6 5 5 5 5 5 5 5 5 5 5 5 5 5 5 5 5 6 5 5 5 5 5 5 5 5 5 5 5 5 5 5 5 5 6 5 5 5 6 5 5 5 5 5 5 5 5 5 5 5 5 5 5 5 5 5 6 5 5 5 5 5 5 5 6 5 5 5 5 5 5 5 5 5 5 5 6 5 5 5 6 5 5 5 5 5 5 5 5 6 5 5 5 5 5 5 5 5 5 5 5 5 5 5 5 5 5 5 5 5 5 5 5 5 5 5 5 5 6 5 5 5 5 5 5 5 6 5 5 5 5 5 6 5 5 5 5 6 5 5 5 6 5 5 6 5 5 5 5 5 5 5 6 5 5 5 5 6 5 5 5 5 5 5 5 5 5 5 6 5 5 5 5 5 5 5 5 5 5 5 5 5 5 5 5 5 5 5 6 5 6 5 5 5 6 5 5 5 5 5 5 5 5 5 5 6 5 5 5 5 6 5 5 5 5 5 5 5 5 5 5 5 5 5 5 5 5 5 5 5 5 5 5 5 5 5 5 6 5 5 5 5 5 6 5 5 5 5 5 6 5 5 5 5 6 5 6 5 5 5 5 5 5 6 6 5 6 5 5 5 5 5 5 5 5 5 6 5 5 6 5 5 5 5 5 5 5 5 5 5 5 5 5 5 5 5 6 5 5 5 5 6 5 5 5 5 5 5 5 5 5 5 5 5 5 5 5 5 6 5 5 5 6 5 5 5 5 5 6 5 5 6 5 5 5 5 5 6 5 5 5 5 5 5 6 5 5 5 5 5 5 5 5 5 5 5 5 5 5 5 5 5 5 5 5 5 6 5 5 6 5 5 5 5 6 5 5 5 5 6 5 6 5 5 6 5 5 6 5 5 5 5 5 5 5 5 6 5 5 6 5 5 5 5 5 5 5 5 5 5 5 5 5 5 5 5 5 5 5 5 5 5 5 5 5 5 5 6 5 5 5 5 6 5 5 5 6 5 5 5 5 5 5 5 5 5 5 5 5 5 6 5 5 5 5 5 5 5 5 6 5 5 5 5 5 5 5 5 5 5 5 5 5 5 5 5 5 5 6 6 5 5 6 5 6 5 5 6 5 5 5 5 5 5 5 5 5 5 5 5 5 5 5 5 5 5 6 5 5 5 5 5 6 5 5 5 5 5 5 6 5 5 5 5 5 5 5 5 5 5 5 5 5 5 5 5 5 5 5 5 5 5 5 5 5 5 5 5 5 5 5 5 5 5 5 5 5 5 5 5 5 5 5 5 5 5 5 5 5 5 5 6 5 5 5 5 5 5 6 5 6 5 5 5 5 5 5 5 5 5 5 5 5 5 5 5 5 5 6 5 5 5 5 6 6 5 5 5 5 5 5 5 5 5 5 5 5 5 5 5 5 5 6 5 5 5 5 5 5 5 5 6 5 5 6 5 5 5 5 5 5 5 5 5 5 5 5 5 5 5 5 5 5 6 5 5 5 5 5 5 5 5 6 5 5 5 6 5 5 6 5 5 5 5 5 5 5 5 5 5 5 5 5 5 5 5 5 5 5 6 5 5 5 5 5 5 5 5 5 5 5 5 5 5 5 5 6 5 5 5 5 5 5 5 5 6 5 5 5 5 5 5 6 5 5 6 5 5 6 5 5 6 5 5 5 5 6 5 5 6 5 5 5 5 6 5 5 6 5 6 5 6 5 5 5 5 5 5 5 5 5 6 6 5 5 5 5 5 6 5 5 6 6 5 5 5 5 5 5 5 5 5 5 5 5 5 5 5 5 5 5 5 5 5 6 5 5 5 5 5 5 5 5 5 5 5 5 5 5 5 5 5 5 5 5 5 5 5 5 5 5 5 5 5 5 5 5 5 6 5 5 6 6 5 5 5 6 6 5 5 5 5 5 5 5 5 5 5 5 5 5 5 5 6 5 5 5 5 5 5 5 5 6 5 5 5 5 5 5 5 5 5 5 5 5 6 5 5 5 5 6 5 5 5 5 5 6 5 6 5 5 5 5 5 5 6 5 6 5 6 5 5 6 5 5 6 5 5 5 5 5 5 5 5 5 5 5 6 5 5 5 5 5 5 5 5 5 5 5 5 5 5 6 5 5 5 5 5 5 5 5 5 6 5 5 5 5 6 5 5 5 5 5 5 5 5 5 5 6 5 5 5 5 5 5 5 5 6 5 5 5 5 6 5 5 5 6 5 5 5 5 6 5 5 5 5 5 5 5 5 5 5 5 5 5 6 5 5 6 5 5 5 5 5 5 5 5 5 5 5 5 5 5 5 5 5 6 5 6 5 5 5 5 6 5 5 5 5 5 5 5 5 5 5 5 5 5 5 6 5 5 6 6 5 5 5 5 5 5 5 5 5 5 5 5 5 5 5 5 5 5 5 5 5 5 5 5 5 5 5 5 5 5 5 5 5 5 5 5 6 5 5 5 5 6 5 5 6 5 5 5 6 5 5 5 6 5 5 5 5 5 5 5 5 6 5 6 5 6 5 5 6 5 5 5 5 5 6 6 5 6 5 5 5 5 5 5 5 5 5 6 5 5 5 5 5 5 5 5 5 5 5 5 5 5 5 5 5 6 5 5 5 5 5 5 5 5 5 5 6 5 5 5 6 5 6 5 5 5 6 5 6 6 5 5 5 5 6 5 5 5 5 5 5 5 5 6 5 5 5 6 5 5 6 6 5 6 5 5 6 5 5 5 5 5 6 5 6 5 5 5 6 5 5 5 5 5 5 6 5 5 5 5 5 5 5 6 5 5 5 5 5 5 5 5 5 5 5 5 6 5 5 5 5 5 5 6 5 5 5 5 5 5 5 5 5 5 5 5 5 5 5 5 6 5 5 5 6 5 5 6 5 5 5 6 5 6 5 6 5 5 5 5 5 5 5 5 5 5 5 5 5 5 5 6 5 5 5 5 5 5 5 5 5 5 5 5 5 5 5 5 6 5 6 5 6 6 5 5 6 5 6 5 5 5 5 5 5 5 6 5 5 5 5 5 5 5 5 6 5 6 5 5 5 5 6 5 5 5 5 5 6 5 6 5 5 5 5 5 5 6 5 5 5 5 5 5 5 5 5 5 5 6 5 5 5 5 5 5 5 5 5 5 5 5 6 5 5 5 5 5 6 5 5 5 5 5 5 6 5 5 5 5 5 5 5 5 5 5 5 5 5 5 5 5 5 5 5 5 5 5 5 5 5 5 6 5 5 5 6 5 5 5 5 5 5 5 5 5 5 5 5 5 5 5 5 5 6 5 5 5 6 5 5 5 5 6 5 5 5 5 5 5 5 5 5 5 5 5 5 5 5 5 5 5 5 5 5 6 6 5 5 5 6 5 5 5 5 6 5 5 6 5 5 6 5 5 5 6 5 5 5 5 5 5 5 5 6 5 5 6 5 5 5 6 5 5 6 6 5 5 5 6 5 6 5 5 5 5 5 5 6 6 5 5 5 5 5 5 5 6 5 5 5 5 5 5 5 5 5 5 5 5 5 5 5 5 5 6 5 5 5 6 5 5 5 5 5 5 5 5 5 5 5 5 5 5 5 5 5 5 5 6 6 5 5 5 5 5 5 5 6 5 5 5 5 5 5 5 6 5 5 5 5 5 5 5 6 5 5 5 5 5 5 5 5 5 5 5 5 5 5 5 5 5 5 5 5 5 5 5 5 5 5 5 5 6 5 5 5 5 5 5 5 5 5 5 5 5 5 6 5 5 5 5 5 6 5 5 5 6 6 5 5 5 5 5 5 5 5 5 6 5 5 6 6 6 5 6 5 5 5 5 5 6 5 5 5 5 5 6 5 5 6 5 5 5 5 5 5 5 5 6 5 6 6 5 5 5 5 5 5 5 5 6 6 5 5 6 5 5 5 6 5 5 5 5 5 5 5 5 5 5 6 5 5 5 5 6 6 5 5 5 5 5 5 5 5 5 5 6 5 5 5 5 5 5 5 5 5 5 5 5 5 5 5 5 5 5 5 5 5 5 5 5 5 5 5 5 5 5 5 5 5 5 5 6 5 5 5 5 5 5 6 6 5 5 5 5 5 5 5 5 5 5 5 5 5 5 5 5 5 5 5 5 5 5 5 6 5 5 5 5 5 5 5 5 5 5 5 5 5 5 5 5 5 5 5 5 5 5 5 5 5 5 5 5 5 5 5 5 6 5 5 5 5 5 5 5 6 5 5 5 5 5 5 6 5 5 5 5 5 5 5 6 5 6 5 5 5 6 5 5 5 5 5 6 5 5 6 5 5 5 5 5 5 5 5 5 5 5 6 5 5 5 5 5 5 5 5 5 5 5 5 5 5 5 6 5 5 5 5 5 5 5 5 6 5 5 5 5 5 5 5 5 5 5 5 5 6 5 5 5 5 5 6 5 5 5 5 5 5 5 6 5 5 5 5 5 6 5 5 5 5 5 5 5 5 6 5 5 5 5 5 5 5 5 5 5 5 5 5 5 5 6 5 5 5 5 5 5 5 5 5 5 5 5 5 6 5 5 5 5 6 5 5 6 5 5 5 5 5 5 5 5 6 5 5 6 5 5 5 5 5 5 6 5 5 5 5 5 5 5 5 5 5 5 5 5 5 5 5 5 5 5 6 5 5 5 5 6 5 5 5 5 5 5 5 5 5 5 5 5 5 5 5 5 5 5 5 5 5 5 5 5 5 5 5 5 5 5 5 5 5 5 5 5 5 5 5 5 5 5 5 5 5 5 5 5 5 5 5 5 5 5 5 5 5 5 5 6 6 5 5 6 5 5 5 5 5 6 5 5 5 5 5 6 5 5 5 5 6 5 5 6 5 5 5 5 5 5 5 6 5 5 5 6 5 5 5 5 5 5 5 6 5 5 5 6 5 6 5 5 5 5 5 5 6 6 5 5 5 6 5 6 5 5 5 5 5 6 5 5 5 5 5 5 6 5 5 5 6 5 5 5 5 5 5 5 5 5 5 5 5 6 5 5 5 5 5 5 6 5 5 5 5 6 5 5 5 5 6 5 6 5 6 5 5 5 6 5 5 5 6 6 5 5 5 5 6 5 5 5 6 5 5 5 5 5 5 5 5 5 5 5 5 5 5 5 5 6 5 5 5 5 5 5 5 5 5 5 5 5 5 6 5 5 5 6 5 5 5 5 5 6 5 5 5 5 5 6 5 5 5 5 5 5 5 6 5 5 5 5 5 5 5 5 5 6 5 5 5 5 5 5 5 6 5 5 5 5 5 5 5 5 5 5 5 5 5 5 5 6 5 5 5 5 5 5 5 5 5 5 5 5 5 5 5 5 5 5 5 5 5 5 5 5 5 5 5 5 5 5 5 5 5 5 5 5 5 6 5 5 5 5 5 5 6 5 5 5 6 5 5 5 5 5 5 6 5 5 5 6 5 5 5 5 6 5 5 5 5 5 5 5 5 5 5 5 5 5 5 5 5 5 5 5 5 5 5 5 5 5 5 5 6 5 5 5 5 5 5 5 5 5 5 5 5 5 5 5 5 5 5 5 5 5 5 5 6 5 5 5 5 6 5 5 5 6 5 5 5 5 5 6 5 5 5 5 5 6 5 5 5 5 5 5 5 5 5 5 5 5 6 5 6 5 5 5 5 5 5 5 5 6 5 5 6 5 5 5 5 5 5 5 5 5 5 5 5 6 5 5 5 5 5 6 5 5 6 5 5 5 5 5 5 5 5 5 5 5 5 5 5 5 5 5 6 5 5 6 6 5 5 6 5 5 5 5 6 5 6 6 5 5 5 5 5 5 5 5 5 6 5 5 6 5 5 5 5 5 5 5 5 5 6 5 5 5 5 5 6 5 5 6 6 5 6 5 6 5 5 5 5 6 5 6 5 5 5 5 5 5 6 5 5 5 5 5 5 5 5 5 5 5 5 5 5 5 5 5 5 5 5 5 5 5 5 5 5 5 5 5 5 5 5 5 5 6 5 5 5 5 5 6 6 5 6 5 6 5 5 5 6 5 5 5 5 5 6 5 5 5 5 5 5 5 5 6 5 6 5 5 6 6 5 6 5 6 5 5 5 5 5 5 5 6 5 5 6 6 5 5 5 5 5 6 6 5 5 6 6 5 5 5 6 5 5 5 6 5 5 5 5 5 5 5 5 5 5 5 5 5 5 5 5 5 5 5 6 5 5 6 5 5 5 5 5 6 5 5 5 5 5 5 5 5 5 5 5 5 5 5 5 5 6 5 5 5 5 5 5 5 5 5 5 6 5 5 6 5 5 5 5 5 6 5 5 5 5 5 5 6 5 5 6 5 5 5 5 5 5 5 6 5 6 5 6 6 6 6 5 6 5 5 5 5 6 6 6 5 6 5 5 5 5 6 5 6 5 5 5 6 5 5 5 5 6 5 5 6 5 5 5 5 5 5 5 5 5 5 5 5 5 5 5 5 5 5 5 6 5 5 5 5 5 6 5 5 6 5 5 5 5 5 5 5 5 5 6 5 6 5 5 5 5 5 5 6 5 5 5 5 5 5 5 5 5 5 5 5 5 5 5 5 5 5 5 5 5 5 5 5 5 5 5 5 5 5 5 5 5 5 5 5 6 5 5 6 5 5 5 6 5 5 5 5 5 5 5 5 5 5 5 5 5 5 5 5 5 5 6 5 5 5 5 5 5 5 5 5 5 6 6 6 5 5 5 5 6 5 5 5 5 5 5 5 5 5 5 5 5 5 5 5 5 5 5 6 5 5 5 5 5 5 5 5 6 5 5 5 6 5 6 5 6 5 6 5 6 5 5 5 5 5 6 5 5 6 6 6 5 6 6 5 5 5 5 5 6 6 5 5 5 6 6 5 5 5 5 5 6 5 6 5 5 5 5 6 6 5 5 6 5 6 5 5 6 5 6 6 5 5 5 6 6 5 5 6 6 6 5 5 5 6 5 6 6 5 5 6 6 5 6 5 6 5 5 5 5 5 5 6 5 5 5 5 5 5 5 6 6 5 6 6 5 5 5 5 6 5 5 5 6 5 5 5 5 5 6 5 5 6 6 5 5 5 5 6 5 5 5 5 5 6 5 5 5 5 5 5 5 6 6 6 6 5 5 5 5 5 6 6 5 5 6 5 5 5 6 5 5 5 5 5 5 6 5 5 5 5 6 6 6 5 6 5 5 6 5 5 5 5 5 5 5 5 5 6 5 5 5 5 6 5 5 6 5 5 5 5 5 5 5 5 5 5 5 5 5 5 5 5 5 5 5 5 5 5 5 5 5 5 5 6 5 5 5 5 5 5 5 5 5 5 5 5 5 5 5 5 5 6 5 5 5 5 5 5 5 6 5 5 5 5 5 6 5 5 5 5 5 5 5 5 5 5 5 5 5 5 5 5 5 5 5 6 5 5 5 5 5 5 5 6 5 5 5 5 5 5 5 5 5 5 6 5 5 5 5 5 5 5 6 5 5 5 5 5 6 5 5 5 5 5 6 5 5 5 5 6 5 5 5 5 5 5 5 5 5 5 5 5 5 5 5 6 5 5 6 5 5 5 5 6 5 5 5 5 5 5 5 5 5 6 5 5 5 6 6 5 6 5 5 5 5 5 5 5 5 5 6 5 5 6 6 6 5 5 6 5 5 6 5 5 5 5 6 6 5 5 6 5 6 5 5 5 6 5 5 6 6 5 6 5 5 5 5 5 5 5 5 6 5 5 5 5 5 5 5 5 6 5 5 5 5 5 5 5 5 5 5 5 5 5 5 5 5 5 6 5 5 5 5 6 5 5 6 5 5 5 5 5 5 5 5 5 5 5 5 5 5 6 5 5 5 6 5 5 5 6 5 5 5 5 5 5 5 5 5 5 5 5 5 6 5 5 5 5 5 5 5 5 5 5 5 5 5 6 5 5 5 5 5 5 5 5 5 5 5 5 5 5 5 5 5 5 5 6 5 6 6 5 5 6 6 6 5 5 5 6 6 5 5 5 5 6 6 5 5 5 5 5 5 5 5 5 5 5 5 5 5 6 5 5 5 5 5 6 5 5 5 5 5 5 5 5 5 6 5 5 5 5 6 5 5 5 6 5 5 5 5 5 5 5 5 6 5 5 5 5 5 5 5 5 5 5 5 6 5 5 5 5 5 5 5 5 5 5 5 5 5 5 5 5 5 5 6 5 5 5 5 5 5 6 5 5 5 6 5 5 6 5 5 5 5 5 5 5 5 6 5 5 5 6 5 5 5 5 5 5 6 5 5 5 5 6 5 6 5 5 5 5 5 5 5 5 5 5 6 5 5 5 5 5 6 5 5 5 6 5 5 5 5 5 6 5 5 5 5 5 5 5 5 5 5 6 5 5 5 5 5 6 5 5 6 5 5 5 5 5 5 5 5 5 5 6 5 5 6 5 5 5 5 5 5 6 5 5 6 5 5 5 5 5 5 5 5 5 5 5 5 5 5 5 5 5 5 5 5 5 5 5 5 5 5 5 5 5 5 5 5 5 5 5 5 5 5 5 5 5 5 5 5 5 5 5 5 5 5 5 6 5 5 5 6 5 5 5 5 5 5 6 5 5 5 5 5 5 5 5 5 5 5 5 5 5 5 5 5 5 5 5 5 5 5 5 5 5 5 5 5 6 5 5 5 6 5 5 5 5 5 5 5 5 5 5 5 5 5 5 5 5 5 5 5 5 5 5 5 5 5 5 5 5 5 5 6 5 5 5 6 5 6 5 5 5 5 5 5 5 5 6 5 5 6 5 5 5 5 5 5 5 6 5 5 5 5 5 5 5 5 5 6 5 5 5 5 5 5 5 5 5 5 5 5 5 5 5 5 5 5 5 5 5 5 5 5 5 5 5 5 5 5 6 5 5 5 5 5 5 5 5 5 5 5 5 5 5 6 5 5 5 5 5 6 6 5 5 5 5 6 5 5 5 5 5 5 6 6 5 5 5 6 5 5 6 5 5 5 5 5 5 5 5 5 5 5 5 5 5 5 5 5 5 5 5 5 5 5 6 6 5 6 5 5 6 5 5 5 6 5 5 5 5 5 5 5 5 5 5 5 5 5 5 5 5 5 5 5 5 6 5 5 6 5 5 5 6 5 5 6 5 6 5 5 5 5 5 5 5 5 5 5 5 5 5 6 5 5 5 5 6 5 5 5 5 5 5 5 5 5 5 5 5 5 5 5 6 5 5 5 5 5 5 5 5 5 6 5 6 5 5 5 6 5 5 5 5 5 5 5 5 5 5 6 5 6 5 5 5 5 5 5 6 5 5 5 5 6 5 5 5 5 6 5 5 5 5 5 5 5 5 5 5 5 5 5 5 5 5 5 5 5 6 5 5 5 5 5 5 5 5 5 5 5 5 5 5 5 5 5 5 6 6 5 5 5 5 5 5 6 5 6 5 5 5 5 6 5 5 5 5 5 5 5 5 5 5 6 5 5 5 5 5 5 6 5 5 6 6 5 5 6 5 6 5 5 5 5 5 6 6 5 5 5 5 5 5 6 5 5 6 6 6 5 5 5 5 5 5 5 6 6 6 5 5 6 5 5 5 6 5 6 5 5 5 5 5 5 5 5 6 5 5 6 5 5 5 5 5 5 6 5 6 5 5 5 5 6 6 5 5 5 5 5 5 5 5 5 5 6 5 5 5 5 6 5 5 5 5 5 5 5 6 5 5 5 5 5 6 6 5 6 5 5 6 5 5 6 5 5 5 6 5 5 5 5 5 5 6 5 6 5 6 6 5 5 5 6 5 5 5 5 6 6 5 6 5 5 5 5 5 6 6 5 5 5 6 5 5 6 5 5 5 5 5 5 5 5 5 5 5 5 5 5 5 6 5 6 5 5 5 6 5 6 5 5 5 5 5 5 5 5 5 5 6 5 5 6 5 5 5 6 6 5 5 5 5 6 5 5 5 5 5 5 5 5 5 5 5 5 5 5 5 
</DataArray>
<DataArray type="Float64" Name="stress" NumberOfComponents="9" format="ascii">
-2345.3092563314349 3577.3311249218423 0 3577.3311249218423 0.33936874728533439 0 0 0 0 1.1998179716028972 3721.6391624588068 0 3721.6391624588068 -2438.0622918849913 0 0 0 0 -742.20480867162405 4245.2907635601405 0 4245.2907635601405 -1698.7169859773712 0 0 0 0 -1031.6682384868327 3751.5101486117856 0 3751.5101486117856 -2159.0966553774415 0 0 0 0 -1243.6318908234534 2876.0585673026289 0 2876.0585673026289 -2715.8158070860809 0 0 0 0 -2617.3509044699531 2914.7618445675507 0 2914.7618445675507 -1514.6801785597636 0 0 0 0 -1878.234510684968 2048.3351782691971 0 2048.3351782691971 -1457.1431284941818 0 0 0 0 -2997.9473109900537 2600.9087320431645 0 2600.9087320431645 -1.8620282473420957 0 0 0 0 -1530.8636177361659 2113.8706994409949 0 2113.8706994409949 -3119.5225419058988 0 0 0 0 -2013.1301802768139 2730.8654705771914 0 2730.8654705771914 -1529.0552033239155 0 0 0 0 -1437.5954975597124 2770.8918521181331 0 2770.8918521181331 -3277.0870747660883 0 0 0 0 -1039.5327362362877 692.620680796128 0 692.620680796128 310.25789038729272 0 0 0 0 -2.0673772834698525 14.528924925516947 0 14.528924925516947 11.585436043496998 0 0 0 0 -2534.691085968996 3616.5560002469574 0 3616.5560002469574 -3033.0926110969012 0 0 0 0 -3656.6048275539215 2683.7951958443227 0 2683.7951958443227 -1563.4974069050404 0 0 0 0 -911.75635885228257 3342.4839124502287 0 3342.4839124502287 -3886.7445713208435 0 0 0 0 -1340.1927374140796 3287.2516533734452 0 3287.2516533734452 -4176.7507801000465 0 0 0 0 -1036.5116524295154 2600.9147743008289 0 2600.9147743008289 -1075.4940460656508 0 0 0 0 -3943.2642749625375 4366.1211766163469 0 4366.1211766163469 -2144.790452505229 0 0 0 0 -321.00252865281072 535.97904968481453 0 535.97904968481453 -2859.6850973355831 0 0 0 0 -3809.7411227413104 1497.1083883182437 0 1497.1083883182437 -275.04616676823935 0 0 0 0 -19.674962946185474 17.228322421296411 0 17.228322421296411 -22.535105696250753 0 0 0 0 -2089.7666627992294 1653.2780399490002 0 1653.2780399490002 -1012.6394377087126 0 0 0 0 -396.03408803234925 402.64871555448917 0 402.64871555448917 -308.55013338997378 0 0 0 0 -943.12639660749119 657.43762645561947 0 657.43762645561947 -313.21475523032132 0 0 0 0 -238.19495584286051 993.67784095916431 0 993.67784095916431 -387.98236335041292 0 0 0 0 -1008.7683864816208 1001.7784697924435 0 1001.7784697924435 -329.5918204468544 0 0 0 0 -28.288631530888892 65.32753280113846 0 65.32753280113846 -40.585903803103463 0 0 0 0 -5.8671745352621656 1335.4713234096453 0 1335.4713234096453 -1365.1325160927954 0 0 0 0 -641.17574365808105 388.68395177378261 0 388.68395177378261 -538.90511818922823 0 0 0 0 40.558656780673005 70.911033887079213 0 70.911033887079213 34.971495629922515 0 0 0 0 -983.82573828295745 1462.6267219493352 0 1462.6267219493352 -961.36168520493084 0 0 0 0 -700.1352369763481 884.11466109800676 0 884.11466109800676 -531.73712655861164 0 0 0 0 -337.39962636970449 673.33730238819408 0 673.33730238819408 -536.16447498732305 0 0 0 0 -19.811259950191555 69.571754322075705 0 69.571754322075705 -40.156960200078686 0 0 0 0 -438.58918827113303 223.52411343932363 0 223.52411343932363 -910.77031906953198 0 0 0 0 -524.3911628802598 1374.4075970102858 0 1374.4075970102858 -1366.2891313026466 0 0 0 0 42.993132110891906 67.299515010443088 0 67.299515010443088 28.550461450162402 0 0 0 0 -231.3522168341442 1180.8543611697169 0 1180.8543611697169 -1229.9157315426564 0 0 0 0 -327.33841380420199 1027.9154919568828 0 1027.9154919568828 -1413.4101840524527 0 0 0 0 -334.03109152140678 1821.9850251931639 0 1821.9850251931639 -3852.5066437344358 0 0 0 0 -142.99218288305565 -337.3872069716308 0 -337.3872069716308 -1736.5074314938684 0 0 0 0 555.84621543481626 3393.606923804311 0 3393.606923804311 -1580.9853890765517 0 0 0 0 1124.4323138209729 935.69650939067651 0 935.69650939067651 -1536.7507631297121 0 0 0 0 -515.43981324214838 1257.6741276872053 0 1257.6741276872053 -1041.6424043309053 0 0 0 0 19.826968977649358 17.624379786367911 0 17.624379786367911 16.997638578095319 0 0 0 0 -368.64550068815515 1059.7397515800894 0 1059.7397515800894 31.860519864174421 0 0 0 0 -515.69576646451605 1750.5453808663733 0 1750.5453808663733 982.44155847118236 0 0 0 0 -2675.0537843521161 2315.1584960000037 0 2315.1584960000037 -986.92483646713663 0 0 0 0 -1757.316474380219 1767.0170688620565 0 1767.0170688620565 -1491.4602330298076 0 0 0 0 -2713.3682005274786 2499.1612660478686 0 2499.1612660478686 -1488.9265681579272 0 0 0 0 -1951.5229785826814 2112.0548208562032 0 2112.0548208562032 -2258.2853080507703 0 0 0 0 15.596317653465121 19.573765337141538 0 19.573765337141538 -7.5116853316954462 0 0 0 0 -2007.6086547561281 3038.2884985153869 0 3038.2884985153869 -2610.2545357067429 0 0 0 0 -3.8020946389660821 1926.4384249572795 0 1926.4384249572795 -3061.9421392135009 0 0 0 0 -1950.9668486833998 3024.3224186935213 0 3024.3224186935213 -2658.275083609522 0 0 0 0 -549.89398045362032 2600.7443405000813 0 2600.7443405000813 -3148.1897676117151 0 0 0 0 -2397.1796160557806 4759.4944682874047 0 4759.4944682874047 -2864.1053356743651 0 0 0 0 125.12598364639416 3189.3752873081794 0 3189.3752873081794 -1519.5398754488124 0 0 0 0 436.23932505400444 2080.558838835801 0 2080.558838835801 -1778.0271370100891 0 0 0 0 -1794.195615112134 4129.9919996874705 0 4129.9919996874705 -1763.5027772139438 0 0 0 0 8.244656403450108 13.089364365007441 0 13.089364365007441 -3.869487189293352 0 0 0 0 -489.67591254895524 1861.985938566424 0 1861.985938566424 -4014.9350523667526 0 0 0 0 -543.06044952469529 1980.2846770852775 0 1980.2846770852775 -1796.216435961418 0 0 0 0 -547.23681756658334 1903.2982614134671 0 1903.2982614134671 -1795.2837169685663 0 0 0 0 -982.05515314805962 1549.4819801486155 0 1549.4819801486155 -1727.6602668680771 0 0 0 0 -3.0512861077499736 12.25833147414437 0 12.25833147414437 3.1119427170081337 0 0 0 0 -1166.7376511364055 888.84754006607545 0 888.84754006607545 1397.7845654044067 0 0 0 0 -804.31547166535165 1803.5634254773831 0 1803.5634254773831 0.9275397707533557 0 0 0 0 -775.33416004909668 1983.2646040505133 0 1983.2646040505133 -367.42629322431458 0 0 0 0 -333.5120828908839 854.58557766203739 0 854.58557766203739 -686.52765717425791 0 0 0 0 -665.81111087185855 1012.4715869753272 0 1012.4715869753272 -2396.1553095666313 0 0 0 0 -35.274089993152302 1663.8593711569192 0 1663.8593711569192 -2078.6774499094317 0 0 0 0 -758.70102928116103 2124.0961447508344 0 2124.0961447508344 -4.8061832021048758 0 0 0 0 -556.55523379737861 1238.9653754973333 0 1238.9653754973333 -2681.3836102222849 0 0 0 0 194.66828222353797 2348.6150256779947 0 2348.6150256779947 -1735.6649073389417 0 0 0 0 -436.9238491188371 1754.0276817499253 0 1754.0276817499253 -4019.9628016711868 0 0 0 0 -711.74399755454215 2072.5319382524831 0 2072.5319382524831 -834.26148181782628 0 0 0 0 -3.5037787532119751 10.968495366655588 0 10.968495366655588 3.1079886448522416 0 0 0 0 -5.4794386838048013 21.270458654728316 0 21.270458654728316 6.6090627118421992 0 0 0 0 -370.22392908175971 1540.1561006888878 0 1540.1561006888878 -1375.6977849220712 0 0 0 0 -1268.5504268364348 968.37217295970913 0 968.37217295970913 1859.6294361544278 0 0 0 0 -917.38432995922631 570.99368952155419 0 570.99368952155419 -1.7790062159692752 0 0 0 0 -623.31724061215937 2130.3300392878882 0 2130.3300392878882 -317.52499750619472 0 0 0 0 -666.95510054951956 1802.2110635600184 0 1802.2110635600184 -970.12768608317128 0 0 0 0 -1052.4760073196885 1912.4675342453193 0 1912.4675342453193 797.87908297820832 0 0 0 0 -818.23065935510385 684.11015274679085 0 684.11015274679085 393.58587096747942 0 0 0 0 474.81731987582316 1444.2635211932175 0 1444.2635211932175 -2688.4643842938094 0 0 0 0 -1244.9376801498729 1730.6921186120744 0 1730.6921186120744 -2164.2958208927885 0 0 0 0 -957.51905490805802 1277.0175685272698 0 1277.0175685272698 -2575.6297671690409 0 0 0 0 3.209391906738631 11.033375027370141 0 11.033375027370141 6.5632375853258509 0 0 0 0 12.592133141015097 25.220344587172747 0 25.220344587172747 18.034756777590445 0 0 0 0 -538.54486110325888 2129.8933945928347 0 2129.8933945928347 -2798.6457877699431 0 0 0 0 -1323.2831939148455 1287.3898824872995 0 1287.3898824872995 -442.51941651239758 0 0 0 0 -1848.1595049172611 2082.424164413409 0 2082.424164413409 -1645.7477171520641 0 0 0 0 7.6532955704377059 28.496641780250286 0 28.496641780250286 22.917876429234724 0 0 0 0 -1501.691522725946 1863.6247869359313 0 1863.6247869359313 -1599.1155093448178 0 0 0 0 -1190.4039184095163 2246.4491180547193 0 2246.4491180547193 -1046.9577297503856 0 0 0 0 -1637.7019104565843 1396.9120072513251 0 1396.9120072513251 699.06341684804647 0 0 0 0 4.9477070490768824 11.935349800060749 0 11.935349800060749 13.269295847470914 0 0 0 0 -595.49300798983313 -143.02303723589284 0 -143.02303723589284 937.78308814727279 0 0 0 0 -683.27356423740275 963.98088956337597 0 963.98088956337597 -939.13853571807522 0 0 0 0 -958.69060540377723 710.39724433739502 0 710.39724433739502 -411.12481461706921 0 0 0 0 26.007315458106831 33.026166936189043 0 33.026166936189043 36.036551968535548 0 0 0 0 -1309.1427385289571 1284.5315272448061 0 1284.5315272448061 -1017.8930478804223 0 0 0 0 -1081.736864446968 780.38076131582056 0 780.38076131582056 -786.34434382396284 0 0 0 0 -1760.1136656138588 2181.3311492802222 0 2181.3311492802222 -1700.9927823732141 0 0 0 0 -2236.5961006064608 947.36081062380254 0 947.36081062380254 -462.20184162391524 0 0 0 0 -842.50976371701108 1131.7248717144685 0 1131.7248717144685 -840.8863824373766 0 0 0 0 -891.73510680303298 694.59172125900659 0 694.59172125900659 -649.8988127328339 0 0 0 0 -5055.3355828282438 2249.3234141151333 0 2249.3234141151333 -155.21569928017561 0 0 0 0 173.76505217439262 393.38899187295101 0 393.38899187295101 -6256.8869094066613 0 0 0 0 -14.303193283939976 18.815916299375516 0 18.815916299375516 -25.695338036726241 0 0 0 0 -1969.4605070698599 4105.9170342257858 0 4105.9170342257858 -5351.1183212018841 0 0 0 0 -1241.6806000347606 2039.2405368103719 0 2039.2405368103719 -2273.5566684467485 0 0 0 0 -2238.5715891399741 210.94574408010521 0 210.94574408010521 -3833.7627437308474 0 0 0 0 -1394.5704115085391 2781.0276724146606 0 2781.0276724146606 -5284.1186669062154 0 0 0 0 -1126.2571125968971 1910.6988346296421 0 1910.6988346296421 -2206.9391559086653 0 0 0 0 -1164.6882158128428 1959.6723799717729 0 1959.6723799717729 -1978.8302622263727 0 0 0 0 -730.56457579704875 1604.2729948404813 0 1604.2729948404813 -3550.9022242725914 0 0 0 0 -718.03790296339139 1193.2770751394419 0 1193.2770751394419 -1788.7867428633035 0 0 0 0 -753.22396040726744 484.4841923215281 0 484.4841923215281 -1666.5131342237437 0 0 0 0 -768.15150441400692 691.78101918265338 0 691.78101918265338 -2588.599664187961 0 0 0 0 -1285.2204881170928 1521.0971256247576 0 1521.0971256247576 -501.47265409905231 0 0 0 0 -1320.4128014632443 1769.4993474492803 0 1769.4993474492803 -2198.9990625882492 0 0 0 0 -877.44969101752213 2040.1551192682273 0 2040.1551192682273 -2333.1831471023324 0 0 0 0 -774.87016526913794 1782.7513785265182 0 1782.7513785265182 -1910.5276911698165 0 0 0 0 -1403.0608644364693 1735.6636458358553 0 1735.6636458358553 -1190.1179281518998 0 0 0 0 -756.40424643944425 1419.2168776961407 0 1419.2168776961407 -1230.7067907352321 0 0 0 0 -1351.1421163895284 1930.4182197725895 0 1930.4182197725895 -321.25531171982971 0 0 0 0 -622.0476743585823 2274.9543906248 0 2274.9543906248 -924.70322285634757 0 0 0 0 -1386.3238736823259 1286.2100357595336 0 1286.2100357595336 -1317.0125640799597 0 0 0 0 391.03864768381754 1475.8274713704086 0 1475.8274713704086 -3037.4142288407747 0 0 0 0 -1512.1206008256777 3159.2004906859147 0 3159.2004906859147 -1788.4360601929657 0 0 0 0 -1826.1182176500151 2611.4524886409563 0 2611.4524886409563 -1754.6610789616534 0 0 0 0 -1271.4302964649105 495.90635946723341 0 495.90635946723341 -1348.3167307405238 0 0 0 0 -1249.0959159372724 943.51921597139881 0 943.51921597139881 -977.11050570150837 0 0 0 0 -2.8449268092590501 -399.7877563084694 0 -399.7877563084694 465.35900309457793 0 0 0 0 -12.341306916030533 14.692155734191289 0 14.692155734191289 -10.829144293747248 0 0 0 0 -1749.3934610801653 1907.4462356200161 0 1907.4462356200161 1729.3035644353804 0 0 0 0 131.50142065988621 1099.9688730569906 0 1099.9688730569906 1060.8697589323347 0 0 0 0 987.39477150858511 592.79487396991681 0 592.79487396991681 -1301.7706166980497 0 0 0 0 214.46753627958242 1249.3202211101816 0 1249.3202211101816 942.50396500641364 0 0 0 0 -22.882723988347976 27.923601536776758 0 27.923601536776758 -20.411829131270764 0 0 0 0 613.08634281566628 356.73509101965647 0 356.73509101965647 381.06756301279529 0 0 0 0 -507.26689589086163 1233.5119472432052 0 1233.5119472432052 348.55270576843759 0 0 0 0 718.33227233569778 460.26083725525859 0 460.26083725525859 -626.65869924897561 0 0 0 0 -319.7397208615148 2224.0462609613896 0 2224.0462609613896 -1507.1319634467945 0 0 0 0 166.64981878714025 1379.4507722933922 0 1379.4507722933922 -793.4896703796403 0 0 0 0 -1114.4665447050065 1036.7756844580535 0 1036.7756844580535 -521.1614874053339 0 0 0 0 -906.32267232461891 2200.321305253201 0 2200.321305253201 -1147.5195364628889 0 0 0 0 15.996282973399502 80.145095606174436 0 80.145095606174436 -38.464080841396935 0 0 0 0 -24.116951767689898 49.044686683504551 0 49.044686683504551 -3.0938082580814807 0 0 0 0 23.841147608029473 34.23449460220283 0 34.23449460220283 18.716996759229971 0 0 0 0 14.880015058869418 49.120932284530724 0 49.120932284530724 -25.90341813471656 0 0 0 0 22.886120605457108 95.072869788396929 0 95.072869788396929 -39.523208538885228 0 0 0 0 6.9862207966580172 75.773534333602584 0 75.773534333602584 -15.594709832774242 0 0 0 0 27.598047157374282 43.670546131788512 0 43.670546131788512 21.534475168279414 0 0 0 0 15.151270451991877 59.139088697087573 0 59.139088697087573 -15.582635916682193 0 0 0 0 -130.78108277815045 -81.31582939584041 0 -81.31582939584041 -0.24541616864007665 0 0 0 0 -11.392930252040969 51.868481361452723 0 51.868481361452723 -14.026828118672711 0 0 0 0 21.713284811674384 64.81845915861777 0 64.81845915861777 -42.151471148808923 0 0 0 0 -5.7523936623968552 12.175776492242932 0 12.175776492242932 4.6423919315075466 0 0 0 0 426.19377666237415 702.28722466715408 0 702.28722466715408 -3005.2603630694794 0 0 0 0 17.335371046629035 36.752784528025472 0 36.752784528025472 23.334929945972675 0 0 0 0 5.6625211586142541 84.663605138226558 0 84.663605138226558 67.927594025764847 0 0 0 0 729.16298012215702 -81.102807521544491 0 -81.102807521544491 -1556.1773293268634 0 0 0 0 367.85543284806954 5.0587629990714049 0 5.0587629990714049 -2563.6195117456082 0 0 0 0 204.70339597199927 1019.7186708275112 0 1019.7186708275112 -2376.1001438554231 0 0 0 0 413.53329093553475 127.60912222033949 0 127.60912222033949 -2640.0276785485039 0 0 0 0 -338.80011422019015 700.31174254577491 0 700.31174254577491 -603.1190626496973 0 0 0 0 208.37574013961421 -718.81079623039113 0 -718.81079623039113 -3210.4258154160489 0 0 0 0 287.4553000947999 -181.13961943425966 0 -181.13961943425966 -881.52210778393783 0 0 0 0 -5.1034539115261168 8.0238251584345051 0 8.0238251584345051 -14.46147566710772 0 0 0 0 -71.543446972544189 541.52851469445159 0 541.52851469445159 -1181.8864227715458 0 0 0 0 94.361905622721679 -87.286998598650825 0 -87.286998598650825 -1660.1397811639181 0 0 0 0 -1686.6758978800644 1181.0172073151625 0 1181.0172073151625 -2545.2894717762538 0 0 0 0 -1378.821917776555 -461.42985329848671 0 -461.42985329848671 -1956.6260225649457 0 0 0 0 -1007.7799244340349 1307.4301547981777 0 1307.4301547981777 -2660.2148722305574 0 0 0 0 -2321.6472444690298 480.35879029259377 0 480.35879029259377 -88.000699871161487 0 0 0 0 -1775.65765720114 463.04254723656777 0 463.04254723656777 55.634244735614629 0 0 0 0 -891.64292163737991 231.38384096116351 0 231.38384096116351 111.41730283640209 0 0 0 0 -1306.2788522389601 -239.14339763351745 0 -239.14339763351745 77.910805857100058 0 0 0 0 -226.5068044042564 194.01038738365605 0 194.01038738365605 -53.12109175468504 0 0 0 0 -2.1094045240172363 37.282661567174046 0 37.282661567174046 -19.336623561490683 0 0 0 0 88.824920494575053 398.9674188431818 0 398.9674188431818 -692.08668045167724 0 0 0 0 73.403967365746212 112.34022630943946 0 112.34022630943946 -228.5993427795911 0 0 0 0 60.14005520904152 59.37019596214077 0 59.37019596214077 27.370089788016855 0 0 0 0 -1052.0491600172682 220.86587589191913 0 220.86587589191913 -41.635708746860473 0 0 0 0 54.194156761179329 -47.749501676968066 0 -47.749501676968066 -47.230535581416007 0 0 0 0 15.306538148494496 13.199035107592294 0 13.199035107592294 -3.4169351904402845 0 0 0 0 109.19039159904059 -32.412143443449168 0 -32.412143443449168 -223.87074103943269 0 0 0 0 -1051.3445278515539 145.22825746449587 0 145.22825746449587 70.259825257788179 0 0 0 0 -1212.6864435699827 3055.5950540755875 0 3055.5950540755875 -1271.1011093199522 0 0 0 0 -1923.9198975642939 2590.2950725916016 0 2590.2950725916016 3000.2045763520809 0 0 0 0 64.65983260162028 50.500159942483776 0 50.500159942483776 33.474792154799474 0 0 0 0 -1105.4880624655343 -804.79019023344154 0 -804.79019023344154 2717.0946144602713 0 0 0 0 36.483221715082038 32.176052145816129 0 32.176052145816129 32.742436840072628 0 0 0 0 979.52998397128249 2939.7021909110772 0 2939.7021909110772 991.48564153612824 0 0 0 0 3014.2430271189041 1337.8304754342098 0 1337.8304754342098 -1239.4278202339774 0 0 0 0 2138.6419926746676 -909.24120899967966 0 -909.24120899967966 -402.91599916224368 0 0 0 0 -287.60366631987563 69.496187353885034 0 69.496187353885034 -1296.6371887768619 0 0 0 0 -394.30051699533942 244.01762592383602 0 244.01762592383602 -923.81023677344638 0 0 0 0 -88.340075862281083 339.33215374016254 0 339.33215374016254 -2490.9406406829657 0 0 0 0 -357.00608304291382 -336.91418241042993 0 -336.91418241042993 -2944.4461442695119 0 0 0 0 -407.36374781744962 543.7782723740529 0 543.7782723740529 -2360.2113929682528 0 0 0 0 -271.32253386691445 569.636737423054 0 569.636737423054 -2889.3732083916257 0 0 0 0 909.94617716785433 475.19124853640824 0 475.19124853640824 -2377.250408573891 0 0 0 0 -2.5014988281182013 862.14070320164319 0 862.14070320164319 -1313.5055140360491 0 0 0 0 -735.62338389162323 884.13202175831248 0 884.13202175831248 -2231.0511434581567 0 0 0 0 -973.05151131772436 1813.3813504516802 0 1813.3813504516802 -668.77832256571855 0 0 0 0 346.2548699668987 1490.1701971880102 0 1490.1701971880102 -1899.4852394621412 0 0 0 0 -1049.3996946858751 1465.3864748170708 0 1465.3864748170708 -2592.1881849110941 0 0 0 0 -1669.2527979948063 2024.59479136749 0 2024.59479136749 -1992.2059148728804 0 0 0 0 -4635.0056213055068 2579.7881103250875 0 2579.7881103250875 -2083.9054114242317 0 0 0 0 -2011.0887662864188 2164.9730382909947 0 2164.9730382909947 -1345.2669346775801 0 0 0 0 -591.49773856566753 2056.5498762100615 0 2056.5498762100615 -1347.3947874995586 0 0 0 0 -732.49582061744877 1995.4566415588342 0 1995.4566415588342 -752.54724059357977 0 0 0 0 -1490.7064708492398 2112.7403620486839 0 2112.7403620486839 -620.47130122355884 0 0 0 0 305.08095851325197 1767.0161077781959 0 1767.0161077781959 -680.91924399583877 0 0 0 0 -787.52445106490632 1819.1891604845441 0 1819.1891604845441 731.22448853793321 0 0 0 0 -704.51348245848203 1184.0747745258559 0 1184.0747745258559 470.98357499200938 0 0 0 0 -895.4455382283486 454.29919258934387 0 454.29919258934387 1911.4890282914203 0 0 0 0 -551.57552303856937 1897.3195337694196 0 1897.3195337694196 2500.7427669809258 0 0 0 0 -855.19881658336089 907.07997313757369 0 907.07997313757369 1094.8005240088532 0 0 0 0 -826.05519342145999 926.19506140382146 0 926.19506140382146 -258.15463276876835 0 0 0 0 -326.87028965417994 379.26337659638375 0 379.26337659638375 268.01634257592377 0 0 0 0 -625.70132710773032 1322.6967448265932 0 1322.6967448265932 15.233838929227204 0 0 0 0 -665.00014870730638 1122.9411721824117 0 1122.9411721824117 133.93392383502214 0 0 0 0 -649.71318644777693 572.63619971869957 0 572.63619971869957 452.34624978509964 0 0 0 0 -801.3341717053263 79.973389826554921 0 79.973389826554921 212.21172441686213 0 0 0 0 -637.42348753697843 621.78776472516711 0 621.78776472516711 -594.67741982956068 0 0 0 0 -1246.2343100943108 209.52689695796471 0 209.52689695796471 6314.0809798784903 0 0 0 0 -659.84520562706166 1197.0481146185193 0 1197.0481146185193 -362.12033905892895 0 0 0 0 -857.17405565090303 1676.7058335761722 0 1676.7058335761722 347.84571561086341 0 0 0 0 44.146095684118848 97.522421151602941 0 97.522421151602941 86.67182305490951 0 0 0 0 444.57147986073687 18.111605533900729 0 18.111605533900729 95.609545608254848 0 0 0 0 -510.84688878562883 -1557.1046486117848 0 -1557.1046486117848 -138.51214414956485 0 0 0 0 -33.903678014044885 67.268778535480664 0 67.268778535480664 -34.086896400941043 0 0 0 0 -35.749335388885811 109.57552941713948 0 109.57552941713948 7.5256511073530419 0 0 0 0 41.65147303019495 69.853722182502366 0 69.853722182502366 43.031280243017704 0 0 0 0 -41.033842917211587 120.26714443931269 0 120.26714443931269 14.507584378872707 0 0 0 0 -32.544181073404616 141.62368198288459 0 141.62368198288459 -24.59736166770017 0 0 0 0 -23.55436173111957 132.82192497106007 0 132.82192497106007 -27.674691923697537 0 0 0 0 -17.964254498983792 118.39325332358203 0 118.39325332358203 -35.224790391948773 0 0 0 0 9.8094380668893848 33.023922843571654 0 33.023922843571654 6.3788263254688218 0 0 0 0 31.112953675969038 -440.99325841529935 0 -440.99325841529935 -868.51930136906958 0 0 0 0 -89.045913532724484 63.466141761004117 0 63.466141761004117 -3.1328521771523583 0 0 0 0 -68.303050650955782 82.093245573462482 0 82.093245573462482 22.653790313290841 0 0 0 0 319.21858509072263 333.3765638259174 0 333.3765638259174 -625.09699785514385 0 0 0 0 1402.4413874094316 413.51489039583248 0 413.51489039583248 -818.13009820939624 0 0 0 0 831.87649150726793 1404.168483624504 0 1404.168483624504 174.61483801759459 0 0 0 0 -47.059508820049814 471.12662394303334 0 471.12662394303334 -619.53926116621005 0 0 0 0 -32.742191687344018 14.51250753935409 0 14.51250753935409 -2.9300831079316083 0 0 0 0 555.32617633022164 358.05666938670402 0 358.05666938670402 -225.38203664841421 0 0 0 0 -63.287209398570724 57.019545114149921 0 57.019545114149921 -31.100445871810933 0 0 0 0 -304.80854452565836 794.57532094580529 0 794.57532094580529 -425.81599268240097 0 0 0 0 -1441.2510636057632 553.59778091354383 0 553.59778091354383 48.528583601371793 0 0 0 0 0.2991334849909677 6.8904955936469037 0 6.8904955936469037 -1.3069504092940747 0 0 0 0 -265.19235134627525 1115.7847716754077 0 1115.7847716754077 -343.45072579236876 0 0 0 0 810.68501811704482 852.88566102932964 0 852.88566102932964 -281.4321578028248 0 0 0 0 248.525562319046 998.93194113265781 0 998.93194113265781 445.14450022128585 0 0 0 0 610.88617760793932 1358.4553729393583 0 1358.4553729393583 512.48022624924488 0 0 0 0 505.29152307890763 716.42358422420511 0 716.42358422420511 1344.405274455421 0 0 0 0 -26.345113599447359 985.29764624776908 0 985.29764624776908 1816.3483970350208 0 0 0 0 674.91906489406756 978.81793493647001 0 978.81793493647001 662.42316660673532 0 0 0 0 1332.1366979923623 2169.6742011537717 0 2169.6742011537717 1310.9779902475857 0 0 0 0 3760.2589079418103 765.13229964216589 0 765.13229964216589 -503.96814516282757 0 0 0 0 1578.1134046351217 2752.5804678912828 0 2752.5804678912828 2673.6189966413658 0 0 0 0 536.06851047981763 2066.3997154691315 0 2066.3997154691315 3631.5015515153173 0 0 0 0 -98.272087059718615 1040.6565334175248 0 1040.6565334175248 2519.2570714338508 0 0 0 0 4223.4387631074933 1161.209210581168 0 1161.209210581168 -3876.6078049610369 0 0 0 0 -220.84587315004319 607.64835216059873 0 607.64835216059873 3546.4011064594315 0 0 0 0 36.879842202371918 20.40278368761318 0 20.40278368761318 9.6070434148036838 0 0 0 0 4937.8248969267152 -626.3402429005655 0 -626.3402429005655 -3031.252612179378 0 0 0 0 2455.5404312928877 33.345729442240554 0 33.345729442240554 -2518.4123809451121 0 0 0 0 5363.3635609770863 512.75135581636096 0 512.75135581636096 -3919.0652911802463 0 0 0 0 814.37568598904181 243.64955280240974 0 243.64955280240974 -386.06956109487783 0 0 0 0 -504.13255935817142 -62.00660535872521 0 -62.00660535872521 1963.4224783449463 0 0 0 0 274.36432990711182 492.09312508448784 0 492.09312508448784 -398.47128354283632 0 0 0 0 342.22256240907882 -229.0763175226457 0 -229.0763175226457 97.427148078060554 0 0 0 0 6.1417418992590171 2.6920048279496314 0 2.6920048279496314 2.8252270106331991 0 0 0 0 -164.32292947082897 4.4156306454678997 0 4.4156306454678997 102.47482056211447 0 0 0 0 43.10559551321785 75.100494857353624 0 75.100494857353624 30.776456473875442 0 0 0 0 61.111198064728796 -7.1726507639164083 0 -7.1726507639164083 117.95977702250821 0 0 0 0 249.87401257531747 335.66747285772726 0 335.66747285772726 298.03304315252171 0 0 0 0 6.3189568047382636 56.59986363130156 0 56.59986363130156 298.43835868114593 0 0 0 0 37.381405301831364 306.75925815999312 0 306.75925815999312 960.99376164432033 0 0 0 0 494.40080436172138 815.64808935439942 0 815.64808935439942 445.41520673574996 0 0 0 0 940.42423028796475 1374.8355289579304 0 1374.8355289579304 143.18105209060013 0 0 0 0 621.02732389217999 709.41698419806198 0 709.41698419806198 310.07136246470327 0 0 0 0 1342.7036349484115 901.73123169592873 0 901.73123169592873 76.53501905547455 0 0 0 0 2827.1032609253816 1260.5638504115486 0 1260.5638504115486 -201.0412943662086 0 0 0 0 869.55099654909282 754.31489919379237 0 754.31489919379237 -566.73825103664785 0 0 0 0 898.87764613552645 611.40837480836126 0 611.40837480836126 126.9966359072132 0 0 0 0 1443.7752568815922 940.61267496092478 0 940.61267496092478 4.9162867317454584 0 0 0 0 887.27527706521505 457.27434339097817 0 457.27434339097817 29.48645460977923 0 0 0 0 772.90183762212837 569.74222962548811 0 569.74222962548811 51.827035319336574 0 0 0 0 436.96550047742494 259.61140326306486 0 259.61140326306486 113.76207994771539 0 0 0 0 -67.051592855190393 327.28757644213329 0 327.28757644213329 67.092119772176375 0 0 0 0 111.81084506421757 94.489188327839656 0 94.489188327839656 -45.008405511583987 0 0 0 0 367.71894644980785 107.56419891204496 0 107.56419891204496 -281.07860399341735 0 0 0 0 -167.7720311023877 109.49695932347822 0 109.49695932347822 -357.11600398899463 0 0 0 0 -491.41645256899938 210.87373531700723 0 210.87373531700723 -184.12980985512695 0 0 0 0 -800.18644349846363 845.6828825802113 0 845.6828825802113 -923.34726200610748 0 0 0 0 -355.88357964427269 29.473572879483982 0 29.473572879483982 -508.73168579499179 0 0 0 0 -626.38255617208779 494.28684245167096 0 494.28684245167096 140.89837237393658 0 0 0 0 -419.09342073471635 365.87143043669494 0 365.87143043669494 210.72072342707543 0 0 0 0 -5.5855121409152844 4.3416090875060078 0 4.3416090875060078 -4.0023074815850919 0 0 0 0 -698.33343744465674 140.0130082918331 0 140.0130082918331 52.87438227943494 0 0 0 0 4.6511281067505479 317.64421430187758 0 317.64421430187758 -114.23524570211885 0 0 0 0 22.624779604484502 58.706309464718288 0 58.706309464718288 85.319858131275396 0 0 0 0 -77.962849382383865 73.139004241565999 0 73.139004241565999 199.06402805832477 0 0 0 0 -5.4879599426676577 18.098436551371584 0 18.098436551371584 -8.9058654647938056 0 0 0 0 9.1204697517241584 20.794026064262653 0 20.794026064262653 80.182169546562363 0 0 0 0 -24.711663327532733 61.736599044277682 0 61.736599044277682 -1.6602647352556232 0 0 0 0 -18.342173638229724 69.037414707658172 0 69.037414707658172 -8.6768132315719413 0 0 0 0 -1738.2386722995434 3316.0990548588597 0 3316.0990548588597 -8008.3369696333393 0 0 0 0 -11.343597510072868 -1835.796335711857 0 -1835.796335711857 -5435.6802599327857 0 0 0 0 -4.1335734556327282 11.305374284473828 0 11.305374284473828 -33.280969858285232 0 0 0 0 277.62143324311182 1197.5804883212986 0 1197.5804883212986 -3683.541017286072 0 0 0 0 57.142972029553277 28.156934061826973 0 28.156934061826973 -18.945343601153809 0 0 0 0 -345.31566177321656 -645.70324300166249 0 -645.70324300166249 -1798.9163368731097 0 0 0 0 217.12285383051494 1035.8896280847694 0 1035.8896280847694 -959.8124150588701 0 0 0 0 -58.787437026869156 277.94478999857529 0 277.94478999857529 -355.62309762036602 0 0 0 0 15.386671319320271 29.837320547253199 0 29.837320547253199 -84.968106703937906 0 0 0 0 -284.65354192700761 645.01581812141376 0 645.01581812141376 -1255.2992852317984 0 0 0 0 -1405.3694575480768 1476.455313718543 0 1476.455313718543 -1416.4747964678099 0 0 0 0 3.3136147117184009 2327.9688722823557 0 2327.9688722823557 -3888.5453703013045 0 0 0 0 -1183.4102961279568 2394.3961127458751 0 2394.3961127458751 -3209.9333527460694 0 0 0 0 -8.8204419002868235 2657.8334315206012 0 2657.8334315206012 -5384.4297719826282 0 0 0 0 -652.46940702767461 3229.9543525067784 0 3229.9543525067784 -4545.6758642644272 0 0 0 0 -433.03061917593004 2759.4123986049235 0 2759.4123986049235 -6608.6863735229126 0 0 0 0 -4100.1616067208379 4075.958849442115 0 4075.958849442115 -1806.2392485875898 0 0 0 0 -1.7015951163775753 831.68180321034015 0 831.68180321034015 -1432.5524683903095 0 0 0 0 -2826.0988618474512 744.59162186600588 0 744.59162186600588 -5676.7966653533877 0 0 0 0 -1452.1314112648106 2374.5382851077884 0 2374.5382851077884 -4057.3722359198291 0 0 0 0 7.4776027375232843 10.751640628255075 0 10.751640628255075 -9.4180755497726523 0 0 0 0 -3476.3839286858783 2990.8166280810437 0 2990.8166280810437 -3764.3579829164737 0 0 0 0 -3000.4279280076589 2007.7394235258398 0 2007.7394235258398 -1735.705387313752 0 0 0 0 -2407.5796567078796 1402.4182988865359 0 1402.4182988865359 -3169.6330665014029 0 0 0 0 -2504.4360913659038 2575.7377216108107 0 2575.7377216108107 -2162.1371274093835 0 0 0 0 -3965.0634039316501 1715.7370533215908 0 1715.7370533215908 -3144.5203917387989 0 0 0 0 -1328.7427030794861 2564.7936501547774 0 2564.7936501547774 -4255.9784805102245 0 0 0 0 -294.85177480450511 710.33512490662906 0 710.33512490662906 -3694.6884734815831 0 0 0 0 -223.30101318427478 904.46780074293201 0 904.46780074293201 -1764.7096602513629 0 0 0 0 -874.93400075416866 2814.5062999020192 0 2814.5062999020192 -2167.34614423741 0 0 0 0 2109.1626764269895 930.98028723811149 0 930.98028723811149 -2772.2248447765742 0 0 0 0 1897.7653653555017 2959.3448072046117 0 2959.3448072046117 -2233.5856538953085 0 0 0 0 -113.68597173271701 2571.0264025625293 0 2571.0264025625293 -16.128426511696034 0 0 0 0 -203.59953497067909 1546.6998257795276 0 1546.6998257795276 -2796.299454771317 0 0 0 0 723.76205801787728 1823.7056845135812 0 1823.7056845135812 -3332.5136416869937 0 0 0 0 -2180.0466410248919 3125.5384240490275 0 3125.5384240490275 -1652.3602887271845 0 0 0 0 -944.36938971297786 2285.4503540323276 0 2285.4503540323276 -2409.948075939843 0 0 0 0 -1081.3101645643474 3025.9401597316755 0 3025.9401597316755 -2695.381737515534 0 0 0 0 -705.0077067259117 2372.1651379641989 0 2372.1651379641989 -1807.0379915894446 0 0 0 0 -119.43733659782447 2428.3412008490122 0 2428.3412008490122 -2080.0499330480307 0 0 0 0 -142.05302170505456 1909.7151933949499 0 1909.7151933949499 -1298.6433832647017 0 0 0 0 -1278.747380557179 2717.7968896421662 0 2717.7968896421662 -1829.0290733828188 0 0 0 0 -1137.8423756097945 2776.9284296569531 0 2776.9284296569531 -1230.4320089695975 0 0 0 0 -1412.0402403568587 2598.0799622889026 0 2598.0799622889026 -1322.168967288555 0 0 0 0 -1897.2935809340997 2947.851215178991 0 2947.851215178991 -1141.4391943504379 0 0 0 0 -2513.308594882772 2059.9988053216766 0 2059.9988053216766 -1074.2934450306348 0 0 0 0 600.86578914275742 983.52577410259255 0 983.52577410259255 -3557.049391965309 0 0 0 0 -2209.831533928751 3094.7344243705811 0 3094.7344243705811 -1610.8367783159702 0 0 0 0 -3167.8819651121157 -1.8909678793061175 0 -1.8909678793061175 -577.82578689110233 0 0 0 0 -633.87476692325515 2505.0906044926783 0 2505.0906044926783 -1779.5822704813036 0 0 0 0 -19.53196116504995 16.065701339979256 0 16.065701339979256 -22.091117525281163 0 0 0 0 535.23470189134241 1375.3969055954512 0 1375.3969055954512 -1350.4367587414308 0 0 0 0 353.38835573270626 1112.3301337483063 0 1112.3301337483063 -3675.8049127144004 0 0 0 0 -209.53706349380991 -1326.5245689066778 0 -1326.5245689066778 953.40095341543201 0 0 0 0 836.35248819175467 1911.8480605918157 0 1911.8480605918157 -4187.3791727903299 0 0 0 0 16.091813913095962 0.86958748465684721 0 0.86958748465684721 -2.8645510686874047 0 0 0 0 -2529.55664995189 1516.1172628130662 0 1516.1172628130662 -57.743390594434459 0 0 0 0 -3571.1610134611547 2462.062729178404 0 2462.062729178404 -1027.808187511775 0 0 0 0 655.46843959149555 176.3930186299167 0 176.3930186299167 -2370.8899513094802 0 0 0 0 2377.6865381688331 2365.8328729870664 0 2365.8328729870664 -1635.8674399409356 0 0 0 0 -1305.2384329412744 2517.5517265470626 0 2517.5517265470626 -1577.4279862737603 0 0 0 0 -6509.8165998398035 -439.49758456500058 0 -439.49758456500058 211.03355930450198 0 0 0 0 -2513.1637831476983 95.550869467217126 0 95.550869467217126 69.168541328843276 0 0 0 0 -17.366108258959997 21.507369783428473 0 21.507369783428473 -12.816965206630982 0 0 0 0 -1824.8125441223965 1775.6309641383195 0 1775.6309641383195 -370.22637154016411 0 0 0 0 -681.46498630127462 813.63100021978607 0 813.63100021978607 -782.82746219132969 0 0 0 0 -647.21893434908998 327.20367338159849 0 327.20367338159849 -599.60115903555652 0 0 0 0 -553.70193881126761 -29.966231504145981 0 -29.966231504145981 335.34682194248307 0 0 0 0 -849.40759465386509 89.678465885182959 0 89.678465885182959 -423.82662503118627 0 0 0 0 -571.2457962871631 413.52730409572905 0 413.52730409572905 -446.52806005903403 0 0 0 0 -1209.2085500071989 1135.262825198537 0 1135.262825198537 -458.96532928401621 0 0 0 0 795.05005623404577 1657.7302080047884 0 1657.7302080047884 418.44735554039789 0 0 0 0 -38.375768695780977 49.852621009226226 0 49.852621009226226 -38.028483471246034 0 0 0 0 -338.44263660786964 1019.5722561335024 0 1019.5722561335024 -664.32009790756274 0 0 0 0 -6.1708796997595243 74.163066951286794 0 74.163066951286794 -54.071805467752938 0 0 0 0 -524.09984374007036 1548.4953906632654 0 1548.4953906632654 -438.68754195082067 0 0 0 0 -32.951527718163561 100.81733635701312 0 100.81733635701312 -2.2558150653057965 0 0 0 0 61.099696065587892 66.410775814955173 0 66.410775814955173 32.521338038584275 0 0 0 0 -1430.8566667191044 1284.278225311391 0 1284.278225311391 -60.030984321972937 0 0 0 0 -1143.4104279394378 724.88093612364901 0 724.88093612364901 -143.01246493437793 0 0 0 0 -2977.775156696589 548.2883379394043 0 548.2883379394043 -9.503239888290409 0 0 0 0 -2470.6194506003521 83.425013227690215 0 83.425013227690215 -98.348145617317641 0 0 0 0 -2489.2937022323895 458.22639134329802 0 458.22639134329802 -350.23911951842456 0 0 0 0 -2246.0250672987604 -333.21878950639075 0 -333.21878950639075 -305.07145450272446 0 0 0 0 -33.122713176003458 14.997263997428 0 14.997263997428 -6.0893937842907349 0 0 0 0 -2156.2447706876264 -53.860555495859444 0 -53.860555495859444 -304.83547599101439 0 0 0 0 -68.7049363636404 49.720866746122496 0 49.720866746122496 -22.873551736849379 0 0 0 0 -1470.0348292858689 1122.3322848896059 0 1122.3322848896059 366.66832685799091 0 0 0 0 -995.08090070670005 553.24114288283454 0 553.24114288283454 199.6090042132746 0 0 0 0 -1260.5172937225143 1040.6468330697098 0 1040.6468330697098 -60.2618813898589 0 0 0 0 -1390.394063887361 1016.4041546654917 0 1016.4041546654917 -38.160426459129667 0 0 0 0 -2201.7207349483506 2147.4687078533607 0 2147.4687078533607 -273.94029614217288 0 0 0 0 -1269.9555464401783 1350.2814085505561 0 1350.2814085505561 164.23465721140383 0 0 0 0 -584.48540391449933 2980.7295191613521 0 2980.7295191613521 -1171.7713307486847 0 0 0 0 -1919.0872942612041 2003.4900577362059 0 2003.4900577362059 -1099.1550753691699 0 0 0 0 212.48486143766786 1683.0523285542586 0 1683.0523285542586 352.60018865055196 0 0 0 0 -725.76913481924566 1671.8950511314688 0 1671.8950511314688 352.73913261370035 0 0 0 0 421.31370319408597 1413.3276514988975 0 1413.3276514988975 -145.56970513056513 0 0 0 0 -201.56435445923125 188.4658596129957 0 188.4658596129957 187.92769867385414 0 0 0 0 -16.706116969009486 35.214032372072431 0 35.214032372072431 -38.054282841469956 0 0 0 0 -11.313775627320979 2.9758996337206014 0 2.9758996337206014 1.9920436222893727 0 0 0 0 -311.99406187274144 23.750698379953974 0 23.750698379953974 83.145255822630133 0 0 0 0 36.64504567408585 3.2200031605389086 0 3.2200031605389086 83.546849297239532 0 0 0 0 120.94002896020538 38.298586865388643 0 38.298586865388643 -2.8849663410364883 0 0 0 0 -47.065722547468908 56.477036337330986 0 56.477036337330986 -17.390355243339513 0 0 0 0 -28.60018550912713 22.425499502789336 0 22.425499502789336 15.114442410331662 0 0 0 0 -637.05892497533932 189.8351836312504 0 189.8351836312504 189.09128320828313 0 0 0 0 -676.25287000849494 895.22801905074448 0 895.22801905074448 -243.35490443201707 0 0 0 0 -26.466823998598556 1452.9188488312393 0 1452.9188488312393 -371.74642471884727 0 0 0 0 2.2665801093535265 85.046059977852565 0 85.046059977852565 11.494090001098812 0 0 0 0 -697.80044614099279 629.61990950624386 0 629.61990950624386 468.15786229955847 0 0 0 0 11.658779038276407 64.119397152100646 0 64.119397152100646 -56.111810130416416 0 0 0 0 4.1621345989115071 44.162927691570076 0 44.162927691570076 -40.92338144898531 0 0 0 0 -8.0423938273138162 59.044926579525054 0 59.044926579525054 -60.31716753298781 0 0 0 0 28.964475589879726 16.407041250358532 0 16.407041250358532 -33.006409034848161 0 0 0 0 1422.0434055203514 314.32573106740165 0 314.32573106740165 -993.20438128943351 0 0 0 0 132.38348064708771 -747.02249577542352 0 -747.02249577542352 286.78578929934883 0 0 0 0 0.14595012953213882 74.731487198849209 0 74.731487198849209 -14.579139904941258 0 0 0 0 -5.7628810793259504 7.3470886881550328 0 7.3470886881550328 -4.8298921425431729 0 0 0 0 -227.09757518299739 792.09066288352187 0 792.09066288352187 -3086.5002256110524 0 0 0 0 -21.4787770237308 -622.86064508080017 0 -622.86064508080017 -51.296782474499196 0 0 0 0 344.27668073828681 -248.22124094641185 0 -248.22124094641185 -2000.851686618289 0 0 0 0 -12.776177662472946 31.930680953254559 0 31.930680953254559 -31.786009265716245 0 0 0 0 41.427310071827378 14.169789375038818 0 14.169789375038818 3.1897276205127127 0 0 0 0 50.646976583782816 87.394973695038061 0 87.394973695038061 47.948207417022786 0 0 0 0 5.1599115897115553 68.875893830751011 0 68.875893830751011 53.934270888479659 0 0 0 0 21.336141954583582 6.5550501956458902 0 6.5550501956458902 -34.496001407023869 0 0 0 0 27.308518209274894 19.047461197439048 0 19.047461197439048 -5.9351370124012988 0 0 0 0 0.31956958121907064 2.9828454192103848 0 2.9828454192103848 8.4269636746937806 0 0 0 0 -0.0007879385375417769 21.814012890754384 0 21.814012890754384 9.86719093011925 0 0 0 0 0.91912105670729716 2.0967684422183481 0 2.0967684422183481 0.93004293616218092 0 0 0 0 -0.02004460729949642 1047.6636137885325 0 1047.6636137885325 1398.2945274416197 0 0 0 0 174.98600992170395 378.69287483045628 0 378.69287483045628 2377.6098191895508 0 0 0 0 -35.047887445864035 868.03860251036531 0 868.03860251036531 1773.8775080620471 0 0 0 0 98.05051998529234 494.65019045719237 0 494.65019045719237 1686.3894177913917 0 0 0 0 -22.284278675161715 6.8929365188724567 0 6.8929365188724567 6.9913422421585949 0 0 0 0 270.61124294782348 1339.3302275547248 0 1339.3302275547248 -206.91682671102171 0 0 0 0 981.90561415517004 776.06264439604274 0 776.06264439604274 288.58828648716735 0 0 0 0 -73.027974723547231 1145.6775745796731 0 1145.6775745796731 304.49321141712426 0 0 0 0 316.44782355350617 910.77197201636591 0 910.77197201636591 405.91363883225131 0 0 0 0 -46.487168385123368 648.83146030078933 0 648.83146030078933 295.15197594022175 0 0 0 0 0.18426125774567481 1206.7587507153221 0 1206.7587507153221 -485.8166061780139 0 0 0 0 150.54427774605574 1086.8375293073332 0 1086.8375293073332 -540.80274801615451 0 0 0 0 -387.27199117222335 1189.5904547956889 0 1189.5904547956889 -535.66979461775054 0 0 0 0 -57.563797152168263 1347.1532884287672 0 1347.1532884287672 -953.64363475634309 0 0 0 0 -468.87330133488285 1105.5009779982356 0 1105.5009779982356 -1051.5240456836545 0 0 0 0 73.025299383363745 809.00348305288298 0 809.00348305288298 -1182.3456929082604 0 0 0 0 -344.86885110739968 863.93404930819815 0 863.93404930819815 -1178.7971088592426 0 0 0 0 -992.78672920087411 1287.1752041843938 0 1287.1752041843938 -307.83901443221839 0 0 0 0 -744.26394618855556 1230.5328756702002 0 1230.5328756702002 -380.0765782554372 0 0 0 0 -817.03940088883974 1632.8714046156674 0 1632.8714046156674 57.930077553333831 0 0 0 0 -641.60282749283942 1446.9038710903988 0 1446.9038710903988 -767.17012387613067 0 0 0 0 -682.83833664929261 1385.0691034120755 0 1385.0691034120755 -455.7263974957641 0 0 0 0 -367.01896957257122 1447.6260212449015 0 1447.6260212449015 -443.36404130201845 0 0 0 0 -379.77769031730713 1527.4919386860056 0 1527.4919386860056 -111.51259075080998 0 0 0 0 -407.95157608039153 1052.4814536088707 0 1052.4814536088707 -1510.3117537456856 0 0 0 0 -685.74204597072094 1333.0298413020464 0 1333.0298413020464 -1013.5359718074469 0 0 0 0 -209.88925078279135 1395.3287160365708 0 1395.3287160365708 -1006.0357381360373 0 0 0 0 -726.8577680636372 1381.3436421182632 0 1381.3436421182632 -1183.541733670223 0 0 0 0 -572.7045813313307 1408.5519764867204 0 1408.5519764867204 -1450.2346183282207 0 0 0 0 -805.64823035568406 1390.3051656164935 0 1390.3051656164935 -786.43077521643136 0 0 0 0 -819.80331417982234 1243.754781024134 0 1243.754781024134 -1223.3841320696665 0 0 0 0 -673.69612966576096 1028.2370606470067 0 1028.2370606470067 -1844.5119749153091 0 0 0 0 -864.68793534772703 1149.669887976791 0 1149.669887976791 -1810.2610797440284 0 0 0 0 -591.5929486615496 1636.8162796982833 0 1636.8162796982833 -2385.9255742700916 0 0 0 0 -39.620248251827434 549.62458243370929 0 549.62458243370929 330.17825380443173 0 0 0 0 -5.7598250267321873 10.401613489044649 0 10.401613489044649 11.347751289042833 0 0 0 0 -285.30680112924892 -23.601220283766452 0 -23.601220283766452 569.06861733198457 0 0 0 0 69.902906135044759 -107.76961421183296 0 -107.76961421183296 -297.2618705056957 0 0 0 0 -0.050968453550012782 1104.0534171290783 0 1104.0534171290783 -1714.8072061057683 0 0 0 0 -344.86028777409228 1318.9717462771732 0 1318.9717462771732 -1468.6834995614408 0 0 0 0 -242.0382539468992 1219.8525939836181 0 1219.8525939836181 -1803.6720446724212 0 0 0 0 -342.51954387669684 1241.848876574295 0 1241.848876574295 -2696.3055501948547 0 0 0 0 -374.83140969774104 1673.0197175328285 0 1673.0197175328285 -2847.4745699747909 0 0 0 0 -795.84104671844398 1465.8709162468294 0 1465.8709162468294 -2052.0624024610224 0 0 0 0 -339.01652249095991 813.42017238846654 0 813.42017238846654 -1947.4994506779112 0 0 0 0 -0.49791898908733856 559.88982192027106 0 559.88982192027106 -1020.1245171948322 0 0 0 0 -259.85639327848912 767.71027869221143 0 767.71027869221143 -408.49225577468314 0 0 0 0 -117.51775748401997 418.63136542386928 0 418.63136542386928 -334.85659445146121 0 0 0 0 -215.74613874810166 505.75051489443285 0 505.75051489443285 -234.80222551377665 0 0 0 0 -413.83520372828934 596.98965937121829 0 596.98965937121829 -250.24857978272075 0 0 0 0 -138.509507735027 387.12863748414748 0 387.12863748414748 -314.18565819773357 0 0 0 0 -255.28385473770322 454.6308332913286 0 454.6308332913286 -261.8011481383146 0 0 0 0 -30.211611480917782 419.60419065395399 0 419.60419065395399 -256.56526871121241 0 0 0 0 -186.22332108032424 586.38954304863 0 586.38954304863 -147.08955759962555 0 0 0 0 -260.63879509211984 497.90755430388526 0 497.90755430388526 -251.67723425463191 0 0 0 0 -281.64271622692468 -647.98333310398448 0 -647.98333310398448 1175.7587167208621 0 0 0 0 -436.4805099357618 353.32745937966683 0 353.32745937966683 987.58747241227866 0 0 0 0 -2.562069798215532 3.8782440069610402 0 3.8782440069610402 1.7722984276550307 0 0 0 0 -99.562939040952187 102.91900135633477 0 102.91900135633477 51.730257085058838 0 0 0 0 -245.77872709247458 668.08729627351931 0 668.08729627351931 280.38468743950943 0 0 0 0 392.03573693113867 -356.9544105219793 0 -356.9544105219793 -10.398283336762688 0 0 0 0 -348.44381064164918 271.9626864517486 0 271.9626864517486 86.104464010408265 0 0 0 0 -248.19600194622763 333.38155875774828 0 333.38155875774828 -697.87055715403403 0 0 0 0 -923.5057193916291 711.32636558952072 0 711.32636558952072 -160.61510390074545 0 0 0 0 211.37488548422698 494.54022665135562 0 494.54022665135562 -1739.9473900542071 0 0 0 0 -935.49106100446079 1215.377242348768 0 1215.377242348768 -1195.8542094420409 0 0 0 0 -2690.9770753345219 664.65683358295064 0 664.65683358295064 155.91071645298507 0 0 0 0 20.119655477759693 4.6705517940219181 0 4.6705517940219181 -7.4254269889792113 0 0 0 0 -461.53313128085574 -33.720354581426363 0 -33.720354581426363 230.69044806042075 0 0 0 0 -160.36445164697943 341.84640576235688 0 341.84640576235688 -511.07067480901605 0 0 0 0 -344.56556417228421 -17.511312913844449 0 -17.511312913844449 -929.03892215964152 0 0 0 0 -218.15516414800368 617.20390597201094 0 617.20390597201094 -98.061752329747833 0 0 0 0 118.20116429043037 63.159427484513913 0 63.159427484513913 -52.982009536830105 0 0 0 0 -210.9896276264044 487.2482460890933 0 487.2482460890933 -300.76449580695044 0 0 0 0 -105.40554929985956 219.07727590607465 0 219.07727590607465 -164.09116771004665 0 0 0 0 -26.152597446642176 64.87850047934262 0 64.87850047934262 -203.61954051388602 0 0 0 0 -6.0358440877643034 57.66628648392517 0 57.66628648392517 -66.628508153620459 0 0 0 0 -42.3869423731594 185.04494469261772 0 185.04494469261772 -172.70455059659434 0 0 0 0 -464.65105862217024 543.69215760195948 0 543.69215760195948 -187.90263111235981 0 0 0 0 31.197086725997508 75.577001296640503 0 75.577001296640503 75.602289364875375 0 0 0 0 -686.27045674168039 580.54770146569354 0 580.54770146569354 -147.75166773051023 0 0 0 0 -618.37944236025214 549.4774737173866 0 549.4774737173866 -208.7916693090956 0 0 0 0 -573.00435225840192 654.07405398121045 0 654.07405398121045 -238.4298311290986 0 0 0 0 -438.21194737241603 516.06138950733293 0 516.06138950733293 -226.87645506067201 0 0 0 0 -365.02801361941965 659.48422798831598 0 659.48422798831598 -373.2552434951067 0 0 0 0 -1246.3684208124178 654.028339174547 0 654.028339174547 -138.6817207444692 0 0 0 0 -457.46208392352128 734.35860487755781 0 734.35860487755781 -719.25735089171212 0 0 0 0 -652.80813929025317 331.91929029668972 0 331.91929029668972 -183.50884358864278 0 0 0 0 -921.99268450913951 222.15533232016605 0 222.15533232016605 27.775768844468985 0 0 0 0 84.212747379147913 32.169435836840421 0 32.169435836840421 -42.761035188334063 0 0 0 0 17.970290325874494 58.530202415245753 0 58.530202415245753 7.2582191518000343 0 0 0 0 90.170810756861442 -31.593578157820644 0 -31.593578157820644 -42.615719209297481 0 0 0 0 14.841734699348478 102.45236307348694 0 102.45236307348694 -89.422420677441238 0 0 0 0 -872.1015469506965 421.71434057918668 0 421.71434057918668 -194.46609354935936 0 0 0 0 -612.58423026406672 500.80739296147658 0 500.80739296147658 -171.59448957337736 0 0 0 0 -475.21224566095043 567.74726098547399 0 567.74726098547399 -210.51184636641847 0 0 0 0 -420.34604199044406 627.37515244288079 0 627.37515244288079 -235.55345176632545 0 0 0 0 378.59426681492187 708.91432834764419 0 708.91432834764419 -140.3218657096586 0 0 0 0 265.29381946302601 526.40257868607296 0 526.40257868607296 -56.874964280817949 0 0 0 0 11.139829830442814 34.651627681753808 0 34.651627681753808 -93.864062811372946 0 0 0 0 197.58944010705454 812.57062300558755 0 812.57062300558755 -127.18035067431629 0 0 0 0 -99.904307256860193 753.48387632605954 0 753.48387632605954 -46.733782744988275 0 0 0 0 -81.393824863684131 476.13337165185658 0 476.13337165185658 -59.015407331426104 0 0 0 0 -534.64868344063871 448.04900086518501 0 448.04900086518501 13.549179705521965 0 0 0 0 -172.94592126576754 65.170216571757919 0 65.170216571757919 -115.92448933836567 0 0 0 0 0.82201611545315245 64.915802314267694 0 64.915802314267694 -231.0278603819097 0 0 0 0 -237.64073118077067 119.37238032835012 0 119.37238032835012 -161.02550549259468 0 0 0 0 -172.29751091229923 115.04157045596793 0 115.04157045596793 -186.3335761725757 0 0 0 0 -2.0143734204530617 12.926281083218669 0 12.926281083218669 -51.730837040182109 0 0 0 0 3490.2822676666547 678.28056403299524 0 678.28056403299524 -653.60009757716034 0 0 0 0 2078.3666643839242 382.08398715176736 0 382.08398715176736 -37.876137292805652 0 0 0 0 2501.8751635786903 1092.0438506504252 0 1092.0438506504252 -18.741801101835335 0 0 0 0 -860.99458309751935 169.29029204099606 0 169.29029204099606 -296.56451925441797 0 0 0 0 -1780.043489409145 718.43152779991215 0 718.43152779991215 390.28406815959534 0 0 0 0 -2007.4128336629656 1218.0135453182957 0 1218.0135453182957 -69.495683422213915 0 0 0 0 24.497451074421804 34.680077033323073 0 34.680077033323073 51.177126736934632 0 0 0 0 -249.91413617125363 368.17024012280308 0 368.17024012280308 -286.23770140616398 0 0 0 0 -0.39080195930728223 182.43242837565413 0 182.43242837565413 -211.01519427814856 0 0 0 0 -223.73222198095755 312.92755957967893 0 312.92755957967893 -284.57191639584198 0 0 0 0 -0.13875937950248055 358.42271931054756 0 358.42271931054756 -363.52137077509542 0 0 0 0 -140.87276319405828 367.05951217594679 0 367.05951217594679 -312.63131139577308 0 0 0 0 -144.20161555541563 296.80854848347371 0 296.80854848347371 -299.40548914491956 0 0 0 0 -257.81145270884736 354.88850363737583 0 354.88850363737583 -305.64604159918235 0 0 0 0 -240.17565973455203 389.31329487106268 0 389.31329487106268 -294.01751882417011 0 0 0 0 -216.67437346774386 407.2409125746708 0 407.2409125746708 -300.10277297459106 0 0 0 0 -507.72284189041238 481.97340063115553 0 481.97340063115553 -230.00814251069824 0 0 0 0 -580.34286033557146 774.99093690747577 0 774.99093690747577 -1279.3462450252955 0 0 0 0 -187.08046813540568 143.34876717592488 0 143.34876717592488 -166.84620598747279 0 0 0 0 -179.74216941206305 262.934358196218 0 262.934358196218 -8.4440878128443728 0 0 0 0 5.6462885099393247 0.90269495296513469 0 0.90269495296513469 1.9813386026012552 0 0 0 0 203.05553412047448 -81.582994429190876 0 -81.582994429190876 -22.030994251756056 0 0 0 0 38.497168956979294 54.106032847983442 0 54.106032847983442 -71.970756439190154 0 0 0 0 6.3101590449916785 15.378332128818471 0 15.378332128818471 -11.094937068699437 0 0 0 0 43.773114333525882 27.956294694315147 0 27.956294694315147 -82.35983873342775 0 0 0 0 -137.73585836665006 190.22954977947666 0 190.22954977947666 -167.49993773186361 0 0 0 0 -120.1581295525757 236.05804218334742 0 236.05804218334742 -247.96255015298811 0 0 0 0 -190.64821112583741 134.36610266510252 0 134.36610266510252 -180.10187215405676 0 0 0 0 -30.937715409510673 53.44739098250011 0 53.44739098250011 -58.649878556166811 0 0 0 0 -80.025237621430279 185.6642199580092 0 185.6642199580092 -191.13400486344472 0 0 0 0 -79.845612710676505 192.18791889923887 0 192.18791889923887 -134.16752756142523 0 0 0 0 -43.64543552121674 48.605254870652161 0 48.605254870652161 -58.667192326618846 0 0 0 0 -106.26040232258674 155.20423552201828 0 155.20423552201828 -145.44470251964594 0 0 0 0 -83.012739924990456 156.56890689515785 0 156.56890689515785 -138.18264751419656 0 0 0 0 -92.59159402626392 169.74679129479409 0 169.74679129479409 -129.98943248650176 0 0 0 0 -76.983721283992054 165.25116886807064 0 165.25116886807064 -182.04239635996055 0 0 0 0 -42.005736227481975 204.49962651781971 0 204.49962651781971 -150.61423462037783 0 0 0 0 -37.577336555194051 188.44089999881544 0 188.44089999881544 -95.299558490660274 0 0 0 0 79.566124920704169 291.466510597038 0 291.466510597038 -151.48688795381167 0 0 0 0 -109.81798497111595 276.40734966621676 0 276.40734966621676 -135.00625296283033 0 0 0 0 -107.12142051564047 225.87998367727809 0 225.87998367727809 -88.482772962954186 0 0 0 0 -31.833287630914128 391.71848353602036 0 391.71848353602036 -8.3852009415641078 0 0 0 0 -245.44760140830476 270.71559151518886 0 270.71559151518886 -112.0531347815122 0 0 0 0 -425.18583724822383 574.19154013541993 0 574.19154013541993 -351.06805720087868 0 0 0 0 -15.118989826136385 426.79848412474712 0 426.79848412474712 -337.89155951455905 0 0 0 0 757.59158373519313 68.483928301800916 0 68.483928301800916 -328.19996941606223 0 0 0 0 190.03288404102204 -71.251484411557612 0 -71.251484411557612 -404.66111022801488 0 0 0 0 32.248698652227176 -14.976888931756548 0 -14.976888931756548 -183.20127932535252 0 0 0 0 143.06659984926227 62.324254418745113 0 62.324254418745113 -199.16541106411023 0 0 0 0 609.31958654185291 189.14773384157161 0 189.14773384157161 -256.72968278649932 0 0 0 0 491.3372239114251 405.79507190233562 0 405.79507190233562 -618.66443677517236 0 0 0 0 508.24221947610204 -364.15818302292791 0 -364.15818302292791 149.53092353368993 0 0 0 0 5.1503466073533559 2.9827690978979433 0 2.9827690978979433 -2.3742098141925112 0 0 0 0 -558.62964615572128 597.52901006097818 0 597.52901006097818 -297.3953315730032 0 0 0 0 -225.59960574406432 220.23010343140049 0 220.23010343140049 650.4236537435936 0 0 0 0 -580.88916975984102 330.71994586849087 0 330.71994586849087 -295.14463394219638 0 0 0 0 -113.77120539767202 304.89370800175675 0 304.89370800175675 -144.50170073598019 0 0 0 0 173.15846721683192 364.3123523591712 0 364.3123523591712 -61.464974333212012 0 0 0 0 -111.45715225236199 189.33529095696213 0 189.33529095696213 -115.96098050727596 0 0 0 0 -11.610597765554587 41.400067447394377 0 41.400067447394377 -7.7833812448685791 0 0 0 0 73.04981535798288 401.08650115101773 0 401.08650115101773 -404.9891435778336 0 0 0 0 -301.45676860086678 330.34488834969579 0 330.34488834969579 -27.153336705116089 0 0 0 0 -767.39052501507103 1303.2699158508258 0 1303.2699158508258 -1203.2068611214418 0 0 0 0 -26.975184355927581 38.287137140618995 0 38.287137140618995 12.664877175015874 0 0 0 0 121.06724889239621 55.455010961576306 0 55.455010961576306 -54.260529183471135 0 0 0 0 -1004.8228546507598 1213.1034499947491 0 1213.1034499947491 -1077.4929386307631 0 0 0 0 -853.05675291630178 1474.2834934143684 0 1474.2834934143684 -699.33159397389682 0 0 0 0 -892.14063519072079 739.30847477533098 0 739.30847477533098 400.49643275997369 0 0 0 0 92.120996641712907 56.838901230032263 0 56.838901230032263 -25.015978493826935 0 0 0 0 -268.3549423396471 330.87685702701856 0 330.87685702701856 -41.196384317518095 0 0 0 0 -2324.8298235142429 2560.986184553527 0 2560.986184553527 -12.912511309827096 0 0 0 0 -835.87752324345638 2201.1634236124737 0 2201.1634236124737 -1854.6484467306727 0 0 0 0 -162.98756415580283 1146.0998078403063 0 1146.0998078403063 -1943.7991917597974 0 0 0 0 -521.8551937470038 1603.8354856728838 0 1603.8354856728838 -738.41607058204681 0 0 0 0 -741.68986757457606 1318.6760537299851 0 1318.6760537299851 -1046.8955254814791 0 0 0 0 -126.07618401376749 566.39506083514357 0 566.39506083514357 -554.30549256701488 0 0 0 0 163.02615205537586 301.28361509943716 0 301.28361509943716 -941.78615553556301 0 0 0 0 212.53040956979385 -660.77877553451981 0 -660.77877553451981 89.402088310394902 0 0 0 0 -1571.5519041834341 1182.6337551723409 0 1182.6337551723409 230.17796605479089 0 0 0 0 868.03465230474831 824.21724260979681 0 824.21724260979681 -1591.844602416124 0 0 0 0 765.06996918388177 -135.92491038232401 0 -135.92491038232401 -407.49654039296001 0 0 0 0 9.626781853402008 0.87201207083845134 0 0.87201207083845134 -3.7217366654032702 0 0 0 0 1171.9528595565062 250.21410639029637 0 250.21410639029637 -724.16459231737826 0 0 0 0 -174.10556618495684 -164.30579393698918 0 -164.30579393698918 172.01149745791918 0 0 0 0 93.436384959208766 75.261114272079567 0 75.261114272079567 -15.783830297404961 0 0 0 0 -3545.6777880108712 1884.8135555751305 0 1884.8135555751305 -643.18760346720228 0 0 0 0 -345.30454569953145 -1991.907556957367 0 -1991.907556957367 -2146.783219071629 0 0 0 0 -10.257461656117812 492.74432443433034 0 492.74432443433034 -64.871687817754719 0 0 0 0 -94.478150639966771 98.215549846368958 0 98.215549846368958 13.506226920420886 0 0 0 0 24.002224627063498 16.90096562174412 0 16.90096562174412 -9.7413794157908171 0 0 0 0 -24.91691432382504 116.47845580431749 0 116.47845580431749 -83.996456628417945 0 0 0 0 20.334977096949615 10.322396536192798 0 10.322396536192798 0.48305870497281944 0 0 0 0 121.64816087598865 -10.97363530124494 0 -10.97363530124494 -86.293263913117698 0 0 0 0 -496.06994337766446 429.09781778176512 0 429.09781778176512 -297.43852917363984 0 0 0 0 -461.41973683382093 504.02057309106749 0 504.02057309106749 -397.16005895414855 0 0 0 0 -366.70727498351334 254.66828198589792 0 254.66828198589792 -244.71062010635796 0 0 0 0 -357.96764817362418 480.66098476320622 0 480.66098476320622 -347.52291073645756 0 0 0 0 -358.70338792338299 379.75925625720657 0 379.75925625720657 -134.1456666092563 0 0 0 0 -97.816902927603223 -46.37049067218868 0 -46.37049067218868 -94.698330944520421 0 0 0 0 -43.367195523107512 331.08648875610379 0 331.08648875610379 33.551912133014412 0 0 0 0 -176.14961659245455 194.30534328407884 0 194.30534328407884 -3.6509009138862893 0 0 0 0 -33.166521308085066 309.51123015801568 0 309.51123015801568 -141.14857554023911 0 0 0 0 -58.442889710030897 57.481352448653915 0 57.481352448653915 -33.609978040330418 0 0 0 0 -303.86970753224159 330.5892782878218 0 330.5892782878218 -179.72544557278161 0 0 0 0 -152.37706642918056 190.91054550340777 0 190.91054550340777 -198.3979813549995 0 0 0 0 -184.24530800389766 164.3725264487075 0 164.3725264487075 -217.14542403911582 0 0 0 0 -187.86598089219478 179.98310217170365 0 179.98310217170365 -116.90491952669981 0 0 0 0 -129.27777161353151 113.54196096639498 0 113.54196096639498 -146.28433491761098 0 0 0 0 -21.662916879402474 95.74447665641128 0 95.74447665641128 105.51481839381449 0 0 0 0 -69.302813606656855 194.60009957971488 0 194.60009957971488 -84.474129988186178 0 0 0 0 -137.20731359583442 132.71008352187346 0 132.71008352187346 -87.014912016609742 0 0 0 0 -155.7972906078212 141.86468885697104 0 141.86468885697104 -84.576345915165618 0 0 0 0 -222.76298588550708 111.25435761142944 0 111.25435761142944 -33.027987368332106 0 0 0 0 -0.67690284957732416 2.037889202535041 0 2.037889202535041 -0.28915521434140601 0 0 0 0 -132.59649794503639 116.75958030521724 0 116.75958030521724 -80.393200325866928 0 0 0 0 -137.71226456537261 94.02394871821889 0 94.02394871821889 -82.867198962363545 0 0 0 0 -170.7855329351878 60.916101870883722 0 60.916101870883722 15.719808299065335 0 0 0 0 -157.16753390061785 82.105517045267334 0 82.105517045267334 -87.845073329284787 0 0 0 0 -168.85387030908896 134.10536140950353 0 134.10536140950353 -131.17886619952333 0 0 0 0 -152.71783170237904 104.48848976971931 0 104.48848976971931 -43.772829432564322 0 0 0 0 -179.15627399034565 109.89813977738231 0 109.89813977738231 -175.37354688698542 0 0 0 0 -222.07303019671235 197.74407356965821 0 197.74407356965821 -185.10376937452384 0 0 0 0 -192.81286233174615 110.19569129354932 0 110.19569129354932 -126.03953676737001 0 0 0 0 -120.79485310400196 228.20058245198743 0 228.20058245198743 -231.04233875952559 0 0 0 0 -332.20987441478064 283.77025821846473 0 283.77025821846473 -212.20353253353824 0 0 0 0 -220.74988118004694 331.80930472577165 0 331.80930472577165 -334.67661111445341 0 0 0 0 -243.42737547476281 164.0986381562434 0 164.0986381562434 -229.36483440738812 0 0 0 0 -357.79285190542578 360.85424958833755 0 360.85424958833755 -469.08605166859707 0 0 0 0 -391.31857476494042 270.06251166042784 0 270.06251166042784 -229.58126468441333 0 0 0 0 -274.74153646905324 193.58790806182515 0 193.58790806182515 -165.77709336875705 0 0 0 0 -256.4071974788676 267.70039197737788 0 267.70039197737788 -295.9036747199716 0 0 0 0 -3.571030714269682 10.295811851398611 0 10.295811851398611 5.4476182790997569 0 0 0 0 -460.1080784650112 1772.7098526738919 0 1772.7098526738919 -1872.673290550294 0 0 0 0 303.29292555504799 1642.9446582541241 0 1642.9446582541241 -4299.4327988945006 0 0 0 0 548.95306336163776 640.91092418896005 0 640.91092418896005 375.08402021636357 0 0 0 0 -238.26299614637173 1025.0436302962935 0 1025.0436302962935 267.39740091307613 0 0 0 0 692.30821653275052 729.96970606072864 0 729.96970606072864 356.7158669266064 0 0 0 0 1100.0577758913132 692.65328128264446 0 692.65328128264446 399.29008826462086 0 0 0 0 760.78543134499341 927.15388209708181 0 927.15388209708181 458.22144604309506 0 0 0 0 480.04799854647717 823.74285254339338 0 823.74285254339338 475.79332665604306 0 0 0 0 1074.6629158106516 1113.0564747366516 0 1113.0564747366516 129.26293282490224 0 0 0 0 1168.4824803956581 802.75550730385294 0 802.75550730385294 570.30869967318722 0 0 0 0 1775.4300964002541 361.05500183931144 0 361.05500183931144 218.86375065631 0 0 0 0 1469.0328551282728 972.64436468692293 0 972.64436468692293 267.31305463263561 0 0 0 0 -22.783670664020192 20.834606096672061 0 20.834606096672061 2.8654969137220405 0 0 0 0 -36.640734517974536 46.516664496038914 0 46.516664496038914 -1.3277230258772761 0 0 0 0 -79.917080238185008 114.72432437432872 0 114.72432437432872 151.91060556736193 0 0 0 0 339.07058933118242 136.4811097339043 0 136.4811097339043 -75.700334341207054 0 0 0 0 -18.07767967617113 35.897411980324108 0 35.897411980324108 -26.708771833597865 0 0 0 0 6.9890041567850858 58.036737696413184 0 58.036737696413184 -64.53779951139586 0 0 0 0 383.74846759253342 92.715689480325636 0 92.715689480325636 -33.023904803907499 0 0 0 0 -47.90826334230951 72.343071675582905 0 72.343071675582905 80.616521054165787 0 0 0 0 145.3325156279534 88.045890161869465 0 88.045890161869465 -191.00091931280622 0 0 0 0 2.7869620968443769 2.4196246985494696 0 2.4196246985494696 -3.3591239255577818 0 0 0 0 113.7345578429813 935.31629905392765 0 935.31629905392765 537.49448072624909 0 0 0 0 -10.240606980063603 63.511821244770545 0 63.511821244770545 5.5492491663608234 0 0 0 0 -37.746278218790792 27.748482132296786 0 27.748482132296786 -15.553936693156459 0 0 0 0 776.82272942177224 730.3102343476603 0 730.3102343476603 406.99609173680074 0 0 0 0 772.84840931275539 734.32973984920318 0 734.32973984920318 445.84060213432531 0 0 0 0 676.27398647816517 773.98436691783718 0 773.98436691783718 -16.023367744026473 0 0 0 0 643.85939829806011 797.70737783044024 0 797.70737783044024 456.69679158934014 0 0 0 0 274.60985524291755 1298.3605575103866 0 1298.3605575103866 1342.5521446688872 0 0 0 0 351.49126478072139 1684.2463116706494 0 1684.2463116706494 231.45661992975511 0 0 0 0 9.419065480289504 13.445704673736515 0 13.445704673736515 14.809047870630366 0 0 0 0 386.0004790986095 1770.5444770251279 0 1770.5444770251279 -573.71447002950299 0 0 0 0 603.98594866007625 983.11593254428954 0 983.11593254428954 -611.04281642794376 0 0 0 0 -45.35417041405907 31.561417790201858 0 31.561417790201858 -2.612079154408093 0 0 0 0 -28.140293272885174 90.844023851794191 0 90.844023851794191 37.962530819364474 0 0 0 0 -24.90819626817887 40.805583997488725 0 40.805583997488725 23.429961253842748 0 0 0 0 563.40044584335146 1789.3766430935209 0 1789.3766430935209 1548.7704750712874 0 0 0 0 -13.720272178936284 104.05555181320233 0 104.05555181320233 76.697931903299832 0 0 0 0 403.49066632786707 -701.1503769569315 0 -701.1503769569315 940.0640063216124 0 0 0 0 -9.4168524950509891 88.715199565864168 0 88.715199565864168 91.438054482103325 0 0 0 0 -38.76234166763976 23.684335610720787 0 23.684335610720787 -14.320040615299433 0 0 0 0 31.73022549750749 132.51513917403645 0 132.51513917403645 114.96618562954245 0 0 0 0 -11.665598235645177 0.74789473068579326 0 0.74789473068579326 9.1735830621860259 0 0 0 0 -37.714129371830495 64.271087010041811 0 64.271087010041811 58.758993685842142 0 0 0 0 22.479076292482205 91.659279587802303 0 91.659279587802303 32.636194641119801 0 0 0 0 -17.311122443097702 60.439493432019844 0 60.439493432019844 -25.455617295461707 0 0 0 0 -10.483885684792767 33.467484206397785 0 33.467484206397785 6.913064640822995 0 0 0 0 -20.49688711296767 85.282092388806632 0 85.282092388806632 75.724440974926893 0 0 0 0 -1.0772910477535333 40.442433628442814 0 40.442433628442814 -32.583472561636881 0 0 0 0 -19.86232982669739 44.867227592309717 0 44.867227592309717 -1.9418171305671308 0 0 0 0 -84.197893737429695 22.406369325204651 0 22.406369325204651 -10.293460696120746 0 0 0 0 -50.140193432889646 4.0521342035935959 0 4.0521342035935959 -9.5742405204146053 0 0 0 0 122.90495030402235 51.524147447671567 0 51.524147447671567 -32.447385530242173 0 0 0 0 -69.976035727260751 81.33414135970088 0 81.33414135970088 55.45827091816318 0 0 0 0 -18.577399117325513 40.828231720157419 0 40.828231720157419 -3.7824394500586891 0 0 0 0 -84.700787088426296 38.154986294855917 0 38.154986294855917 80.437642273143865 0 0 0 0 9.2489891802688362 28.25725266923564 0 28.25725266923564 80.90399673509819 0 0 0 0 225.96297091644374 113.03239097550977 0 113.03239097550977 -1.769459877807094 0 0 0 0 5.9470123405449797 6.4470606840248763 0 6.4470606840248763 -0.36140572932933424 0 0 0 0 203.80222389506525 7.6506885025919473 0 7.6506885025919473 114.91241507281666 0 0 0 0 147.92141373049526 114.76306720927096 0 114.76306720927096 83.762793540794519 0 0 0 0 9.3050238682578197 -0.5079488805100425 0 -0.5079488805100425 -8.1668882008183061 0 0 0 0 126.22571049383259 44.687226519687101 0 44.687226519687101 -55.621149210772273 0 0 0 0 14.441062169843278 -6.1086415166925576 0 -6.1086415166925576 -39.427317018428255 0 0 0 0 381.75704183768539 7.0902641674038023 0 7.0902641674038023 -59.91717373263964 0 0 0 0 116.97414206640678 40.538073260810052 0 40.538073260810052 -36.482576217225869 0 0 0 0 114.06625436327158 45.405308084500575 0 45.405308084500575 -10.761865184482303 0 0 0 0 46.204065476620087 17.22968123526158 0 17.22968123526158 -19.113103661839894 0 0 0 0 -53.212052452203352 44.598837022887892 0 44.598837022887892 31.660918930421758 0 0 0 0 223.17840287250692 48.745084185760334 0 48.745084185760334 -157.94703673372715 0 0 0 0 -52.576027904149669 130.05163231359984 0 130.05163231359984 -170.02290644691675 0 0 0 0 6.20689887199255 3.8299653313944191 0 3.8299653313944191 0.69188914447570937 0 0 0 0 89.266231022775173 41.574958285214962 0 41.574958285214962 -218.95653776854306 0 0 0 0 116.00691778481996 36.804846514954988 0 36.804846514954988 -472.2802197606652 0 0 0 0 81.581859648475074 -47.208758350701828 0 -47.208758350701828 -278.97670086797734 0 0 0 0 82.730940257046313 89.870778329339373 0 89.870778329339373 -405.89154072938254 0 0 0 0 43.803122606215766 5.1306197927005996 0 5.1306197927005996 -280.71335980165168 0 0 0 0 109.5006808519247 -77.889832938672043 0 -77.889832938672043 -216.22022099228343 0 0 0 0 109.98487563669914 64.442593634143122 0 64.442593634143122 -145.17343089216592 0 0 0 0 96.923425526685605 0.51414856608789705 0 0.51414856608789705 -190.62465131218778 0 0 0 0 -13.114904077912797 30.369633169695589 0 30.369633169695589 178.53016098411172 0 0 0 0 98.005508168018423 95.190111048374092 0 95.190111048374092 87.724622618639842 0 0 0 0 -27.566840373164212 31.248338822696581 0 31.248338822696581 11.559219747628156 0 0 0 0 -9.3330263844691217 10.222904418340477 0 10.222904418340477 185.04682847691583 0 0 0 0 -2.729717402113863 12.06915757782383 0 12.06915757782383 6.1812962764124961 0 0 0 0 -50.527572793092986 50.422689585629996 0 50.422689585629996 -23.917347570437414 0 0 0 0 -28.559917719293821 18.754655124080443 0 18.754655124080443 22.321941701024286 0 0 0 0 -34.509762142130057 35.603794450187706 0 35.603794450187706 -33.244644718986819 0 0 0 0 23.46127141197212 82.954171830031555 0 82.954171830031555 132.60295674684312 0 0 0 0 68.671831990737701 -120.70887206340558 0 -120.70887206340558 305.12615643348545 0 0 0 0 -0.81294321181462692 1.7230698972106495 0 1.7230698972106495 -2.8047737472655854 0 0 0 0 97.430375699914293 -166.02807834060513 0 -166.02807834060513 -211.57876332962769 0 0 0 0 222.72578848681587 39.088236020779732 0 39.088236020779732 -693.4241404755594 0 0 0 0 46.509207210270688 -170.70391235672287 0 -170.70391235672287 -25.320722802251112 0 0 0 0 -178.24357563324884 -37.039611907179278 0 -37.039611907179278 236.3758325774761 0 0 0 0 165.63250955057447 -75.883127846114803 0 -75.883127846114803 -409.49649401448551 0 0 0 0 72.024375219261856 -188.27699459210635 0 -188.27699459210635 -360.20145323472389 0 0 0 0 -44.033439667065977 -535.08668072457294 0 -535.08668072457294 -783.51030124379031 0 0 0 0 8.3368134487109273 -3.8186760010390373 0 -3.8186760010390373 6.6830578845828157 0 0 0 0 18.573090115649393 -70.349043134745443 0 -70.349043134745443 32.213014657818348 0 0 0 0 -42.850540657236706 35.28076644639259 0 35.28076644639259 76.217979828827083 0 0 0 0 -131.65327870094916 87.672821373762417 0 87.672821373762417 172.82879660678009 0 0 0 0 -132.69265318285034 70.411128704476141 0 70.411128704476141 10.284529085007307 0 0 0 0 -10.748667838150141 24.625353674739017 0 24.625353674739017 -8.4109557955380296 0 0 0 0 140.94601259096089 307.07875621692438 0 307.07875621692438 -127.23630186099035 0 0 0 0 -151.00264536844497 49.706705756238989 0 49.706705756238989 -58.449935728291166 0 0 0 0 -141.42176994383044 145.15901733325154 0 145.15901733325154 -102.25266651351558 0 0 0 0 -154.50303134130081 82.123972134198993 0 82.123972134198993 7.5233056125216535 0 0 0 0 -136.73434744282349 45.496027964600216 0 45.496027964600216 -38.849338468062342 0 0 0 0 -5.181420025684929 59.956599187787106 0 59.956599187787106 -15.83712544485752 0 0 0 0 -90.744782184745418 0.97064253711141646 0 0.97064253711141646 -1.8004576700768666 0 0 0 0 -123.53256624238566 71.372381477405725 0 71.372381477405725 7.6535994422301883 0 0 0 0 318.75059254420921 299.76477460283786 0 299.76477460283786 158.11923109029885 0 0 0 0 -27.068554206864064 17.152971700463695 0 17.152971700463695 -60.278567355497216 0 0 0 0 35.232754515495003 30.425470845007339 0 30.425470845007339 22.161478813262676 0 0 0 0 -100.93034836163861 55.443361331126653 0 55.443361331126653 0.36665795014960167 0 0 0 0 -122.22569368952827 81.507694505385189 0 81.507694505385189 21.934831385377038 0 0 0 0 -107.4625430740416 46.894438090395852 0 46.894438090395852 4.0702148497953203 0 0 0 0 152.40948992455378 248.94043609191431 0 248.94043609191431 245.76680513549582 0 0 0 0 1.711550845936415 -4.8244736637891634 0 -4.8244736637891634 -3.2278299931043222 0 0 0 0 574.44711677952728 -138.60262303363925 0 -138.60262303363925 -526.02178199058108 0 0 0 0 83.455312046091422 211.23822414070673 0 211.23822414070673 -304.15696326747639 0 0 0 0 133.95276256297075 71.207715068314428 0 71.207715068314428 -263.80111553147435 0 0 0 0 -93.340123127039988 52.952610360665858 0 52.952610360665858 -115.50606099600554 0 0 0 0 32.007641300742307 29.368477864636162 0 29.368477864636162 26.257195650991804 0 0 0 0 -82.58751756298625 91.365176895375498 0 91.365176895375498 -131.92711792933551 0 0 0 0 -96.39392768855032 256.25749993681529 0 256.25749993681529 -33.036753947963007 0 0 0 0 221.30746173107764 279.58281981045366 0 279.58281981045366 35.621490892463044 0 0 0 0 -85.103070898921032 75.456628096684767 0 75.456628096684767 -79.84097770191147 0 0 0 0 10.42088577694085 237.1917424712592 0 237.1917424712592 -150.7800920189602 0 0 0 0 29.815291561454785 26.115919548658667 0 26.115919548658667 23.362340756042585 0 0 0 0 -214.42456705066434 385.04082107302384 0 385.04082107302384 -307.59399844300606 0 0 0 0 -81.219579498792882 183.59290059282466 0 183.59290059282466 -201.26184039407599 0 0 0 0 -84.89999041264673 219.56815873033338 0 219.56815873033338 -183.5500379671048 0 0 0 0 1.2568952716610511 203.33823362393377 0 203.33823362393377 -387.24912605314603 0 0 0 0 -13.890851260715863 239.52788038811195 0 239.52788038811195 -385.62229586030662 0 0 0 0 -4.2813239788374631 411.99416046008264 0 411.99416046008264 -564.35130228628714 0 0 0 0 109.74066960109121 262.76374105433024 0 262.76374105433024 -532.12980523783335 0 0 0 0 -29.054353033934603 468.62277193005684 0 468.62277193005684 -693.24644070505747 0 0 0 0 -117.03245927415264 365.51580788509455 0 365.51580788509455 -397.44432133026646 0 0 0 0 23.131891410019307 671.22334598038469 0 671.22334598038469 -989.57376681193273 0 0 0 0 -68.846763674649992 647.15719888307285 0 647.15719888307285 -550.17142359584432 0 0 0 0 -306.8005857267126 919.53525479299424 0 919.53525479299424 -707.14576591779041 0 0 0 0 -452.98475683269498 165.81306425178991 0 165.81306425178991 29.963100565888453 0 0 0 0 -621.51414871985617 638.05203019911096 0 638.05203019911096 -429.1545566744262 0 0 0 0 79.282229194988759 616.40430294221824 0 616.40430294221824 -1215.5942049064834 0 0 0 0 523.25391477029189 -185.99675810828921 0 -185.99675810828921 -898.80869755370804 0 0 0 0 262.79285003817859 189.00662012458179 0 189.00662012458179 -495.34088265775063 0 0 0 0 -41.918608388659777 294.82336178655169 0 294.82336178655169 -529.55767382612612 0 0 0 0 -54.804206954417168 268.11459862401898 0 268.11459862401898 -254.43058069543622 0 0 0 0 -503.75969338413415 1004.774571559059 0 1004.774571559059 -1650.6442335152387 0 0 0 0 -1294.4567518082185 812.32198177233658 0 812.32198177233658 -614.9709876563461 0 0 0 0 41.752900326930103 429.58626538579483 0 429.58626538579483 -1428.9333743238494 0 0 0 0 -551.97197155929462 344.91263558028731 0 344.91263558028731 -1248.7144376199431 0 0 0 0 48.942815144648193 28.759532471827697 0 28.759532471827697 -687.96920422182484 0 0 0 0 184.13865352392895 271.51448375055406 0 271.51448375055406 -1169.2227463123563 0 0 0 0 -154.79001535498537 459.27240978344526 0 459.27240978344526 -931.38929967268632 0 0 0 0 -59.195006788810133 560.79188313397754 0 560.79188313397754 -969.83504820189228 0 0 0 0 137.36182421991543 434.99760113309094 0 434.99760113309094 -906.51816282283471 0 0 0 0 88.384208397990733 412.19973084534649 0 412.19973084534649 -881.1775056715851 0 0 0 0 178.95366645129388 141.56596385718683 0 141.56596385718683 -683.44106839830783 0 0 0 0 79.075887243237958 334.60149955928682 0 334.60149955928682 -621.48493047895317 0 0 0 0 105.37592027737992 205.45540480779164 0 205.45540480779164 -512.65634417381352 0 0 0 0 146.18039525824133 127.23320461209369 0 127.23320461209369 -483.86017647743574 0 0 0 0 155.01724258087052 352.34531980436805 0 352.34531980436805 -659.07404476816009 0 0 0 0 89.666197976803232 476.6169456249354 0 476.6169456249354 -794.06752881232387 0 0 0 0 70.253823126273346 528.03187883466671 0 528.03187883466671 -755.04912382564726 0 0 0 0 93.904356372120674 548.89533908455633 0 548.89533908455633 -768.0899482639652 0 0 0 0 234.02733231443563 199.01805176017297 0 199.01805176017297 -691.84532289600429 0 0 0 0 101.10512831389497 562.70237550012826 0 562.70237550012826 -864.09289177494793 0 0 0 0 -456.82501117927313 741.08820090410336 0 741.08820090410336 -901.90526368855353 0 0 0 0 -120.13624684964452 383.27068311848598 0 383.27068311848598 -578.27927560922399 0 0 0 0 -168.04547733651998 507.61496277121478 0 507.61496277121478 -514.75858905558744 0 0 0 0 -677.41858687268541 264.73551185231918 0 264.73551185231918 -216.59542194396636 0 0 0 0 -1150.3421798784257 358.54778448487195 0 358.54778448487195 -233.92810399497102 0 0 0 0 -701.73435472535493 373.24224269013575 0 373.24224269013575 -372.84398269865778 0 0 0 0 -1103.4402189160464 727.94326065600762 0 727.94326065600762 -607.36250222743547 0 0 0 0 -3.1850131539401332 0.20989463745891612 0 0.20989463745891612 0.73515944494942431 0 0 0 0 -752.06967032401371 251.69244922053622 0 251.69244922053622 -5.0148871598648839 0 0 0 0 -773.87389396979415 273.5473632242356 0 273.5473632242356 692.06019511777049 0 0 0 0 -597.52339821195346 136.92198947393808 0 136.92198947393808 -59.803765723365359 0 0 0 0 215.24862580990884 271.88375884163179 0 271.88375884163179 -370.02076593440142 0 0 0 0 -105.06285929607111 -108.79666297904623 0 -108.79666297904623 56.454817512109003 0 0 0 0 382.20253615059482 -267.77429878110706 0 -267.77429878110706 -70.970472401406369 0 0 0 0 -2.0128848616326991 2.8025140759868563 0 2.8025140759868563 -1.6947115888793505 0 0 0 0 40.540974009651109 446.25271645018711 0 446.25271645018711 101.93426167838334 0 0 0 0 473.24926229826997 541.59377082043216 0 541.59377082043216 96.229808491087169 0 0 0 0 554.02199264747469 -349.6482413681988 0 -349.6482413681988 863.70210008860522 0 0 0 0 -110.86736347612168 618.1543563473424 0 618.1543563473424 1388.0340325321858 0 0 0 0 45.510975549317664 181.92113556223558 0 181.92113556223558 394.88547021357954 0 0 0 0 -122.97292790246865 -61.459896527017918 0 -61.459896527017918 241.24383419718652 0 0 0 0 -227.23181438777829 195.94983283304464 0 195.94983283304464 -379.55967163310561 0 0 0 0 -393.43365659975098 625.24639923261384 0 625.24639923261384 524.25060691339786 0 0 0 0 -122.85065147223941 487.22665773584049 0 487.22665773584049 567.28290802662013 0 0 0 0 -372.48355137231647 441.77198572476482 0 441.77198572476482 46.787446701782756 0 0 0 0 -897.21594087812991 474.8259876801676 0 474.8259876801676 160.88086651437334 0 0 0 0 -678.04476966301445 1329.9437086999133 0 1329.9437086999133 -1046.6035919580972 0 0 0 0 -1190.3335664771002 772.94134890406349 0 772.94134890406349 270.12955214038084 0 0 0 0 -3.0244374019457609 413.97937465237555 0 413.97937465237555 -999.50708376405964 0 0 0 0 -650.67996625225351 972.30406218237658 0 972.30406218237658 53.202708307464491 0 0 0 0 -12.976550900013876 6.5987362731140564 0 6.5987362731140564 -2.7210911448932436 0 0 0 0 -235.16093911310963 -399.32896638948205 0 -399.32896638948205 995.4078745173465 0 0 0 0 12.959141698047461 715.91322965033578 0 715.91322965033578 -1903.6698175876372 0 0 0 0 -233.26991403188731 276.64708197357686 0 276.64708197357686 -1294.8068411238128 0 0 0 0 274.71851130349387 545.55214285972033 0 545.55214285972033 181.33039678603018 0 0 0 0 213.44787911412459 317.42711221461286 0 317.42711221461286 -1360.0845918113046 0 0 0 0 0.23666453525311226 1.5796028244588776 0 1.5796028244588776 -1.5580744023721067 0 0 0 0 98.150263235649618 914.21735504949174 0 914.21735504949174 -70.042322631314164 0 0 0 0 -209.07256592642807 98.667995112937206 0 98.667995112937206 -99.588553991941467 0 0 0 0 533.43259914399823 748.65563355661652 0 748.65563355661652 468.27752196096117 0 0 0 0 1605.2528979340059 1138.6098498625124 0 1138.6098498625124 1280.3091193617583 0 0 0 0 432.00250909244642 151.90866988511516 0 151.90866988511516 511.26340454340607 0 0 0 0 334.6620859617833 -867.00407026158791 0 -867.00407026158791 1761.8606447851453 0 0 0 0 -149.38087699588505 -101.49625362401639 0 -101.49625362401639 2341.8353816750205 0 0 0 0 8.7958170285021993 9.7295573759360536 0 9.7295573759360536 11.487020425770964 0 0 0 0 -391.617307590981 379.3676549784667 0 379.3676549784667 642.90844662695599 0 0 0 0 -374.65884876900236 72.835279667560826 0 72.835279667560826 1401.061644735586 0 0 0 0 87.814340128235926 1.9997578434977186 0 1.9997578434977186 1080.551504093004 0 0 0 0 -173.15559410786955 -248.2631350998272 0 -248.2631350998272 1153.0473096811547 0 0 0 0 -140.82439126554527 -61.928870873889537 0 -61.928870873889537 604.21322228634381 0 0 0 0 -411.01996007919661 156.04520625651639 0 156.04520625651639 974.16891301270516 0 0 0 0 -382.66606555425096 314.53364154665178 0 314.53364154665178 524.43397884958176 0 0 0 0 -530.81986309013155 362.69539872989844 0 362.69539872989844 706.70408579546711 0 0 0 0 -353.14337355632051 853.60264240095194 0 853.60264240095194 174.54104628442292 0 0 0 0 -669.64226161802071 609.2958188181301 0 609.2958188181301 578.73049211528996 0 0 0 0 -356.23770491121104 741.97499488005451 0 741.97499488005451 131.97083709266735 0 0 0 0 -299.8095774925896 262.57223192261154 0 262.57223192261154 545.58857679345238 0 0 0 0 -342.45063583605224 403.08078506711536 0 403.08078506711536 249.68932781649346 0 0 0 0 -118.96309070574353 506.43103329975565 0 506.43103329975565 233.86204161499336 0 0 0 0 -81.758061535860179 531.84459204602535 0 531.84459204602535 -5.479256234717468 0 0 0 0 91.2746095154871 561.78604302257372 0 561.78604302257372 45.730167398221965 0 0 0 0 162.48555895331083 606.03859051742256 0 606.03859051742256 -4.9879275150851754 0 0 0 0 -310.17396581089997 685.02297825927599 0 685.02297825927599 165.4889720601368 0 0 0 0 -40.358697618881706 726.89733038690429 0 726.89733038690429 -105.19265961967903 0 0 0 0 49.570346187072573 416.38311153371978 0 416.38311153371978 -115.16365757539847 0 0 0 0 89.686850333535403 519.84323847578708 0 519.84323847578708 77.034575065488752 0 0 0 0 71.589650329085998 223.28891650082369 0 223.28891650082369 208.29641597992668 0 0 0 0 -31.590335121341923 398.22828006803911 0 398.22828006803911 24.493195232746075 0 0 0 0 -27.573822164301816 17.089884937824522 0 17.089884937824522 -5.2395975469351868 0 0 0 0 27.795432437982527 342.2359964688967 0 342.2359964688967 -69.918765824168077 0 0 0 0 211.17049934383249 374.8425829375974 0 374.8425829375974 621.7489646642498 0 0 0 0 304.37803179812909 604.4189910772111 0 604.4189910772111 1174.3257869544032 0 0 0 0 191.33074679473793 450.45545589915127 0 450.45545589915127 371.74647554143303 0 0 0 0 54.315226901810092 361.04605436563907 0 361.04605436563907 708.0982760452498 0 0 0 0 151.9169564806798 386.38413195174417 0 386.38413195174417 296.26663424653816 0 0 0 0 192.6176967760257 621.42441133968168 0 621.42441133968168 74.578264345294883 0 0 0 0 297.54117242155189 507.3572907235266 0 507.3572907235266 57.538970296409389 0 0 0 0 373.23656817022129 628.38819219982906 0 628.38819219982906 224.75627681669721 0 0 0 0 400.55689046335374 346.75172688499902 0 346.75172688499902 335.16233796768211 0 0 0 0 -447.16568085720792 32.249986490603987 0 32.249986490603987 -12.183732836914714 0 0 0 0 155.72421506253886 559.24468217430331 0 559.24468217430331 44.22897279409699 0 0 0 0 -51.289482924944423 51.581508908300876 0 51.581508908300876 -48.695037815638742 0 0 0 0 -968.50194692169316 88.648832410690375 0 88.648832410690375 18.597045297181467 0 0 0 0 -210.85727423391654 461.31279405565965 0 461.31279405565965 84.686786686819687 0 0 0 0 -512.269220523478 -554.82717996390056 0 -554.82717996390056 18.375973710760718 0 0 0 0 360.71950111686601 1945.8953504838137 0 1945.8953504838137 611.65347792574175 0 0 0 0 3378.7240225679416 1301.0304979709767 0 1301.0304979709767 -792.72760333736005 0 0 0 0 196.12780854596349 -943.8523641344982 0 -943.8523641344982 -1340.2916729222206 0 0 0 0 642.50581458830857 -147.30970341260399 0 -147.30970341260399 -1010.2141106271338 0 0 0 0 760.30706762615591 469.20692250307002 0 469.20692250307002 416.64822195298439 0 0 0 0 1140.0182439268683 82.589623714213303 0 82.589623714213303 719.8284085833784 0 0 0 0 -3.5229796300615845 23.144053327745809 0 23.144053327745809 -51.518303537723199 0 0 0 0 1643.0855068413075 327.38292494922098 0 327.38292494922098 -462.82592200683212 0 0 0 0 1962.6371662232268 -223.41877948306501 0 -223.41877948306501 150.07010246923528 0 0 0 0 0.90942477136559319 82.168687672672036 0 82.168687672672036 113.67288718545672 0 0 0 0 -353.91603083605878 -216.79210264852281 0 -216.79210264852281 -566.96333483528633 0 0 0 0 -1155.264821951263 -1145.6763616001258 0 -1145.6763616001258 -1187.5470974132932 0 0 0 0 -100.78092790284427 104.07449170559994 0 104.07449170559994 -1139.3112592270149 0 0 0 0 -438.4411728111445 -599.79654956955255 0 -599.79654956955255 -1810.5767786797842 0 0 0 0 611.30755661474541 485.31268331241517 0 485.31268331241517 -1032.8918896949108 0 0 0 0 110.41355304131866 -567.56043898511598 0 -567.56043898511598 -3168.8024565172127 0 0 0 0 -795.08399283623658 -1939.9279194363698 0 -1939.9279194363698 -2636.1567773663846 0 0 0 0 -4.616194967814522 5.3939142860276661 0 5.3939142860276661 -11.181353547640924 0 0 0 0 -123.36971292861563 773.59481555224556 0 773.59481555224556 -935.04256436309697 0 0 0 0 -1.165277408741531 -547.97458434753298 0 -547.97458434753298 -2623.4090173091899 0 0 0 0 4.4800254962174222 216.32741135945798 0 216.32741135945798 -2558.3235447980569 0 0 0 0 -43.061331267865171 657.87789397040819 0 657.87789397040819 -1372.1084365111201 0 0 0 0 425.51091749270563 644.89898862205519 0 644.89898862205519 -469.815504018517 0 0 0 0 324.87836439881357 854.46470950324692 0 854.46470950324692 215.16699255521598 0 0 0 0 -314.26895976846572 344.17879396958506 0 344.17879396958506 -381.10046474941191 0 0 0 0 330.4429500902479 -20.407540337088903 0 -20.407540337088903 -1262.4402245874444 0 0 0 0 556.31319911853643 1063.1892174000131 0 1063.1892174000131 308.8904279241433 0 0 0 0 -450.93326873863407 460.55286988510943 0 460.55286988510943 148.6992718814472 0 0 0 0 254.70577534934273 740.99973834097545 0 740.99973834097545 165.72397480611528 0 0 0 0 -35.759226660028958 51.115047213910003 0 51.115047213910003 -49.700353668173875 0 0 0 0 -26.097666433058748 41.656946905794683 0 41.656946905794683 -39.6058060808015 0 0 0 0 1889.7978614769963 1152.1846061971655 0 1152.1846061971655 49.867739423969851 0 0 0 0 -50.83698098140303 134.35904340407615 0 134.35904340407615 4.0919304096280484 0 0 0 0 1273.3073341433701 522.06963828387006 0 522.06963828387006 137.10496603851425 0 0 0 0 267.61445118327356 473.09040597856887 0 473.09040597856887 -53.583222074301375 0 0 0 0 1125.8170393206237 842.74897666617471 0 842.74897666617471 -485.68176376968495 0 0 0 0 858.58492578336154 1000.3268663910383 0 1000.3268663910383 577.96123594348319 0 0 0 0 1295.5588046131597 1215.1106052274827 0 1215.1106052274827 389.17332908068238 0 0 0 0 -20.596202488603808 52.041544032032022 0 52.041544032032022 -67.50638365947799 0 0 0 0 914.17019207347766 774.92754298222826 0 774.92754298222826 97.153692232277535 0 0 0 0 776.70824487728532 385.50112205127516 0 385.50112205127516 326.32970689686408 0 0 0 0 1170.9622263532619 1339.7993128869171 0 1339.7993128869171 -600.38928379485151 0 0 0 0 1071.8031496041604 776.81118625632098 0 776.81118625632098 781.97093130412395 0 0 0 0 -25.336935006895771 39.018372526904813 0 39.018372526904813 -2.6633929524441555 0 0 0 0 -293.125959995843 139.82276630536398 0 139.82276630536398 233.25198295170412 0 0 0 0 1169.183235294513 701.47749537842628 0 701.47749537842628 454.94230022360716 0 0 0 0 4027.4967586903367 617.62866003392446 0 617.62866003392446 380.64584720775747 0 0 0 0 -445.31998917335295 -138.93755476730075 0 -138.93755476730075 387.97612927805676 0 0 0 0 274.71446247959102 437.01073782997992 0 437.01073782997992 -54.961392442299257 0 0 0 0 1759.4086474602518 -799.96789561641344 0 -799.96789561641344 -1548.2904641308633 0 0 0 0 6.4608850477806641 6.1260287713448918 0 6.1260287713448918 12.059182351748277 0 0 0 0 -198.48491894602193 43.231970229426224 0 43.231970229426224 588.9208318434321 0 0 0 0 -27.126609149010619 1108.8898446973144 0 1108.8898446973144 1404.8690062573878 0 0 0 0 464.37308746558847 1198.8055286361923 0 1198.8055286361923 1201.1653320364203 0 0 0 0 574.79373039654456 544.96998150243599 0 544.96998150243599 896.90959536042647 0 0 0 0 3769.0973180907313 355.40936965454239 0 355.40936965454239 896.63155620884208 0 0 0 0 -1.1564850336581003 895.39797564853598 0 895.39797564853598 617.18526267842935 0 0 0 0 523.57040865061572 644.21233523592309 0 644.21233523592309 740.50652298302521 0 0 0 0 622.31321562745143 1126.2647413780869 0 1126.2647413780869 693.67911107415171 0 0 0 0 199.40643095009727 766.82564306258701 0 766.82564306258701 754.30662869558728 0 0 0 0 325.57599345782 281.0537888424783 0 281.0537888424783 599.79918405596254 0 0 0 0 -29.640590320749027 36.048067155162528 0 36.048067155162528 -40.462500470308889 0 0 0 0 -613.25555916977464 1244.9317324327749 0 1244.9317324327749 418.88500295580889 0 0 0 0 -1378.6874951130303 572.78887576442139 0 572.78887576442139 567.79595167542357 0 0 0 0 1.259702598748845 1353.4479042528237 0 1353.4479042528237 47.221983198764065 0 0 0 0 -1592.759019883013 3064.0677210241806 0 3064.0677210241806 -816.91533772619005 0 0 0 0 285.24066682989314 159.00570767395766 0 159.00570767395766 -273.53228563391895 0 0 0 0 269.38832966015616 953.14164355412322 0 953.14164355412322 -923.80089042732288 0 0 0 0 -10.465199781404863 13.646368307486256 0 13.646368307486256 -15.706312302265871 0 0 0 0 -234.6937762935122 -187.28454519240768 0 -187.28454519240768 241.42574378436984 0 0 0 0 -649.57110684702639 539.49765721582662 0 539.49765721582662 -355.12405598051919 0 0 0 0 -1403.5441781092377 336.74403705702571 0 336.74403705702571 -405.22956616036754 0 0 0 0 -609.51337559655076 862.52505749532065 0 862.52505749532065 58.337953046309849 0 0 0 0 -950.64259617665084 1556.2868604265605 0 1556.2868604265605 -686.43807095528791 0 0 0 0 -988.3996490464051 992.5381740720095 0 992.5381740720095 298.94375745824073 0 0 0 0 -359.07614234306129 -1025.8058472379239 0 -1025.8058472379239 1312.173252452485 0 0 0 0 7.4346106435428965 10.477017079181081 0 10.477017079181081 16.120374160087295 0 0 0 0 -3778.5246417300514 283.57434113508316 0 283.57434113508316 2423.8521230478 0 0 0 0 -987.69056953424297 130.11578255211134 0 130.11578255211134 393.38074967384455 0 0 0 0 0.85880958015629005 5.3425037547837348 0 5.3425037547837348 -14.159701714282974 0 0 0 0 -806.55786064271524 371.85648055025376 0 371.85648055025376 578.62647246226697 0 0 0 0 -4.4312836929261152 21.63970243196249 0 21.63970243196249 -12.75846387620156 0 0 0 0 2881.2919500071002 912.24010421829917 0 912.24010421829917 1194.5390825604991 0 0 0 0 3838.0442066941396 1248.9482997168552 0 1248.9482997168552 -1718.3362293930259 0 0 0 0 -494.10698903762386 -48.095990700063339 0 -48.095990700063339 230.95765637670411 0 0 0 0 -388.55282551594428 83.05944934508625 0 83.05944934508625 -218.76737917571154 0 0 0 0 -524.00912866108774 -161.0933796880754 0 -161.0933796880754 -555.59052112454083 0 0 0 0 3244.9217317846778 -185.09858408864784 0 -185.09858408864784 -700.33957012007886 0 0 0 0 -2442.3418761564972 214.10982505805441 0 214.10982505805441 446.6169233832552 0 0 0 0 -0.73243276911361477 5.2793770392315764 0 5.2793770392315764 -8.3684816515823854 0 0 0 0 -1260.4752906538997 -184.0892331138366 0 -184.0892331138366 -536.06055954469775 0 0 0 0 -199.29091387061635 143.71344467133531 0 143.71344467133531 -185.4771088298221 0 0 0 0 -440.34883557117428 91.269923421779822 0 91.269923421779822 -189.32407364440587 0 0 0 0 -154.18411600711261 190.17067520030378 0 190.17067520030378 -214.9075537394092 0 0 0 0 18.895192416772261 36.771373315236474 0 36.771373315236474 6.0120737391630854 0 0 0 0 -139.33317699550389 231.19096148551137 0 231.19096148551137 -216.46749852714129 0 0 0 0 -127.45292451897694 385.12218433505041 0 385.12218433505041 41.03283436998754 0 0 0 0 0.70418907649582252 82.096886333398288 0 82.096886333398288 -162.98970046958107 0 0 0 0 -4.9510793736844789 119.10517905131383 0 119.10517905131383 -160.41698872982818 0 0 0 0 2.3664417563613824 160.89033726582602 0 160.89033726582602 -57.183974985833629 0 0 0 0 59.110218049230753 -20.859123226549855 0 -20.859123226549855 -120.16354685507213 0 0 0 0 26.347793487304443 117.590811590052 0 117.590811590052 -343.23853265539947 0 0 0 0 -1.4495981878583564 43.936114978696764 0 43.936114978696764 -77.238847146465346 0 0 0 0 41.075936196168186 43.604732334490109 0 43.604732334490109 -102.6447717271767 0 0 0 0 29.120830221829237 45.173139912891202 0 45.173139912891202 -79.270778707442332 0 0 0 0 13.782728526319261 90.025610192817112 0 90.025610192817112 -85.675930196444824 0 0 0 0 8.0945682337528524 35.355557357219794 0 35.355557357219794 -83.355576420559373 0 0 0 0 25.440002369154882 26.56025253279995 0 26.56025253279995 13.581401483536865 0 0 0 0 -158.22404412039759 163.96783431642461 0 163.96783431642461 -163.09329494145641 0 0 0 0 86.026931486514513 43.583274420328962 0 43.583274420328962 -226.61422246922302 0 0 0 0 6.068133703313805 22.838968159560395 0 22.838968159560395 -61.314813077356149 0 0 0 0 -115.54430238416535 -225.12432336920392 0 -225.12432336920392 -101.60857374378975 0 0 0 0 5.1493628882234361 3.2074327933678148 0 3.2074327933678148 -13.823285443900303 0 0 0 0 -15.746931287721964 -40.617618014315667 0 -40.617618014315667 -918.45210341383063 0 0 0 0 -240.64976898365421 -826.4268022770375 0 -826.4268022770375 -1264.38607580596 0 0 0 0 218.61223309447814 49.526546671826509 0 49.526546671826509 -695.42320490190468 0 0 0 0 39.178590920761053 -139.20395617492795 0 -139.20395617492795 -888.79449025874055 0 0 0 0 -826.63499986322131 544.69793521616521 0 544.69793521616521 -198.46864537328929 0 0 0 0 0.40715705753623865 11.267458341623737 0 11.267458341623737 -10.594941935344735 0 0 0 0 -1664.5991102497792 807.567965932074 0 807.567965932074 1423.973835160592 0 0 0 0 820.16809428807665 562.6634712009527 0 562.6634712009527 -885.00166092001018 0 0 0 0 762.41241538050235 -250.32868883350602 0 -250.32868883350602 -1638.360606371265 0 0 0 0 280.82923744028085 626.17708199830304 0 626.17708199830304 -136.06263510302051 0 0 0 0 -19.794201122945481 18.491452048639268 0 18.491452048639268 -6.6865892668862159 0 0 0 0 -4.5426841596161012 9.3843495117210338 0 9.3843495117210338 -3.855247593630402 0 0 0 0 222.8260337070933 639.78056453515183 0 639.78056453515183 -1711.0810683265408 0 0 0 0 513.02366757678101 903.20695943336614 0 903.20695943336614 1404.2920975354573 0 0 0 0 -43.762846942481701 81.512004405885818 0 81.512004405885818 -317.6926501589769 0 0 0 0 22.95801611852221 155.30628746436287 0 155.30628746436287 -313.73711267125327 0 0 0 0 -35.08478738697886 280.48368103545727 0 280.48368103545727 -440.45013499010383 0 0 0 0 221.11023947401554 123.20254850830315 0 123.20254850830315 -355.46546088481409 0 0 0 0 278.18796572300562 195.30926661941339 0 195.30926661941339 49.887301354203373 0 0 0 0 300.40246614989519 452.629580690078 0 452.629580690078 153.60511667051469 0 0 0 0 28.365773408342648 284.60792842663795 0 284.60792842663795 271.84954106348596 0 0 0 0 474.23559170246881 380.30997896178451 0 380.30997896178451 182.78698298616655 0 0 0 0 -272.36682494416732 -55.645135428622552 0 -55.645135428622552 19.134788279887289 0 0 0 0 3.9375177510585502 -2.0830006141469255 0 -2.0830006141469255 -6.3211039978581312 0 0 0 0 -281.0568199288864 196.76824953412142 0 196.76824953412142 112.8019183484721 0 0 0 0 51.756779411814932 331.70226764594554 0 331.70226764594554 23.162332017573135 0 0 0 0 267.48537722206675 89.068535248869011 0 89.068535248869011 35.322897788064438 0 0 0 0 89.686098984071577 213.02827666395751 0 213.02827666395751 33.425100006217235 0 0 0 0 460.34618122634129 220.94703979148107 0 220.94703979148107 29.548786576153361 0 0 0 0 -843.90218590565928 -81.098063772580645 0 -81.098063772580645 445.24576345003152 0 0 0 0 -3.9151426719831193 6.4616385215892898 0 6.4616385215892898 -18.722095934178412 0 0 0 0 -212.61177342914016 -60.473690003549564 0 -60.473690003549564 199.40928863125737 0 0 0 0 284.15021404271101 109.36005643429235 0 109.36005643429235 159.13037637218076 0 0 0 0 -358.7700831246475 66.396683574159397 0 66.396683574159397 584.37493475214796 0 0 0 0 -409.07237890205579 445.08568168461352 0 445.08568168461352 91.824063477695745 0 0 0 0 66.564736938227725 146.00190492611 0 146.00190492611 -189.35287774914832 0 0 0 0 266.41933974590756 189.50016663908536 0 189.50016663908536 179.89155926639796 0 0 0 0 690.22512526383071 414.46883173522292 0 414.46883173522292 59.623763299387065 0 0 0 0 384.55694871420565 204.6932047512455 0 204.6932047512455 181.84012843951314 0 0 0 0 -0.32068914364428025 1.3795552983827193 0 1.3795552983827193 -5.8294392886285209 0 0 0 0 -1297.868868759846 181.70741474847819 0 181.70741474847819 4.8261831191484816 0 0 0 0 280.34990040632692 648.05861641020965 0 648.05861641020965 -54.087712888223905 0 0 0 0 284.46567692154713 353.78279157319776 0 353.78279157319776 458.10476295407716 0 0 0 0 211.91715654454674 459.72346175055645 0 459.72346175055645 303.50650154938648 0 0 0 0 258.24544677224912 284.53831669602732 0 284.53831669602732 267.44554590828193 0 0 0 0 262.18605774710522 365.18363738950575 0 365.18363738950575 371.85351558325056 0 0 0 0 328.83568510280747 343.04834635162115 0 343.04834635162115 254.15339555521132 0 0 0 0 422.02370167058689 504.07379650971416 0 504.07379650971416 355.05708349445558 0 0 0 0 430.19452787516457 430.81916233594529 0 430.81916233594529 512.48480257952906 0 0 0 0 430.91538727484476 632.59595178743984 0 632.59595178743984 654.57525662071203 0 0 0 0 366.59668851960487 493.5962708553925 0 493.5962708553925 302.77453764681559 0 0 0 0 399.18882781876187 403.90623537175497 0 403.90623537175497 395.94488807387825 0 0 0 0 340.80883588191023 713.9249147071223 0 713.9249147071223 274.92176955050672 0 0 0 0 -667.5182508388084 322.75932863719936 0 322.75932863719936 1055.2198700541485 0 0 0 0 -11.009927236642998 17.871963883961001 0 17.871963883961001 -16.063931380286789 0 0 0 0 230.97886210278557 985.55791825619963 0 985.55791825619963 1294.0872544108206 0 0 0 0 337.72204517492173 350.16983130469453 0 350.16983130469453 289.46459434171265 0 0 0 0 368.28548489525315 543.80524501566288 0 543.80524501566288 509.49600026509142 0 0 0 0 -3.3675563031880116 8.0622629953208218 0 8.0622629953208218 -7.9301591299186498 0 0 0 0 -248.15980285088915 1059.7887780237688 0 1059.7887780237688 -43.947077582051861 0 0 0 0 320.73714113162578 559.77629234798155 0 559.77629234798155 -376.63844070964842 0 0 0 0 333.66416063127417 616.95088000770193 0 616.95088000770193 4.4590501753118588 0 0 0 0 180.3644735615153 554.646364679611 0 554.646364679611 446.18891289223393 0 0 0 0 43.834832619056442 670.1257767140778 0 670.1257767140778 416.36217560707155 0 0 0 0 329.73506476109469 393.04250977870106 0 393.04250977870106 257.63505417798297 0 0 0 0 407.72880629186329 420.12003677575922 0 420.12003677575922 213.96703523809265 0 0 0 0 374.76501296253855 470.70899664913668 0 470.70899664913668 261.12653637227777 0 0 0 0 269.03526444357703 474.55628338673705 0 474.55628338673705 289.80946409208264 0 0 0 0 299.19370550322947 366.37344357417896 0 366.37344357417896 234.34940888354322 0 0 0 0 256.41931993623803 354.96537364121468 0 354.96537364121468 259.14426433885819 0 0 0 0 327.98689015802847 258.15104213183804 0 258.15104213183804 183.10373838135274 0 0 0 0 8.4393650395754847 15.96851438434107 0 15.96851438434107 6.5108830914663258 0 0 0 0 172.3494008991438 219.5674788091892 0 219.5674788091892 211.26877421551035 0 0 0 0 185.41315229844986 271.50584059253015 0 271.50584059253015 276.49134476624022 0 0 0 0 155.50825011229972 308.01072285008559 0 308.01072285008559 240.58328699292906 0 0 0 0 165.18684554490756 393.97798175143544 0 393.97798175143544 417.52028074869304 0 0 0 0 111.64115576032054 476.47030957040261 0 476.47030957040261 309.95380326949089 0 0 0 0 53.547995881890529 219.33043080098287 0 219.33043080098287 392.33481830279015 0 0 0 0 68.609934161495403 243.97572865075563 0 243.97572865075563 431.97444755214383 0 0 0 0 52.460016056627211 67.843423759289919 0 67.843423759289919 4.8189153405389646 0 0 0 0 41.910739880307119 62.205087303176697 0 62.205087303176697 -52.152133288556797 0 0 0 0 26.336531273353216 53.08797613848941 0 53.08797613848941 -4.265470421268958 0 0 0 0 56.413522885997622 122.65934186244272 0 122.65934186244272 16.535423149820417 0 0 0 0 9.8029504364964986 55.181089332909011 0 55.181089332909011 -4.2455127413470279 0 0 0 0 37.151894734029156 78.136411096515076 0 78.136411096515076 14.094408696415485 0 0 0 0 37.128032651762425 44.26545666198291 0 44.26545666198291 -23.249132443508515 0 0 0 0 156.77646849577832 183.03978901713708 0 183.03978901713708 163.55978069733828 0 0 0 0 -55.516460971489551 671.08751527301138 0 671.08751527301138 781.95014652831014 0 0 0 0 406.83187787471093 224.76658261040939 0 224.76658261040939 847.37185992160812 0 0 0 0 -216.49427554436295 313.50746226709452 0 313.50746226709452 836.17768297536531 0 0 0 0 250.77999681018127 631.77799874420452 0 631.77799874420452 777.55570839842767 0 0 0 0 123.3918313128429 552.02332143277818 0 552.02332143277818 641.55709927387943 0 0 0 0 33.959583642841608 224.94488084699697 0 224.94488084699697 579.3009902152844 0 0 0 0 189.15608727610743 19.500154876266606 0 19.500154876266606 -255.81857911114275 0 0 0 0 45.717414065364238 93.050378789157747 0 93.050378789157747 -24.459076979429526 0 0 0 0 3.1976102882960618 282.27931343622731 0 282.27931343622731 1340.4233135130926 0 0 0 0 128.60605773167481 -97.435622941629845 0 -97.435622941629845 -196.38053521257825 0 0 0 0 9.3874951668248947 5.1177794940128649 0 5.1177794940128649 -30.781827638622758 0 0 0 0 204.64021849721212 -41.195724176322983 0 -41.195724176322983 -75.736490777220752 0 0 0 0 -10.137129159036704 26.366363708912104 0 26.366363708912104 -161.00027929552016 0 0 0 0 4.1751705296993364 3.2151835487302378 0 3.2151835487302378 2.1377146001005372 0 0 0 0 -15.041192311375198 59.988094916665432 0 59.988094916665432 -119.73322943678068 0 0 0 0 445.38900674636352 249.20862635126105 0 249.20862635126105 -116.41566061615777 0 0 0 0 -0.082054550358407141 148.98630075430992 0 148.98630075430992 -135.43020346918638 0 0 0 0 -89.373828636438702 -234.12804271416462 0 -234.12804271416462 199.23427806272139 0 0 0 0 -43.215084178394719 42.300344257808533 0 42.300344257808533 -32.038380905606743 0 0 0 0 -341.12315931296507 1114.0132378246271 0 1114.0132378246271 -342.35093325681373 0 0 0 0 -130.60354044264386 436.70239314424543 0 436.70239314424543 178.60403794374724 0 0 0 0 -65.831810514617246 799.94661854128208 0 799.94661854128208 9.0299185377371032 0 0 0 0 -66.138876707807867 822.73848089359001 0 822.73848089359001 -474.12967929258593 0 0 0 0 119.56671268620994 820.77526785845839 0 820.77526785845839 -523.20626154307683 0 0 0 0 4.5864805178262031 702.33006775232207 0 702.33006775232207 -300.24429785433313 0 0 0 0 -155.14788908522405 298.11383614278566 0 298.11383614278566 -487.54704592948838 0 0 0 0 22.703992293922965 57.049130660307128 0 57.049130660307128 44.066412056406989 0 0 0 0 6.8043072135144786 31.745248267506497 0 31.745248267506497 -4.271307726802732 0 0 0 0 55.287583464016052 97.361202675805544 0 97.361202675805544 57.443265312875155 0 0 0 0 38.66013745626767 66.030817304489275 0 66.030817304489275 20.910636575944316 0 0 0 0 55.785619820285604 94.296414243797244 0 94.296414243797244 72.488714130522567 0 0 0 0 6.6844243924103495 10.681453003343591 0 10.681453003343591 15.881024730727773 0 0 0 0 5.793957110870906 84.418347725862986 0 84.418347725862986 47.809118493634742 0 0 0 0 74.05938792602683 62.848758578751585 0 62.848758578751585 35.048141681443667 0 0 0 0 40.611868898928698 52.300770284594321 0 52.300770284594321 -4.1951158800210635 0 0 0 0 102.70950803904634 355.60506137374978 0 355.60506137374978 97.957838860573247 0 0 0 0 104.30970280465135 259.45089716166694 0 259.45089716166694 -81.004293091755244 0 0 0 0 -178.01060513385528 164.75386041089223 0 164.75386041089223 -30.585472913498961 0 0 0 0 -23.826538414676051 38.900363612270262 0 38.900363612270262 26.841771302751823 0 0 0 0 -84.676331956317881 180.02616964725166 0 180.02616964725166 108.47176707642939 0 0 0 0 76.051056055697643 95.036313838613751 0 95.036313838613751 56.898862274523708 0 0 0 0 92.172237389222346 131.20502075800141 0 131.20502075800141 56.223707264005498 0 0 0 0 -10.681630515858625 6.3507339821139297 0 6.3507339821139297 16.073439254325251 0 0 0 0 62.480528563670362 109.9181508374968 0 109.9181508374968 46.814255970391969 0 0 0 0 -20.567036893951723 44.206236107671877 0 44.206236107671877 25.130315803747607 0 0 0 0 51.185705306803357 100.25120793912538 0 100.25120793912538 67.175254019923159 0 0 0 0 8.2633148119639372 62.798998505371856 0 62.798998505371856 21.292224783592246 0 0 0 0 -0.69151064535981277 59.58585491222766 0 59.58585491222766 22.25166590196568 0 0 0 0 18.049706730576872 49.336852855434699 0 49.336852855434699 25.871685073598201 0 0 0 0 8.0881810468999902 67.979343560615234 0 67.979343560615234 8.039547511980345 0 0 0 0 9.7818853329736157 57.629487833721214 0 57.629487833721214 16.60661394672934 0 0 0 0 44.122731673680391 89.167446380892216 0 89.167446380892216 90.542614522068789 0 0 0 0 70.594022711322395 159.65188237735401 0 159.65188237735401 85.557489343958878 0 0 0 0 32.015817757026525 45.093693036222248 0 45.093693036222248 -107.74142420972566 0 0 0 0 92.545972754087416 231.91518369478945 0 231.91518369478945 417.35991850685241 0 0 0 0 4.1184888968744175 1.7900893048842619 0 1.7900893048842619 -10.90482594009125 0 0 0 0 11.158990564673303 43.44550817591292 0 43.44550817591292 -31.2585966266236 0 0 0 0 17.997430803638053 87.005590476030193 0 87.005590476030193 37.881944016786292 0 0 0 0 -11.644708654547983 53.815397541109604 0 53.815397541109604 12.588612928557353 0 0 0 0 26.902537044984456 80.288063257716203 0 80.288063257716203 33.266440933410195 0 0 0 0 28.647303415068563 82.733563112102274 0 82.733563112102274 29.46717556798103 0 0 0 0 21.464089184477352 45.151028679497188 0 45.151028679497188 19.240473167737818 0 0 0 0 114.56041420322435 101.25867278093938 0 101.25867278093938 -32.576027527917176 0 0 0 0 54.775145051126572 95.601886133729749 0 95.601886133729749 32.617859196732752 0 0 0 0 -16.514741436683128 47.598174495930095 0 47.598174495930095 14.071586495067578 0 0 0 0 53.958516045154738 101.20916885344195 0 101.20916885344195 20.997827853323543 0 0 0 0 46.297041431518949 50.11057275543763 0 50.11057275543763 -25.889831184109397 0 0 0 0 60.89978597217123 86.601756241725525 0 86.601756241725525 50.205681292689405 0 0 0 0 30.304498129313288 80.638745323914918 0 80.638745323914918 31.469184901347035 0 0 0 0 28.897376480432285 77.833547601039754 0 77.833547601039754 35.948650084043038 0 0 0 0 26.957691635217671 63.982849179646706 0 63.982849179646706 26.839377136313686 0 0 0 0 63.467391142628912 109.9619848112925 0 109.9619848112925 22.975377443712205 0 0 0 0 167.87952529748145 201.57730331644052 0 201.57730331644052 0.91830255766399205 0 0 0 0 20.579462134831147 146.6295192689754 0 146.6295192689754 108.42750801728107 0 0 0 0 122.91183169050055 134.12583045929205 0 134.12583045929205 25.978346777250408 0 0 0 0 63.093151550670882 163.5346060494121 0 163.5346060494121 34.00480032939231 0 0 0 0 44.193015579079656 187.69589788553276 0 187.69589788553276 23.649459896842018 0 0 0 0 19.367763745860429 178.68678420135984 0 178.68678420135984 38.226511585176922 0 0 0 0 -48.661352458722831 205.70241307394463 0 205.70241307394463 59.552901345625287 0 0 0 0 2.5919955380704778 -3.5207020066300174 0 -3.5207020066300174 99.239815590030048 0 0 0 0 40.63668977922498 125.66577518866688 0 125.66577518866688 11.381435733453145 0 0 0 0 -58.234387593336578 140.83835134250694 0 140.83835134250694 197.61326065851608 0 0 0 0 7.4461086794270841 -8.9006182354482064 0 -8.9006182354482064 -27.826550824187308 0 0 0 0 -9.6724708139227005 26.78216757933842 0 26.78216757933842 261.59637496188225 0 0 0 0 61.60116341649632 68.417963806053706 0 68.417963806053706 -47.312300803966352 0 0 0 0 -57.203265047050081 101.16251960542286 0 101.16251960542286 160.2648083348904 0 0 0 0 -55.782669415464625 87.305978284915909 0 87.305978284915909 88.921049266180489 0 0 0 0 -174.77871944440994 290.51383016319596 0 290.51383016319596 522.48882017380674 0 0 0 0 -4.7705992382682041 5.3861991905532989 0 5.3861991905532989 -4.7151593890032473 0 0 0 0 49.697209151083371 -238.0089664074294 0 -238.0089664074294 -589.86478473601164 0 0 0 0 370.51681677316628 329.24156928680623 0 329.24156928680623 -402.02457675487676 0 0 0 0 -196.73731589080853 32.307763652199355 0 32.307763652199355 89.460056413372513 0 0 0 0 -4.1896949810397928 187.25747582923941 0 187.25747582923941 309.62927339929229 0 0 0 0 1.3120019288309379 27.36827181635611 0 27.36827181635611 -24.662438146426723 0 0 0 0 139.32594411821992 768.40051728238177 0 768.40051728238177 -822.14640684859478 0 0 0 0 -877.4849970650539 328.45916004942046 0 328.45916004942046 558.73475138861249 0 0 0 0 19.185942041735274 62.083893493168574 0 62.083893493168574 13.320125725105342 0 0 0 0 54.432086031469225 97.765891332892352 0 97.765891332892352 3.0264776346521103 0 0 0 0 297.37334568845108 79.875699971540598 0 79.875699971540598 -621.84873061379312 0 0 0 0 -61.927601279858209 64.834057073941949 0 64.834057073941949 176.06057242785755 0 0 0 0 -40.110844554782219 51.186347009357881 0 51.186347009357881 22.421717007421023 0 0 0 0 72.586214994618786 227.06504543822666 0 227.06504543822666 154.28502207332349 0 0 0 0 22.595134814851917 96.716638249235984 0 96.716638249235984 37.791682845447212 0 0 0 0 32.114686148132023 91.284481649898225 0 91.284481649898225 33.490620806944207 0 0 0 0 51.142310167253626 79.489995743093289 0 79.489995743093289 42.288898971404961 0 0 0 0 45.141812847861729 102.9313391978576 0 102.9313391978576 36.177490522295557 0 0 0 0 -17.063956676754486 66.619932431244777 0 66.619932431244777 52.921111892424733 0 0 0 0 132.65022898669196 119.17366636227658 0 119.17366636227658 69.28540275989829 0 0 0 0 83.798080201333505 215.35216574323567 0 215.35216574323567 96.984426516166423 0 0 0 0 64.619591647147899 202.07029994023105 0 202.07029994023105 109.75330716004828 0 0 0 0 225.55628712150065 227.25008206173516 0 227.25008206173516 -87.443356957519427 0 0 0 0 77.860890849056887 198.75584157480625 0 198.75584157480625 91.555923720454075 0 0 0 0 101.6783636254986 222.20651678125432 0 222.20651678125432 92.399418274475011 0 0 0 0 -0.46415450103449984 185.43181317250674 0 185.43181317250674 412.61127497390407 0 0 0 0 194.54364511805761 344.48075831596361 0 344.48075831596361 247.17245058755361 0 0 0 0 189.6982894928442 205.87966961555139 0 205.87966961555139 189.46702796527097 0 0 0 0 387.6363755573293 181.85109494197059 0 181.85109494197059 7.5654020230649621 0 0 0 0 67.45133723579346 43.288359788125653 0 43.288359788125653 -113.26140251731192 0 0 0 0 182.61659364581283 153.35410993364349 0 153.35410993364349 16.775146496724119 0 0 0 0 188.12666815924422 -22.855576390272745 0 -22.855576390272745 -78.894187086254533 0 0 0 0 114.57797691338783 108.91017032478339 0 108.91017032478339 -16.37579828647722 0 0 0 0 251.82270849724591 197.64350359725358 0 197.64350359725358 -56.020586110360455 0 0 0 0 185.97426859166808 215.78583466116925 0 215.78583466116925 -18.077796030447644 0 0 0 0 252.65916860765719 219.13628965806856 0 219.13628965806856 32.522753997953259 0 0 0 0 252.80353483864747 218.30507978950118 0 218.30507978950118 31.305921448816662 0 0 0 0 277.06356079355464 221.33461269011968 0 221.33461269011968 -7.5392227757060937 0 0 0 0 248.76346006690437 185.46676144727644 0 185.46676144727644 -4.8114296731691866 0 0 0 0 261.89248117634634 191.06633080250504 0 191.06633080250504 -6.2167527826823061 0 0 0 0 254.44516354256484 180.96165511101935 0 180.96165511101935 -14.053405864497108 0 0 0 0 239.5584696504302 141.17640152844069 0 141.17640152844069 -41.21067960811024 0 0 0 0 241.05179905447767 156.40323601175101 0 156.40323601175101 19.457184191800479 0 0 0 0 258.05158089229371 166.15395436353356 0 166.15395436353356 -15.144545049495719 0 0 0 0 189.76344610656889 198.96394207679046 0 198.96394207679046 98.908728860020346 0 0 0 0 63.940283909948448 13.801754641204546 0 13.801754641204546 -114.95555147213827 0 0 0 0 270.17786553978658 217.69806596628041 0 217.69806596628041 -31.361410154902842 0 0 0 0 257.41975121650466 158.59452707180753 0 158.59452707180753 96.912911280589469 0 0 0 0 302.42182105013489 110.97323480051637 0 110.97323480051637 -89.627065497719741 0 0 0 0 333.43361944089702 217.45716311912111 0 217.45716311912111 -179.0743976934973 0 0 0 0 318.50829416504712 298.50262010884762 0 298.50262010884762 -103.77300503011793 0 0 0 0 334.91697672772716 204.76159309409013 0 204.76159309409013 -86.071157807804411 0 0 0 0 281.05002099364356 215.92088455847988 0 215.92088455847988 -87.869982342635922 0 0 0 0 220.28827292032656 201.39090796371602 0 201.39090796371602 -59.756145360945084 0 0 0 0 229.88142904652341 180.56987218868016 0 180.56987218868016 -131.02236791115138 0 0 0 0 253.71432033828751 180.15378999854147 0 180.15378999854147 -94.504641826766601 0 0 0 0 40.771947780540359 87.579701792525157 0 87.579701792525157 -115.22899760057044 0 0 0 0 -21.872124582209437 53.249124670303047 0 53.249124670303047 -66.384297514913186 0 0 0 0 276.85023332019045 169.10496277332277 0 169.10496277332277 -235.1540514561093 0 0 0 0 -5.7393127367330976 17.068825391867534 0 17.068825391867534 -4.31221069967755 0 0 0 0 269.69459485423249 209.75431956459192 0 209.75431956459192 -86.399152334226528 0 0 0 0 272.4595573402039 333.8211111209821 0 333.8211111209821 56.498708606814034 0 0 0 0 -1192.4505299632219 297.13783408000381 0 297.13783408000381 116.3036430019165 0 0 0 0 -930.2145562578421 54.729412421742381 0 54.729412421742381 279.41592725180089 0 0 0 0 -270.58455920687993 295.7073430307646 0 295.7073430307646 -155.92576691830618 0 0 0 0 -322.49969207885806 53.534412849433465 0 53.534412849433465 -105.73911663213948 0 0 0 0 0.18408274443517314 7.9728139674026579 0 7.9728139674026579 18.194320694907191 0 0 0 0 -851.75103127969487 298.55965290268796 0 298.55965290268796 62.59136700797535 0 0 0 0 64.726905111863744 43.411184443435559 0 43.411184443435559 -101.28795936316601 0 0 0 0 -311.25998078559496 106.91871043909487 0 106.91871043909487 104.37557498440583 0 0 0 0 -188.67877367798064 14.54494426882502 0 14.54494426882502 26.048416993842693 0 0 0 0 -39.152187472427613 137.35471825758032 0 137.35471825758032 48.62080250314466 0 0 0 0 95.404722642735578 19.886326722422382 0 19.886326722422382 124.00224972137948 0 0 0 0 -108.25064898629465 -0.11753793446044369 0 -0.11753793446044369 5.6641902302885967 0 0 0 0 251.28003793129756 212.58006275765001 0 212.58006275765001 16.132963940221089 0 0 0 0 252.39289449623902 207.412888058916 0 207.412888058916 40.071662342046693 0 0 0 0 256.43851691365126 187.54178849644813 0 187.54178849644813 21.790755660254035 0 0 0 0 255.94920163757342 186.41061422913481 0 186.41061422913481 34.179619370820546 0 0 0 0 -20.560789722796038 124.06783862919042 0 124.06783862919042 23.660470439830206 0 0 0 0 242.89295138137823 163.15397644176119 0 163.15397644176119 33.618110404015169 0 0 0 0 260.73186004576564 175.57826848428158 0 175.57826848428158 17.74891399275657 0 0 0 0 145.672129324259 123.83122244968763 0 123.83122244968763 -102.02451055909842 0 0 0 0 260.1977259157502 178.39340111523597 0 178.39340111523597 9.5080782197146618 0 0 0 0 -0.29212627938795843 133.87449846011941 0 133.87449846011941 27.042816384513927 0 0 0 0 81.125087139536845 136.62121223999583 0 136.62121223999583 -113.08412660665635 0 0 0 0 323.92332292793071 152.63297899583449 0 152.63297899583449 19.123441656439354 0 0 0 0 99.736773559576307 9.2221368790682483 0 9.2221368790682483 -105.83162714250756 0 0 0 0 204.7652159249119 261.3518330094812 0 261.3518330094812 -252.42706595253549 0 0 0 0 18.874241624434603 -0.9784655579852739 0 -0.9784655579852739 -15.972381760665399 0 0 0 0 75.70728680222237 -121.39435698845045 0 -121.39435698845045 -1.4002897375648899 0 0 0 0 308.5191791254183 252.31232072410057 0 252.31232072410057 29.620196548916283 0 0 0 0 287.97523078566883 213.56442164493637 0 213.56442164493637 -244.76659594633384 0 0 0 0 28.963400644453124 80.276299312312332 0 80.276299312312332 -88.996789777314405 0 0 0 0 76.521183234850241 15.630227468646837 0 15.630227468646837 -37.264080635612473 0 0 0 0 -188.04957719158847 221.61225790836761 0 221.61225790836761 -46.354004906417686 0 0 0 0 -141.20151784890913 236.68549374370195 0 236.68549374370195 171.07019696453062 0 0 0 0 -154.95036916410027 176.58206598940887 0 176.58206598940887 -72.896587591327261 0 0 0 0 -131.12180909502786 206.19236169663782 0 206.19236169663782 -52.003835340292426 0 0 0 0 -332.25092799385311 48.791501553689159 0 48.791501553689159 -108.10228641712456 0 0 0 0 -280.68066849553725 185.33520175093872 0 185.33520175093872 -24.131930288363947 0 0 0 0 -300.76033555780305 107.30641968237978 0 107.30641968237978 -5.5506514784046885 0 0 0 0 -32.212451181345386 279.00632622827288 0 279.00632622827288 -80.219905244797701 0 0 0 0 -243.95120211798348 266.39358335614088 0 266.39358335614088 69.975725116875765 0 0 0 0 -253.6217068549704 208.84688768173419 0 208.84688768173419 -189.26985018161213 0 0 0 0 -400.32329100598872 326.43574392543087 0 326.43574392543087 -81.972709909343394 0 0 0 0 -958.92112197518509 -179.7647616332215 0 -179.7647616332215 -0.3356620370032033 0 0 0 0 2.367363452874045 6.3444744193871259 0 6.3444744193871259 17.873102327636786 0 0 0 0 -650.59208466131531 225.74864674483615 0 225.74864674483615 65.962300774386676 0 0 0 0 -1149.8338687250653 -59.294411794711777 0 -59.294411794711777 3.562212286270551 0 0 0 0 -929.42739498408628 280.23333468221244 0 280.23333468221244 55.515504405501815 0 0 0 0 -911.37654428117094 167.79656835969945 0 167.79656835969945 52.501105647432269 0 0 0 0 -1111.0276535728481 186.12356271945737 0 186.12356271945737 103.28580240879091 0 0 0 0 -1376.3929591057386 283.50219378971815 0 283.50219378971815 19.328101091625285 0 0 0 0 -2385.6786518884182 707.07219926299877 0 707.07219926299877 -137.03247159269449 0 0 0 0 -1542.1055990458262 514.61811391387164 0 514.61811391387164 -79.7358403395192 0 0 0 0 -1299.9988223946712 212.01701068992588 0 212.01701068992588 108.08720787210768 0 0 0 0 -1166.3905186795746 341.34696249236003 0 341.34696249236003 -62.624014810257904 0 0 0 0 -1574.5021089129004 153.82570450481398 0 153.82570450481398 102.33416509001836 0 0 0 0 -10.656102279848724 11.098769207917798 0 11.098769207917798 10.910757251918881 0 0 0 0 -0.12393245953990117 -0.46940463157275758 0 -0.46940463157275758 -2.5002280602734004 0 0 0 0 -197.02712180248636 114.92478344481424 0 114.92478344481424 -8.34039164026035 0 0 0 0 -131.9203126269058 28.743700136705229 0 28.743700136705229 -43.930611327152292 0 0 0 0 -13.412713533256991 4.642352553080741 0 4.642352553080741 -8.3551860242469616 0 0 0 0 -758.36826668331923 -238.97069720364379 0 -238.97069720364379 -237.7246522047426 0 0 0 0 -131.51203166454798 46.191110156956711 0 46.191110156956711 1.8148911872413009 0 0 0 0 -1304.1471595804323 320.70599544155993 0 320.70599544155993 16.118614392871677 0 0 0 0 -45.333205266813195 44.858990735140914 0 44.858990735140914 -28.220535127448386 0 0 0 0 -43.518240290884592 55.074895443381564 0 55.074895443381564 -48.107633224756739 0 0 0 0 -108.72243622616224 149.60926168546575 0 149.60926168546575 -42.841320786603319 0 0 0 0 -84.356375320188818 -34.220921727377572 0 -34.220921727377572 -265.17560725810472 0 0 0 0 -82.789536011507153 -70.891161031780939 0 -70.891161031780939 72.82088201976876 0 0 0 0 -190.07030580419087 190.77956647022802 0 190.77956647022802 -40.670215651713079 0 0 0 0 -184.32741671927215 177.6421120894147 0 177.6421120894147 -33.284526449686382 0 0 0 0 -198.91423031900194 171.37039653341344 0 171.37039653341344 -72.731779242152697 0 0 0 0 -193.67150430422771 214.10813724847048 0 214.10813724847048 -31.320323225110769 0 0 0 0 92.911905659420881 109.18901403491327 0 109.18901403491327 -69.798203924496192 0 0 0 0 -117.69129603079637 148.20013932627262 0 148.20013932627262 -20.332725492844475 0 0 0 0 -171.52910902441363 127.47353191407456 0 127.47353191407456 -67.526334050722653 0 0 0 0 364.78085590040428 167.4624036094101 0 167.4624036094101 51.467009164989577 0 0 0 0 408.74975896121032 269.33085650010617 0 269.33085650010617 -19.871627408203494 0 0 0 0 -105.09823336106638 147.06700332854234 0 147.06700332854234 -57.649134879029589 0 0 0 0 -9.9658131304998214 14.963421844998265 0 14.963421844998265 -13.566996929286603 0 0 0 0 555.60034829973301 194.19291200584848 0 194.19291200584848 -42.008070916512224 0 0 0 0 -713.13318981571729 261.89852947518602 0 261.89852947518602 372.60547114320798 0 0 0 0 0.61711913516665717 4.3145292310702814 0 4.3145292310702814 -8.8255974162523785 0 0 0 0 581.74788305397669 74.411828499640251 0 74.411828499640251 21.93092429832177 0 0 0 0 915.51164741709363 74.278104707900638 0 74.278104707900638 -292.24797417232912 0 0 0 0 -2503.3032447373553 737.41255536171229 0 737.41255536171229 -585.63248335423123 0 0 0 0 561.4969443363766 66.48862061108025 0 66.48862061108025 27.886595524119912 0 0 0 0 389.59058896933857 -238.97479987345287 0 -238.97479987345287 23.038502821388761 0 0 0 0 -264.66320247328258 656.3541363300028 0 656.3541363300028 340.47982161556001 0 0 0 0 -1554.346654697918 -334.03175482652296 0 -334.03175482652296 410.26679038756993 0 0 0 0 -1.6714067084464261 -1.0715665419202764 0 -1.0715665419202764 -2.9648260518696077 0 0 0 0 1455.3982565801998 -93.512464746214391 0 -93.512464746214391 -228.39678238628949 0 0 0 0 1204.8640256012586 872.33426956134281 0 872.33426956134281 -1524.5073018908734 0 0 0 0 -281.62696875003166 111.16006331531025 0 111.16006331531025 14.481221230322262 0 0 0 0 -21.458869388013795 10.391005738506919 0 10.391005738506919 3.902065607332986 0 0 0 0 -38.869045937186456 297.38291060578194 0 297.38291060578194 -16.981385732411582 0 0 0 0 330.96362711800612 80.367650519765448 0 80.367650519765448 -141.73806682429858 0 0 0 0 182.37247273683897 418.33247167507943 0 418.33247167507943 105.48186884546885 0 0 0 0 -463.75606967920612 -6.120618467379245 0 -6.120618467379245 67.766244736325461 0 0 0 0 -41.864826464465295 -32.078714873864556 0 -32.078714873864556 -1736.3843850732446 0 0 0 0 -15.503012327103988 11.123398399691524 0 11.123398399691524 -6.2785788521497068 0 0 0 0 -3214.660898197224 199.47481749286817 0 199.47481749286817 -116.33838391170138 0 0 0 0 -12.484646529141344 14.027969201415878 0 14.027969201415878 -19.346326465319891 0 0 0 0 -1667.9004196397436 -356.10150818855618 0 -356.10150818855618 40.477103217708645 0 0 0 0 -1855.495409987976 2842.2311601149777 0 2842.2311601149777 -2432.712528373806 0 0 0 0 -1662.3000945280655 2554.4291735996376 0 2554.4291735996376 -2006.1304019651757 0 0 0 0 -3029.0449101886843 1683.7931370939687 0 1683.7931370939687 -1549.2050919691101 0 0 0 0 -608.43264070274017 892.33199614275145 0 892.33199614275145 -3212.3637558891787 0 0 0 0 -2545.8394948014175 40.503840514160402 0 40.503840514160402 -1198.5172580181898 0 0 0 0 -2767.9160628163809 1907.0160620471725 0 1907.0160620471725 -1422.7074347867529 0 0 0 0 -1355.0735760112439 933.38548890783386 0 933.38548890783386 -792.70765624460182 0 0 0 0 158.73550800755038 133.54513990198757 0 133.54513990198757 -159.01496381409379 0 0 0 0 216.60384257756232 153.40883702469 0 153.40883702469 20.151514300809595 0 0 0 0 11.648301010205614 10.266360434005016 0 10.266360434005016 -27.714610435744419 0 0 0 0 -43.267206712633197 141.05273037166626 0 141.05273037166626 293.21822613072254 0 0 0 0 128.42500858252606 94.247400111162278 0 94.247400111162278 -82.503043061455173 0 0 0 0 176.13340795639851 605.249268366857 0 605.249268366857 399.91140656288189 0 0 0 0 162.47757305572304 9.5044203811703483 0 9.5044203811703483 -185.00671626480471 0 0 0 0 -1.1522024536568267 16.826684288290352 0 16.826684288290352 -28.635886577817246 0 0 0 0 -28.834480353300876 40.297509909628467 0 40.297509909628467 -58.609707476127539 0 0 0 0 150.73126516587581 165.99885410621391 0 165.99885410621391 -6.2597539317503106 0 0 0 0 199.4834925949981 203.83467752969591 0 203.83467752969591 22.80474615382991 0 0 0 0 263.8222663421875 214.19342109907302 0 214.19342109907302 -37.871621598605998 0 0 0 0 251.1846688897931 211.48326614595862 0 211.48326614595862 21.12255812506919 0 0 0 0 245.81352824596979 192.11118552081462 0 192.11118552081462 -47.576069871502114 0 0 0 0 291.83429110978614 240.06951354184639 0 240.06951354184639 -39.05335853791621 0 0 0 0 296.01495724167034 227.49008351164957 0 227.49008351164957 -8.331625390535919 0 0 0 0 331.8950684492047 250.60900970476359 0 250.60900970476359 5.1873469605779974 0 0 0 0 283.55445212296036 212.726689479161 0 212.726689479161 37.915032027514826 0 0 0 0 280.66290649916664 222.22356083690011 0 222.22356083690011 23.658532921253936 0 0 0 0 188.65814797047642 249.5942226779589 0 249.5942226779589 19.829809903472778 0 0 0 0 202.410051238905 198.60221925369115 0 198.60221925369115 196.77360228961334 0 0 0 0 -29.7979032342555 436.71913288442011 0 436.71913288442011 -598.28412364854012 0 0 0 0 129.84220539628586 -89.243951886783179 0 -89.243951886783179 -924.21701466858212 0 0 0 0 -2.4296459039562137 2.2951018645183296 0 2.2951018645183296 -2.0807179077996807 0 0 0 0 138.66140195031767 351.18377001478075 0 351.18377001478075 201.8911814449059 0 0 0 0 386.21509869575675 400.15886364824837 0 400.15886364824837 -520.70459216109884 0 0 0 0 609.59277528857638 -205.05595844635536 0 -205.05595844635536 -522.88505509102083 0 0 0 0 132.66822428318847 376.43806894612499 0 376.43806894612499 96.115549941067002 0 0 0 0 656.6736398566718 -361.68860011958895 0 -361.68860011958895 -753.53705945168622 0 0 0 0 571.1250417676606 -111.12603561997207 0 -111.12603561997207 -286.55661035804951 0 0 0 0 376.72061380105151 -424.17036219636066 0 -424.17036219636066 -278.21398358973261 0 0 0 0 -25.232332955929806 46.007433482591026 0 46.007433482591026 -72.74640008883668 0 0 0 0 1167.7111645254554 265.02717087270139 0 265.02717087270139 -615.46542730840883 0 0 0 0 534.07084733604643 580.08198009388434 0 580.08198009388434 -280.87414218553386 0 0 0 0 243.4399763564943 457.75494403063931 0 457.75494403063931 -309.71806394998566 0 0 0 0 -28.13623359574305 46.532123274135294 0 46.532123274135294 -68.746055856489477 0 0 0 0 584.22454762605776 501.85054925060103 0 501.85054925060103 -362.48716122208862 0 0 0 0 128.66929729699768 540.0597605779185 0 540.0597605779185 -254.49224490190682 0 0 0 0 218.10787350964529 481.61692216602387 0 481.61692216602387 -243.58908669199263 0 0 0 0 116.39388172028293 740.79725533138185 0 740.79725533138185 162.75299608919886 0 0 0 0 109.24040433889604 677.03040448670072 0 677.03040448670072 151.54180358474696 0 0 0 0 542.66629376066703 666.7090129853168 0 666.7090129853168 -177.90685591970396 0 0 0 0 261.77841672797422 578.02213458946972 0 578.02213458946972 -182.03695970174158 0 0 0 0 906.529114417659 472.21092827198663 0 472.21092827198663 -174.74525888095013 0 0 0 0 -26.252508372479483 46.697175468164446 0 46.697175468164446 -62.665002958211971 0 0 0 0 2399.4665485441074 1563.4899528334499 0 1563.4899528334499 -1620.4312631350476 0 0 0 0 639.38560545240398 849.21257433273786 0 849.21257433273786 124.54347233851149 0 0 0 0 1103.2497738744569 683.2775306869371 0 683.2775306869371 280.46637624860887 0 0 0 0 540.53564693065982 592.38798719063652 0 592.38798719063652 319.79605193778843 0 0 0 0 1132.7079149804213 752.97250959969642 0 752.97250959969642 289.88978845898237 0 0 0 0 459.17542717889592 723.47610064284527 0 723.47610064284527 674.06148674863653 0 0 0 0 467.3905366993713 695.39635183354039 0 695.39635183354039 417.37321737991078 0 0 0 0 153.42438820510893 658.22512796516298 0 658.22512796516298 90.023020585926133 0 0 0 0 479.32513316346194 809.67187152242968 0 809.67187152242968 192.63024284692074 0 0 0 0 153.99492200249369 643.93621839546176 0 643.93621839546176 439.90353375028644 0 0 0 0 -273.18432666741137 -318.75470994421994 0 -318.75470994421994 -266.58144504409574 0 0 0 0 -400.12836936370877 -45.515741253591841 0 -45.515741253591841 147.26920480138506 0 0 0 0 -355.75300516965217 518.18463287310806 0 518.18463287310806 729.17845164063692 0 0 0 0 2.5253372662377842 3.0086195373421418 0 3.0086195373421418 -1.2527620708802232 0 0 0 0 -685.20062044724546 581.57542837295023 0 581.57542837295023 0.055311930831521749 0 0 0 0 -1110.9913337909238 -288.01968338143342 0 -288.01968338143342 -1307.6878284042359 0 0 0 0 -1118.478965985385 1387.6002595736645 0 1387.6002595736645 -1133.2621964985447 0 0 0 0 -750.25885429504342 1287.1058863763765 0 1287.1058863763765 -1604.4521467480808 0 0 0 0 -279.84359029331972 2007.4540302382047 0 2007.4540302382047 -2828.5763363244041 0 0 0 0 315.83785969868313 994.06503835636249 0 994.06503835636249 -2360.0892821958842 0 0 0 0 -69.834005408137784 50.883975484410925 0 50.883975484410925 -14.628432585370916 0 0 0 0 -1169.4314839384533 13.669443360071455 0 13.669443360071455 711.22302970965393 0 0 0 0 213.22694774543925 -298.67856913826836 0 -298.67856913826836 -650.43994212376128 0 0 0 0 -27.562831637248649 17.519704469194075 0 17.519704469194075 -14.537475414855663 0 0 0 0 -418.97424338902056 1703.0185124069685 0 1703.0185124069685 -2886.0534075149335 0 0 0 0 -1252.8655187693221 -205.96100964571087 0 -205.96100964571087 44.095297877350276 0 0 0 0 -3228.7941281650128 -160.2988833097188 0 -160.2988833097188 55.692055993356917 0 0 0 0 -2381.479107665451 573.58783365843192 0 573.58783365843192 1058.1978636370914 0 0 0 0 -909.52481902981526 1973.9953164590261 0 1973.9953164590261 -2381.188929476486 0 0 0 0 -916.99085681893939 2196.2012692410117 0 2196.2012692410117 -2622.6368419580103 0 0 0 0 -1916.8284536568099 2616.4511911784502 0 2616.4511911784502 -2352.9871880622086 0 0 0 0 -1624.5497450746916 1463.5465749264895 0 1463.5465749264895 -2926.5769441735465 0 0 0 0 -1692.0453167729429 2663.5546728031259 0 2663.5546728031259 -2883.5897193923302 0 0 0 0 28.181192870266386 -835.9774295901334 0 -835.9774295901334 -787.92892208224657 0 0 0 0 -2741.0254769492167 3422.8590542670208 0 3422.8590542670208 -4205.322772898 0 0 0 0 979.53946792204806 372.94387861285941 0 372.94387861285941 -3688.0210898694277 0 0 0 0 -1.5963591078124839 -0.0077509318325894583 0 -0.0077509318325894583 -3.2667390740760709 0 0 0 0 -6815.9989348332165 -1979.4541233882192 0 -1979.4541233882192 -4847.54387751373 0 0 0 0 145.8341672436145 121.87032061426726 0 121.87032061426726 909.34328543947777 0 0 0 0 -2315.4289138104068 1973.3056442133093 0 1973.3056442133093 -773.9632452411679 0 0 0 0 -1005.1748820354987 1572.1153523944304 0 1572.1153523944304 -654.32516026970552 0 0 0 0 -1280.9602198603243 1430.46699782621 0 1430.46699782621 1154.6156192416802 0 0 0 0 -857.3672988723556 1418.9557234883287 0 1418.9557234883287 1031.5413453361107 0 0 0 0 -23.163420404164469 33.618483083852858 0 33.618483083852858 -30.977964833523487 0 0 0 0 -1117.2494501018155 828.68855566114235 0 828.68855566114235 560.36071855686896 0 0 0 0 -1045.7104708176812 1168.6862824653199 0 1168.6862824653199 1376.1646918493789 0 0 0 0 -379.46575740609842 -1205.5448655622895 0 -1205.5448655622895 145.79287949964055 0 0 0 0 -760.21776288500405 1290.3883790242544 0 1290.3883790242544 929.70335293030075 0 0 0 0 -715.13534278100087 1073.9257032265728 0 1073.9257032265728 -807.43632814193552 0 0 0 0 -475.8441263618206 556.89099421649462 0 556.89099421649462 -205.49233868574811 0 0 0 0 -342.78921090852236 218.78548284676435 0 218.78548284676435 -59.884032135698362 0 0 0 0 -534.72712894881261 444.26083446131452 0 444.26083446131452 1781.4732356851382 0 0 0 0 10.088922395832924 6.5755312416119409 0 6.5755312416119409 5.4162271931630386 0 0 0 0 -619.02613851693604 -465.95121679792646 0 -465.95121679792646 3840.7578599272019 0 0 0 0 45.252387828193605 359.30637649650453 0 359.30637649650453 453.73647173902646 0 0 0 0 34.618222879289533 498.46939174458385 0 498.46939174458385 1421.2880444239927 0 0 0 0 11.106373358671703 37.223417150303305 0 37.223417150303305 7.7133721876741959 0 0 0 0 -476.10960513013197 103.48970081205243 0 103.48970081205243 1445.5083558807819 0 0 0 0 -496.86498643139203 141.08713484491091 0 141.08713484491091 2892.5566041651 0 0 0 0 -279.287994544713 537.17045906976637 0 537.17045906976637 15.619725690819905 0 0 0 0 -940.03611165513576 -158.86656668601427 0 -158.86656668601427 964.4821929858299 0 0 0 0 15.510572546303308 27.551040635439477 0 27.551040635439477 31.727248755175538 0 0 0 0 -1038.131098199643 730.67011493540485 0 730.67011493540485 -16.981086404191046 0 0 0 0 -1147.6998856425562 343.23198042441436 0 343.23198042441436 194.87912129399047 0 0 0 0 -3023.9222789625492 -1296.0942398624138 0 -1296.0942398624138 1096.2348905828403 0 0 0 0 -1589.614499367075 521.9658883969314 0 521.9658883969314 328.05705473473063 0 0 0 0 -640.75012637984764 1048.1613655196998 0 1048.1613655196998 1581.4991552844731 0 0 0 0 1480.4297204714894 942.70433893747031 0 942.70433893747031 993.23411744816985 0 0 0 0 -8.5687788340999873 9.3090569035134294 0 9.3090569035134294 -5.7085298351467486 0 0 0 0 2185.7589340490376 563.92620212941983 0 563.92620212941983 1194.0396197876125 0 0 0 0 364.83941727477941 2142.3568575124737 0 2142.3568575124737 1800.7016809116412 0 0 0 0 1744.2771049279399 1516.5436390487739 0 1516.5436390487739 -799.15655317218625 0 0 0 0 870.93633097357815 1364.9209440389532 0 1364.9209440389532 -817.45302348359837 0 0 0 0 1995.6932365308749 1540.1515506965516 0 1540.1515506965516 2459.1051267402422 0 0 0 0 -17.67313231582375 1652.0810723887334 0 1652.0810723887334 1864.0954994548956 0 0 0 0 2.678166959545905 49.928057197604971 0 49.928057197604971 28.762713784859699 0 0 0 0 642.03503106048447 1728.3095063798319 0 1728.3095063798319 32.285578493130743 0 0 0 0 -1615.510623776092 -312.18032176539418 0 -312.18032176539418 2418.263610098511 0 0 0 0 5.8275626863542414 13.759016552889591 0 13.759016552889591 18.098750855287932 0 0 0 0 -601.40934285122785 -336.25818469728256 0 -336.25818469728256 2523.3313776884147 0 0 0 0 -738.3983852550773 346.89037925750199 0 346.89037925750199 -781.02461242744903 0 0 0 0 729.86621473153355 1936.0858229734922 0 1936.0858229734922 -684.08383750301437 0 0 0 0 -559.37054977198568 1561.9040510965642 0 1561.9040510965642 540.07260802335804 0 0 0 0 -9.7549634150568068 34.258157806891745 0 34.258157806891745 20.706671313512416 0 0 0 0 142.25433407170931 1705.8787188249989 0 1705.8787188249989 -2801.0191791276702 0 0 0 0 -980.54405509099161 -1252.7934825455113 0 -1252.7934825455113 3503.1830420318438 0 0 0 0 -278.04863398702582 347.73820819478715 0 347.73820819478715 -2467.2739993448777 0 0 0 0 -459.016652371276 -991.48007040934317 0 -991.48007040934317 3482.4415827972553 0 0 0 0 -99.607366789146909 135.34741231291991 0 135.34741231291991 836.15797588335408 0 0 0 0 -17.055716126683762 7.1896260164927526 0 7.1896260164927526 -1.4412657023260564 0 0 0 0 -47.889805834662184 156.45317667428935 0 156.45317667428935 566.55535024347046 0 0 0 0 21.901469601751614 412.3247569382786 0 412.3247569382786 284.4676297406113 0 0 0 0 30.038326344631059 484.94998084925032 0 484.94998084925032 766.72948659476242 0 0 0 0 96.971764343128598 362.6042247512305 0 362.6042247512305 654.74625879955784 0 0 0 0 824.74316194927815 876.67487807556608 0 876.67487807556608 735.76835716002824 0 0 0 0 182.40174144588673 711.24674939756005 0 711.24674939756005 1518.8533045268341 0 0 0 0 860.98657379173528 1103.5426511299047 0 1103.5426511299047 1100.005678578018 0 0 0 0 1670.7490032663918 922.08063099229912 0 922.08063099229912 291.97129766175908 0 0 0 0 143.66088991115248 639.02490045627565 0 639.02490045627565 2752.0567562302967 0 0 0 0 5.9478731965663769 15.801020726727387 0 15.801020726727387 13.086465586955356 0 0 0 0 1547.0734614094581 1589.3639265978854 0 1589.3639265978854 1412.7984582687786 0 0 0 0 -14.688387830377906 5.1863979773479514 0 5.1863979773479514 1018.6101834449 0 0 0 0 157.52301607155823 102.38814970987733 0 102.38814970987733 573.4956674849891 0 0 0 0 -23.569206601280342 12.238152113628914 0 12.238152113628914 4.2474552491309439 0 0 0 0 -59.101321318354167 31.908195985968632 0 31.908195985968632 107.55362078399048 0 0 0 0 51.940009185539964 32.533075574437078 0 32.533075574437078 13.838134659847071 0 0 0 0 -875.34567605467601 252.69038949736569 0 252.69038949736569 -142.37441728430713 0 0 0 0 1161.4899245635606 831.63663723274658 0 831.63663723274658 -1081.011274820863 0 0 0 0 -45.343231025151908 232.5810003260558 0 232.5810003260558 -758.24816130409272 0 0 0 0 -1146.5493493463582 642.85504490206222 0 642.85504490206222 -788.18212447440601 0 0 0 0 183.98985042654749 689.95671729825699 0 689.95671729825699 -183.22205294421292 0 0 0 0 359.07933972626051 1223.1965205269516 0 1223.1965205269516 252.77325486639165 0 0 0 0 -233.23402351443656 730.52683108983911 0 730.52683108983911 236.71987727614851 0 0 0 0 -296.90005253438721 236.93795729971316 0 236.93795729971316 -148.79930503277046 0 0 0 0 -539.39047556325386 171.61319062450639 0 171.61319062450639 296.28407263114059 0 0 0 0 -145.64404915952764 -264.96924092924746 0 -264.96924092924746 190.88883154528594 0 0 0 0 -160.71449314296478 227.99071311282751 0 227.99071311282751 -241.56372303037642 0 0 0 0 -451.86598278363817 192.57189923580154 0 192.57189923580154 -68.322057346871588 0 0 0 0 27.943403819808736 405.88236491510906 0 405.88236491510906 -718.17673598908004 0 0 0 0 -338.03444262313133 743.49064102846569 0 743.49064102846569 -620.35919748293236 0 0 0 0 54.572535726173783 36.944211037575826 0 36.944211037575826 22.502073448487693 0 0 0 0 64.902195787595701 162.17441627075095 0 162.17441627075095 10.192449169990141 0 0 0 0 33.488480005824385 248.48716995230279 0 248.48716995230279 258.28081925099832 0 0 0 0 14.635057793440865 37.395119356817304 0 37.395119356817304 -35.702823922707466 0 0 0 0 58.169906472413345 41.400213165940585 0 41.400213165940585 26.734908023331784 0 0 0 0 75.806152614764869 121.12002002597001 0 121.12002002597001 -75.286071675680432 0 0 0 0 60.257034544389171 79.887462962342397 0 79.887462962342397 -169.3976798021904 0 0 0 0 -224.68188355429447 10.929063620285888 0 10.929063620285888 -117.27809767466533 0 0 0 0 -502.84452180185326 260.08424887799629 0 260.08424887799629 -39.696181091791459 0 0 0 0 -482.94486475380472 163.03453660152081 0 163.03453660152081 569.79971802033833 0 0 0 0 46.280687148999277 105.26589180199517 0 105.26589180199517 -124.66868414691453 0 0 0 0 207.13002207801765 157.89663964240754 0 157.89663964240754 -30.895939828275004 0 0 0 0 208.29992626678813 205.14566600407306 0 205.14566600407306 -187.23006223156699 0 0 0 0 187.62814284531487 241.15414660120587 0 241.15414660120587 -227.2382610651548 0 0 0 0 214.58237266417564 126.58986320921395 0 126.58986320921395 -112.83846260861901 0 0 0 0 -213.76494758246918 472.566163178024 0 472.566163178024 -245.71824200508127 0 0 0 0 26.212105585356767 270.22405204832467 0 270.22405204832467 -158.95665528327663 0 0 0 0 32.642541849832924 326.33524232445052 0 326.33524232445052 -194.62640855662175 0 0 0 0 -649.67187871326678 481.77110815107881 0 481.77110815107881 684.10797350147914 0 0 0 0 139.55085870416224 249.76338073893567 0 249.76338073893567 -301.59335744926375 0 0 0 0 184.24462919888174 74.510527675460253 0 74.510527675460253 -39.427630307254731 0 0 0 0 1.3799097279667052 3.4186737217419036 0 3.4186737217419036 -6.070411332477704 0 0 0 0 148.1248376179683 146.84916070015242 0 146.84916070015242 189.23842313009663 0 0 0 0 282.24611113900755 141.97004015198036 0 141.97004015198036 -32.764822413460934 0 0 0 0 263.64314959471085 248.39356471372594 0 248.39356471372594 201.12990853686597 0 0 0 0 549.83691347203785 698.10721409084999 0 698.10721409084999 148.33632228110946 0 0 0 0 2.8294202098786982 5.3876648647022378 0 5.3876648647022378 -9.4082145571468629 0 0 0 0 -287.48327930648702 11.912914704502327 0 11.912914704502327 212.73955196271709 0 0 0 0 498.8573803710467 0.1846437928963951 0 0.1846437928963951 -69.740399100570357 0 0 0 0 356.2616131548084 392.74653895158008 0 392.74653895158008 -177.07580637035426 0 0 0 0 342.01014055421911 382.30606936626282 0 382.30606936626282 40.983442794175062 0 0 0 0 62.695450437475301 500.69602940338154 0 500.69602940338154 216.74747479199868 0 0 0 0 70.664099645684473 99.749009814557212 0 99.749009814557212 333.28349733098003 0 0 0 0 -6.0105601384090619 5.7827738107925057 0 5.7827738107925057 -0.74529099061554049 0 0 0 0 -206.55173619339985 387.91134914853683 0 387.91134914853683 36.927604736876674 0 0 0 0 -576.0730651828635 444.11586570327563 0 444.11586570327563 261.93939551084623 0 0 0 0 -290.04734119671775 366.58534872741802 0 366.58534872741802 249.9218286634059 0 0 0 0 -280.06645496432611 408.42262557150389 0 408.42262557150389 404.99916025223501 0 0 0 0 -129.19792765013699 553.40491325624316 0 553.40491325624316 395.62237895094222 0 0 0 0 -98.059030275086116 837.90298672881181 0 837.90298672881181 -151.95523263814721 0 0 0 0 -72.767780817644962 738.55198876247232 0 738.55198876247232 235.97049443262949 0 0 0 0 -209.69229084903236 356.46010977926926 0 356.46010977926926 -83.910428402297839 0 0 0 0 -485.14066742823707 402.03761816259794 0 402.03761816259794 266.94211536661169 0 0 0 0 -247.99474610775451 763.28677102795791 0 763.28677102795791 -202.7393140360582 0 0 0 0 645.52662448280444 494.1487203806746 0 494.1487203806746 -190.99454917191906 0 0 0 0 0.46386173652877005 7.1764174356904249 0 7.1764174356904249 -9.4778768283935051 0 0 0 0 527.29852601720631 145.39489955814133 0 145.39489955814133 -980.80577688557241 0 0 0 0 -144.44868516393035 618.54498933291688 0 618.54498933291688 981.41749907487974 0 0 0 0 -6.0340721319836774 16.509043865788072 0 16.509043865788072 -17.572124410755094 0 0 0 0 415.11369172110244 774.69238120266436 0 774.69238120266436 863.90339785450487 0 0 0 0 478.83074411198777 638.0542503029983 0 638.0542503029983 328.15208542445907 0 0 0 0 -196.65606469760405 966.17504952882882 0 966.17504952882882 195.26444238747354 0 0 0 0 -361.24484440212109 748.66319781242055 0 748.66319781242055 515.58450301118137 0 0 0 0 -345.82648536164561 524.1812089230516 0 524.1812089230516 62.380269470115309 0 0 0 0 157.61186252395987 709.879001635245 0 709.879001635245 16.05228136718506 0 0 0 0 215.86941259192281 129.19435551775678 0 129.19435551775678 -593.27710905582353 0 0 0 0 -495.73561490531529 972.51986039058102 0 972.51986039058102 -987.37590902671218 0 0 0 0 -83.247846284672733 223.52587204578595 0 223.52587204578595 350.14893152150034 0 0 0 0 429.15924948525753 365.86640219892797 0 365.86640219892797 420.40063581361028 0 0 0 0 -10.857292140137353 20.208680834247588 0 20.208680834247588 -19.434388399920351 0 0 0 0 531.41978912197737 1090.678135803395 0 1090.678135803395 716.9339417665833 0 0 0 0 629.45506357432714 653.62337784198462 0 653.62337784198462 -33.524453544101561 0 0 0 0 443.83355444593781 709.21067158672304 0 709.21067158672304 -671.96485029214818 0 0 0 0 484.11777030057237 354.41253152749778 0 354.41253152749778 114.60395443445668 0 0 0 0 -568.90921511572196 801.73650899739005 0 801.73650899739005 -679.66047989086655 0 0 0 0 1664.0722094923512 282.5740463206821 0 282.5740463206821 -427.64980469642614 0 0 0 0 2086.8837224209374 -216.41306306755723 0 -216.41306306755723 -544.1731186969846 0 0 0 0 1422.7424218176475 -247.98452294908202 0 -247.98452294908202 -290.70259677652211 0 0 0 0 872.912599392017 474.89935602177866 0 474.89935602177866 -382.01778683449629 0 0 0 0 -1570.551630090843 659.78624202098581 0 659.78624202098581 -198.4754279768822 0 0 0 0 0.24422068352481219 -0.090508439242711347 0 -0.090508439242711347 -0.95870493154160386 0 0 0 0 1918.985722363981 -723.80071492967545 0 -723.80071492967545 -721.55247463600244 0 0 0 0 -647.12020902521908 -363.48838348366553 0 -363.48838348366553 -229.49157113203546 0 0 0 0 -485.69743684642162 -256.51336681781686 0 -256.51336681781686 -562.3558352690743 0 0 0 0 -667.15138879464212 -1.1028177935622807 0 -1.1028177935622807 -110.04219576029573 0 0 0 0 221.46324000306049 187.94360871265235 0 187.94360871265235 -498.7435629357642 0 0 0 0 -84.749421431355131 256.48469839155223 0 256.48469839155223 -8.8367850159556838 0 0 0 0 -672.62499751511007 490.06045279752448 0 490.06045279752448 -589.13068323308835 0 0 0 0 63.031341501197858 217.49400985013563 0 217.49400985013563 -640.71834373682213 0 0 0 0 101.59759858636426 243.26377738299925 0 243.26377738299925 -666.22832029382516 0 0 0 0 146.66011465939823 128.53205278875794 0 128.53205278875794 -672.05868499620556 0 0 0 0 -212.63532162563615 60.820830679887877 0 60.820830679887877 -377.37248776872366 0 0 0 0 -180.56957760114028 0.28749411031094496 0 0.28749411031094496 -656.25238245646324 0 0 0 0 -328.21667458949105 -210.48468607454197 0 -210.48468607454197 -234.17565341296722 0 0 0 0 -636.38373435272661 207.60273981210776 0 207.60273981210776 120.49106853322064 0 0 0 0 -102.31899341110505 58.413741684057356 0 58.413741684057356 -1.2868679701207109 0 0 0 0 -430.92705106335779 -34.10394280966284 0 -34.10394280966284 63.123787572985748 0 0 0 0 -609.14736478777741 95.006422063830541 0 95.006422063830541 -29.239023366535548 0 0 0 0 675.32876689800923 351.06671875679967 0 351.06671875679967 52.583198194392025 0 0 0 0 -19.8734908797719 19.650290178042432 0 19.650290178042432 -5.5242208755946365 0 0 0 0 -283.68605829880562 260.00690223250422 0 260.00690223250422 70.387699970975518 0 0 0 0 -0.4161104953242365 26.536559042497629 0 26.536559042497629 -17.328099350089552 0 0 0 0 -607.15784022125445 181.44827590955538 0 181.44827590955538 -10.520534722629236 0 0 0 0 -661.15147673291358 169.59684562482289 0 169.59684562482289 81.465094372746535 0 0 0 0 17.170744817612928 46.322391135139924 0 46.322391135139924 -92.119001633579074 0 0 0 0 -227.22420145338037 -215.81398605869617 0 -215.81398605869617 -232.16388281500258 0 0 0 0 32.85943292967022 -117.54919683234402 0 -117.54919683234402 -261.41170195429004 0 0 0 0 -139.63602397988507 294.17070113739464 0 294.17070113739464 -281.88047559384813 0 0 0 0 -819.8609667896817 149.41217690882331 0 149.41217690882331 7.9287723157613073 0 0 0 0 -180.74879678190337 301.9280589477421 0 301.9280589477421 -456.32692932791542 0 0 0 0 -576.48436892635073 245.34067625050375 0 245.34067625050375 -178.9416084718614 0 0 0 0 -311.48645414386328 149.89110431353129 0 149.89110431353129 -79.238414381747134 0 0 0 0 -581.43971290059562 82.849358137289528 0 82.849358137289528 -313.14431399884052 0 0 0 0 -605.2886215793842 79.162751189840492 0 79.162751189840492 -84.281643672380596 0 0 0 0 -577.37446993302729 234.48576641749241 0 234.48576641749241 83.269972910245997 0 0 0 0 676.4879907337845 -72.310843837818538 0 -72.310843837818538 -300.26775796082802 0 0 0 0 4.7950234937065588 2.4019680838635367 0 2.4019680838635367 -6.5217802897460047 0 0 0 0 991.02463092516336 430.71893333877233 0 430.71893333877233 294.22883876229753 0 0 0 0 1115.5060535817274 193.90458378681615 0 193.90458378681615 124.61386586159642 0 0 0 0 -857.54850706434445 691.21056193863478 0 691.21056193863478 293.53157829379779 0 0 0 0 3.6686847947744345 7.7483789139248174 0 7.7483789139248174 -9.2492897864291308 0 0 0 0 -860.73850227654111 494.16176192726562 0 494.16176192726562 392.1964007212955 0 0 0 0 -417.85482969017175 511.97693056838762 0 511.97693056838762 -898.95097019727837 0 0 0 0 1163.5450726341242 -44.754142864941969 0 -44.754142864941969 1068.1777919873348 0 0 0 0 -180.27698837190837 854.99778384991805 0 854.99778384991805 128.4041405427779 0 0 0 0 -394.53040507793321 753.9999144936628 0 753.9999144936628 277.27130279736593 0 0 0 0 262.9788374340842 881.80503869488894 0 881.80503869488894 26.026598815908073 0 0 0 0 -15.721363144022689 363.35727999503433 0 363.35727999503433 -20.732364917348605 0 0 0 0 -533.36544521175074 -149.39638408142491 0 -149.39638408142491 -36.537859034579014 0 0 0 0 381.10556531895782 -43.298903101640462 0 -43.298903101640462 -11.300940830122272 0 0 0 0 821.93056841389262 -39.697333478630753 0 -39.697333478630753 -36.808604773395928 0 0 0 0 270.95981177929298 183.72243934088328 0 183.72243934088328 130.94654238100338 0 0 0 0 609.48759194618106 435.74679472931166 0 435.74679472931166 300.40488482553701 0 0 0 0 284.10316011436953 143.47490851520706 0 143.47490851520706 -37.071072588812967 0 0 0 0 260.53754627642411 92.720249472447904 0 92.720249472447904 10.531066579133039 0 0 0 0 413.78647282361271 203.10117207456642 0 203.10117207456642 89.071150424635562 0 0 0 0 476.50929976859334 16.155617376894952 0 16.155617376894952 -33.100278782250825 0 0 0 0 371.49911589057956 -31.329014338787601 0 -31.329014338787601 -15.037148058050661 0 0 0 0 -365.73936454092018 252.28656724300527 0 252.28656724300527 -39.773940956889419 0 0 0 0 6.8301443453272457 7.7093187780715766 0 7.7093187780715766 -22.137937578435753 0 0 0 0 317.3431395869884 40.801190730526287 0 40.801190730526287 -35.331441131434985 0 0 0 0 336.92600667213264 -52.419749919703463 0 -52.419749919703463 -24.027911841665627 0 0 0 0 231.77922383765144 12.872708508128198 0 12.872708508128198 -90.626880620548036 0 0 0 0 229.07834892013489 -1.928188956437225 0 -1.928188956437225 -28.373644093851908 0 0 0 0 276.80573459763036 16.988358905102359 0 16.988358905102359 -99.161394529286099 0 0 0 0 331.92301264731213 32.390857066966419 0 32.390857066966419 -69.853119070685352 0 0 0 0 258.06179920305567 86.805392134489011 0 86.805392134489011 -97.410005507088499 0 0 0 0 212.27160209151043 64.033884634307469 0 64.033884634307469 -106.40477783887764 0 0 0 0 188.0419701935889 132.53431011990506 0 132.53431011990506 -99.331160217829165 0 0 0 0 228.32391347606244 143.97217536580865 0 143.97217536580865 -164.41920638082956 0 0 0 0 266.32392332397467 105.68704955505746 0 105.68704955505746 -105.78259690103005 0 0 0 0 -670.77303533102531 212.91650239849696 0 212.91650239849696 -118.14510716981022 0 0 0 0 -662.61925863893703 189.53896836009517 0 189.53896836009517 -59.284355965809482 0 0 0 0 -573.96091849970253 262.36560998562345 0 262.36560998562345 -109.25111000926699 0 0 0 0 -408.35902194429946 118.11542686526809 0 118.11542686526809 -179.40532718015311 0 0 0 0 -558.4462936361233 263.01311062771128 0 263.01311062771128 -384.95872129247437 0 0 0 0 -326.72004731679226 50.093867378431241 0 50.093867378431241 -34.90188368211966 0 0 0 0 17.673162214741286 -15.758627603724008 0 -15.758627603724008 -7.3291561729471937 0 0 0 0 -1135.1012758974684 286.41470956236299 0 286.41470956236299 -119.36873654625379 0 0 0 0 6.155086922748775 52.044188879622865 0 52.044188879622865 -86.347469418151462 0 0 0 0 -35.64282531391018 123.43944590220781 0 123.43944590220781 -152.30289324515616 0 0 0 0 -252.28802910673767 157.34407086079591 0 157.34407086079591 -26.923185785926762 0 0 0 0 61.75097290209942 104.85803458218288 0 104.85803458218288 -170.77560372618609 0 0 0 0 -152.50662201130308 63.278828108985181 0 63.278828108985181 -34.956784439338662 0 0 0 0 -11.885672377701912 14.95922540043513 0 14.95922540043513 -43.446778132204258 0 0 0 0 -17.71689573230222 4.1314818081832136 0 4.1314818081832136 -10.336608622350298 0 0 0 0 -4.7365023131634469 65.244515223127749 0 65.244515223127749 -74.825611338804606 0 0 0 0 -173.17018216664837 164.16178559482432 0 164.16178559482432 -72.783654759055935 0 0 0 0 -93.543400762960118 13.658475619398814 0 13.658475619398814 -156.7161110539746 0 0 0 0 -745.74354892133852 226.67221607120155 0 226.67221607120155 -41.828377778918366 0 0 0 0 -646.8432830292295 152.47373242847971 0 152.47373242847971 -69.934442612779094 0 0 0 0 -721.74507667283615 173.93026551100047 0 173.93026551100047 -32.964462785108481 0 0 0 0 -645.91641524765873 234.57562785039772 0 234.57562785039772 -57.906423408645423 0 0 0 0 -556.18890687297244 185.4497826638617 0 185.4497826638617 -93.355019131762674 0 0 0 0 -554.81090579386455 194.66166869644439 0 194.66166869644439 -46.800130037037889 0 0 0 0 -586.09585390644497 202.3031521129451 0 202.3031521129451 -81.223313970800518 0 0 0 0 -579.75432683000463 147.29757009331388 0 147.29757009331388 -62.465814764145762 0 0 0 0 -689.93269929435337 180.26862361151871 0 180.26862361151871 -57.358452855303767 0 0 0 0 -1.3519828037030095 -2.809272882775474 0 -2.809272882775474 -1.1844736298285738 0 0 0 0 -567.25547061282487 108.97380304888065 0 108.97380304888065 -186.36907885747496 0 0 0 0 -1.2319496197979944 60.283532274889737 0 60.283532274889737 -75.016340559969024 0 0 0 0 -309.96101262743105 274.61625953174553 0 274.61625953174553 -72.266404504756792 0 0 0 0 48.123167711662973 30.01757607163745 0 30.01757607163745 -133.83333907578708 0 0 0 0 11.420042353855735 58.938463842315471 0 58.938463842315471 -69.272838311405906 0 0 0 0 191.4131081930409 87.282382638501076 0 87.282382638501076 -145.31014986903756 0 0 0 0 11.140325344003356 15.1998893677493 0 15.1998893677493 -50.988169441294815 0 0 0 0 88.884879679090773 34.548568885375062 0 34.548568885375062 -147.6535819988203 0 0 0 0 -72.300382830228045 -32.705464479153306 0 -32.705464479153306 -201.79461661569439 0 0 0 0 -337.74244843668203 315.70390336964556 0 315.70390336964556 -73.703558127126598 0 0 0 0 -352.32420878183621 255.00249118609645 0 255.00249118609645 -226.17892624092929 0 0 0 0 -282.46617244391382 180.8641352010236 0 180.8641352010236 45.991290070614923 0 0 0 0 -380.33912856914685 292.95593876636849 0 292.95593876636849 1.6660786209249636 0 0 0 0 5.8321488236495806 51.613103266030564 0 51.613103266030564 -85.586629748304063 0 0 0 0 29.212537225059577 54.051726230929489 0 54.051726230929489 -21.055617751830141 0 0 0 0 63.100288051011376 228.10978212731425 0 228.10978212731425 -214.76326220924966 0 0 0 0 35.718278169919166 72.864889432558442 0 72.864889432558442 -8.870358613049234 0 0 0 0 -30.54171626768948 135.05929746502807 0 135.05929746502807 -37.265230856086418 0 0 0 0 -39.132676599589558 154.70869297293939 0 154.70869297293939 27.172395632012922 0 0 0 0 -10.829637932659463 18.414237673422917 0 18.414237673422917 3.0470097454399365 0 0 0 0 88.437029792709836 119.6429143356836 0 119.6429143356836 -128.53322396361909 0 0 0 0 33.995822228396719 224.74962460047391 0 224.74962460047391 -184.30056572909234 0 0 0 0 -135.30605011956504 335.49511879967758 0 335.49511879967758 -60.453082324325806 0 0 0 0 -14.356808240037935 143.81314906968328 0 143.81314906968328 -31.922074019006686 0 0 0 0 -43.440297799697873 86.196918663994438 0 86.196918663994438 107.88081703422358 0 0 0 0 -68.783062777059968 256.08702870964771 0 256.08702870964771 18.761070036285673 0 0 0 0 27.690255725479489 90.03428270346248 0 90.03428270346248 88.869172137219664 0 0 0 0 -38.284840898002585 141.54043713587453 0 141.54043713587453 84.554712894023396 0 0 0 0 -3.4529874625733763 100.79142083257307 0 100.79142083257307 45.876324062095364 0 0 0 0 21.460256709410174 83.605904612202806 0 83.605904612202806 32.826306262774942 0 0 0 0 74.208303233735933 133.28941292352829 0 133.28941292352829 -296.47229963114296 0 0 0 0 56.205416659590355 157.60699354744884 0 157.60699354744884 -172.9279398438739 0 0 0 0 -2.1471634542540414 124.10295640505501 0 124.10295640505501 -31.98119239468474 0 0 0 0 -14.777536029534531 176.29227063781673 0 176.29227063781673 -207.16788389040448 0 0 0 0 -15.492064409758314 124.35710217442829 0 124.35710217442829 57.551306571316672 0 0 0 0 16.778274369186377 85.624330889570331 0 85.624330889570331 68.560548677897884 0 0 0 0 -13.115253891399334 197.98761710277176 0 197.98761710277176 -183.54779915990366 0 0 0 0 39.07272052576991 222.90713528316701 0 222.90713528316701 -295.4069632712999 0 0 0 0 33.305368942347428 84.353800060425272 0 84.353800060425272 23.488080002802548 0 0 0 0 109.80633228945044 148.27695185078119 0 148.27695185078119 -215.14635143105988 0 0 0 0 39.510496442289877 169.93102899603036 0 169.93102899603036 -161.48525008815341 0 0 0 0 146.52612311520716 51.288447776190878 0 51.288447776190878 -168.72584425750961 0 0 0 0 69.268761384781101 122.93032888576636 0 122.93032888576636 -139.6110418321914 0 0 0 0 225.08148980679834 3.5036103013480897 0 3.5036103013480897 -103.21053810340527 0 0 0 0 147.36206812814999 46.405769896817219 0 46.405769896817219 -74.587576918267587 0 0 0 0 182.08246901168241 83.281262652664736 0 83.281262652664736 -163.93934270752652 0 0 0 0 186.49668481539993 47.220583024267398 0 47.220583024267398 -97.419329812268188 0 0 0 0 170.10257900123906 150.83344101572584 0 150.83344101572584 -191.02054950370075 0 0 0 0 123.09083092142828 105.16237638531311 0 105.16237638531311 -124.39280578946637 0 0 0 0 228.41845135931362 86.444274462643079 0 86.444274462643079 -144.10406544434954 0 0 0 0 123.63737109757676 150.90767998847241 0 150.90767998847241 -142.47753785942041 0 0 0 0 144.58237501177973 215.50413865250994 0 215.50413865250994 -207.77598718798254 0 0 0 0 96.341869944044447 200.29032844132598 0 200.29032844132598 -156.79978155018762 0 0 0 0 44.049611544127401 215.82724618712382 0 215.82724618712382 -185.77776190823351 0 0 0 0 54.018264620528498 272.11057395622629 0 272.11057395622629 -231.83579728459154 0 0 0 0 104.21312957820555 267.18347275973611 0 267.18347275973611 -199.08383457954915 0 0 0 0 -19.472104906839377 257.36080239545117 0 257.36080239545117 -182.66874905207806 0 0 0 0 -129.15587158914423 347.54861201918538 0 347.54861201918538 -165.01262874949316 0 0 0 0 -93.629129437140364 238.53798825990816 0 238.53798825990816 -192.79244894693693 0 0 0 0 -10.566387443323038 286.52884239521518 0 286.52884239521518 -165.4629848570039 0 0 0 0 -98.75924802020927 289.88939221295186 0 289.88939221295186 -391.50171917044645 0 0 0 0 57.783185262690765 51.851094244069031 0 51.851094244069031 -1.7829603480068243 0 0 0 0 -4.630814927717438 223.40499576862567 0 223.40499576862567 -270.784064222702 0 0 0 0 -41.706457413612952 235.93885025985583 0 235.93885025985583 -205.10018084594412 0 0 0 0 19.015471700968192 306.01504891018703 0 306.01504891018703 -294.35304461999567 0 0 0 0 94.639195872656273 229.36554405177048 0 229.36554405177048 -236.34105608981918 0 0 0 0 -95.997851506006555 171.17505959467962 0 171.17505959467962 -366.81925520542427 0 0 0 0 -265.04793869479909 241.64237346693699 0 241.64237346693699 -268.97589893388795 0 0 0 0 44.531456490833079 208.03843345610949 0 208.03843345610949 -357.47640563276946 0 0 0 0 -278.2829783831985 328.11437990747072 0 328.11437990747072 -181.3779153082578 0 0 0 0 -227.17507084550743 180.49362376951103 0 180.49362376951103 -85.647856869501993 0 0 0 0 56.572311723474016 42.449969027485551 0 42.449969027485551 35.32946571602325 0 0 0 0 -154.99274715118372 187.46268981831236 0 187.46268981831236 -85.104646083229454 0 0 0 0 -215.43493173902971 355.94292400692939 0 355.94292400692939 -270.80174917791737 0 0 0 0 -190.29817281727446 222.06034486035787 0 222.06034486035787 -42.019783361063674 0 0 0 0 -212.39932194466019 261.07215938262016 0 261.07215938262016 -110.80492263121414 0 0 0 0 -93.115671497223047 225.82821352568271 0 225.82821352568271 -115.71430158014118 0 0 0 0 -173.17067836556816 241.77406865799276 0 241.77406865799276 -187.62494790706842 0 0 0 0 -51.809450943140263 107.40503696104921 0 107.40503696104921 64.061000491111585 0 0 0 0 -116.18163226824254 350.04145663380041 0 350.04145663380041 -365.95435036902199 0 0 0 0 17.696911978637218 197.90751463377455 0 197.90751463377455 -447.36526905355277 0 0 0 0 -81.108084302744828 207.06180139418575 0 207.06180139418575 -279.57497515931027 0 0 0 0 38.790438273299515 166.7587089990302 0 166.7587089990302 -205.67854471600731 0 0 0 0 -162.90584092360223 211.47794829230406 0 211.47794829230406 -88.90342806877743 0 0 0 0 -173.52604084578343 325.74535233071947 0 325.74535233071947 -205.65311717135774 0 0 0 0 59.296098095546768 202.16226305996315 0 202.16226305996315 -342.61606922661304 0 0 0 0 -22.409478076675441 232.01706829065733 0 232.01706829065733 -115.06565148947993 0 0 0 0 -26.388757641634001 27.101496460641556 0 27.101496460641556 30.086377136121939 0 0 0 0 14.833248193725012 123.14603492035531 0 123.14603492035531 -7.8090256045106798 0 0 0 0 -51.779757106181933 336.62070988581399 0 336.62070988581399 -230.79731838965381 0 0 0 0 88.519180954921467 32.499173242220422 0 32.499173242220422 -268.50399101852963 0 0 0 0 60.378006751820067 1.9182110180227028 0 1.9182110180227028 -147.38167433519266 0 0 0 0 -15.065654250911251 10.514179736987927 0 10.514179736987927 -16.747683741189348 0 0 0 0 80.548125758556125 161.85981946458196 0 161.85981946458196 -1064.3374408047093 0 0 0 0 -72.339859234722098 458.73604421157506 0 458.73604421157506 -213.8993469653069 0 0 0 0 -205.58661688689608 382.02782899021986 0 382.02782899021986 -247.84771358917351 0 0 0 0 -71.388275493054607 94.665182117452787 0 94.665182117452787 -514.61673184426036 0 0 0 0 -248.38176662958722 1051.5210700710886 0 1051.5210700710886 -1528.3771721437734 0 0 0 0 -149.52609257045697 529.84265981458157 0 529.84265981458157 -913.18885926678195 0 0 0 0 -322.28805200297938 496.51229172679996 0 496.51229172679996 -1485.6628034020105 0 0 0 0 -461.87439339531829 914.58032825109149 0 914.58032825109149 -1594.4085439087648 0 0 0 0 -19.491369342380494 486.54226069308061 0 486.54226069308061 -335.28809467479005 0 0 0 0 -249.06428199342918 440.02872058181674 0 440.02872058181674 -80.005996612206218 0 0 0 0 -235.65201603557216 24.871723443167866 0 24.871723443167866 39.726578187881387 0 0 0 0 -33.60755439589451 114.66422861345018 0 114.66422861345018 86.828045122774725 0 0 0 0 207.0216159615411 226.62227507213538 0 226.62227507213538 -458.53862028487492 0 0 0 0 -300.26135733334195 275.31595172856396 0 275.31595172856396 -267.21951274713501 0 0 0 0 -170.41289285592211 565.53179677456501 0 565.53179677456501 -856.02196493855445 0 0 0 0 113.88983867557545 205.92452502767264 0 205.92452502767264 -299.31538691668538 0 0 0 0 -326.25114447403757 823.82631451773341 0 823.82631451773341 -684.53613502046755 0 0 0 0 -84.971687263278 317.53512377363222 0 317.53512377363222 -631.94726299808826 0 0 0 0 -223.39807375342934 563.51812562023406 0 563.51812562023406 -260.83741421968443 0 0 0 0 -185.8158999714251 549.86600410348547 0 549.86600410348547 -381.87325559390592 0 0 0 0 -388.81394329322347 890.47553340253216 0 890.47553340253216 -305.95282482306357 0 0 0 0 -388.01940387477225 881.08432443201309 0 881.08432443201309 -774.54533371960861 0 0 0 0 -578.85202445318646 821.3732839042932 0 821.3732839042932 -424.59888199700799 0 0 0 0 -517.68229383102585 1470.4357937748296 0 1470.4357937748296 -1670.3445272644458 0 0 0 0 -620.7140795353007 1801.4000442340184 0 1801.4000442340184 3498.6340718453721 0 0 0 0 -285.41096256128731 1866.0403329185174 0 1866.0403329185174 -12.027461238525575 0 0 0 0 -982.72057738172771 875.54859615146415 0 875.54859615146415 77.319910635589622 0 0 0 0 -940.75352069407381 1180.6314608141111 0 1180.6314608141111 1158.257011849113 0 0 0 0 -506.48419408847258 835.42311245523888 0 835.42311245523888 -21.307775516572292 0 0 0 0 153.75103993990342 436.4169349148724 0 436.4169349148724 -1345.5707539704963 0 0 0 0 126.85705151177535 754.84087655659823 0 754.84087655659823 -3169.2275934358913 0 0 0 0 438.17911658278172 353.90980525352643 0 353.90980525352643 1834.7594652283733 0 0 0 0 -2.513103621015631 9.5171093672471159 0 9.5171093672471159 -2.6580204613502474 0 0 0 0 -300.23566540004322 520.07080969736126 0 520.07080969736126 -548.57884875078162 0 0 0 0 0.39124422176917051 21.265534465540384 0 21.265534465540384 -7.5918142507553341 0 0 0 0 307.46206912369234 1033.285751803669 0 1033.285751803669 1978.8034487477562 0 0 0 0 763.06225429567348 904.47328416114033 0 904.47328416114033 1204.0127509864978 0 0 0 0 575.6018177980136 860.46588273877751 0 860.46588273877751 903.23816007372807 0 0 0 0 589.60204859734949 702.05973772703146 0 702.05973772703146 613.38924614395364 0 0 0 0 417.99053150880354 907.99510222964454 0 907.99510222964454 1210.1328797958267 0 0 0 0 -83.294332976460282 886.27516704275331 0 886.27516704275331 1604.822949403635 0 0 0 0 604.38330328547818 814.74028407687001 0 814.74028407687001 630.66632459295215 0 0 0 0 291.94606159906834 802.00185436924221 0 802.00185436924221 646.26412478712882 0 0 0 0 367.75541460922614 782.67361482229899 0 782.67361482229899 284.26570753630949 0 0 0 0 797.1807899557316 839.87456232278782 0 839.87456232278782 -392.34725472292484 0 0 0 0 934.23004194928217 406.62579391394684 0 406.62579391394684 121.87579271639697 0 0 0 0 705.31045802425797 508.61390660628967 0 508.61390660628967 93.005341938838683 0 0 0 0 634.54196969062468 912.67539151007077 0 912.67539151007077 211.74252039918792 0 0 0 0 687.87675821710582 506.77278341690544 0 506.77278341690544 324.03048157051671 0 0 0 0 -1200.7475070670798 338.52501106558429 0 338.52501106558429 70.038415095506934 0 0 0 0 -1263.6371779036635 779.62522224917484 0 779.62522224917484 613.94450356719608 0 0 0 0 -1137.6738838870297 690.67217929162871 0 690.67217929162871 540.70228242395387 0 0 0 0 -340.27368158996251 1355.3101925605661 0 1355.3101925605661 789.39912218239624 0 0 0 0 -723.26516097263084 575.46162162089604 0 575.46162162089604 619.1114308108954 0 0 0 0 -945.03723741612339 1171.5145683382434 0 1171.5145683382434 198.35916230527801 0 0 0 0 -734.71617427106412 422.28125895995981 0 422.28125895995981 -227.57985397736775 0 0 0 0 -1743.7924462610499 504.58129075657052 0 504.58129075657052 67.927870027997415 0 0 0 0 -1508.3129001052876 948.28682074816606 0 948.28682074816606 -535.31981097365497 0 0 0 0 -1568.0995221049343 -18.525582864298485 0 -18.525582864298485 -167.14624271972571 0 0 0 0 -1530.1301233282684 169.66724854942731 0 169.66724854942731 152.13455555768451 0 0 0 0 -1151.7981113095557 168.55314927089785 0 168.55314927089785 -40.639596227585571 0 0 0 0 -18.061882676334001 50.282560410068299 0 50.282560410068299 -58.503448483460545 0 0 0 0 435.41480632013736 131.10386561544146 0 131.10386561544146 225.54904518172407 0 0 0 0 526.81049481378159 470.68772115210413 0 470.68772115210413 -13.045427741337335 0 0 0 0 -98.297083224996641 364.88328850807738 0 364.88328850807738 322.1965495570912 0 0 0 0 -3.1407415131810872 1.4747075464412802 0 1.4747075464412802 -6.9669403092129869 0 0 0 0 -336.38289483369863 64.458178114175098 0 64.458178114175098 140.07437368677347 0 0 0 0 -2.794197459960742 201.27169813624641 0 201.27169813624641 172.97655100619886 0 0 0 0 -5.800354865645204 191.35975362631143 0 191.35975362631143 156.12666471527336 0 0 0 0 141.94558710355068 209.70753013077046 0 209.70753013077046 66.312697516463231 0 0 0 0 4.9131269889385294 193.35999008816725 0 193.35999008816725 102.04760401725071 0 0 0 0 -49.41450456084749 105.80840757742408 0 105.80840757742408 55.842158688028576 0 0 0 0 30.189076078375365 209.59141351573635 0 209.59141351573635 70.713081556139514 0 0 0 0 76.607208412836144 161.70114360206571 0 161.70114360206571 169.50754291319754 0 0 0 0 41.637220048580197 90.294212949754012 0 90.294212949754012 70.703612924171949 0 0 0 0 30.110936277746077 177.78873055503936 0 177.78873055503936 160.66220089359558 0 0 0 0 33.696563469440662 205.69617516349535 0 205.69617516349535 108.48907788621727 0 0 0 0 -11.443437277855992 213.68960486375727 0 213.68960486375727 159.18139428435825 0 0 0 0 -173.51369585691282 209.13937130593695 0 209.13937130593695 256.69051379000302 0 0 0 0 16.042091398789296 39.674243595793072 0 39.674243595793072 -18.66373168043674 0 0 0 0 64.019810045969791 87.499897960035725 0 87.499897960035725 42.647449965925716 0 0 0 0 -71.151559443824226 91.043276349118969 0 91.043276349118969 106.21735913206066 0 0 0 0 -15.982952835787728 150.54672636298164 0 150.54672636298164 -91.329770424301387 0 0 0 0 62.685664027381506 92.630147529122922 0 92.630147529122922 -36.651376551431099 0 0 0 0 60.588831438648413 166.08559183453326 0 166.08559183453326 -9.3155381640535779 0 0 0 0 2.0784789493166045 118.48024985827215 0 118.48024985827215 25.66930699153454 0 0 0 0 -10.149808052537054 64.878048231052631 0 64.878048231052631 74.903005648200804 0 0 0 0 0.47960250753532563 73.37009255535196 0 73.37009255535196 44.378741574063127 0 0 0 0 -29.850262377123727 107.20623337227153 0 107.20623337227153 26.10895809205249 0 0 0 0 131.42318134767629 167.10047731590385 0 167.10047731590385 -20.623051565897185 0 0 0 0 -28.500326295166971 85.645239166877616 0 85.645239166877616 60.278521632399872 0 0 0 0 -238.53030135635436 174.12236292411126 0 174.12236292411126 102.05510404717643 0 0 0 0 -160.17108189252031 122.5432408345514 0 122.5432408345514 17.862903985922458 0 0 0 0 -225.02421097725846 440.89555113768574 0 440.89555113768574 -148.45033235594747 0 0 0 0 -600.30374348683108 492.81548556454072 0 492.81548556454072 -49.823296063979797 0 0 0 0 -509.03885496499424 402.31626579561271 0 402.31626579561271 38.758509951847373 0 0 0 0 -588.82457200106546 255.9670522933593 0 255.9670522933593 -21.452299796510488 0 0 0 0 -3.2581421967524875 65.878137803511919 0 65.878137803511919 -70.21617331340758 0 0 0 0 94.544960734599044 205.66349895868916 0 205.66349895868916 31.076877251020051 0 0 0 0 -202.98428486383636 89.511824836183223 0 89.511824836183223 26.793601440207567 0 0 0 0 -142.15680189238628 267.03326458150696 0 267.03326458150696 -120.23034069710411 0 0 0 0 45.674939473523409 84.542960950206179 0 84.542960950206179 -61.235574593418278 0 0 0 0 1.0521184983954299 182.49330262093281 0 182.49330262093281 -71.339272181183333 0 0 0 0 156.03591743381003 10.785681655626831 0 10.785681655626831 -49.690303923183819 0 0 0 0 141.64397355275651 54.273581414578075 0 54.273581414578075 -43.643498181452742 0 0 0 0 358.78105109912576 182.60934069595532 0 182.60934069595532 -208.67265350099478 0 0 0 0 -235.34060854186828 666.27455747510976 0 666.27455747510976 -358.99098545868765 0 0 0 0 -683.8218446557803 484.45588746976864 0 484.45588746976864 784.18308562357561 0 0 0 0 1027.9613710025587 221.73498375533381 0 221.73498375533381 -527.98767726963706 0 0 0 0 -310.58181677371613 -240.16195492069528 0 -240.16195492069528 443.26474578872512 0 0 0 0 915.30253486184665 583.45018341979812 0 583.45018341979812 -1681.068268945397 0 0 0 0 -782.68932799555478 1214.4016194558426 0 1214.4016194558426 -1712.3678665945481 0 0 0 0 544.7467295307215 643.37263516711391 0 643.37263516711391 -3007.9741079199885 0 0 0 0 95.255942665862676 860.40899562513368 0 860.40899562513368 -278.85274756491708 0 0 0 0 8.6630106247363869 6.0961897023988172 0 6.0961897023988172 4.8360138581790864 0 0 0 0 730.59441718409653 -466.40179298132716 0 -466.40179298132716 88.344728010673862 0 0 0 0 -128.00940706000256 -175.12718072375719 0 -175.12718072375719 163.44405875724624 0 0 0 0 -231.47382656159061 269.71030045055795 0 269.71030045055795 26.378478973827441 0 0 0 0 -2858.6863015822832 1947.6712994485088 0 1947.6712994485088 -1209.9422853185679 0 0 0 0 -1.3022763052351642 0.53091444996513815 0 0.53091444996513815 -19.273170461886139 0 0 0 0 249.29380845934793 -412.92926854183315 0 -412.92926854183315 -850.07716331256233 0 0 0 0 -487.02444691141136 1886.6300735177065 0 1886.6300735177065 -2677.2753482412518 0 0 0 0 -544.6363800738909 1588.6143752256176 0 1588.6143752256176 -3112.1505836071738 0 0 0 0 -1375.6197167268583 -400.28749036599584 0 -400.28749036599584 -2560.1312896664022 0 0 0 0 -1101.5825830119138 378.89936366333859 0 378.89936366333859 -1387.5678204282376 0 0 0 0 375.43656883315998 994.80440726623056 0 994.80440726623056 -2223.1164139830216 0 0 0 0 -647.90390218289394 1289.2080729294248 0 1289.2080729294248 -1713.1621118102048 0 0 0 0 -670.87510091664262 1164.7331184434624 0 1164.7331184434624 -1171.8208467392542 0 0 0 0 -881.73477389061736 561.54826642800617 0 561.54826642800617 -288.76075116323773 0 0 0 0 -27.127469856393873 983.68764387031115 0 983.68764387031115 -1566.9313905810341 0 0 0 0 -269.5193974466074 604.224615860413 0 604.224615860413 -698.88458948851621 0 0 0 0 -379.97735037546227 190.1482037848109 0 190.1482037848109 -219.04707289567887 0 0 0 0 2.4473903103955337 10.430660342319371 0 10.430660342319371 -52.42772477331016 0 0 0 0 -506.70613856748969 527.98016467050911 0 527.98016467050911 -499.47892791792401 0 0 0 0 111.18622962267546 179.32302608721511 0 179.32302608721511 30.4596384380784 0 0 0 0 19.295618488375254 30.470546317090054 0 30.470546317090054 -4.4264046128900816 0 0 0 0 -28.513357813128096 69.701184683377505 0 69.701184683377505 -92.121131852065446 0 0 0 0 50.032829223157023 75.506220483577636 0 75.506220483577636 -83.888521865934308 0 0 0 0 7.041434998694621 39.351575624488248 0 39.351575624488248 -56.038831154099512 0 0 0 0 -19.485279488700399 10.947420962678137 0 10.947420962678137 -0.16708151779587865 0 0 0 0 -13.43837344062996 0.95084772724786149 0 0.95084772724786149 10.67274215839339 0 0 0 0 -177.73164093559899 241.69843529118225 0 241.69843529118225 -366.86657709514111 0 0 0 0 -128.0746116713417 494.92886154112057 0 494.92886154112057 -723.80159181985073 0 0 0 0 -208.14366877211432 438.2735904223955 0 438.2735904223955 -763.44122328288358 0 0 0 0 -118.43615390586274 541.89462394092698 0 541.89462394092698 -1387.1004489669867 0 0 0 0 -254.40906197308504 629.57163512133411 0 629.57163512133411 -672.40671798466065 0 0 0 0 -164.5836769549569 776.67268919394701 0 776.67268919394701 -1188.0152435483833 0 0 0 0 -47.946872037893627 800.2245832969129 0 800.2245832969129 -1248.1500901562686 0 0 0 0 -95.28332683746703 908.15771468485764 0 908.15771468485764 -1493.5765493453946 0 0 0 0 18.466384815449004 61.959438208960933 0 61.959438208960933 30.224196192160861 0 0 0 0 373.29277799283767 530.68833217357042 0 530.68833217357042 -1658.4921227477607 0 0 0 0 0.80032118420655252 11.480198634237809 0 11.480198634237809 -21.116259612798444 0 0 0 0 -376.48954181850422 -304.97287182815671 0 -304.97287182815671 -530.59810976932931 0 0 0 0 -0.60427516406343784 504.0130865987885 0 504.0130865987885 -1189.3861105639662 0 0 0 0 181.19715723840636 123.79551526311843 0 123.79551526311843 -245.02968619469175 0 0 0 0 -325.59120436038575 810.17946899414892 0 810.17946899414892 -1254.3386832347605 0 0 0 0 -230.18822122255733 757.42409654146832 0 757.42409654146832 -1254.4229568942392 0 0 0 0 -238.51073918546899 741.68007882479287 0 741.68007882479287 -1204.1958299018879 0 0 0 0 -250.25233078750898 694.12728265667101 0 694.12728265667101 -1293.1440453711984 0 0 0 0 -78.329508464070386 180.6577824211854 0 180.6577824211854 -227.39198264980223 0 0 0 0 52.121107168260096 31.530397077443098 0 31.530397077443098 -29.764794959195171 0 0 0 0 -36.107835592512856 117.99605266092112 0 117.99605266092112 -156.46580553252716 0 0 0 0 -32.09215494896651 65.609955147562829 0 65.609955147562829 38.747611491015988 0 0 0 0 -244.2379551607155 186.76503816846889 0 186.76503816846889 245.29617106101068 0 0 0 0 -153.10301152140164 64.584831430274789 0 64.584831430274789 -246.79684749263834 0 0 0 0 -207.47199158669537 420.54128267158103 0 420.54128267158103 -214.41195251679164 0 0 0 0 -40.490493174831499 427.19664643576834 0 427.19664643576834 -544.76323939012946 0 0 0 0 -17.532669604942356 77.069034340487832 0 77.069034340487832 16.273745653976846 0 0 0 0 -122.81746863629087 133.17194775563257 0 133.17194775563257 -62.366268359808601 0 0 0 0 -19.201193223899104 63.145549796413199 0 63.145549796413199 -59.366564771803269 0 0 0 0 -52.45937156144646 127.74574442781159 0 127.74574442781159 -114.58062943260302 0 0 0 0 -44.849319936140091 156.49322119365388 0 156.49322119365388 -153.00223994361113 0 0 0 0 -50.773923099273816 151.58883784008503 0 151.58883784008503 -127.11093032922508 0 0 0 0 31.509937290441798 39.48241373270298 0 39.48241373270298 -13.733487273541755 0 0 0 0 -37.038154989344676 64.313834261748468 0 64.313834261748468 -54.646348448974777 0 0 0 0 -490.15800468137604 579.50708091584966 0 579.50708091584966 -1471.8697738219926 0 0 0 0 -529.88395510519331 834.88194943672715 0 834.88194943672715 -1164.7227401120035 0 0 0 0 -562.79737390489026 1125.8735852134123 0 1125.8735852134123 -1844.1895735984435 0 0 0 0 -424.58190988292336 724.00520091888029 0 724.00520091888029 -1172.0148841189366 0 0 0 0 -592.28647348811501 1625.7758699079568 0 1625.7758699079568 -2115.1410770986986 0 0 0 0 3.2130419606318981 10.436417039245669 0 10.436417039245669 -10.602695925256327 0 0 0 0 -84.529202139347035 567.48969148335891 0 567.48969148335891 -1490.8818128224084 0 0 0 0 -46.939435809821589 100.72394102805993 0 100.72394102805993 126.61737682268722 0 0 0 0 -57.113571148694412 65.603581301455705 0 65.603581301455705 -49.356446685360766 0 0 0 0 -225.55388407834835 226.78860539536254 0 226.78860539536254 -181.83174520501052 0 0 0 0 -80.952429077064153 111.99771250840422 0 111.99771250840422 -962.64684553712141 0 0 0 0 -59.757681132710246 48.721323429619702 0 48.721323429619702 -9.8081903350282573 0 0 0 0 12.000477587877469 25.142856411198693 0 25.142856411198693 -4.5183214435228933 0 0 0 0 56.503145249054796 83.454770868862397 0 83.454770868862397 43.794307169911917 0 0 0 0 36.260913804944721 52.575712869293056 0 52.575712869293056 12.198775509925326 0 0 0 0 44.187614393791591 59.881483465240308 0 59.881483465240308 44.494230018870439 0 0 0 0 287.60588889317296 508.59030927122512 0 508.59030927122512 827.80222065737325 0 0 0 0 -28.739319566186225 35.723190756490972 0 35.723190756490972 0.98534842051151372 0 0 0 0 40.133175716644473 48.299145773278724 0 48.299145773278724 25.565917603846174 0 0 0 0 -20.943407245016715 42.141336062995833 0 42.141336062995833 4.1264885538257658 0 0 0 0 -47.02684454935806 50.160458508050397 0 50.160458508050397 14.713850287800597 0 0 0 0 62.173942223977065 72.516827077517519 0 72.516827077517519 -8.5603986661299132 0 0 0 0 -16.44028728939719 7.1154658844457686 0 7.1154658844457686 12.746290035857385 0 0 0 0 -22.824366953520737 9.841660882152631 0 9.841660882152631 57.22117803945622 0 0 0 0 -46.20526194525155 33.747404140332947 0 33.747404140332947 93.017809609591495 0 0 0 0 -65.807061755069299 127.57287371145503 0 127.57287371145503 101.31915291301266 0 0 0 0 16.052398281899514 114.58920097534428 0 114.58920097534428 20.48361381275754 0 0 0 0 245.70479432737193 498.4769045192661 0 498.4769045192661 1272.7235280433088 0 0 0 0 252.83351036391559 500.40402814780828 0 500.40402814780828 897.24748219488538 0 0 0 0 243.00319044199568 605.30143346794648 0 605.30143346794648 952.7887561134412 0 0 0 0 439.22960897912344 694.77620824178302 0 694.77620824178302 669.8885822314478 0 0 0 0 415.47916424149298 598.4693090642395 0 598.4693090642395 555.9288599039719 0 0 0 0 343.84436684169486 588.78600790300698 0 588.78600790300698 641.29652015760803 0 0 0 0 255.83627589286334 505.6930912839598 0 505.6930912839598 567.87577148343553 0 0 0 0 365.82675097243191 511.87696349371981 0 511.87696349371981 546.4743914377359 0 0 0 0 151.18012937554158 725.06699469732121 0 725.06699469732121 659.34089781413786 0 0 0 0 296.11254614168138 622.21168654228677 0 622.21168654228677 723.55718914423778 0 0 0 0 256.92202253576397 636.29472449787136 0 636.29472449787136 746.50066540089028 0 0 0 0 376.42622016387031 534.64769222151517 0 534.64769222151517 830.79866355739068 0 0 0 0 -508.48751536836971 242.1630996256722 0 242.1630996256722 122.71143752615899 0 0 0 0 3.3139151836254968 5.1023363007670781 0 5.1023363007670781 2.8875425206118166 0 0 0 0 -497.59597915963968 3.2191545286477776 0 3.2191545286477776 24.247627305980131 0 0 0 0 515.31602423663935 715.8487822604111 0 715.8487822604111 669.60131614241982 0 0 0 0 -68.963778546443791 190.76032251890865 0 190.76032251890865 -37.178305945853936 0 0 0 0 220.73028902834267 838.78294042872949 0 838.78294042872949 619.69319098984124 0 0 0 0 38.839288876778028 664.03623576594191 0 664.03623576594191 454.11767580924788 0 0 0 0 47.264470471352979 810.69141026472789 0 810.69141026472789 654.46857849898515 0 0 0 0 115.74047656779294 861.63751997305371 0 861.63751997305371 582.30567189343856 0 0 0 0 178.17472366839502 20.989857790125825 0 20.989857790125825 18.772945197444642 0 0 0 0 206.93926520852983 669.05350063294463 0 669.05350063294463 346.8685269732814 0 0 0 0 388.83061088310205 153.61759170702862 0 153.61759170702862 -71.495356881030602 0 0 0 0 73.419852569539216 200.06199637083046 0 200.06199637083046 -11.965362777671544 0 0 0 0 -41.597921942702669 144.87264345443691 0 144.87264345443691 -33.895833392045461 0 0 0 0 6.0152695635324562 111.28859709521566 0 111.28859709521566 -11.599909159558592 0 0 0 0 -127.81791224730841 139.3304305250058 0 139.3304305250058 50.717228696681559 0 0 0 0 -359.02781682985369 203.56441492401063 0 203.56441492401063 44.358056839904748 0 0 0 0 -62.433669005945688 51.354728400266794 0 51.354728400266794 -10.374693688404761 0 0 0 0 -150.26383260911098 -46.592281240649754 0 -46.592281240649754 52.728469314766699 0 0 0 0 2.1210780477479148 6.5689032335984336 0 6.5689032335984336 6.6711158100000318 0 0 0 0 -4.3001992031204281 16.506177635732456 0 16.506177635732456 50.92166718741646 0 0 0 0 -104.68735835554253 117.00426267558942 0 117.00426267558942 72.165211722909589 0 0 0 0 -54.795727513235761 -25.186082631058525 0 -25.186082631058525 99.173934345482849 0 0 0 0 -186.22480124512822 -8.6597618677551509 0 -8.6597618677551509 -353.29903043906961 0 0 0 0 -23.232580636978781 14.038348794417374 0 14.038348794417374 -4.9437648768710289 0 0 0 0 -39.258936554721004 44.006987061096879 0 44.006987061096879 -62.003775449236855 0 0 0 0 -69.087439897964941 72.916876152798068 0 72.916876152798068 -36.610574602596898 0 0 0 0 -60.610460863674234 97.311466414452298 0 97.311466414452298 -87.846841898804996 0 0 0 0 -58.315860838163871 47.478110929499962 0 47.478110929499962 -43.8418400708033 0 0 0 0 -35.816642766431414 95.310392623400503 0 95.310392623400503 -61.534417901260895 0 0 0 0 8.2526600565470289 49.379506685771048 0 49.379506685771048 -48.522191642183316 0 0 0 0 -6.5487049901024452 49.622939670566169 0 49.622939670566169 -49.189633484595277 0 0 0 0 6.9841682717233198 69.785903271505958 0 69.785903271505958 -120.06454802010558 0 0 0 0 -40.03290961881504 58.613813413027827 0 58.613813413027827 -34.433954875585457 0 0 0 0 -44.132210259704152 63.165916920694144 0 63.165916920694144 1.2990572862472618 0 0 0 0 -2.6089466258117682 60.367994696705864 0 60.367994696705864 -80.667557402251987 0 0 0 0 -0.039712770041660406 86.013882399493014 0 86.013882399493014 36.952218944585184 0 0 0 0 0.35734124362113562 70.569324939561739 0 70.569324939561739 -75.755163135676412 0 0 0 0 128.41835392897337 102.15923785895575 0 102.15923785895575 -94.225647068058606 0 0 0 0 37.517593023352674 160.14787222084124 0 160.14787222084124 94.997504462291545 0 0 0 0 39.17705887487682 152.98052111212746 0 152.98052111212746 -95.291266223910498 0 0 0 0 -6.4645624879600803 21.020334837271321 0 21.020334837271321 8.4757355419787643 0 0 0 0 10.907342605132726 157.20096952551467 0 157.20096952551467 -56.650059747713385 0 0 0 0 -203.68990857600875 -197.32710725051584 0 -197.32710725051584 185.01044193608686 0 0 0 0 9.8877683393809246 36.82921618796253 0 36.82921618796253 -42.92956267067018 0 0 0 0 -94.275294603816292 73.912575380149065 0 73.912575380149065 1.3641374025755795 0 0 0 0 -144.2900878848086 84.332386605659849 0 84.332386605659849 -39.300235950518982 0 0 0 0 -0.74318985160789452 56.317669739524717 0 56.317669739524717 -59.496668114079512 0 0 0 0 -108.92224897054712 152.37136918270789 0 152.37136918270789 -54.875645248685032 0 0 0 0 190.83022422711656 320.3655840511492 0 320.3655840511492 -264.04181632117252 0 0 0 0 -9.0922093589345501 52.714966877507209 0 52.714966877507209 -44.815651086569687 0 0 0 0 -2.1555985431857323 10.268512179194886 0 10.268512179194886 -13.147334850147416 0 0 0 0 -62.701997586482321 -11.734168615366798 0 -11.734168615366798 14.690922476511332 0 0 0 0 88.452291491976212 10.314546791531029 0 10.314546791531029 -76.963752811017912 0 0 0 0 -149.72538182460994 423.48486532947572 0 423.48486532947572 -677.06709341032547 0 0 0 0 181.20851743545063 625.01260158176592 0 625.01260158176592 -2743.4779352935439 0 0 0 0 555.63887119733499 818.38207107649578 0 818.38207107649578 -2752.6634660348354 0 0 0 0 -1347.1650093358548 818.9321594365465 0 818.9321594365465 -669.29297840068466 0 0 0 0 -102.17319755851349 1172.8565637674183 0 1172.8565637674183 -2568.0643469863171 0 0 0 0 -24.568426074887611 73.729974656180275 0 73.729974656180275 -13.442329251585761 0 0 0 0 3.839927772663799 19.75299929149844 0 19.75299929149844 10.934670459723463 0 0 0 0 -19.669323270591235 30.328094962120048 0 30.328094962120048 9.7997928940533825 0 0 0 0 -28.765392987821542 91.441614586692594 0 91.441614586692594 -36.924051692330977 0 0 0 0 -4.8736957053333754 63.579215812089387 0 63.579215812089387 -31.779731932183495 0 0 0 0 14.852918198496582 28.927880060904613 0 28.927880060904613 12.667200560604499 0 0 0 0 -25.310936218117178 54.341428238799494 0 54.341428238799494 -22.925287174287348 0 0 0 0 -28.780722998766578 90.689051970970468 0 90.689051970970468 -73.016464745873236 0 0 0 0 -106.82079219956358 100.09731734017259 0 100.09731734017259 -13.386661626514979 0 0 0 0 -15.479514998698505 80.231734178662919 0 80.231734178662919 -29.049209813252673 0 0 0 0 -308.41605256684124 512.17393637642817 0 512.17393637642817 -351.39297176503169 0 0 0 0 -103.51861750980606 1251.3395267736851 0 1251.3395267736851 -547.41396206478385 0 0 0 0 32.487460230266151 -44.597039652951935 0 -44.597039652951935 -313.71224799964693 0 0 0 0 -964.83914573435322 89.609381497488357 0 89.609381497488357 -52.503428162119235 0 0 0 0 -1144.5965277874493 873.10838419404172 0 873.10838419404172 -486.08740155883424 0 0 0 0 7.6538958700604667 7.629317011227954 0 7.629317011227954 4.1342562196253709 0 0 0 0 -534.39154457041877 -438.73590239460464 0 -438.73590239460464 1538.7671269440107 0 0 0 0 -467.38805655990291 366.98120834962538 0 366.98120834962538 -474.52605799710727 0 0 0 0 266.15000818065892 217.4391644545758 0 217.4391644545758 1134.9575726886687 0 0 0 0 159.85263350909918 846.0496601271625 0 846.0496601271625 227.88389341512811 0 0 0 0 -8.6384748554669102 14.168223538793882 0 14.168223538793882 -12.001740920569887 0 0 0 0 -569.24753053674067 1600.3843916058686 0 1600.3843916058686 1347.975597045006 0 0 0 0 -846.9453534912609 2166.4013255416066 0 2166.4013255416066 199.8339676244068 0 0 0 0 -593.72682356939185 1535.3158663417998 0 1535.3158663417998 -136.10594108622172 0 0 0 0 -528.57948720178683 2092.3926019186911 0 2092.3926019186911 -1610.5360333009594 0 0 0 0 -805.07733596573235 977.34433626639657 0 977.34433626639657 833.00910830704379 0 0 0 0 -817.24509917609976 1330.8436045933631 0 1330.8436045933631 -267.42349918688706 0 0 0 0 -1209.397245448592 859.40963219702826 0 859.40963219702826 453.00835343953804 0 0 0 0 -536.37123413175141 1183.6230485693304 0 1183.6230485693304 494.3115188501688 0 0 0 0 -1211.4456376268163 725.89076438538461 0 725.89076438538461 -531.13519298387109 0 0 0 0 -1.8928405112752111 -0.3939560813397236 0 -0.3939560813397236 -8.3798936408418285 0 0 0 0 -4302.325128876917 1459.2501648464167 0 1459.2501648464167 410.89492709761544 0 0 0 0 3.8130110386107434 13.228801703345525 0 13.228801703345525 -31.001318173864604 0 0 0 0 -1441.9080208364248 1029.3814992273401 0 1029.3814992273401 -173.01855065149721 0 0 0 0 -916.38677984262176 1002.1529121311469 0 1002.1529121311469 -770.03068064157924 0 0 0 0 176.2755112761829 207.22440585195318 0 207.22440585195318 78.6482127988711 0 0 0 0 18.230465613060716 33.986496679989102 0 33.986496679989102 4.093396398214054 0 0 0 0 -120.80195741278294 9.5727134279004531 0 9.5727134279004531 614.88316285496694 0 0 0 0 -75.043903235577091 345.6238962764337 0 345.6238962764337 2143.5564191502635 0 0 0 0 274.86167250704602 1111.3861116754269 0 1111.3861116754269 474.18037838434611 0 0 0 0 359.95647711883612 1467.2556307287978 0 1467.2556307287978 1741.6281929023389 0 0 0 0 1686.5228075886407 1076.4041261690654 0 1076.4041261690654 -187.47208757190674 0 0 0 0 497.61898097611993 1784.704813536322 0 1784.704813536322 -605.35422535234829 0 0 0 0 1121.3447606450354 843.06127333812401 0 843.06127333812401 -1201.8374364490446 0 0 0 0 -111.2410226535967 447.93057330158717 0 447.93057330158717 -1193.9268369763449 0 0 0 0 16.952011679342831 1452.7076679047314 0 1452.7076679047314 -696.32707000439768 0 0 0 0 -1143.4678931349408 1097.6285835217059 0 1097.6285835217059 -225.84004981032194 0 0 0 0 38.904709310844424 19.678254446143967 0 19.678254446143967 7.983074291820671 0 0 0 0 -351.99181625638039 1767.6539233884973 0 1767.6539233884973 -1124.5926641476981 0 0 0 0 193.51292301109424 150.44807795584347 0 150.44807795584347 -340.29385983638349 0 0 0 0 -3.1589879964303691 -45.777206787919567 0 -45.777206787919567 -14.712134920977405 0 0 0 0 115.18406414537458 306.50127502306714 0 306.50127502306714 -68.49641405010334 0 0 0 0 -68.897912109214218 48.883525372012514 0 48.883525372012514 -11.815145153062389 0 0 0 0 247.78171591617865 758.10083582140214 0 758.10083582140214 -2390.1956777212181 0 0 0 0 73.861887809176778 34.191520244975891 0 34.191520244975891 0.66775727352261072 0 0 0 0 -230.12659177539172 168.42073521978455 0 168.42073521978455 2154.5848749282741 0 0 0 0 -1382.1616653621095 1139.8361882107856 0 1139.8361882107856 -771.95423334771476 0 0 0 0 8.4420890430053817 36.022348767844221 0 36.022348767844221 6.7561725965906021 0 0 0 0 5.8068675662731835 20.166274020920071 0 20.166274020920071 1.7764520994746249 0 0 0 0 -52.05564955547743 -129.77604397549294 0 -129.77604397549294 -4085.9860503818636 0 0 0 0 -433.84280499092711 913.1206842826723 0 913.1206842826723 -1200.2120562180644 0 0 0 0 -169.99521938747785 1302.7952995671221 0 1302.7952995671221 -2907.5905767554505 0 0 0 0 -1537.8324263095565 590.14170045896026 0 590.14170045896026 -958.90353186853463 0 0 0 0 -285.12572965391519 320.34706897883007 0 320.34706897883007 -1002.2701996814867 0 0 0 0 790.83303448572406 693.71722709876485 0 693.71722709876485 -2382.7446234065937 0 0 0 0 687.44925008101563 976.20085457769164 0 976.20085457769164 -1199.7202793574168 0 0 0 0 74.60878288737149 919.75292576614447 0 919.75292576614447 -53.741954403754789 0 0 0 0 2102.900209613239 1110.8210828172887 0 1110.8210828172887 -102.2012717180769 0 0 0 0 -25.675000336181256 224.83106947198394 0 224.83106947198394 1589.7127407041935 0 0 0 0 8.5837559163966546 9.2063048253135662 0 9.2063048253135662 7.782897202134393 0 0 0 0 1280.0425160935192 127.09144837057102 0 127.09144837057102 -281.35063161222206 0 0 0 0 940.48778288986705 1683.738771050861 0 1683.738771050861 1361.8462771903432 0 0 0 0 167.45942623371229 856.14564001611143 0 856.14564001611143 499.25816683264202 0 0 0 0 -122.58340827845677 869.38399907780695 0 869.38399907780695 1062.4809693894204 0 0 0 0 143.17018323548928 972.88111855211537 0 972.88111855211537 723.44038688240107 0 0 0 0 -497.61404412044431 283.72911195821507 0 283.72911195821507 749.96475681112497 0 0 0 0 -94.6184365390327 589.78490345546743 0 589.78490345546743 293.3708937636402 0 0 0 0 -578.00102124311525 261.2968951132716 0 261.2968951132716 253.65987675523502 0 0 0 0 -241.21700274257455 512.79958823221386 0 512.79958823221386 51.711197199103481 0 0 0 0 -264.14189527212125 83.470277221793822 0 83.470277221793822 -43.771336363686714 0 0 0 0 -291.43641992120683 624.11130669376143 0 624.11130669376143 776.78164035847294 0 0 0 0 -42.679005925929232 312.60454544837194 0 312.60454544837194 417.01575326701277 0 0 0 0 145.77771369760012 749.25417087948881 0 749.25417087948881 712.15810533767217 0 0 0 0 367.31906003397125 219.4276821467829 0 219.4276821467829 273.72414671396837 0 0 0 0 137.44197595851438 491.31928727551713 0 491.31928727551713 579.58526009691559 0 0 0 0 -135.30096988876903 353.56266699833213 0 353.56266699833213 401.79350425215671 0 0 0 0 372.85494097879564 268.53180530020472 0 268.53180530020472 273.04796364327194 0 0 0 0 25.369457847928061 -42.858142606408364 0 -42.858142606408364 25.96441149833845 0 0 0 0 -59.392208829312949 51.606900085720554 0 51.606900085720554 -382.27039994302322 0 0 0 0 523.36592925335572 309.98242047546955 0 309.98242047546955 -292.10675076858024 0 0 0 0 716.13317323211231 742.08196536125615 0 742.08196536125615 -899.90745664259885 0 0 0 0 74.548178354383708 292.39566043682498 0 292.39566043682498 -1015.3166325755301 0 0 0 0 -663.99121541393106 -1.1160317139292601 0 -1.1160317139292601 -60.049418489732489 0 0 0 0 -714.68182497071393 417.17984954654821 0 417.17984954654821 33.476008717647346 0 0 0 0 -432.98017525993055 246.84615932090674 0 246.84615932090674 -981.32945771423692 0 0 0 0 -389.04562728374731 98.963861499796622 0 98.963861499796622 -2614.9810201179353 0 0 0 0 -299.56930411649228 1186.3664367845195 0 1186.3664367845195 -2740.1042596916814 0 0 0 0 -139.5794040798537 863.65887197309348 0 863.65887197309348 -2289.5423016191635 0 0 0 0 392.29034382009559 1789.0883790878142 0 1789.0883790878142 -3355.0315057195403 0 0 0 0 121.58668617564763 2138.8560136581946 0 2138.8560136581946 -1253.4921472675051 0 0 0 0 176.07851506658335 500.71917656331425 0 500.71917656331425 -947.16728984488873 0 0 0 0 1.8785095540370094 1041.4851253110828 0 1041.4851253110828 -2135.2445334446093 0 0 0 0 -58.31788045912981 811.76643372971012 0 811.76643372971012 5230.1494255841217 0 0 0 0 4.1863976011496504 9.6322844890377723 0 9.6322844890377723 6.4787280198921451 0 0 0 0 235.54140342509936 -290.84341137879073 0 -290.84341137879073 74.007804923428921 0 0 0 0 -1.7178241945439225 2.0037402011048187 0 2.0037402011048187 10.010697947372364 0 0 0 0 128.64393046163605 -673.23453586274991 0 -673.23453586274991 5343.7543606138206 0 0 0 0 -99.568318072691909 -915.34376636186789 0 -915.34376636186789 5087.1629363736138 0 0 0 0 -361.68823741514643 -32.018605548990308 0 -32.018605548990308 2408.3380401625764 0 0 0 0 -179.62474603101145 1755.2291022018471 0 1755.2291022018471 1633.4506044603768 0 0 0 0 -427.53793058406154 642.06029653502628 0 642.06029653502628 3089.526373256318 0 0 0 0 -487.76090703740192 1662.5627126503678 0 1662.5627126503678 3495.0201063611603 0 0 0 0 -361.05938899414832 1891.4535070745005 0 1891.4535070745005 568.37743008910911 0 0 0 0 -257.37498329185109 1149.8053548441785 0 1149.8053548441785 589.21586805165862 0 0 0 0 57.270272796027712 589.05928758208756 0 589.05928758208756 -662.28544082400913 0 0 0 0 -9.594834187926871 3.1872919669312125 0 3.1872919669312125 14.447165036136823 0 0 0 0 -1333.3662078233883 514.81030026616645 0 514.81030026616645 -42.965147650771542 0 0 0 0 -2270.6780315573087 256.63689355402312 0 256.63689355402312 90.601782359648496 0 0 0 0 -1.7283473925488124 1.1167516579996288 0 1.1167516579996288 -4.8207960066614532 0 0 0 0 -309.00441001237414 752.47778209227545 0 752.47778209227545 -332.64946515110933 0 0 0 0 -1331.3902637339816 979.77627364937507 0 979.77627364937507 0.0089710325264604762 0 0 0 0 -1337.725506861585 525.09436239666684 0 525.09436239666684 -51.781811324617593 0 0 0 0 203.22601806998864 1028.7897046430298 0 1028.7897046430298 -210.46660504054671 0 0 0 0 -380.74985532843493 907.88008911205543 0 907.88008911205543 -133.21233965007559 0 0 0 0 -36.234083657920564 1206.1687150521757 0 1206.1687150521757 -0.77585407363949344 0 0 0 0 -27.016511601821549 1271.422556933212 0 1271.422556933212 -234.85777197519201 0 0 0 0 285.65835284842251 1059.9726734518772 0 1059.9726734518772 -391.13968755098176 0 0 0 0 53.976131902600173 751.97064729397243 0 751.97064729397243 466.47456556073121 0 0 0 0 91.730024600303295 1088.5166010476678 0 1088.5166010476678 440.18118621295434 0 0 0 0 176.04068006204034 1099.6605713671597 0 1099.6605713671597 594.01649784761685 0 0 0 0 -162.6426570267742 990.72162693230121 0 990.72162693230121 1443.4554733299883 0 0 0 0 -162.00048558559979 871.9662084279023 0 871.9662084279023 1566.3023971442017 0 0 0 0 -373.58042119159654 759.6130996227439 0 759.6130996227439 1527.950456022314 0 0 0 0 -23.490628570336412 245.22188397213176 0 245.22188397213176 2095.7265336752753 0 0 0 0 69.064063364197864 466.26771514429856 0 466.26771514429856 1299.1766416975297 0 0 0 0 30.584547579241189 585.77536247200624 0 585.77536247200624 1243.3077679163835 0 0 0 0 -70.110261373181856 611.10310522427608 0 611.10310522427608 1262.60129994608 0 0 0 0 37.798188278247835 995.95486885291757 0 995.95486885291757 353.23266629730642 0 0 0 0 -55.156221497157077 33.052092291295139 0 33.052092291295139 -18.568692249663115 0 0 0 0 385.80536286724237 669.11044425771252 0 669.11044425771252 265.28829658561153 0 0 0 0 189.74393781404069 595.81445313723816 0 595.81445313723816 343.40053064860695 0 0 0 0 366.75254240255617 -236.46788567115982 0 -236.46788567115982 -98.665147820458515 0 0 0 0 231.50258139649668 492.70226349280711 0 492.70226349280711 16.575726103801571 0 0 0 0 346.60570646145425 1002.9216391684749 0 1002.9216391684749 -955.71417783439392 0 0 0 0 43.263966881277156 931.18865116333473 0 931.18865116333473 336.97401035509029 0 0 0 0 101.19592481809559 1525.3821303428631 0 1525.3821303428631 -649.54218623825 0 0 0 0 -638.15186393479235 1647.5549036584998 0 1647.5549036584998 -0.5545851697165145 0 0 0 0 -1051.8522768802359 2109.5946893413566 0 2109.5946893413566 -504.39270037107053 0 0 0 0 -937.70680324694695 1928.9117936263137 0 1928.9117936263137 -470.30801570056065 0 0 0 0 -351.58614530102204 1953.0963010526175 0 1953.0963010526175 -1027.2973758733715 0 0 0 0 -1201.2465994120212 2297.1779341160072 0 2297.1779341160072 -979.69005983430543 0 0 0 0 -2223.9424128020328 2260.8126198398386 0 2260.8126198398386 -4105.9688188946457 0 0 0 0 -2728.9415364951274 3159.1017683896644 0 3159.1017683896644 -1256.6135443891253 0 0 0 0 -1590.8449044125591 2096.7072927071858 0 2096.7072927071858 0.17498076302581467 0 0 0 0 -1974.1947073579431 2401.4048557730493 0 2401.4048557730493 -238.70193670982553 0 0 0 0 -1751.78646235419 1690.6640130310043 0 1690.6640130310043 767.52843570329424 0 0 0 0 9.9221334000121715 1517.7408798269316 0 1517.7408798269316 -3768.8323687114025 0 0 0 0 -20.411744514148211 14.870247116286777 0 14.870247116286777 -9.816021201969761 0 0 0 0 -1748.9675582761702 483.60403090434556 0 483.60403090434556 775.8858677236276 0 0 0 0 -3109.6702188161653 2609.4548983109562 0 2609.4548983109562 -932.985458167459 0 0 0 0 -764.6187338561358 950.33012485363724 0 950.33012485363724 -756.40552951410064 0 0 0 0 2963.9072872014476 541.04629870230565 0 541.04629870230565 -555.57674506062176 0 0 0 0 263.89209682912951 1586.5128445134906 0 1586.5128445134906 -810.01678399014054 0 0 0 0 1411.7655119036863 2721.5188239982381 0 2721.5188239982381 -1467.7623236354557 0 0 0 0 18.385599376595565 1735.7153205835639 0 1735.7153205835639 -635.81359949751641 0 0 0 0 -6081.2923041538133 1370.8084587884168 0 1370.8084587884168 -284.45868026786775 0 0 0 0 3914.0032578537066 2857.3282311075745 0 2857.3282311075745 -1615.8655903845211 0 0 0 0 -2540.0206489045759 1484.8544015221414 0 1484.8544015221414 -3169.4993754172319 0 0 0 0 -4.7579362947051109 13.771627703317669 0 13.771627703317669 -19.009473341248452 0 0 0 0 -57.190913199665374 3865.0956116257003 0 3865.0956116257003 -1311.7692502231221 0 0 0 0 -1210.9735168837651 2696.1672364807746 0 2696.1672364807746 -273.73740573505347 0 0 0 0 -133.50369979140669 3757.0651224886824 0 3757.0651224886824 -1296.2475348581211 0 0 0 0 -88.720036745268771 70.798915988480076 0 70.798915988480076 -8.4942917906737421 0 0 0 0 -2252.6178340619663 4382.4871991040418 0 4382.4871991040418 -1339.3635946317227 0 0 0 0 -5606.8473479396489 4215.0843161139055 0 4215.0843161139055 -25.756995784642641 0 0 0 0 -2887.2521075808763 3498.8831731853425 0 3498.8831731853425 98.459991000941955 0 0 0 0 -90.727984771914635 61.287733194858447 0 61.287733194858447 -48.400541715614963 0 0 0 0 -996.64496033304022 1742.0002662305487 0 1742.0002662305487 -1486.6260324366158 0 0 0 0 -1238.1076667788766 2316.1884280859376 0 2316.1884280859376 -991.84437504084781 0 0 0 0 19.950090713358122 29.300225268968632 0 29.300225268968632 7.005859654027347 0 0 0 0 -71.101499436532322 2572.7509366058512 0 2572.7509366058512 -940.9820530989673 0 0 0 0 -319.9561242447262 2951.7323359055081 0 2951.7323359055081 -1313.199453786714 0 0 0 0 -903.75349257062953 1784.5615664510697 0 1784.5615664510697 -1092.1054939581663 0 0 0 0 -1008.7423750593643 1782.7882975293178 0 1782.7882975293178 -802.08561315492261 0 0 0 0 -2580.6279419652674 2396.5861654465407 0 2396.5861654465407 -1850.205272365245 0 0 0 0 -1070.778356671618 1470.3161398436423 0 1470.3161398436423 -1322.6933270434383 0 0 0 0 -1717.6147670025402 980.9046628556971 0 980.9046628556971 -875.89975583838532 0 0 0 0 -3200.111273895398 502.98093884796253 0 502.98093884796253 -1026.175477522891 0 0 0 0 -1582.0909315455674 393.16749693315433 0 393.16749693315433 -557.01728544422076 0 0 0 0 -807.10492261212858 1392.1527782713238 0 1392.1527782713238 -1135.9707188918546 0 0 0 0 -1673.6605367090187 501.94855419254964 0 501.94855419254964 -309.27128303804784 0 0 0 0 77.007535224837284 1577.942665214825 0 1577.942665214825 -425.17131062163389 0 0 0 0 -772.68506390766879 944.86566618114011 0 944.86566618114011 -193.2846847474575 0 0 0 0 -833.86847762500156 1051.2897220996092 0 1051.2897220996092 965.13367463514442 0 0 0 0 581.89384529793142 1303.8382049322245 0 1303.8382049322245 -481.24326738313539 0 0 0 0 -533.49221677978403 367.15692473415402 0 367.15692473415402 276.79088507231791 0 0 0 0 -6.9556073344268867 23.138688709587029 0 23.138688709587029 15.447503519089004 0 0 0 0 -506.10433872377234 -315.03059406577086 0 -315.03059406577086 -205.06251957926725 0 0 0 0 406.43030453661504 -424.71887376115774 0 -424.71887376115774 900.07743847529127 0 0 0 0 -1653.8087860882115 440.00272861000849 0 440.00272861000849 -350.14682191453176 0 0 0 0 -89.036186343835567 149.19991753517115 0 149.19991753517115 -433.25898725027218 0 0 0 0 -1557.9556258434477 144.43225777384941 0 144.43225777384941 478.28463098432985 0 0 0 0 -195.42035477117861 954.29639279143885 0 954.29639279143885 3.499956916544761 0 0 0 0 -11.645713696954772 282.15945442258817 0 282.15945442258817 274.27879046875751 0 0 0 0 -309.16445340262726 342.4795309608453 0 342.4795309608453 549.98378572816 0 0 0 0 -1382.0638255196563 -65.122045941396209 0 -65.122045941396209 460.3930859718821 0 0 0 0 -605.35159848951525 25.135303198108886 0 25.135303198108886 296.62623059962061 0 0 0 0 -1.4491701342467334 2.0517388457620456 0 2.0517388457620456 -0.81639501869216247 0 0 0 0 699.54305021056939 612.16117889135421 0 612.16117889135421 337.78050287746009 0 0 0 0 -937.87038171133918 -219.63879238269874 0 -219.63879238269874 54.282722975534853 0 0 0 0 -208.16429929835249 902.09300825322498 0 902.09300825322498 550.53342886077007 0 0 0 0 1715.990954124989 965.19178089111665 0 965.19178089111665 111.61195373008377 0 0 0 0 -12.731635812447262 39.870278861170647 0 39.870278861170647 -43.843717271469473 0 0 0 0 451.40820665619594 978.77310712639883 0 978.77310712639883 972.72519758081762 0 0 0 0 738.93238280765763 30.09502461890952 0 30.09502461890952 722.80143402032263 0 0 0 0 -2005.7677747084799 662.89557546172 0 662.89557546172 -394.53989173276932 0 0 0 0 -2839.0639045547532 251.09577287229877 0 251.09577287229877 -90.018960356712341 0 0 0 0 -1978.4824506379373 642.47028698636132 0 642.47028698636132 -492.29951564330258 0 0 0 0 -1341.6013379642973 525.6781551870663 0 525.6781551870663 -471.45784746712889 0 0 0 0 -1737.0670069776315 859.14367729438527 0 859.14367729438527 -504.67365758967935 0 0 0 0 -1700.6807112204215 619.21122164233384 0 619.21122164233384 -118.84317747619934 0 0 0 0 -2.724233254271013 6.0312064147268316 0 6.0312064147268316 -6.8187300900048626 0 0 0 0 -1251.4616394243949 184.57853206101936 0 184.57853206101936 54.730085291826981 0 0 0 0 0.43574114776168926 2.1848733778108453 0 2.1848733778108453 -2.2077090982921277 0 0 0 0 -1861.2538017359984 920.63102809914562 0 920.63102809914562 -531.79629440059216 0 0 0 0 581.52207763036131 370.32801372236281 0 370.32801372236281 300.34076425016974 0 0 0 0 663.10665323975991 278.50892872556142 0 278.50892872556142 67.432301742373966 0 0 0 0 954.94676617049117 216.08158509421628 0 216.08158509421628 61.544188921310706 0 0 0 0 1489.1533598467722 478.58410576067399 0 478.58410576067399 -205.05763083750935 0 0 0 0 857.44758157993056 189.1089963256527 0 189.1089963256527 279.10350814569392 0 0 0 0 997.34142630329006 109.12510796490824 0 109.12510796490824 176.77530409605242 0 0 0 0 773.59870850178413 293.10027609198005 0 293.10027609198005 186.93576000069152 0 0 0 0 649.90130064066398 96.396478509515873 0 96.396478509515873 -32.00010566538549 0 0 0 0 1155.5858570462697 232.30663048191491 0 232.30663048191491 -358.14309214786044 0 0 0 0 534.70591052357486 384.92570137880102 0 384.92570137880102 152.77751169691328 0 0 0 0 -7.3012161587096998 15.662331582206804 0 15.662331582206804 -13.992483661679444 0 0 0 0 -195.97572625559224 49.405754528230318 0 49.405754528230318 -34.008177180512575 0 0 0 0 1443.204149565041 690.07435887668544 0 690.07435887668544 12.355782389073283 0 0 0 0 709.36419377737911 575.01482206325454 0 575.01482206325454 292.55656748144247 0 0 0 0 294.59072599608044 849.1491252640335 0 849.1491252640335 221.69733137500225 0 0 0 0 -344.46192397199775 149.78934944971115 0 149.78934944971115 -56.222585043491563 0 0 0 0 9.1900014371188234 7.7086694652877839 0 7.7086694652877839 -2.315037187936241 0 0 0 0 -328.42058310985885 6.9683591822249582 0 6.9683591822249582 -20.511967928890954 0 0 0 0 -220.94067489422741 8.4162421338696731 0 8.4162421338696731 -100.35329695109249 0 0 0 0 -244.11184465473707 -10.435036977491109 0 -10.435036977491109 30.713392652723996 0 0 0 0 -262.93133770976783 72.603156392346136 0 72.603156392346136 0.35480922702117823 0 0 0 0 -144.36251192528289 97.798044450813904 0 97.798044450813904 -71.608608706621453 0 0 0 0 -212.85573601124634 9.1274899624113459 0 9.1274899624113459 -37.352681436372222 0 0 0 0 -79.162038336900878 50.538729499996407 0 50.538729499996407 1.2309961348946672 0 0 0 0 -165.45931100325834 47.431642861643923 0 47.431642861643923 6.5679749485789216 0 0 0 0 -190.10991977750746 -9.7598937805996684 0 -9.7598937805996684 44.706936489717918 0 0 0 0 -170.1353396811719 -11.594524474887294 0 -11.594524474887294 19.438698761026899 0 0 0 0 -190.8649030066008 -45.307218948109949 0 -45.307218948109949 -21.507900410913862 0 0 0 0 -30.229509652480459 19.500681605939462 0 19.500681605939462 -14.602217622633248 0 0 0 0 -205.00371682668447 -48.94597256977795 0 -48.94597256977795 30.973977584464592 0 0 0 0 209.29204215206119 998.41378802035615 0 998.41378802035615 1768.7386131667008 0 0 0 0 -10.543814871490511 18.936970097424201 0 18.936970097424201 -11.582817694558628 0 0 0 0 -102.0537656239685 80.927414209359995 0 80.927414209359995 105.44864669421804 0 0 0 0 -251.00134762502057 -43.36816342768725 0 -43.36816342768725 96.317547377040682 0 0 0 0 -42.884548787827953 -3.2457791694541811 0 -3.2457791694541811 -111.85863802633685 0 0 0 0 -10.124446520619074 18.833104313454832 0 18.833104313454832 -8.8870573279082237 0 0 0 0 264.94343690433197 342.26992288581823 0 342.26992288581823 -25.468405778490705 0 0 0 0 -633.35771409108929 335.71326846560987 0 335.71326846560987 200.64208982745185 0 0 0 0 -566.58790737087043 -382.50306506685956 0 -382.50306506685956 -143.01555224061303 0 0 0 0 -1027.7571601834425 467.50642615671677 0 467.50642615671677 1.890344145373092 0 0 0 0 -4.1094164051282718 3.9416863192940923 0 3.9416863192940923 5.9183080327524067 0 0 0 0 -12.662071757151352 33.245197480689967 0 33.245197480689967 -0.026854166178964078 0 0 0 0 1391.2664297888259 -424.89631694788113 0 -424.89631694788113 -1129.9976484491926 0 0 0 0 -27.283018584274032 87.224417226520018 0 87.224417226520018 163.56348389073901 0 0 0 0 -8.7297043141659145 7.4116332976101944 0 7.4116332976101944 -6.2897775389703838 0 0 0 0 -51.502098538087012 398.02216190987383 0 398.02216190987383 -336.22576192759152 0 0 0 0 39.387454343555419 114.74964673585418 0 114.74964673585418 -0.7976824177603703 0 0 0 0 43.074944562353267 203.68513260968757 0 203.68513260968757 198.31550725165289 0 0 0 0 46.165678206027223 249.90517133397225 0 249.90517133397225 0.3367794031311005 0 0 0 0 214.36711315814318 565.38329988087207 0 565.38329988087207 521.38263777719112 0 0 0 0 -75.305478588330971 54.921831092055072 0 54.921831092055072 454.3522519753169 0 0 0 0 4.0245937074460016 108.29258078090061 0 108.29258078090061 102.01718627827358 0 0 0 0 -42.746097554758869 39.133125496612422 0 39.133125496612422 -15.858974125932718 0 0 0 0 -42.930012361360355 123.49468198664363 0 123.49468198664363 84.886358574498445 0 0 0 0 -11.488980633821484 14.889481774735032 0 14.889481774735032 60.919949975024792 0 0 0 0 -1013.7854717908376 1479.8900292395629 0 1479.8900292395629 -3915.449576611456 0 0 0 0 6.0174887885386852 15.345984562100796 0 15.345984562100796 -1.2046217838122288 0 0 0 0 -96.1857133757876 84.474403859698214 0 84.474403859698214 9.902533104235772 0 0 0 0 -101.47231442460179 93.420069407948176 0 93.420069407948176 12.040597430357593 0 0 0 0 -92.277302094385959 88.062163251190213 0 88.062163251190213 -27.309669721522368 0 0 0 0 963.8542715768715 1678.9978082990201 0 1678.9978082990201 -1322.4984429246397 0 0 0 0 -468.95186290370702 1815.7193393033085 0 1815.7193393033085 -1094.0456824588837 0 0 0 0 1026.0583809737673 1271.6982910733204 0 1271.6982910733204 -1342.8659989293528 0 0 0 0 -213.63434881351759 1008.6420294798518 0 1008.6420294798518 -1427.7744342175429 0 0 0 0 -1779.0898310170978 1090.6970863347524 0 1090.6970863347524 -611.86835962701298 0 0 0 0 -1420.2226262988024 473.47928809042787 0 473.47928809042787 -2507.8486391628976 0 0 0 0 -1561.1345614308339 2235.3989487528161 0 2235.3989487528161 -2263.7391697982384 0 0 0 0 -3771.0949893811339 1471.8706074751535 0 1471.8706074751535 -215.95588851219509 0 0 0 0 -839.74471816546952 1354.8662721896108 0 1354.8662721896108 -1208.2952372679138 0 0 0 0 -1645.9161588996606 1628.634543659171 0 1628.634543659171 -839.26854114749585 0 0 0 0 -3.2917380095647069 25.847591308333335 0 25.847591308333335 29.91898157560712 0 0 0 0 -526.52909466927667 1103.8141413213161 0 1103.8141413213161 -924.73299039120138 0 0 0 0 513.89029764730537 1075.1026486247356 0 1075.1026486247356 -1405.1191532823723 0 0 0 0 1.9492610667057093 7.1905971000698514 0 7.1905971000698514 14.564790573818186 0 0 0 0 649.67098298250357 1771.1313060384418 0 1771.1313060384418 -972.98263890771887 0 0 0 0 -4.5718524187996081 -31.418319488788256 0 -31.418319488788256 111.91571594546258 0 0 0 0 -76.335185543379339 -12.685027970874216 0 -12.685027970874216 1254.148874333725 0 0 0 0 301.008581966355 575.3430161819997 0 575.3430161819997 1.2244630990026053 0 0 0 0 880.12456919353428 1170.1301104004542 0 1170.1301104004542 -1.5086485847568838 0 0 0 0 836.97498762778878 1399.4965617925554 0 1399.4965617925554 1113.1565835546844 0 0 0 0 -1563.1261710189813 854.39299780233705 0 854.39299780233705 1001.7089537203137 0 0 0 0 -437.0916824329488 1034.2088837741321 0 1034.2088837741321 0.30527584902613081 0 0 0 0 1281.0232534379154 571.17480318924845 0 571.17480318924845 -604.79162778283353 0 0 0 0 -0.21691429040665533 1.8805759927786436 0 1.8805759927786436 -2.1603471454241117 0 0 0 0 -786.69663115259573 492.73260172933806 0 492.73260172933806 232.20185564428539 0 0 0 0 -1034.9406482040195 864.89940593573556 0 864.89940593573556 147.43708612003684 0 0 0 0 466.07176906794507 1736.6279546792357 0 1736.6279546792357 338.22981380180863 0 0 0 0 -1702.4531287510054 707.5093328882831 0 707.5093328882831 -0.25854076922405511 0 0 0 0 -1320.0145003787434 308.65453895280007 0 308.65453895280007 -518.36419343174202 0 0 0 0 -1988.8388035943863 1129.2631415667711 0 1129.2631415667711 -64.248459603259107 0 0 0 0 -1145.1810563571889 1505.4586035765242 0 1505.4586035765242 -553.93231624940427 0 0 0 0 -577.93500698441767 808.33909681292062 0 808.33909681292062 -208.9551778009627 0 0 0 0 11.063098953241827 11.084962700863656 0 11.084962700863656 -9.4239748191135959 0 0 0 0 -2139.101822667466 232.6775695343822 0 232.6775695343822 -6.2548102120344993 0 0 0 0 172.71862838583911 108.74777569092112 0 108.74777569092112 48.199247043579817 0 0 0 0 379.87472825092118 237.6102881822153 0 237.6102881822153 -624.92194067322998 0 0 0 0 36.089161846510251 71.70335574253113 0 71.70335574253113 -1.3179640418384224 0 0 0 0 8.3310568869717514 53.032662066346347 0 53.032662066346347 23.782161353226215 0 0 0 0 14.684600464958173 0.57715158242768894 0 0.57715158242768894 -14.853603552593995 0 0 0 0 -726.78495522125195 77.074295051395893 0 77.074295051395893 0.18858419516982394 0 0 0 0 38.499761091090292 39.160674738126914 0 39.160674738126914 13.098636840505321 0 0 0 0 -1083.6465931988059 967.78654216343421 0 967.78654216343421 -409.25282782438444 0 0 0 0 -662.80718719654169 1003.9514770528313 0 1003.9514770528313 -496.94441520806868 0 0 0 0 -944.65713378767941 1224.8926461916562 0 1224.8926461916562 -632.84621428046376 0 0 0 0 -1039.2029247158753 995.07608930722927 0 995.07608930722927 -97.423473486443982 0 0 0 0 -1099.9084595341155 1119.1577331253648 0 1119.1577331253648 -341.77729257830651 0 0 0 0 -1061.2013872275857 1151.9021937418875 0 1151.9021937418875 -503.0616928669042 0 0 0 0 46.666792864775296 50.781649600982973 0 50.781649600982973 45.073144284316527 0 0 0 0 -1.7976471248548478 1740.9594445803377 0 1740.9594445803377 -1184.4994166724791 0 0 0 0 -974.19706001556824 786.11216648334812 0 786.11216648334812 -442.09840508650814 0 0 0 0 -710.94922061208217 874.47566902729159 0 874.47566902729159 -751.62907175725559 0 0 0 0 -944.08026532410349 1009.2768959314999 0 1009.2768959314999 -634.79734435863793 0 0 0 0 -10.504150012598036 21.425572818640376 0 21.425572818640376 19.363174019942107 0 0 0 0 52.680031814670656 67.49169329641154 0 67.49169329641154 -1369.4685879736935 0 0 0 0 -370.57754293705511 166.25414324285521 0 166.25414324285521 -1184.4792342326691 0 0 0 0 0.17035291159364493 2.9856583074359575 0 2.9856583074359575 -2.1973171168962722 0 0 0 0 1555.9325076520518 1273.3301789423203 0 1273.3301789423203 -941.82176074125164 0 0 0 0 -1307.3709607225687 1228.4840782885585 0 1228.4840782885585 -319.75248302276304 0 0 0 0 -934.0957655633083 1244.3590925030003 0 1244.3590925030003 -436.74361749959644 0 0 0 0 -847.20547637761592 1120.0283460473293 0 1120.0283460473293 -523.81301666458603 0 0 0 0 -862.02240702693769 1212.4024375155768 0 1212.4024375155768 -905.92838532532915 0 0 0 0 708.50871224500077 201.00781230468783 0 201.00781230468783 -850.52808941653348 0 0 0 0 -717.54180899756466 978.87712306025787 0 978.87712306025787 -867.36937973929344 0 0 0 0 1003.2818445773007 1564.1970987583918 0 1564.1970987583918 -1032.2038528267876 0 0 0 0 1052.9409937825922 1444.7474262838077 0 1444.7474262838077 -1146.8155076841213 0 0 0 0 1006.4779902477821 1336.511913231876 0 1336.511913231876 -702.78366023628041 0 0 0 0 3091.713697375526 2734.1186232160253 0 2734.1186232160253 434.11306854651775 0 0 0 0 668.88136411853543 1821.5862837951136 0 1821.5862837951136 2327.8530461162445 0 0 0 0 1555.1215586474127 1376.5862194639922 0 1376.5862194639922 -724.70262548686878 0 0 0 0 28.802604757347364 9.9005040593600739 0 9.9005040593600739 8.1602768219582913 0 0 0 0 -3534.1439599118798 712.39987563269096 0 712.39987563269096 2051.0242182076909 0 0 0 0 -1202.1874866523337 4987.5042403416301 0 4987.5042403416301 5155.5275889975019 0 0 0 0 3164.630022436002 1063.5312978279835 0 1063.5312978279835 3373.0852987414037 0 0 0 0 103.09975370072061 316.99217446705734 0 316.99217446705734 -232.98745562821387 0 0 0 0 140.19838206032159 32.218629927150886 0 32.218629927150886 1.1972969396586315 0 0 0 0 -981.58725396745285 1527.2520742120396 0 1527.2520742120396 3328.2288101722661 0 0 0 0 2305.430332820607 713.3441329853631 0 713.3441329853631 -708.28805362855201 0 0 0 0 14.618265032855629 21.521508379391491 0 21.521508379391491 27.588443372465861 0 0 0 0 1068.8135743525199 1004.3659563230322 0 1004.3659563230322 -1466.847207329396 0 0 0 0 -377.05193234824037 -801.41596200919594 0 -801.41596200919594 1647.3689125208039 0 0 0 0 540.72957688699535 137.05524762340792 0 137.05524762340792 365.62010675179772 0 0 0 0 1168.7390580159845 902.60574260241992 0 902.60574260241992 -832.65626823942875 0 0 0 0 1303.8018270177199 2353.4058315805523 0 2353.4058315805523 2305.9297909103261 0 0 0 0 42.436164562844894 7.5391678784770875 0 7.5391678784770875 2.7526712757115526 0 0 0 0 -1106.780148403268 883.04075474814454 0 883.04075474814454 6340.4531424209417 0 0 0 0 -164.62260640780005 112.05449491352192 0 112.05449491352192 70.181761312036542 0 0 0 0 803.69387602917413 166.28280604818428 0 166.28280604818428 -1108.5764541256303 0 0 0 0 61.299739901020075 200.88621983007761 0 200.88621983007761 81.960986753161706 0 0 0 0 1477.7403317754251 929.45476548250008 0 929.45476548250008 -266.40092208462011 0 0 0 0 162.97618409283314 476.45097096724203 0 476.45097096724203 766.96672747192497 0 0 0 0 48.54167729022447 64.826030474578147 0 64.826030474578147 414.89349091099575 0 0 0 0 52.439222401371808 146.50530227438139 0 146.50530227438139 920.47165311338904 0 0 0 0 202.51111848013534 342.5098257494974 0 342.5098257494974 619.46983914362499 0 0 0 0 -112.16570378330653 266.7258843788004 0 266.7258843788004 344.66715551310335 0 0 0 0 199.88248094030678 410.61631830464466 0 410.61631830464466 399.32998132801731 0 0 0 0 -57.354457946115872 99.169154428018373 0 99.169154428018373 570.65182510895829 0 0 0 0 -75.809433902941237 153.91374545356666 0 153.91374545356666 411.59991421172163 0 0 0 0 -88.528237882870599 122.06539840207552 0 122.06539840207552 332.80490963994089 0 0 0 0 -72.507972003717441 214.28096326679224 0 214.28096326679224 207.36588814885181 0 0 0 0 -65.441767838885426 177.87274691372295 0 177.87274691372295 237.83288549453573 0 0 0 0 -194.88762831512571 154.28608856434585 0 154.28608856434585 345.52096098002221 0 0 0 0 -63.736381211137513 71.053107165701562 0 71.053107165701562 108.97367304292737 0 0 0 0 221.9045491048164 175.30133073344405 0 175.30133073344405 -82.193925596162444 0 0 0 0 -92.372108969717488 28.637685962494288 0 28.637685962494288 76.106896633020369 0 0 0 0 -47.676087941524123 85.53530129480157 0 85.53530129480157 77.127936013082319 0 0 0 0 -181.7707819515731 311.37788811077871 0 311.37788811077871 94.483607760601444 0 0 0 0 -73.237263253511628 225.19561107372283 0 225.19561107372283 140.7929736302176 0 0 0 0 758.43085591055569 610.6984683564624 0 610.6984683564624 219.47466513989639 0 0 0 0 484.63612189167907 549.61856021087442 0 549.61856021087442 365.89830026856362 0 0 0 0 577.44422644397127 518.5428516580323 0 518.5428516580323 229.28270778970909 0 0 0 0 505.84024057573697 572.82246192995808 0 572.82246192995808 349.94508660520296 0 0 0 0 -136.24359262993053 111.58350630763786 0 111.58350630763786 64.264510749527517 0 0 0 0 -1854.5645967584005 33.425628825472813 0 33.425628825472813 1836.8661876214464 0 0 0 0 2778.3331468215365 1131.6219096249406 0 1131.6219096249406 -31.626939367008163 0 0 0 0 683.81966565828407 1547.5023656555131 0 1547.5023656555131 613.33567594751366 0 0 0 0 396.14259864164887 957.96945784324271 0 957.96945784324271 2080.0326575157524 0 0 0 0 796.79364939594234 2336.032230161436 0 2336.032230161436 3239.9563348264705 0 0 0 0 1515.9703836576027 1824.1116850096143 0 1824.1116850096143 703.69251973953214 0 0 0 0 562.25526511523276 1914.6396805350669 0 1914.6396805350669 1537.6308703223913 0 0 0 0 -1935.4982991301113 -850.60236589584383 0 -850.60236589584383 202.28062095934729 0 0 0 0 -124.06508691643093 99.033906296083842 0 99.033906296083842 68.991896773736016 0 0 0 0 -919.64448230927519 -1676.3865017609423 0 -1676.3865017609423 458.73674402443976 0 0 0 0 2185.8952609825901 711.03812631157234 0 711.03812631157234 -534.013596581819 0 0 0 0 480.66764232221158 -912.55381787126862 0 -912.55381787126862 -1191.7847800619347 0 0 0 0 -121.77897603383087 96.41457121370604 0 96.41457121370604 51.037774291107667 0 0 0 0 702.08416381662391 613.10516895360706 0 613.10516895360706 47.917916296384647 0 0 0 0 496.8945399459335 220.67535865584796 0 220.67535865584796 -22.912107083509909 0 0 0 0 450.65268614186789 613.72621869481372 0 613.72621869481372 270.5500950957794 0 0 0 0 367.66320805274154 305.79068284536606 0 305.79068284536606 138.55325533132418 0 0 0 0 371.9737930840347 167.51113073903434 0 167.51113073903434 -440.24432646369678 0 0 0 0 469.25094502013599 393.68278573834868 0 393.68278573834868 -343.65604974914459 0 0 0 0 272.99319731479045 75.048128952243133 0 75.048128952243133 -406.52368596011911 0 0 0 0 425.15273329172487 157.84187445591306 0 157.84187445591306 -692.31882241873245 0 0 0 0 252.08045782194253 61.844283694867045 0 61.844283694867045 16.031922204868593 0 0 0 0 208.86162159212262 49.040473388478631 0 49.040473388478631 5.7329270101237455 0 0 0 0 360.46921446010674 36.953712334383454 0 36.953712334383454 -570.04320918847225 0 0 0 0 258.05485540043446 -71.017996958165895 0 -71.017996958165895 -457.59587271398777 0 0 0 0 -739.01289570805238 -777.95175856781134 0 -777.95175856781134 -1048.4442936823907 0 0 0 0 608.30881590311037 422.57715326817197 0 422.57715326817197 -430.28701382069266 0 0 0 0 -83.305621715645941 118.13919289727312 0 118.13919289727312 19.811293925570794 0 0 0 0 437.98643563638325 188.93621284326946 0 188.93621284326946 -214.80815971602715 0 0 0 0 199.8604489936406 290.54796028655255 0 290.54796028655255 -257.57346192967088 0 0 0 0 422.94360698555101 504.51309983417741 0 504.51309983417741 -465.54245785741659 0 0 0 0 287.64546985442843 89.636083415158822 0 89.636083415158822 2.8049962977053582 0 0 0 0 199.34933733381331 114.24836600015988 0 114.24836600015988 88.176766114767815 0 0 0 0 379.06301191396051 16.15879961529572 0 16.15879961529572 -58.686558547284221 0 0 0 0 109.04916105372783 35.491650234465766 0 35.491650234465766 -29.722908114968504 0 0 0 0 308.79345566325264 218.71958543577784 0 218.71958543577784 152.71350044597057 0 0 0 0 210.00192993513156 11.361474314740917 0 11.361474314740917 111.49419942050008 0 0 0 0 229.76803538683089 74.570175172913878 0 74.570175172913878 -199.72987388179172 0 0 0 0 260.46977338820034 11.907018050213082 0 11.907018050213082 -38.912111968093086 0 0 0 0 171.97003578736258 109.33683118237241 0 109.33683118237241 104.2982236691314 0 0 0 0 82.311039099266964 140.74965930063263 0 140.74965930063263 -0.46899864664010238 0 0 0 0 244.7506980539365 167.44430708148866 0 167.44430708148866 -72.448500655169482 0 0 0 0 177.42841920721912 689.11170068381034 0 689.11170068381034 -797.38341978867174 0 0 0 0 -78.970924316661694 439.76517605877598 0 439.76517605877598 -266.85550465651431 0 0 0 0 162.24516487504297 105.75383936648723 0 105.75383936648723 231.32600004345295 0 0 0 0 221.45388332768925 3.1019341308128787 0 3.1019341308128787 7.9454298584605567 0 0 0 0 259.75454858920421 99.504503748583375 0 99.504503748583375 142.31245548484731 0 0 0 0 233.93529429290356 33.211326790056773 0 33.211326790056773 78.314254748627718 0 0 0 0 238.09329875182084 49.390851401192776 0 49.390851401192776 27.987436907438678 0 0 0 0 235.79439142371393 162.02931470179283 0 162.02931470179283 112.62303092621733 0 0 0 0 312.44908263381512 163.8038156657567 0 163.8038156657567 0.37554980407003313 0 0 0 0 553.21726938369102 382.18830010802776 0 382.18830010802776 198.27277337849955 0 0 0 0 534.06310487387054 416.25696400583911 0 416.25696400583911 286.35881095644436 0 0 0 0 13.429534740942216 -22.467268385689579 0 -22.467268385689579 -8.5435478428643421 0 0 0 0 229.08098351630179 265.09580188927794 0 265.09580188927794 782.41478627512697 0 0 0 0 303.61957970981894 207.89796400532941 0 207.89796400532941 295.57373207432101 0 0 0 0 482.35682650364106 547.51083131571431 0 547.51083131571431 716.66227091310429 0 0 0 0 -53.728519074982614 -68.341510238387855 0 -68.341510238387855 461.1847879900597 0 0 0 0 333.4621920751888 551.44131560536334 0 551.44131560536334 630.08521839465539 0 0 0 0 878.72378265046063 422.47769304518806 0 422.47769304518806 581.19052049489983 0 0 0 0 938.1832251970045 540.59230198668956 0 540.59230198668956 324.12140201000147 0 0 0 0 954.54528759754612 452.6532910531605 0 452.6532910531605 0.12816096398455556 0 0 0 0 1034.4501063824719 608.55847098608501 0 608.55847098608501 147.84082864368975 0 0 0 0 1010.4650681571438 627.51309280565329 0 627.51309280565329 306.5840847784857 0 0 0 0 1000.181420514331 726.78640421040473 0 726.78640421040473 0.1964942127087852 0 0 0 0 1044.095298660799 604.03876052823398 0 604.03876052823398 625.70079783347319 0 0 0 0 876.85860256534943 819.3996487459226 0 819.3996487459226 460.00184874721162 0 0 0 0 768.90348192919555 952.51376367440389 0 952.51376367440389 946.21639033890096 0 0 0 0 1074.2636186599302 1083.9065014092812 0 1083.9065014092812 984.06132080149837 0 0 0 0 97.058102582035275 12.652853287248092 0 12.652853287248092 -30.831451517065091 0 0 0 0 843.82352741686191 878.71395097440109 0 878.71395097440109 2380.7928933250951 0 0 0 0 1399.5720319113643 753.65082147077555 0 753.65082147077555 672.20128551500966 0 0 0 0 -173.3217434778926 -537.55470957765647 0 -537.55470957765647 -1015.8707397856633 0 0 0 0 286.55339683238708 -265.0014890802122 0 -265.0014890802122 -1088.3796408844937 0 0 0 0 451.92493635557184 -215.26222559474991 0 -215.26222559474991 -1078.7448940392424 0 0 0 0 316.95990479009924 -18.933126218442339 0 -18.933126218442339 -922.8741555690649 0 0 0 0 61.650244546020986 -92.742532305623172 0 -92.742532305623172 -938.78933849678288 0 0 0 0 244.85499471168441 338.02672385047481 0 338.02672385047481 -1176.8427296986083 0 0 0 0 242.24747975391801 308.53655662985693 0 308.53655662985693 -592.32517600489155 0 0 0 0 299.93782596863457 -62.321567735489225 0 -62.321567735489225 -731.65218644823472 0 0 0 0 163.3734930808132 -177.45943148239166 0 -177.45943148239166 -1026.0802613475025 0 0 0 0 147.78539324354099 2.0668145945658694 0 2.0668145945658694 -19.550822362466505 0 0 0 0 69.582355135557009 45.451348727976438 0 45.451348727976438 -424.70172051846748 0 0 0 0 83.201232118219195 -118.56968167977902 0 -118.56968167977902 -588.91693720733747 0 0 0 0 220.68193225757568 -2.6206388990904088 0 -2.6206388990904088 -654.78939597689896 0 0 0 0 274.54663130678819 -30.828021927387454 0 -30.828021927387454 -553.67787034687353 0 0 0 0 907.88856862509419 190.20110316187493 0 190.20110316187493 59.517443589786126 0 0 0 0 0.7444190738897305 18.019323801283463 0 18.019323801283463 -421.1546997752157 0 0 0 0 -114.94069326486351 -159.78229624174128 0 -159.78229624174128 -525.11268924741307 0 0 0 0 -171.58827993278101 1311.4051433086352 0 1311.4051433086352 67.01387460809201 0 0 0 0 -119.91946083445509 1187.6956800837252 0 1187.6956800837252 350.72611179723754 0 0 0 0 105.47337621649785 1157.2028473784521 0 1157.2028473784521 115.44439283384418 0 0 0 0 37.588234374117746 1067.077267247354 0 1067.077267247354 0.34243623928341549 0 0 0 0 -212.46213777163939 1013.4305664275598 0 1013.4305664275598 307.36758299433859 0 0 0 0 117.39263582405692 959.34399467611365 0 959.34399467611365 141.19208729622915 0 0 0 0 86.377244414177767 774.16205506129972 0 774.16205506129972 331.83605186003842 0 0 0 0 603.66592862187099 829.41962472061277 0 829.41962472061277 0.073379830924825154 0 0 0 0 827.78274847260036 614.97406940376095 0 614.97406940376095 162.45254097212455 0 0 0 0 564.4132361715383 553.3192693487581 0 553.3192693487581 332.99683372932486 0 0 0 0 959.93328823236516 783.35046986826637 0 783.35046986826637 136.64920122407057 0 0 0 0 866.42495652822254 735.55180644665961 0 735.55180644665961 441.59349548741011 0 0 0 0 315.75289014927694 948.39797587893554 0 948.39797587893554 445.43941148044178 0 0 0 0 48.041148191823424 22.522303704755416 0 22.522303704755416 -25.093991671753486 0 0 0 0 403.38906300756207 3133.285517951168 0 3133.285517951168 2952.8122992713725 0 0 0 0 -38.218026507762261 -473.47090009800741 0 -473.47090009800741 -1383.3377467127284 0 0 0 0 1664.4534487838682 4764.9247356604901 0 4764.9247356604901 -1830.0623600523104 0 0 0 0 480.39806594979018 2177.2437783822388 0 2177.2437783822388 2055.4020198682265 0 0 0 0 462.19181096983448 1939.4728581447707 0 1939.4728581447707 -823.66755290064611 0 0 0 0 416.83571900035895 434.1848743204755 0 434.1848743204755 -2772.9962240367167 0 0 0 0 -8.0520356454570958 15.337363571501101 0 15.337363571501101 -2.4067167369856151 0 0 0 0 2783.4426252413978 1157.9956943651014 0 1157.9956943651014 9008.2846891967638 0 0 0 0 -127.32754054424549 1023.9401578454872 0 1023.9401578454872 -241.26847421354614 0 0 0 0 -246.22937980486313 590.21412791631883 0 590.21412791631883 277.73087394237518 0 0 0 0 -387.84577516185527 944.33676835667575 0 944.33676835667575 342.39057019609027 0 0 0 0 -365.098240323955 1121.0884779268736 0 1121.0884779268736 387.47849977193982 0 0 0 0 -354.97154982691427 216.49483779499133 0 216.49483779499133 -525.36798866726167 0 0 0 0 -174.76189172855447 439.08347605567542 0 439.08347605567542 -251.69438089968753 0 0 0 0 -661.33345949088107 240.36172291504045 0 240.36172291504045 -272.72530045121675 0 0 0 0 -853.43757269725029 432.78112786648853 0 432.78112786648853 595.90522298813448 0 0 0 0 -363.47186269794474 1099.0658448956383 0 1099.0658448956383 346.73937791397839 0 0 0 0 -734.86586842681425 1045.606143696552 0 1045.606143696552 -4.0549131360894535 0 0 0 0 -725.58237134486262 632.79497997052385 0 632.79497997052385 -293.39544478739845 0 0 0 0 -294.52486980058893 1005.042320110806 0 1005.042320110806 -32.624333521147491 0 0 0 0 -420.78257357092662 1085.1087400234246 0 1085.1087400234246 -96.001214888252434 0 0 0 0 -69.786796877698663 71.86259022709973 0 71.86259022709973 -8.9141088795152257 0 0 0 0 -230.70277893694947 822.49834236349852 0 822.49834236349852 -46.117164215247612 0 0 0 0 -372.84932039291016 831.59968845955154 0 831.59968845955154 1089.2690119737526 0 0 0 0 -38.600609913962614 33.069864629972926 0 33.069864629972926 -11.233338340208945 0 0 0 0 2039.8317061452981 3063.0302832457528 0 3063.0302832457528 2641.0202514370903 0 0 0 0 86.086099422984262 1156.3010133296812 0 1156.3010133296812 -1998.0367447980971 0 0 0 0 42.94073400155321 636.00929401940084 0 636.00929401940084 -1134.3216261043854 0 0 0 0 103.32109651217615 1331.5623771388127 0 1331.5623771388127 -420.56558035541093 0 0 0 0 72.931437841201841 752.25801642521401 0 752.25801642521401 -692.26526050991379 0 0 0 0 -121.50104713300243 466.21764208507375 0 466.21764208507375 -797.98924740501388 0 0 0 0 -132.80837640281243 374.34557476874033 0 374.34557476874033 -793.24605525172956 0 0 0 0 -399.33720484668447 327.1483460922027 0 327.1483460922027 -993.13476133842778 0 0 0 0 -135.48393894710171 487.80635997260106 0 487.80635997260106 -895.62337723637756 0 0 0 0 -239.76896415985902 567.81235688322704 0 567.81235688322704 -1477.9950535544485 0 0 0 0 -419.85073310004373 420.25944972327852 0 420.25944972327852 -872.79973170443554 0 0 0 0 -299.06625075999182 116.35387326977798 0 116.35387326977798 -1636.3048607675591 0 0 0 0 314.70259679568699 548.242525882466 0 548.242525882466 -3245.4626070120867 0 0 0 0 9.1594925968766745 9.9793123937973292 0 9.9793123937973292 -4.6133260400859513 0 0 0 0 -297.1654356832878 3655.7391129095486 0 3655.7391129095486 9169.4174496666055 0 0 0 0 63.015703889395809 -779.31031604866439 0 -779.31031604866439 -3429.4411512054794 0 0 0 0 -293.22563114002696 -454.85517763815005 0 -454.85517763815005 -1855.225751025544 0 0 0 0 -154.55017761125055 334.39328213319823 0 334.39328213319823 -1760.4716283778453 0 0 0 0 -537.06482669932302 -553.21130139259913 0 -553.21130139259913 -1635.394792347739 0 0 0 0 -124.0694059630041 -307.68583572295029 0 -307.68583572295029 -1728.0023610411154 0 0 0 0 -501.20251225923857 -435.8092267546017 0 -435.8092267546017 -1481.5310541897197 0 0 0 0 -320.11067822814221 -287.40526939823758 0 -287.40526939823758 -1362.1075501915366 0 0 0 0 -88.760833508742508 -166.52814555756049 0 -166.52814555756049 -1538.7813579242793 0 0 0 0 -157.66857047949816 337.45135892354301 0 337.45135892354301 -897.21413979167119 0 0 0 0 -235.84101520615513 135.40142978423683 0 135.40142978423683 -1274.8749263716309 0 0 0 0 -266.14903172202321 576.83611169292999 0 576.83611169292999 -883.54626936963177 0 0 0 0 -213.49536391558649 505.00674291916948 0 505.00674291916948 -838.31345264871925 0 0 0 0 -314.55393336055567 505.23742930688604 0 505.23742930688604 -642.80855558210169 0 0 0 0 -165.0280787582451 594.07136629064917 0 594.07136629064917 -610.42146370597766 0 0 0 0 -180.64540714201212 635.65147147154494 0 635.65147147154494 -527.84080077084946 0 0 0 0 34.337335950564011 336.08189243964443 0 336.08189243964443 -357.74761106134247 0 0 0 0 -210.97604545922513 491.10848229383555 0 491.10848229383555 -412.63929893032764 0 0 0 0 -132.52937548299087 525.34375122778874 0 525.34375122778874 -539.67284220406145 0 0 0 0 -27.530232293749577 304.19661808913952 0 304.19661808913952 -287.17532771498372 0 0 0 0 -118.82658046584402 471.6463680780289 0 471.6463680780289 -434.90614117086807 0 0 0 0 -40.479050911031663 292.78979614534182 0 292.78979614534182 -297.20147411874495 0 0 0 0 -217.34542880908703 461.26534799505316 0 461.26534799505316 -334.62659579089814 0 0 0 0 -46.861014962065383 426.59701983067498 0 426.59701983067498 -593.37841572443722 0 0 0 0 -305.84718780088588 476.52796805629623 0 476.52796805629623 -520.97423018750851 0 0 0 0 -116.67126159873442 511.17593509801372 0 511.17593509801372 -514.82041359104915 0 0 0 0 -187.06013037948287 512.02898084817571 0 512.02898084817571 -879.53946735448517 0 0 0 0 -280.06566326698521 557.92162134738737 0 557.92162134738737 -671.73690963315312 0 0 0 0 -253.06590045946086 309.23242561514053 0 309.23242561514053 -660.17817731457762 0 0 0 0 -127.75688356186583 296.28948755104284 0 296.28948755104284 -472.4095793273591 0 0 0 0 -35.095675799922901 350.27923703739361 0 350.27923703739361 -674.3451217455513 0 0 0 0 -135.57476077137107 442.78463726059999 0 442.78463726059999 -621.91282046501874 0 0 0 0 -78.736311757937074 135.35121623523446 0 135.35121623523446 144.12159369485744 0 0 0 0 -10.621835184640076 448.98896622250322 0 448.98896622250322 -303.41748489539896 0 0 0 0 -1626.457256212816 -97.955383532884298 0 -97.955383532884298 -2.8097697128760046 0 0 0 0 105.70244114191928 102.69069727354481 0 102.69069727354481 -1.2767600023547629 0 0 0 0 -273.89191997572198 57.597760870135971 0 57.597760870135971 -131.65191999044328 0 0 0 0 -0.028621154877555455 259.61198486277658 0 259.61198486277658 -490.45629286204348 0 0 0 0 -232.89507536518795 435.57107310819993 0 435.57107310819993 -452.76362640378647 0 0 0 0 -136.76078505108308 246.85210234615806 0 246.85210234615806 -448.78505435850821 0 0 0 0 227.88126079034555 485.18219117925037 0 485.18219117925037 -79.696212725015357 0 0 0 0 486.58816302995547 289.75744821206172 0 289.75744821206172 125.31993359145417 0 0 0 0 154.66944203015009 65.476438975310884 0 65.476438975310884 -26.123956501396606 0 0 0 0 -371.22047743032317 485.93596835451081 0 485.93596835451081 -336.27055424294667 0 0 0 0 0.98163864028359438 7.6880614907785514 0 7.6880614907785514 -6.8196154521412495 0 0 0 0 1170.5683524019923 -341.88813115317294 0 -341.88813115317294 -838.12372023719945 0 0 0 0 244.12116866340511 -172.47038233148487 0 -172.47038233148487 -750.7199151491659 0 0 0 0 244.16003521360108 -193.15786527828459 0 -193.15786527828459 45.922420716073248 0 0 0 0 42.084670607364387 -20.397243976971367 0 -20.397243976971367 -864.81633005357799 0 0 0 0 -90.854219798391568 -262.25855637689529 0 -262.25855637689529 -1249.9977339664183 0 0 0 0 -37.785052927909419 363.09943376429146 0 363.09943376429146 -438.40798471085873 0 0 0 0 -62.763136998488335 239.10093526941637 0 239.10093526941637 -795.39913749089465 0 0 0 0 255.08785619081209 269.29062802274257 0 269.29062802274257 -494.53035154173267 0 0 0 0 293.25175340207352 458.61442946406896 0 458.61442946406896 -40.311443045959095 0 0 0 0 17.984038330219846 371.64814407978611 0 371.64814407978611 -10.786110835644649 0 0 0 0 -136.4579986238823 603.26630422429298 0 603.26630422429298 -581.52993953746045 0 0 0 0 -136.55053923188825 565.04193307023525 0 565.04193307023525 -208.12417825000011 0 0 0 0 -231.03757311327172 580.76826751867156 0 580.76826751867156 -515.88857116634608 0 0 0 0 -52.560453855767264 598.34855526873434 0 598.34855526873434 -783.7895097022556 0 0 0 0 -59.616666261470527 578.1953206917533 0 578.1953206917533 -501.0725662679688 0 0 0 0 -76.27148594983737 768.19400576955377 0 768.19400576955377 -537.42796500583063 0 0 0 0 1892.1598717984962 797.16532367364925 0 797.16532367364925 -221.46384415257489 0 0 0 0 -152.98155114060501 805.58218099574151 0 805.58218099574151 -464.75476324647025 0 0 0 0 -241.05541239642389 981.36230142473255 0 981.36230142473255 -815.41376096691238 0 0 0 0 1.6222388829291523 10.153836767602087 0 10.153836767602087 -6.2814991022220283 0 0 0 0 1.9443376605344831 12.194235516397441 0 12.194235516397441 -12.901935799001649 0 0 0 0 1052.6809991999471 200.52459897867811 0 200.52459897867811 -344.85536310065072 0 0 0 0 455.23037774613113 269.29697213504369 0 269.29697213504369 205.31424109540239 0 0 0 0 1357.3643955416919 422.36789237476478 0 422.36789237476478 191.26110820333997 0 0 0 0 691.45294063270558 555.4513648791326 0 555.4513648791326 222.99357157955819 0 0 0 0 468.83980487738154 789.87365145100193 0 789.87365145100193 240.08990517089842 0 0 0 0 1300.12576437393 1273.5528463902688 0 1273.5528463902688 -169.67413120664423 0 0 0 0 1319.4780233364436 898.87507596446085 0 898.87507596446085 -53.187387812678935 0 0 0 0 911.52931896872178 1426.4166579285356 0 1426.4166579285356 -229.27590234906529 0 0 0 0 829.08007600720157 1006.7163681524253 0 1006.7163681524253 -72.036191373317706 0 0 0 0 340.29509329024586 1765.1855456235644 0 1765.1855456235644 235.4151755359344 0 0 0 0 367.01927049215737 663.37374726555572 0 663.37374726555572 181.74684482286102 0 0 0 0 394.87817547679879 913.9772123953444 0 913.9772123953444 129.96755157302687 0 0 0 0 598.75360380887287 1067.8100392078122 0 1067.8100392078122 190.90220027932082 0 0 0 0 415.88703279223409 306.75046066835785 0 306.75046066835785 631.84042934884928 0 0 0 0 156.33447944864201 762.97358330646239 0 762.97358330646239 548.4810908860527 0 0 0 0 463.66215969933546 1096.6823857474374 0 1096.6823857474374 609.88549081707606 0 0 0 0 255.80051448068116 790.12778289236303 0 790.12778289236303 547.55965241746162 0 0 0 0 439.58564140072849 1123.6524580805053 0 1123.6524580805053 805.3654198081349 0 0 0 0 321.67683301486977 771.11407407460501 0 771.11407407460501 1083.4362168826046 0 0 0 0 340.11026742699323 722.80991980285035 0 722.80991980285035 592.50553524892985 0 0 0 0 -66.663013095967472 458.60241566270997 0 458.60241566270997 741.71808008060179 0 0 0 0 -729.86986395777785 925.16823959846806 0 925.16823959846806 2425.2981846190305 0 0 0 0 644.15319773851661 929.54538360255538 0 929.54538360255538 1133.2264845384743 0 0 0 0 253.78184814125416 -15.472815562781761 0 -15.472815562781761 1226.8882388026777 0 0 0 0 1308.0883921951172 762.63049926287204 0 762.63049926287204 919.05933159703272 0 0 0 0 451.10747051762883 1142.974138894584 0 1142.974138894584 829.55928429948108 0 0 0 0 656.99389004675322 603.58092631066393 0 603.58092631066393 1316.637719131948 0 0 0 0 1606.7796494774375 2161.2379747018176 0 2161.2379747018176 2061.2180028216098 0 0 0 0 1124.6487818209862 1842.059157308533 0 1842.059157308533 -311.73957501233963 0 0 0 0 39.7055555737752 1394.0294036178529 0 1394.0294036178529 1567.7569881134696 0 0 0 0 41.149763351706497 315.88058101802017 0 315.88058101802017 -1486.7349143077736 0 0 0 0 560.26379769772029 702.37792145956701 0 702.37792145956701 -2611.3281820005795 0 0 0 0 -83.458417010398989 449.2244317615914 0 449.2244317615914 -673.22864386493529 0 0 0 0 -62.053650441011996 480.62614174303599 0 480.62614174303599 -629.73371822360787 0 0 0 0 53.22393692699589 6.0405651587135765 0 6.0405651587135765 -2.5504341136374507 0 0 0 0 86.580803451695829 246.65212121333752 0 246.65212121333752 -879.78415519565169 0 0 0 0 447.06098984506389 1435.3546236196271 0 1435.3546236196271 1944.6992162099486 0 0 0 0 15.872037507880464 2.7159730374713149 0 2.7159730374713149 0.64351441551124822 0 0 0 0 363.23663987409964 742.96817205510888 0 742.96817205510888 2629.3103291090592 0 0 0 0 -290.84216703713173 2390.6775519105431 0 2390.6775519105431 4913.4110810633174 0 0 0 0 671.42462775231979 1256.659786999262 0 1256.659786999262 118.2186749100656 0 0 0 0 -562.72673573860084 403.06509388850827 0 403.06509388850827 760.41273872411693 0 0 0 0 721.02306471503834 1456.7309886403291 0 1456.7309886403291 1167.3563855710672 0 0 0 0 494.99918384764169 1813.8015700115648 0 1813.8015700115648 1093.3227030014968 0 0 0 0 26.594681777292863 1072.583202154492 0 1072.583202154492 1041.0426601877989 0 0 0 0 -1209.3469188750023 333.50068565102993 0 333.50068565102993 352.75923955540929 0 0 0 0 -567.00005470290489 1782.9327113642576 0 1782.9327113642576 782.30026875605108 0 0 0 0 880.05027295772743 1316.6966759824427 0 1316.6966759824427 704.7342594265574 0 0 0 0 -361.42001904475273 282.68097420433924 0 282.68097420433924 240.58054039353738 0 0 0 0 -306.80547411755833 1234.5151796017817 0 1234.5151796017817 1114.845609022188 0 0 0 0 -960.20479834673461 465.90227071854315 0 465.90227071854315 365.60279797067051 0 0 0 0 -27.332853312948089 23.340527924682533 0 23.340527924682533 -13.961702787606669 0 0 0 0 -1041.5420511450211 -197.55182158535172 0 -197.55182158535172 256.02753289815519 0 0 0 0 -185.77492528776929 895.70002060028492 0 895.70002060028492 -17.339556419188739 0 0 0 0 73.166205622968846 -512.54371386022831 0 -512.54371386022831 403.33859683564151 0 0 0 0 -5.0881309821678542 -1.8360475768733124 0 -1.8360475768733124 30.033486149284187 0 0 0 0 1522.9357356719665 1300.2882791691918 0 1300.2882791691918 931.50823332200525 0 0 0 0 1390.1305894086654 900.84698819873302 0 900.84698819873302 524.79614699570811 0 0 0 0 -7.7249684879946017 10.689725475718404 0 10.689725475718404 0.2416080715476312 0 0 0 0 464.6918108384416 481.91485570551595 0 481.91485570551595 751.85702559305355 0 0 0 0 6.583536192774659 6.3908267825474923 0 6.3908267825474923 44.959197057916583 0 0 0 0 128.4106039799517 80.426895347001846 0 80.426895347001846 123.88696852966677 0 0 0 0 -58.916970484991907 171.16319783065774 0 171.16319783065774 -161.16813093640667 0 0 0 0 -42.075082505421818 33.947143552813344 0 33.947143552813344 -12.674784666617086 0 0 0 0 -90.758277680986794 414.8959722892032 0 414.8959722892032 2.9641539409640245 0 0 0 0 914.50614376598969 639.31341003756097 0 639.31341003756097 384.04419945691188 0 0 0 0 711.26027472128044 485.35307310026838 0 485.35307310026838 491.93146575032733 0 0 0 0 -365.28111872830777 124.3726353444581 0 124.3726353444581 67.268753083597403 0 0 0 0 -184.66262558328162 227.73537081987888 0 227.73537081987888 491.14327362845506 0 0 0 0 -85.025324965550681 -34.912190222007212 0 -34.912190222007212 56.929757337376941 0 0 0 0 -45.516589552804362 439.9750171173655 0 439.9750171173655 -480.78170254865836 0 0 0 0 48.037062038752254 23.000264260225066 0 23.000264260225066 12.284102199405254 0 0 0 0 -206.86124162611668 -160.48546696171979 0 -160.48546696171979 -83.966799868867383 0 0 0 0 70.118707846908364 90.182425580307608 0 90.182425580307608 -161.12499055565786 0 0 0 0 206.50052051396051 -20.093390927773726 0 -20.093390927773726 -141.76354751287727 0 0 0 0 -48.787096409861988 184.80476448231457 0 184.80476448231457 -8.6739639448787784 0 0 0 0 114.48757874918466 80.468761828256106 0 80.468761828256106 -35.448216591259154 0 0 0 0 -43.079233089316403 358.27359621901996 0 358.27359621901996 -28.060825291504443 0 0 0 0 -61.138288760818057 38.390890204116317 0 38.390890204116317 -3.9526564680926839 0 0 0 0 29.257350775064936 45.077823587615356 0 45.077823587615356 11.734216139303811 0 0 0 0 -125.98804647514771 106.21459546989718 0 106.21459546989718 176.02688419187325 0 0 0 0 207.71088116273313 168.50536560253386 0 168.50536560253386 -111.41549999717972 0 0 0 0 292.13211979097105 301.6851999806895 0 301.6851999806895 209.64401035756237 0 0 0 0 108.19456505580092 145.75191648749569 0 145.75191648749569 -87.09150188487547 0 0 0 0 148.06042227661237 -1.6520632857136661 0 -1.6520632857136661 -69.94788702736696 0 0 0 0 -22.074704278376885 87.267101540754084 0 87.267101540754084 -62.477921945042908 0 0 0 0 67.059267462770208 79.08123886720837 0 79.08123886720837 -30.024749294595352 0 0 0 0 16.982741116398017 117.01257298159075 0 117.01257298159075 -5.3260643559437568 0 0 0 0 66.349365882092627 60.685773636133774 0 60.685773636133774 -26.230876340467034 0 0 0 0 157.12839007111324 10.530592401642934 0 10.530592401642934 253.30070664068626 0 0 0 0 -79.685282375023235 290.76129142082937 0 290.76129142082937 -179.03894940033206 0 0 0 0 174.95661260524503 101.66826286134165 0 101.66826286134165 -241.19258095332771 0 0 0 0 -83.806928450219857 430.69065691699507 0 430.69065691699507 -344.33145609628991 0 0 0 0 -46.929924259748077 469.78934426829073 0 469.78934426829073 -622.68289541039849 0 0 0 0 119.57763555298152 104.44155913728173 0 104.44155913728173 -410.40738035727918 0 0 0 0 95.450750494855157 13.333577590791037 0 13.333577590791037 -16.425744952657126 0 0 0 0 27.518769177302602 173.33436869469733 0 173.33436869469733 -58.934005860603065 0 0 0 0 1235.447628208487 136.5155957863717 0 136.5155957863717 -288.66334860377538 0 0 0 0 487.81369590843678 1067.7379354203877 0 1067.7379354203877 904.5268757022277 0 0 0 0 2729.8508449499641 748.4864875960302 0 748.4864875960302 187.53280868926959 0 0 0 0 1984.7277476352465 2071.7298948236203 0 2071.7298948236203 977.22568969783606 0 0 0 0 1070.2448930483079 1456.6593563085044 0 1456.6593563085044 819.62808920620046 0 0 0 0 887.78674668805161 1545.6696067517253 0 1545.6696067517253 1456.302922896255 0 0 0 0 2236.4033199043915 1233.2046183319399 0 1233.2046183319399 224.38160156087542 0 0 0 0 866.73618950146192 948.12728085138951 0 948.12728085138951 58.501833975671616 0 0 0 0 1393.9881949938572 2270.3566627809778 0 2270.3566627809778 1179.6405345586463 0 0 0 0 -466.32697091177033 211.47263750838829 0 211.47263750838829 609.92222999912337 0 0 0 0 -1.5121129098756683 9.2795489143280037 0 9.2795489143280037 5.6740462705504058 0 0 0 0 -637.72865203180118 930.51986536932964 0 930.51986536932964 588.78632549361646 0 0 0 0 -0.28517734362600322 10.456706264545375 0 10.456706264545375 -1.6255961826081826 0 0 0 0 5.4409740348330047 26.107298404812695 0 26.107298404812695 -25.622074291023694 0 0 0 0 18.848713948449586 55.86240589247609 0 55.86240589247609 -14.692961426728289 0 0 0 0 -21.839660420926521 42.154172152670071 0 42.154172152670071 9.8693452951920335 0 0 0 0 265.7157668882719 360.31271739174554 0 360.31271739174554 -863.8785596199732 0 0 0 0 -17.553128616310403 25.260037757437033 0 25.260037757437033 1.5073444101603286 0 0 0 0 -279.00855144071829 264.3226383737674 0 264.3226383737674 -234.49580472291564 0 0 0 0 481.96988169419637 796.5709386694798 0 796.5709386694798 -340.73214314262259 0 0 0 0 -29.942159839227884 21.812995711460587 0 21.812995711460587 -4.4966248120459316 0 0 0 0 -33.329856126002596 9.7815933321949728 0 9.7815933321949728 1.3499383486665195 0 0 0 0 160.10389276557544 348.62843653068558 0 348.62843653068558 -1453.3319386279691 0 0 0 0 -76.030568304871849 -7.8147915047593415 0 -7.8147915047593415 78.224323957816523 0 0 0 0 -67.153593129813089 1157.5777702679261 0 1157.5777702679261 764.55119604102947 0 0 0 0 -82.504737226970065 921.39448236886665 0 921.39448236886665 263.17934833750769 0 0 0 0 391.99570678993769 1039.4710565123241 0 1039.4710565123241 111.68280205755582 0 0 0 0 413.90329702602321 878.20667474884249 0 878.20667474884249 824.05474658634921 0 0 0 0 395.86542409859248 1512.667058338775 0 1512.667058338775 1050.5332116074896 0 0 0 0 1345.8135029598052 819.06837901736435 0 819.06837901736435 1549.9990219822794 0 0 0 0 2297.7874834452668 2127.6570851108554 0 2127.6570851108554 1082.208358386848 0 0 0 0 186.97704270257236 879.24561970833383 0 879.24561970833383 566.68340214088676 0 0 0 0 1036.6092966410652 1400.4218413922354 0 1400.4218413922354 457.02400050088909 0 0 0 0 2614.3007288673616 1396.601615424348 0 1396.601615424348 -317.42179544907412 0 0 0 0 1147.6961104902293 1647.9905095359791 0 1647.9905095359791 69.076182773758774 0 0 0 0 4264.677413416066 437.18964212263381 0 437.18964212263381 -83.113902338925982 0 0 0 0 10.060737085026545 14.051920589232957 0 14.051920589232957 17.712631566480809 0 0 0 0 1690.0768773172313 88.999748009469386 0 88.999748009469386 -122.54509800528467 0 0 0 0 698.3440617476881 315.92836196144344 0 315.92836196144344 122.60372053377068 0 0 0 0 916.30263166160148 939.55124295696442 0 939.55124295696442 60.490449488788727 0 0 0 0 1939.174306122557 1412.7334036768661 0 1412.7334036768661 279.3137458971687 0 0 0 0 995.15216990812769 1422.1021376204396 0 1422.1021376204396 826.37837108700478 0 0 0 0 997.13077301096246 1457.5922263809391 0 1457.5922263809391 650.98110742226709 0 0 0 0 879.99242050071189 1290.9318579327519 0 1290.9318579327519 555.5704247839094 0 0 0 0 467.76330627290008 1265.0599797587711 0 1265.0599797587711 650.44693477232795 0 0 0 0 138.77786753923283 1171.0046156105927 0 1171.0046156105927 787.25352334701165 0 0 0 0 283.8665232457497 1166.8800023892363 0 1166.8800023892363 602.15562195377424 0 0 0 0 341.88597684118577 1415.777129003407 0 1415.777129003407 764.18861569503497 0 0 0 0 706.92383351782337 849.67270812085917 0 849.67270812085917 455.60307675847434 0 0 0 0 -82.453197497059591 721.85689060469304 0 721.85689060469304 2684.1450175821265 0 0 0 0 295.79434653439966 390.94404766050866 0 390.94404766050866 1681.2856619916765 0 0 0 0 505.00524640392541 337.08330291732273 0 337.08330291732273 495.14224252736312 0 0 0 0 902.66940703775617 1466.2914087302706 0 1466.2914087302706 1850.9805389442645 0 0 0 0 1937.3091812809726 995.17533109356009 0 995.17533109356009 1106.8651287157991 0 0 0 0 835.7493498878157 773.65856294930563 0 773.65856294930563 1037.3184784614132 0 0 0 0 1128.6876339959726 1000.0776219172512 0 1000.0776219172512 961.58378096541855 0 0 0 0 1117.8088259995438 1044.0015169411354 0 1044.0015169411354 1308.6616485054547 0 0 0 0 -615.07624743808265 -1036.2896783605611 0 -1036.2896783605611 760.42970891397272 0 0 0 0 1.7262464839762117 -1.1836390101514098 0 -1.1836390101514098 10.034563565025223 0 0 0 0 2369.6857065207951 2925.5354985018639 0 2925.5354985018639 2299.6407891463332 0 0 0 0 -9.2910360057938419 7.8991555476922599 0 7.8991555476922599 -7.0150763882566878 0 0 0 0 -733.73907052543655 202.93113990496204 0 202.93113990496204 -166.44529027858516 0 0 0 0 -3973.4426135099638 -1251.5660841569697 0 -1251.5660841569697 212.30871144150478 0 0 0 0 -3007.5119619832112 1500.7801056026292 0 1500.7801056026292 895.98724229067739 0 0 0 0 1167.9800169170776 1721.3225287013192 0 1721.3225287013192 262.35920585729764 0 0 0 0 74.785310014412971 2657.5147554662472 0 2657.5147554662472 832.82278611404035 0 0 0 0 -2501.2613310416491 1075.2992132928921 0 1075.2992132928921 658.96245680905486 0 0 0 0 608.43638195298263 2377.5574052525917 0 2377.5574052525917 1135.3229624394153 0 0 0 0 350.19184780429168 1622.909858883505 0 1622.909858883505 1424.9596489797259 0 0 0 0 -1746.6880344839119 1554.7660537874854 0 1554.7660537874854 903.54698165085574 0 0 0 0 -1888.6763530205753 1095.3467600482963 0 1095.3467600482963 -581.62298060969624 0 0 0 0 29.680992029313131 40.073422556102898 0 40.073422556102898 40.523757679697667 0 0 0 0 -2271.9818335374148 2046.2906192774535 0 2046.2906192774535 -267.91501276649433 0 0 0 0 750.72951861134061 188.8217831650436 0 188.8217831650436 -50.705876020045253 0 0 0 0 -1388.5428322964071 1358.7718983712766 0 1358.7718983712766 -1158.8104884521599 0 0 0 0 -1124.0307505058008 1786.0194900080096 0 1786.0194900080096 -501.7879852452661 0 0 0 0 -494.7418525888861 1116.8476316276283 0 1116.8476316276283 -900.25509205201524 0 0 0 0 -927.4864992981893 905.50252208746679 0 905.50252208746679 -338.9810031928464 0 0 0 0 119.27544641235727 1597.0851485327366 0 1597.0851485327366 -579.26170644249578 0 0 0 0 -93.78363905882361 643.1906013315338 0 643.1906013315338 450.35549548416748 0 0 0 0 179.49770678432833 510.08045514357218 0 510.08045514357218 412.59244177126675 0 0 0 0 159.08974398332066 890.93931134368177 0 890.93931134368177 -361.28161222286872 0 0 0 0 -29.874811951398442 112.46435786177153 0 112.46435786177153 -15.117807808710495 0 0 0 0 -204.093288159238 570.13046832611872 0 570.13046832611872 -396.00878511833434 0 0 0 0 -237.86872543691425 337.46834926454176 0 337.46834926454176 -919.94178338826168 0 0 0 0 10.130407887118054 41.966533900405921 0 41.966533900405921 -585.47948890688895 0 0 0 0 -73.186348414364488 263.65155757691576 0 263.65155757691576 -65.077351251908112 0 0 0 0 -79.004443261263077 155.3481972437221 0 155.3481972437221 -422.54054205960711 0 0 0 0 -76.846256793038947 -27.797994114227663 0 -27.797994114227663 -48.096619633448427 0 0 0 0 85.774537767858419 104.67774644457677 0 104.67774644457677 8.8804629976220895 0 0 0 0 2.6784962954188813 19.317376156035607 0 19.317376156035607 443.27345546794822 0 0 0 0 -33.666638613598479 85.533348535518599 0 85.533348535518599 683.21638150060608 0 0 0 0 175.79568118328461 98.349481556098908 0 98.349481556098908 -10.133410841288423 0 0 0 0 379.5269153721747 398.31172645229526 0 398.31172645229526 542.38564239886182 0 0 0 0 95.148132477756008 214.05726536817383 0 214.05726536817383 903.65736442226626 0 0 0 0 221.15847115763609 439.47190485778628 0 439.47190485778628 1505.785710826749 0 0 0 0 153.29482771053699 84.596204868736891 0 84.596204868736891 302.22232544410508 0 0 0 0 160.3179766687972 335.16821680789872 0 335.16821680789872 563.88415120639911 0 0 0 0 445.84765615734432 683.41070410081375 0 683.41070410081375 852.12297002693231 0 0 0 0 218.65621731727879 452.9131604931863 0 452.9131604931863 773.86690841274685 0 0 0 0 567.13278234265454 948.8287399914916 0 948.8287399914916 1370.7889506032661 0 0 0 0 488.78235756936192 625.00298611122707 0 625.00298611122707 930.59429564193124 0 0 0 0 -63.264558957904228 112.88418758469561 0 112.88418758469561 485.26843493989145 0 0 0 0 143.20267235631763 280.00692808726308 0 280.00692808726308 410.99202901139506 0 0 0 0 141.43448969235033 239.25414395914413 0 239.25414395914413 541.42869947419968 0 0 0 0 342.38747936148138 374.96181204169989 0 374.96181204169989 504.20226996083511 0 0 0 0 78.583959133713506 32.697151093649154 0 32.697151093649154 289.34272904302634 0 0 0 0 61.728945671304245 217.63174504827475 0 217.63174504827475 596.19317468192457 0 0 0 0 -8.4807381519185583 -36.674498007943839 0 -36.674498007943839 -109.74432077410165 0 0 0 0 -62.515403022043756 58.218816122942371 0 58.218816122942371 321.4950684964715 0 0 0 0 -250.0650673476739 -156.95210549638432 0 -156.95210549638432 64.320225548362941 0 0 0 0 -49.252599164443382 60.311118208424887 0 60.311118208424887 351.75165340155218 0 0 0 0 -120.0456802250992 -28.239307822906994 0 -28.239307822906994 -7.6947599399136379 0 0 0 0 51.525352270422445 -39.545393342628813 0 -39.545393342628813 -25.433395035666763 0 0 0 0 -130.16458204141964 -65.572516546417319 0 -65.572516546417319 -46.390452842766535 0 0 0 0 -103.79456075857888 -72.330410209615366 0 -72.330410209615366 -90.321973594989686 0 0 0 0 -99.969965287138621 -38.113637773643859 0 -38.113637773643859 -67.183148352982244 0 0 0 0 310.43065012071747 112.96095797530143 0 112.96095797530143 106.96387421717372 0 0 0 0 -177.28456355732851 -5.6110089465255442 0 -5.6110089465255442 25.262461834281567 0 0 0 0 -30.52998068544548 81.497653426296893 0 81.497653426296893 -104.47245825725258 0 0 0 0 -20.455903285662181 34.89970376491452 0 34.89970376491452 -22.810350508276599 0 0 0 0 -301.59656070706114 78.455842354145716 0 78.455842354145716 -31.215718535349879 0 0 0 0 -13.885072630086768 35.51975772968656 0 35.51975772968656 -30.675960069661812 0 0 0 0 418.57821998930376 243.66115813191936 0 243.66115813191936 18.886411106235755 0 0 0 0 -0.9459500236208811 0.32142794167779698 0 0.32142794167779698 8.5944940274350756 0 0 0 0 363.73532965707273 220.70549597710487 0 220.70549597710487 37.331764906328317 0 0 0 0 -468.22322461310978 269.63586637072149 0 269.63586637072149 -95.273144718383264 0 0 0 0 -453.13495235228038 213.56856913775118 0 213.56856913775118 -107.8220794122899 0 0 0 0 -438.58986400288632 171.41150808337443 0 171.41150808337443 -29.95009894699615 0 0 0 0 -319.56255578678247 153.61790079253842 0 153.61790079253842 -102.40191803636844 0 0 0 0 -294.53409694514266 149.9262135882891 0 149.9262135882891 -61.147314627756714 0 0 0 0 -325.17343278112094 146.48764226262574 0 146.48764226262574 -23.107220560021233 0 0 0 0 -220.07381898997119 74.519000156593393 0 74.519000156593393 -27.703817799010722 0 0 0 0 -677.2646321422726 252.39829865333741 0 252.39829865333741 22.402357072107407 0 0 0 0 -380.55600260813299 127.16345780987831 0 127.16345780987831 65.769663626502734 0 0 0 0 -341.42141612954583 328.23592898181232 0 328.23592898181232 -77.8189186590389 0 0 0 0 -435.48342539776422 302.90171068229029 0 302.90171068229029 -72.225019696226809 0 0 0 0 -235.19168720157177 353.7280975223548 0 353.7280975223548 -94.378570651306291 0 0 0 0 -521.16329529021459 438.98720155360934 0 438.98720155360934 -79.869183966206037 0 0 0 0 -684.77068346627311 774.89877841756788 0 774.89877841756788 -433.79114112790558 0 0 0 0 -416.9613481887136 -13.975658130882948 0 -13.975658130882948 203.68164506142784 0 0 0 0 -1037.7271184323799 131.50865404854994 0 131.50865404854994 209.15581485761504 0 0 0 0 -2894.6018619286806 1908.7321002981498 0 1908.7321002981498 -2724.2545242481574 0 0 0 0 -2417.4962127427279 702.74009053085683 0 702.74009053085683 172.17812729088473 0 0 0 0 -13.882083208282189 31.945080415912571 0 31.945080415912571 -35.464523016993098 0 0 0 0 631.32411767826852 538.40511144814809 0 538.40511144814809 -430.55773680982384 0 0 0 0 -630.11818805617077 1118.7622976890852 0 1118.7622976890852 -652.70974055331317 0 0 0 0 -21.022778385493439 262.38939238493185 0 262.38939238493185 -202.27709898722242 0 0 0 0 -10.378876360693539 267.56536469040293 0 267.56536469040293 -200.04424043734616 0 0 0 0 -1.7156022748575737 0.48750197125764316 0 0.48750197125764316 12.68735047584056 0 0 0 0 537.34941526662442 80.583099038660293 0 80.583099038660293 78.997764268311585 0 0 0 0 -103.49092970004858 249.33084732338466 0 249.33084732338466 325.15898623284011 0 0 0 0 565.32270300960226 38.495839556700957 0 38.495839556700957 1429.8591694949719 0 0 0 0 805.50193437594135 563.48799647264241 0 563.48799647264241 -130.86162405801588 0 0 0 0 573.35070113025722 99.804706614464521 0 99.804706614464521 -525.79045129845326 0 0 0 0 -9.3166867916297633 42.303792038743268 0 42.303792038743268 307.11445215468848 0 0 0 0 -235.52884148866724 60.007999111086974 0 60.007999111086974 360.42214363396488 0 0 0 0 -87.180771634226403 211.33910984554313 0 211.33910984554313 397.96566144133976 0 0 0 0 -0.18271644823096267 -0.65814547342034757 0 -0.65814547342034757 5.6913523372930399 0 0 0 0 533.21950520663449 824.99431030932465 0 824.99431030932465 -21.948864872159902 0 0 0 0 -976.23401709545578 -210.88065199224366 0 -210.88065199224366 462.13326177466661 0 0 0 0 -466.57753618155766 1360.3376557043266 0 1360.3376557043266 -1119.3968984785024 0 0 0 0 -44.501101843154174 1226.6351162161154 0 1226.6351162161154 -1145.2483200642891 0 0 0 0 -1323.2419052608748 1561.0962274924823 0 1561.0962274924823 -199.83172373881098 0 0 0 0 -766.35377317927487 1367.2590479569481 0 1367.2590479569481 -242.2559506288726 0 0 0 0 -1928.2062567153625 668.78568366066611 0 668.78568366066611 35.850053818314336 0 0 0 0 -225.35713722532091 561.99935855521471 0 561.99935855521471 -84.853999370036036 0 0 0 0 -580.88416632266308 166.67548515331509 0 166.67548515331509 464.44417823030381 0 0 0 0 65.051610651033116 112.39307438541437 0 112.39307438541437 99.153152289816717 0 0 0 0 173.22627603317233 323.83536464353529 0 323.83536464353529 259.39226826482991 0 0 0 0 58.008292317965243 47.553529356191575 0 47.553529356191575 148.38196334282111 0 0 0 0 17.326674593859664 66.263782596102388 0 66.263782596102388 16.811422611675823 0 0 0 0 -4622.0555739857737 -1418.8782705595149 0 -1418.8782705595149 -361.65665294288192 0 0 0 0 -6.8119846677577485 14.191754594617876 0 14.191754594617876 -18.239429718012843 0 0 0 0 2733.2343543622428 1946.6242448451885 0 1946.6242448451885 -1037.6776730136771 0 0 0 0 -4.7162319590694608 5.1465177587990922 0 5.1465177587990922 -10.341783647096406 0 0 0 0 -3988.3303024098441 -3468.3834398269646 0 -3468.3834398269646 3206.2908070315607 0 0 0 0 2278.6287835336698 -193.35646919369174 0 -193.35646919369174 -245.66418929735664 0 0 0 0 -119.22139903553762 754.82603791679139 0 754.82603791679139 -123.79018189560156 0 0 0 0 -3306.8072781923947 2770.3813169282512 0 2770.3813169282512 74.788376773998607 0 0 0 0 3586.5057110141352 1410.3887723552107 0 1410.3887723552107 296.97666549985297 0 0 0 0 1.5799695108379979 19.895330818912413 0 19.895330818912413 8.1466407143033166 0 0 0 0 1718.0967435010025 2772.8407571748867 0 2772.8407571748867 -564.40738160445471 0 0 0 0 -2055.8764332524806 301.69652634509112 0 301.69652634509112 -836.3891763780266 0 0 0 0 63.905798942312359 142.07184155118682 0 142.07184155118682 129.19558200415418 0 0 0 0 176.04858000829427 227.38951690291287 0 227.38951690291287 154.80314372276916 0 0 0 0 -3344.3329282051127 -1237.3450103675132 0 -1237.3450103675132 874.97796899749665 0 0 0 0 -29.491756718945908 72.420746523592243 0 72.420746523592243 26.244612552254694 0 0 0 0 13.923799071546 80.121243125785128 0 80.121243125785128 85.508317134942132 0 0 0 0 71.358194554793187 126.27474828098534 0 126.27474828098534 88.21568454010486 0 0 0 0 0.90863480082771275 173.38942692434648 0 173.38942692434648 172.22001107325195 0 0 0 0 -7.9873189270856528 178.17033773365256 0 178.17033773365256 169.65063887964061 0 0 0 0 -2142.1341975664982 -254.64007421259885 0 -254.64007421259885 95.142311056843027 0 0 0 0 152.58234133941355 153.52278584637446 0 153.52278584637446 66.016977759921843 0 0 0 0 140.40169072973072 142.04719830438262 0 142.04719830438262 105.38477807992604 0 0 0 0 212.17547184147134 192.18547301016224 0 192.18547301016224 128.52597938542021 0 0 0 0 32.051467021733799 320.99503228142567 0 320.99503228142567 294.08440199544566 0 0 0 0 26.03810072653684 48.855936984657788 0 48.855936984657788 32.130758765430755 0 0 0 0 302.51499365592861 407.37991531495936 0 407.37991531495936 240.45163184357807 0 0 0 0 -30.900769575013822 80.882774716050875 0 80.882774716050875 147.13754928389415 0 0 0 0 -18.066474980117675 197.8052641339309 0 197.8052641339309 293.48955781447876 0 0 0 0 -76.284216795185785 -9.5069841985423409 0 -9.5069841985423409 156.0692149772658 0 0 0 0 185.00603614820989 228.23206967290025 0 228.23206967290025 154.87741485899824 0 0 0 0 -54.548961296779453 -2.4117544764885679 0 -2.4117544764885679 139.60350464341172 0 0 0 0 -87.374279095220118 153.43641453517193 0 153.43641453517193 244.68531466575223 0 0 0 0 552.50978351064873 473.17186138589386 0 473.17186138589386 203.35219886244158 0 0 0 0 -564.57340034711524 1792.9603613436338 0 1792.9603613436338 -1042.6062959885733 0 0 0 0 -901.75413704969105 1217.3174937651856 0 1217.3174937651856 -1034.0145499296486 0 0 0 0 -463.67931910431071 2211.1008754294016 0 2211.1008754294016 117.20551036350662 0 0 0 0 253.48967383391573 1095.4492966129474 0 1095.4492966129474 -584.05861262790859 0 0 0 0 -605.04496833056328 -241.21377262021997 0 -241.21377262021997 -1027.5903345747211 0 0 0 0 -241.7239613624406 1614.3690450700669 0 1614.3690450700669 -1125.1004784040852 0 0 0 0 -40.028802351647755 26.059542802016949 0 26.059542802016949 87.638554454082623 0 0 0 0 -670.45387794567796 -188.1458634910814 0 -188.1458634910814 408.99139175836171 0 0 0 0 -21.200263353408758 3.4827636559777631 0 3.4827636559777631 16.723147079260556 0 0 0 0 155.43436568985089 6.0001407817435393 0 6.0001407817435393 232.47953889924975 0 0 0 0 32.793156339212999 47.792151996146586 0 47.792151996146586 62.645096162116744 0 0 0 0 18.891810473927762 -55.522156638762681 0 -55.522156638762681 124.49952069168648 0 0 0 0 -28.21942378145468 3.7410102711364743 0 3.7410102711364743 254.28938773518894 0 0 0 0 -44.858715113718063 36.292019814587547 0 36.292019814587547 270.04296835747664 0 0 0 0 -23.547378700575791 8.5697468272701371 0 8.5697468272701371 299.46466926921858 0 0 0 0 -17.648250276056388 54.717498816962689 0 54.717498816962689 463.42345524480334 0 0 0 0 -1189.5725898318342 2664.6626822519756 0 2664.6626822519756 -322.91601065048599 0 0 0 0 188.56827371938562 89.158723366475897 0 89.158723366475897 69.343226954166312 0 0 0 0 208.58238151206751 -202.48631005737116 0 -202.48631005737116 441.57394059345825 0 0 0 0 57.677687347841527 44.711965430271846 0 44.711965430271846 28.367665229958305 0 0 0 0 120.12964931732859 -47.305148686500615 0 -47.305148686500615 271.54680190733052 0 0 0 0 97.115188955100166 3.5480453669006238 0 3.5480453669006238 385.44188495032722 0 0 0 0 405.38876470443211 -75.786010430718306 0 -75.786010430718306 -43.721379742957652 0 0 0 0 264.29128777049482 -28.666137926105876 0 -28.666137926105876 65.018509716202971 0 0 0 0 434.55730952860904 -334.10753541813756 0 -334.10753541813756 -12.048560664698016 0 0 0 0 317.5531084566901 -225.07822703343118 0 -225.07822703343118 398.20486710278783 0 0 0 0 265.99376008831314 -121.92304009932559 0 -121.92304009932559 478.15397613617824 0 0 0 0 1154.2511640529847 407.31403592438437 0 407.31403592438437 -4343.0322904636269 0 0 0 0 95.435478274623165 -470.2773350897769 0 -470.2773350897769 910.186145167012 0 0 0 0 -25.723383816774003 -194.29994378561969 0 -194.29994378561969 1516.2321161364962 0 0 0 0 35.420172489282919 18.940222647647744 0 18.940222647647744 8.8173436375992367 0 0 0 0 64.008919629719458 -34.743582945884555 0 -34.743582945884555 3210.5392244428431 0 0 0 0 3141.0642171009385 1802.0635299815367 0 1802.0635299815367 -326.04672784387367 0 0 0 0 -3464.0410233099246 1080.0480513494695 0 1080.0480513494695 2205.1476793262409 0 0 0 0 -2931.2293227930204 -3404.7098261239007 0 -3404.7098261239007 2747.2365959992749 0 0 0 0 1762.878366733552 -1562.00227072087 0 -1562.00227072087 369.66031885053962 0 0 0 0 506.22077462251764 1721.7491206573322 0 1721.7491206573322 509.0712756310968 0 0 0 0 319.76653849548893 1319.6382954572036 0 1319.6382954572036 619.22598928795924 0 0 0 0 297.7862801970623 1440.3085141294432 0 1440.3085141294432 645.52618556625021 0 0 0 0 1108.4493060137102 2412.0873681026424 0 2412.0873681026424 439.9106887129019 0 0 0 0 722.73445656739204 1293.1105289642801 0 1293.1105289642801 1863.6509928502492 0 0 0 0 1857.0366494461196 3186.1404543716926 0 3186.1404543716926 1216.990468526812 0 0 0 0 220.14745292758744 376.59833629371133 0 376.59833629371133 498.43091446640756 0 0 0 0 1079.3051525718474 1411.8934839724025 0 1411.8934839724025 -99.838316734822001 0 0 0 0 446.11658253303904 2562.2691559758969 0 2562.2691559758969 3543.0931208385009 0 0 0 0 449.71683990439487 688.586728616443 0 688.586728616443 2876.1845743560261 0 0 0 0 1030.9578869863908 1438.6478617171233 0 1438.6478617171233 1203.9721131657907 0 0 0 0 43.215321642857049 -11.313264616158477 0 -11.313264616158477 0.9071584125191805 0 0 0 0 2253.7929439549443 77.479012777981552 0 77.479012777981552 -5418.954680274881 0 0 0 0 -401.27297525124595 1598.8005076041954 0 1598.8005076041954 712.24403301395068 0 0 0 0 374.83225565609973 458.57112915132348 0 458.57112915132348 259.69056194776203 0 0 0 0 -180.02519348586793 454.78158177647856 0 454.78158177647856 296.96082333954109 0 0 0 0 9.1108458438538946 880.14678266791452 0 880.14678266791452 131.37668579253659 0 0 0 0 -138.13020993439457 127.00766648214609 0 127.00766648214609 44.360398398657935 0 0 0 0 -154.12255681608804 555.15285994438455 0 555.15285994438455 -103.50465041887946 0 0 0 0 543.02512146020308 755.83620128703478 0 755.83620128703478 1047.2526836958932 0 0 0 0 -222.8034291463191 139.61242809406758 0 139.61242809406758 234.14225037765573 0 0 0 0 176.94348499289117 526.10642191133866 0 526.10642191133866 -178.855394194572 0 0 0 0 -30.744789836813595 -3.1258126099155561 0 -3.1258126099155561 9.1136733702461186 0 0 0 0 247.43836736114463 16.355593312036945 0 16.355593312036945 91.367138571687974 0 0 0 0 -21.092888602107564 144.12447845914619 0 144.12447845914619 20.429665822394739 0 0 0 0 244.64174277489292 690.85223842183768 0 690.85223842183768 -1197.7319142599299 0 0 0 0 642.91849684374756 755.56969367385318 0 755.56969367385318 1043.777425063905 0 0 0 0 929.48468313022022 511.66512414481986 0 511.66512414481986 1247.8642271028802 0 0 0 0 142.16511607734043 -0.21540053952244875 0 -0.21540053952244875 0.79818058873631514 0 0 0 0 681.26814402299351 961.55371152401494 0 961.55371152401494 1196.4974566206529 0 0 0 0 716.44133994569711 791.66651913136593 0 791.66651913136593 911.86667654258781 0 0 0 0 633.32975581107894 877.09171858782065 0 877.09171858782065 890.94595997867145 0 0 0 0 448.08450304934013 635.83815645461436 0 635.83815645461436 897.05841900722589 0 0 0 0 683.51329711463768 773.63811184000224 0 773.63811184000224 825.65592156191997 0 0 0 0 666.23477413813816 800.71485042459972 0 800.71485042459972 822.21643652857165 0 0 0 0 698.2859392295868 859.98086524897371 0 859.98086524897371 896.21675281756325 0 0 0 0 707.46590570380795 881.35084987705341 0 881.35084987705341 803.20607825510888 0 0 0 0 942.48509033134906 861.23187008425884 0 861.23187008425884 602.96861448200798 0 0 0 0 625.62722390412819 688.17522026148799 0 688.17522026148799 705.18539542861981 0 0 0 0 798.59360379331338 915.73405293279211 0 915.73405293279211 804.45135345422204 0 0 0 0 747.65137070428318 916.69425812191912 0 916.69425812191912 805.3757376512367 0 0 0 0 648.2735292757352 945.83791443314476 0 945.83791443314476 985.90910216043994 0 0 0 0 865.05953903880436 1072.2785175867321 0 1072.2785175867321 1046.4036036510661 0 0 0 0 508.21058849080873 772.91274448429249 0 772.91274448429249 829.95728204723855 0 0 0 0 713.19641131045501 874.86260958051571 0 874.86260958051571 804.32941140787443 0 0 0 0 585.26366373928613 726.97024960800627 0 726.97024960800627 734.05486543170991 0 0 0 0 396.13902365537069 536.84064964384743 0 536.84064964384743 666.99141307268292 0 0 0 0 225.6259300294987 265.18508770488552 0 265.18508770488552 505.24881644482957 0 0 0 0 491.7679943279436 465.80181565160456 0 465.80181565160456 548.20043302205158 0 0 0 0 -12.437943020267994 128.62794921571185 0 128.62794921571185 473.73091058232239 0 0 0 0 246.8354142455064 242.25182168082392 0 242.25182168082392 427.50181359428825 0 0 0 0 305.38464641440805 118.78907146422716 0 118.78907146422716 362.34897572026239 0 0 0 0 86.605952407015138 278.71148552483646 0 278.71148552483646 391.2857724250498 0 0 0 0 178.28236109849968 574.17107911751373 0 574.17107911751373 -433.91175143225701 0 0 0 0 834.25765246153605 665.32398460699915 0 665.32398460699915 334.79089848487638 0 0 0 0 644.99584457448509 663.23669146758039 0 663.23669146758039 1156.3362601444414 0 0 0 0 1090.0984035311922 801.04146969263093 0 801.04146969263093 709.23181273227965 0 0 0 0 797.13569232766895 736.55204993352163 0 736.55204993352163 673.67573721054941 0 0 0 0 566.65109616423433 591.80514233999565 0 591.80514233999565 699.97308226711175 0 0 0 0 724.72870358647197 518.62790233702981 0 518.62790233702981 512.06414956975095 0 0 0 0 -33.129987320946384 91.466098048418644 0 91.466098048418644 -71.36648489208892 0 0 0 0 -37.09695733069384 41.163370766771152 0 41.163370766771152 -19.34351015942002 0 0 0 0 2.9768621197692369 3.9331245436055156 0 3.9331245436055156 -6.3205225126245068 0 0 0 0 81.080179500335362 218.8288602329485 0 218.8288602329485 365.05336997242557 0 0 0 0 -4.326437200369412 -2.0145601585506938 0 -2.0145601585506938 3.8968561699691975 0 0 0 0 306.99641341762617 -241.60567660769448 0 -241.60567660769448 -141.63880634517409 0 0 0 0 250.41311959043378 24.935177224309882 0 24.935177224309882 -330.99953762450605 0 0 0 0 -7.983466047604054 9.2298683741067435 0 9.2298683741067435 -7.2593306765555781 0 0 0 0 -101.55503058532486 -154.43386559765349 0 -154.43386559765349 54.307821052963845 0 0 0 0 0.11760971319253599 14.408954337391606 0 14.408954337391606 -18.316611534995388 0 0 0 0 274.43791374887951 -93.488129326004128 0 -93.488129326004128 -0.37617229807074182 0 0 0 0 104.75584606791381 129.46280110662337 0 129.46280110662337 -37.28017091581205 0 0 0 0 97.28420261607971 178.29549572697579 0 178.29549572697579 -100.08456048805965 0 0 0 0 27.625764943129099 31.454698952782763 0 31.454698952782763 -1.1697793575942796 0 0 0 0 -130.60101025032054 50.210106184240431 0 50.210106184240431 -15.022236208822505 0 0 0 0 1.5496244481910253 70.67776406127814 0 70.67776406127814 -27.519456606809399 0 0 0 0 -45.384220576452208 114.19283832783185 0 114.19283832783185 -67.8617154521271 0 0 0 0 -31.41286951105576 45.495674894336844 0 45.495674894336844 -19.97018026825026 0 0 0 0 -14.331352878594771 77.347686697150493 0 77.347686697150493 -21.49510304404248 0 0 0 0 -55.801501865895602 47.835881385722189 0 47.835881385722189 -13.14245249553386 0 0 0 0 131.63623288745293 73.648408611043124 0 73.648408611043124 -9.6015194786414213 0 0 0 0 -54.529468733351678 82.221474958700128 0 82.221474958700128 40.928192005143501 0 0 0 0 -4.7001215316122398 155.74763891013572 0 155.74763891013572 68.83388148942322 0 0 0 0 29.70158268637087 52.151887892146391 0 52.151887892146391 4.4155176093989894 0 0 0 0 -566.75421053035825 -616.85030881966668 0 -616.85030881966668 -481.89889224103536 0 0 0 0 -1526.5285786627574 2759.3001834859315 0 2759.3001834859315 -3577.3060275256867 0 0 0 0 -6.3259998297789366 30.048848288131808 0 30.048848288131808 -7.1973394478455077 0 0 0 0 -2751.0619226659182 418.79146441508783 0 418.79146441508783 639.43217610375723 0 0 0 0 108.4842606435268 242.13059499473457 0 242.13059499473457 78.216444373094419 0 0 0 0 36.21421499647434 58.102276356086122 0 58.102276356086122 -0.24970557238560787 0 0 0 0 166.31303829248645 117.01922267497866 0 117.01922267497866 -18.854521773817396 0 0 0 0 -2.1062404256008449 330.48879611777375 0 330.48879611777375 236.36545078945346 0 0 0 0 207.14171273619286 338.94248254826016 0 338.94248254826016 92.15336263703648 0 0 0 0 280.01746789418394 199.88811758793599 0 199.88811758793599 18.416165585891576 0 0 0 0 105.69522420570138 319.1622809623077 0 319.1622809623077 178.6944655419793 0 0 0 0 148.87886382848956 293.85966048696719 0 293.85966048696719 117.40633906488074 0 0 0 0 162.27677070267964 282.4565512258996 0 282.4565512258996 93.831643776939018 0 0 0 0 101.00081260345178 297.87725458206842 0 297.87725458206842 255.06474185312982 0 0 0 0 279.24613751511788 149.30853638400731 0 149.30853638400731 109.04157257667976 0 0 0 0 -10.752134830717438 5.3477803224927243 0 5.3477803224927243 8.0983520417001955 0 0 0 0 151.84172937599942 348.57686767546693 0 348.57686767546693 115.55103021432296 0 0 0 0 6.3634660134557635 872.49757352918459 0 872.49757352918459 599.97575249588408 0 0 0 0 308.82956840892439 109.7498344484884 0 109.7498344484884 -92.272106284930487 0 0 0 0 730.85941667982843 610.06200108219491 0 610.06200108219491 142.34936065030342 0 0 0 0 1660.3450661379102 382.11118750782771 0 382.11118750782771 -54.317701808831771 0 0 0 0 498.6296457620665 1491.571084655614 0 1491.571084655614 696.11889174608223 0 0 0 0 -5037.3994299918413 3572.0661887284878 0 3572.0661887284878 -1.5684959549253108 0 0 0 0 13.140479558839957 19.430889159980936 0 19.430889159980936 1.7803424659155098 0 0 0 0 7831.2294481319841 4605.3802515846764 0 4605.3802515846764 -23.347555789339822 0 0 0 0 -92.22246371830397 61.818207606145279 0 61.818207606145279 -0.070874320052098483 0 0 0 0 -626.56850508871139 1090.0532823934482 0 1090.0532823934482 -124.9068733897293 0 0 0 0 -2.9057644653329557 4.4512873010576754 0 4.4512873010576754 -0.65383260613197081 0 0 0 0 28.95976375160717 148.64841162456378 0 148.64841162456378 528.32332589325961 0 0 0 0 4019.0555116764153 -576.27637426498404 0 -576.27637426498404 467.61258772517613 0 0 0 0 4.2218491267923923 8.9946281180769176 0 8.9946281180769176 -0.80207822803259887 0 0 0 0 4051.377959475969 837.40718925738474 0 837.40718925738474 2.766678063722793 0 0 0 0 -3527.9485703573882 1270.8493891728358 0 1270.8493891728358 482.19814405735815 0 0 0 0 -1158.9014159943908 3214.193147095968 0 3214.193147095968 841.67400373503915 0 0 0 0 -639.89840415486833 907.81940992503951 0 907.81940992503951 -1392.3896186497586 0 0 0 0 -773.39595731016016 1910.77987537648 0 1910.77987537648 -1957.5059156563002 0 0 0 0 -1746.5613173212332 -560.9167692628107 0 -560.9167692628107 590.59217743796762 0 0 0 0 1148.4111712096783 414.44659283856163 0 414.44659283856163 -994.21607939945534 0 0 0 0 -7.2733364312180129 36.335143892688393 0 36.335143892688393 -14.328377993166214 0 0 0 0 -1.7652752366378053 27.997082775703177 0 27.997082775703177 -12.654849886050499 0 0 0 0 -10.257705823689776 12.875725794396772 0 12.875725794396772 -5.8089008440282441 0 0 0 0 -2485.6352146641875 802.44664096678025 0 802.44664096678025 1566.2755572557289 0 0 0 0 -3282.2318961972487 3086.9993300300121 0 3086.9993300300121 -3823.0494007971865 0 0 0 0 -3301.4881593021855 2988.2505885758437 0 2988.2505885758437 -3137.0461720515741 0 0 0 0 -4460.1109970674152 3553.831329748311 0 3553.831329748311 -643.93952708903089 0 0 0 0 38.788236549443013 40.861301245846235 0 40.861301245846235 -4.53388315020851 0 0 0 0 -4500.1836582915421 4538.1425009132872 0 4538.1425009132872 -806.0172988101549 0 0 0 0 -158.08668822515756 887.14396366770234 0 887.14396366770234 -2825.6179943586467 0 0 0 0 -5.2893366827132908 11.893300495996868 0 11.893300495996868 -9.9923844769880361 0 0 0 0 1849.000632625769 1128.4271900620784 0 1128.4271900620784 -1439.3962289640913 0 0 0 0 -3551.7175258675707 2713.4031842238328 0 2713.4031842238328 -1687.7382588888286 0 0 0 0 -4434.9137507959094 2590.4091725956532 0 2590.4091725956532 268.5274457746491 0 0 0 0 -644.31250907105277 -512.24102069035871 0 -512.24102069035871 -2330.8710664886894 0 0 0 0 -1693.9853385599126 3629.2284738941962 0 3629.2284738941962 -2829.4882964286953 0 0 0 0 -2894.9242652613611 55.048899288420216 0 55.048899288420216 -625.04469463993883 0 0 0 0 -934.95422233123827 -17.19107744446228 0 -17.19107744446228 302.45470871889847 0 0 0 0 -184.86126031170716 349.62289379179128 0 349.62289379179128 -661.31310723990464 0 0 0 0 -130.42708902629965 -53.46249818879005 0 -53.46249818879005 -131.08188555705419 0 0 0 0 -199.7982063429954 261.82910973641265 0 261.82910973641265 -1114.482305752761 0 0 0 0 -592.99925449164584 -608.99306450459699 0 -608.99306450459699 -339.73784720667754 0 0 0 0 -385.0267897931335 -228.00928967920481 0 -228.00928967920481 500.82156760583166 0 0 0 0 -138.33244229381671 -131.38057165057398 0 -131.38057165057398 150.58224586740835 0 0 0 0 -149.9629039381698 -420.69335334388393 0 -420.69335334388393 69.73615051060915 0 0 0 0 -11.493547619087622 -95.658718161968864 0 -95.658718161968864 375.14647515083198 0 0 0 0 -38.603529473388335 17.63100867747562 0 17.63100867747562 279.5914388772544 0 0 0 0 -136.28984538179066 483.79448713230522 0 483.79448713230522 1161.9261666051898 0 0 0 0 -8.2772355459272262 26.861037166508197 0 26.861037166508197 -19.907896673999261 0 0 0 0 -11.827092178718885 29.450384915267932 0 29.450384915267932 14.287616524408804 0 0 0 0 -11.026245733024552 46.878874384754454 0 46.878874384754454 -6.1315024763753172 0 0 0 0 -12.959735507772223 22.942266966142597 0 22.942266966142597 -5.612159501957052 0 0 0 0 -91.638229992862762 -217.94358695372466 0 -217.94358695372466 358.0270897129667 0 0 0 0 3.4891876320311326 25.723031275596398 0 25.723031275596398 5.7623561733028907 0 0 0 0 -48.731668774475111 84.724914646838442 0 84.724914646838442 713.42086889175698 0 0 0 0 6.1087286809718648 26.692403419277525 0 26.692403419277525 -15.830066275704354 0 0 0 0 -6.6516890987622901 -1.2192066817151499 0 -1.2192066817151499 -67.126242438971531 0 0 0 0 214.96498988193343 55.828861528658308 0 55.828861528658308 0.078870104334782809 0 0 0 0 54.132240107370308 54.502593487210106 0 54.502593487210106 -123.69541658321396 0 0 0 0 39.164470965108194 103.74223054760296 0 103.74223054760296 -138.46300761259045 0 0 0 0 142.52695579233114 104.89634196681436 0 104.89634196681436 -95.20550828584237 0 0 0 0 2.0866185779931641 1.0730192385353376 0 1.0730192385353376 -24.826960743954999 0 0 0 0 49.490838359553891 3.2534242810615979 0 3.2534242810615979 -75.408045568474336 0 0 0 0 43.419663004227914 6.2284581142594106 0 6.2284581142594106 -37.392354961484671 0 0 0 0 -0.21898529976982672 2.8207853127531166 0 2.8207853127531166 -0.42778618512585354 0 0 0 0 18.099159390025306 44.712133297987748 0 44.712133297987748 69.647331511019729 0 0 0 0 -11.232294355050499 3.5670645855878149 0 3.5670645855878149 -0.45732267208649091 0 0 0 0 5.6268994989513885 118.38995685269765 0 118.38995685269765 20.74862359688268 0 0 0 0 177.53578338946681 105.07860538578825 0 105.07860538578825 -96.371989060120541 0 0 0 0 252.80540319817374 -99.570282645407133 0 -99.570282645407133 -7.0254358556703664 0 0 0 0 -60.53044334743754 108.88783125585178 0 108.88783125585178 -41.243644012472942 0 0 0 0 -61.340488260408165 60.54890853643883 0 60.54890853643883 -21.499347195203882 0 0 0 0 -13.797008189932171 18.046078465528424 0 18.046078465528424 14.929597013941532 0 0 0 0 8.2641444702749141 -27.549381517514121 0 -27.549381517514121 -73.350360632030061 0 0 0 0 50.927158543665428 23.851573012390872 0 23.851573012390872 -4.28773842859664 0 0 0 0 7.7013568708207458 10.574251673475374 0 10.574251673475374 -12.260395912329841 0 0 0 0 14.9867256125778 15.757022454224852 0 15.757022454224852 -14.69911155467409 0 0 0 0 15.809651947463863 -40.754078358819243 0 -40.754078358819243 -54.259574274066836 0 0 0 0 4.7935214941389859 -34.388383738041739 0 -34.388383738041739 -31.098480886314064 0 0 0 0 17.172201118446537 12.623060497495317 0 12.623060497495317 -101.38698979251785 0 0 0 0 21.345762675988055 5.746061203874433 0 5.746061203874433 -10.625194630582747 0 0 0 0 21.730734007491264 6.545235809055157 0 6.545235809055157 -14.043526336397917 0 0 0 0 8.8740842552215327 14.89533567307808 0 14.89533567307808 -19.766437670445157 0 0 0 0 5.7928045213824362 11.368604391832946 0 11.368604391832946 -1.6279464128474856 0 0 0 0 13.457456015748903 16.651388269441668 0 16.651388269441668 -1.3265339649151429 0 0 0 0 0.52856871880794642 9.1630381878640037 0 9.1630381878640037 -0.009276090539060533 0 0 0 0 4.8562293984869029 19.558415828505531 0 19.558415828505531 -26.086901496484643 0 0 0 0 -24.475018716460909 22.306352467378019 0 22.306352467378019 -66.359701425302774 0 0 0 0 1.9826542947999428 13.069959540936139 0 13.069959540936139 -4.211704898356146 0 0 0 0 9.0522910231467506 7.771737952133094 0 7.771737952133094 -27.338063873619319 0 0 0 0 -55.858444780868012 66.382124563431717 0 66.382124563431717 -24.14735064064007 0 0 0 0 -4.6848677445377689 -15.257651923428057 0 -15.257651923428057 -0.99892900523263961 0 0 0 0 -17.474224337667692 5.6483589089475572 0 5.6483589089475572 -27.588816986593883 0 0 0 0 17.264470770664047 -8.285354616578843 0 -8.285354616578843 83.411746696161572 0 0 0 0 26.724453877017368 -12.672073547902983 0 -12.672073547902983 -41.826829033969261 0 0 0 0 -2.189265765278833 3.3153032972913934 0 3.3153032972913934 -8.2605364228656981 0 0 0 0 43.165348470429308 -79.29572763042961 0 -79.29572763042961 -2.6130792358599138 0 0 0 0 3.3133820744783975 -0.6163520256432804 0 -0.6163520256432804 -1.3432527145527331 0 0 0 0 4.3132946015678044 1.4845140686826142 0 1.4845140686826142 -1.9791259566423491 0 0 0 0 -48.053466890080017 31.313747845822945 0 31.313747845822945 348.15591238366324 0 0 0 0 104.81253936263965 190.22063384937792 0 190.22063384937792 386.69030288569047 0 0 0 0 281.19186987732974 -358.81853540429438 0 -358.81853540429438 53.622106806433294 0 0 0 0 1.2505530027394229 2.6010475973250209 0 2.6010475973250209 -1.5965784161136298 0 0 0 0 168.48670054602553 -168.86823596758768 0 -168.86823596758768 268.86924507316144 0 0 0 0 272.95347164889972 -126.1201044539921 0 -126.1201044539921 -376.64262868315564 0 0 0 0 284.54808458313346 -31.130520031067135 0 -31.130520031067135 193.57751728023868 0 0 0 0 409.7023527871138 90.942324078817592 0 90.942324078817592 58.481739454204217 0 0 0 0 300.00322252351907 130.79491665273963 0 130.79491665273963 229.99188310807222 0 0 0 0 408.23341357603204 39.940575451837503 0 39.940575451837503 -128.79985301769921 0 0 0 0 482.43734009945183 224.56128720132983 0 224.56128720132983 -172.27926110269618 0 0 0 0 499.3432600517408 289.75138643832179 0 289.75138643832179 14.807956515069236 0 0 0 0 260.89625323582732 391.23535767385692 0 391.23535767385692 415.49882802541833 0 0 0 0 427.53628140586079 283.92451943173364 0 283.92451943173364 167.40069849937572 0 0 0 0 -24.629148174849263 21.618701306033984 0 21.618701306033984 15.051046892084962 0 0 0 0 -1113.8625812956016 637.22311245687524 0 637.22311245687524 -19.4537691102596 0 0 0 0 530.82335145384423 373.36307776175818 0 373.36307776175818 20.683732646997669 0 0 0 0 485.52118813554807 135.13760387581624 0 135.13760387581624 -387.5962744474964 0 0 0 0 -1211.8580086728471 981.83566987149243 0 981.83566987149243 2016.5606191889965 0 0 0 0 -3373.5853078067958 2043.8747939725654 0 2043.8747939725654 -643.63855685963063 0 0 0 0 -2189.8861817898578 3041.3198335415145 0 3041.3198335415145 -1974.489558130942 0 0 0 0 -677.25930740442709 589.01079632314941 0 589.01079632314941 -935.87430177237911 0 0 0 0 -706.24840824629064 1952.8384292512274 0 1952.8384292512274 -3045.5372717715723 0 0 0 0 -12.300244233124715 3.8251030610477699 0 3.8251030610477699 -3.5583117151445798 0 0 0 0 -2057.5992023774816 1380.8330805803234 0 1380.8330805803234 42.961077734813443 0 0 0 0 -570.08334163375548 320.8506479790085 0 320.8506479790085 -315.04248000437838 0 0 0 0 41.173062198480039 40.045902301424547 0 40.045902301424547 0.12844704670516194 0 0 0 0 -1059.7538974138006 798.77115088298524 0 798.77115088298524 -260.0977176582237 0 0 0 0 -760.82758819876472 1093.3915108165747 0 1093.3915108165747 -1146.6571417282794 0 0 0 0 -721.39149168623408 743.11759519302723 0 743.11759519302723 -419.77960976825852 0 0 0 0 -1255.2334431560594 691.93094373912027 0 691.93094373912027 -958.97098112419189 0 0 0 0 -600.60661295861064 1004.1113895387098 0 1004.1113895387098 -811.57723392258049 0 0 0 0 -358.52046348670956 800.26076990513275 0 800.26076990513275 -1353.619226589246 0 0 0 0 -342.25024906273029 1010.882834066535 0 1010.882834066535 -1242.7977502740105 0 0 0 0 74.473595007439144 425.90454516388127 0 425.90454516388127 -266.59277133886644 0 0 0 0 14.717371279170038 681.52701194312249 0 681.52701194312249 -677.47573463400477 0 0 0 0 -48.522565950785065 533.60751387322671 0 533.60751387322671 -120.30920151688042 0 0 0 0 -57.804872522945516 489.33150276781817 0 489.33150276781817 -165.42417850784841 0 0 0 0 -48.24251104349969 298.40646054067474 0 298.40646054067474 165.00887957759551 0 0 0 0 9.6964885874476749 246.58308240898623 0 246.58308240898623 10.55472083739005 0 0 0 0 -52.670186795759946 306.47126628220576 0 306.47126628220576 87.83065081643872 0 0 0 0 80.941821121232351 284.30294467884232 0 284.30294467884232 -325.48451171492343 0 0 0 0 68.330440755991731 265.3879153948219 0 265.3879153948219 82.014252367756853 0 0 0 0 474.45506123529049 242.07645042054355 0 242.07645042054355 114.74717291361958 0 0 0 0 4.1518246118212119 224.08582030955586 0 224.08582030955586 118.41612085318411 0 0 0 0 -0.64605885426634302 7.1843804439528185 0 7.1843804439528185 2.6564664078385363 0 0 0 0 -181.13482862419914 -337.03094867395703 0 -337.03094867395703 -685.91701485039084 0 0 0 0 -3.0499668539886216 8.0586368536771715 0 8.0586368536771715 -1.6953539350994049 0 0 0 0 161.84492437538574 768.48418419588415 0 768.48418419588415 -1950.0692421099229 0 0 0 0 430.87738287387765 112.17779942772177 0 112.17779942772177 -636.39841316908132 0 0 0 0 294.88174448278733 618.23516558522533 0 618.23516558522533 -1189.460138669514 0 0 0 0 -226.50104431042564 1188.985252735205 0 1188.985252735205 -904.31983636200312 0 0 0 0 -920.95594741735113 1644.1763996037789 0 1644.1763996037789 -1255.7398762974481 0 0 0 0 -357.7217267127271 1084.3035979161177 0 1084.3035979161177 -851.97003780120576 0 0 0 0 -94.05276431486709 920.3765478325804 0 920.3765478325804 -613.99219880640157 0 0 0 0 -137.63457746337372 861.94762253863883 0 861.94762253863883 -460.06226267485181 0 0 0 0 -213.01676457948633 865.0805619990424 0 865.0805619990424 -284.54549774940824 0 0 0 0 -48.225925628066761 592.67798172411858 0 592.67798172411858 -257.28485664608888 0 0 0 0 -248.1532251991448 1106.5506857169385 0 1106.5506857169385 -405.24463203667256 0 0 0 0 -121.77438252733555 747.46307230895036 0 747.46307230895036 -186.58955437420809 0 0 0 0 -230.29901226621587 897.05378088822181 0 897.05378088822181 -31.257083923352184 0 0 0 0 -155.00120011449326 877.49338518483273 0 877.49338518483273 -71.404374560632277 0 0 0 0 -161.49434432201087 621.91077867886634 0 621.91077867886634 223.11613442722592 0 0 0 0 -167.66867934935726 598.96223651769105 0 598.96223651769105 189.97114256228087 0 0 0 0 -205.3669586214819 765.11431761702988 0 765.11431761702988 -61.16660934741958 0 0 0 0 -76.724947785784025 479.51449667327688 0 479.51449667327688 109.22829565874417 0 0 0 0 17.942096736427629 1008.1188795704511 0 1008.1188795704511 493.20378319294832 0 0 0 0 213.59401982222334 818.77296628511976 0 818.77296628511976 185.46938846356352 0 0 0 0 10.394025461166166 890.14791731747391 0 890.14791731747391 31.115136810112745 0 0 0 0 -174.52193713967063 784.26269172101092 0 784.26269172101092 415.62225438054884 0 0 0 0 -122.89711241296027 692.07155879223137 0 692.07155879223137 310.07401865458814 0 0 0 0 -156.21089165902231 496.90827171580167 0 496.90827171580167 564.49912814740674 0 0 0 0 -117.2319105170609 611.1684908242778 0 611.1684908242778 796.12066350239911 0 0 0 0 -70.291654676489998 484.133788101346 0 484.133788101346 632.32207248255145 0 0 0 0 -61.574115556541074 573.61803856018378 0 573.61803856018378 1521.389447117399 0 0 0 0 11.871082403817127 -8.5476760988130991 0 -8.5476760988130991 985.29535908822436 0 0 0 0 -58.052305281860754 -18.678455823741388 0 -18.678455823741388 1019.3496092324785 0 0 0 0 11.988006943429355 -2.9269007979455637 0 -2.9269007979455637 597.67767495226872 0 0 0 0 -95.391752928877395 355.49631945692272 0 355.49631945692272 423.96226312994258 0 0 0 0 -123.44295065346523 352.91562891774811 0 352.91562891774811 460.12782155233435 0 0 0 0 -99.127456861635437 291.82535540022945 0 291.82535540022945 945.24855808797292 0 0 0 0 27.459377713064896 112.12689965359459 0 112.12689965359459 473.39789705583826 0 0 0 0 102.19382864260115 56.51682103323401 0 56.51682103323401 424.71408996224636 0 0 0 0 45.974400981649524 95.536784280993743 0 95.536784280993743 400.0011828863062 0 0 0 0 80.796632275101729 -9.6634875393283437 0 -9.6634875393283437 577.72335532214493 0 0 0 0 218.25132198672509 -108.06175606515899 0 -108.06175606515899 363.1941698952287 0 0 0 0 221.92079068755265 -109.85766915815111 0 -109.85766915815111 282.74751881445991 0 0 0 0 159.05591680604266 -331.38115215122525 0 -331.38115215122525 556.0465492484218 0 0 0 0 -82.377031114054262 386.08066038927791 0 386.08066038927791 146.01868137042038 0 0 0 0 -26.865074633562472 380.20730359997833 0 380.20730359997833 71.271787885940284 0 0 0 0 -136.83433899338706 583.01402493138448 0 583.01402493138448 -26.704202929773601 0 0 0 0 -129.17423383632558 477.79279255217989 0 477.79279255217989 166.90818263683468 0 0 0 0 -69.71258054516511 361.9553859133448 0 361.9553859133448 338.27295021447935 0 0 0 0 -43.045546879409812 291.04159572691424 0 291.04159572691424 288.14010819482792 0 0 0 0 -8.3904041769055766 263.99991412209056 0 263.99991412209056 233.98257079144241 0 0 0 0 -31.17442785933963 175.5884236254351 0 175.5884236254351 404.72299672701047 0 0 0 0 93.44766942167189 118.71130785101559 0 118.71130785101559 338.86914805643028 0 0 0 0 -41.993436854740139 201.60102258759434 0 201.60102258759434 357.59676340028818 0 0 0 0 -0.50017014142940752 209.70355324228876 0 209.70355324228876 201.18569179192855 0 0 0 0 9.4493936945814312 -3.4156712288031201 0 -3.4156712288031201 -18.323203092374452 0 0 0 0 -11.686153158807429 94.948332247018698 0 94.948332247018698 455.40895379734866 0 0 0 0 94.671729975845665 177.67321981430723 0 177.67321981430723 495.33046537966584 0 0 0 0 36.604117502865847 207.62716365806409 0 207.62716365806409 341.19923576989095 0 0 0 0 103.77419977658428 174.26756084285444 0 174.26756084285444 345.99415946319641 0 0 0 0 182.05062968676793 95.589007316957577 0 95.589007316957577 342.37985417532036 0 0 0 0 72.063436760370678 103.66822996142946 0 103.66822996142946 362.64630094438326 0 0 0 0 295.4044788592546 -41.967035567988205 0 -41.967035567988205 66.769540549488738 0 0 0 0 261.83691827050643 -44.072826148447348 0 -44.072826148447348 257.96775668064947 0 0 0 0 294.80573250941234 -38.313082290958846 0 -38.313082290958846 257.4074472435459 0 0 0 0 316.72753463551271 -20.313278266750785 0 -20.313278266750785 209.06024142465321 0 0 0 0 169.04548229876673 73.698929371777922 0 73.698929371777922 322.54550118229236 0 0 0 0 334.58427868230501 129.75908181865816 0 129.75908181865816 339.23469706179458 0 0 0 0 244.5896268740762 33.731036841880268 0 33.731036841880268 343.23544570268132 0 0 0 0 412.55650950438576 192.61795664959936 0 192.61795664959936 322.01938898302615 0 0 0 0 512.22004870837554 74.817402207831037 0 74.817402207831037 216.90727155306377 0 0 0 0 293.41945316159399 -85.911674693939858 0 -85.911674693939858 399.22752105986001 0 0 0 0 29.975709663616726 112.38551968411775 0 112.38551968411775 55.296106999972835 0 0 0 0 475.83479288512899 -127.32900479666205 0 -127.32900479666205 -640.90158049455204 0 0 0 0 82.713136757473819 84.070369218910884 0 84.070369218910884 6.8288004999568699 0 0 0 0 13.40450823448009 123.24372708153169 0 123.24372708153169 51.440238117676927 0 0 0 0 -329.64493954071077 547.08836511329719 0 547.08836511329719 666.90892472356791 0 0 0 0 35.20951583324495 74.322312553689699 0 74.322312553689699 -24.854940545861609 0 0 0 0 5.2801629973855029 1.0224006448277976 0 1.0224006448277976 -19.289519920402924 0 0 0 0 7.0848742085217964 26.817929950586404 0 26.817929950586404 -270.57058334141766 0 0 0 0 47.410686257026214 75.994248727578594 0 75.994248727578594 -60.214286681928058 0 0 0 0 31.928555681864964 292.42182303524169 0 292.42182303524169 737.41591023756337 0 0 0 0 159.86704916472081 -14.347313854465028 0 -14.347313854465028 -118.08788734364498 0 0 0 0 -240.29542425309774 359.05412645856268 0 359.05412645856268 677.64244195958599 0 0 0 0 85.244435279484605 139.68616945231042 0 139.68616945231042 -204.75063278156449 0 0 0 0 263.43307712984097 358.98386222621775 0 358.98386222621775 64.863653779000742 0 0 0 0 10.708771677494099 23.643821025090261 0 23.643821025090261 -12.973429339755 0 0 0 0 59.015736138706416 261.23698059889648 0 261.23698059889648 206.95300053971005 0 0 0 0 52.159208782482494 69.635644036789415 0 69.635644036789415 -25.484866235784228 0 0 0 0 -35.167446073406609 255.90692491758091 0 255.90692491758091 209.89209858520189 0 0 0 0 115.33866723984829 112.10424548793526 0 112.10424548793526 249.23915612165001 0 0 0 0 -48.501557305920869 209.89313581552415 0 209.89313581552415 274.16905883030267 0 0 0 0 -75.963884571217932 266.54736981810129 0 266.54736981810129 -469.00837621169194 0 0 0 0 15.264388849638635 48.891665370567353 0 48.891665370567353 4.7600413321924862 0 0 0 0 -0.30891653974575917 37.137181791150027 0 37.137181791150027 32.583437677589245 0 0 0 0 -7.8596543088876842 54.485142810356848 0 54.485142810356848 114.91068715798701 0 0 0 0 70.670132668106817 174.20097514233203 0 174.20097514233203 220.32584201273858 0 0 0 0 -331.12104901336716 183.49968597017869 0 183.49968597017869 385.02181860827841 0 0 0 0 -106.55783619789872 9.5791406451608054 0 9.5791406451608054 251.53307009171112 0 0 0 0 45.804371340142097 121.38129012047284 0 121.38129012047284 90.550437299007172 0 0 0 0 199.29687530141382 -1.9255021634162404 0 -1.9255021634162404 67.139511644112645 0 0 0 0 368.13986693301558 318.08580489865562 0 318.08580489865562 308.0314974267967 0 0 0 0 456.53671208878222 147.61840591547661 0 147.61840591547661 -26.955060579290148 0 0 0 0 -84.273532423423603 -101.67282997781876 0 -101.67282997781876 52.266143021442986 0 0 0 0 189.6141681647423 132.16557016987645 0 132.16557016987645 100.00620295174303 0 0 0 0 -276.76275221718242 -42.294202519289684 0 -42.294202519289684 168.39364550550818 0 0 0 0 -122.14602301458217 36.087823477726488 0 36.087823477726488 124.50217676247121 0 0 0 0 -118.92472020637069 39.257463411879144 0 39.257463411879144 53.345013146696147 0 0 0 0 -159.65076010327903 -34.960927514912328 0 -34.960927514912328 30.192198071294115 0 0 0 0 -79.515047588691232 25.635983976433636 0 25.635983976433636 55.619691715808585 0 0 0 0 6.4848244438125562 7.1634131891133279 0 7.1634131891133279 9.0949497875340626 0 0 0 0 -23.646370475407416 37.275658388210871 0 37.275658388210871 92.504583032567496 0 0 0 0 532.49394395889249 139.35605264204787 0 139.35605264204787 312.65039188880473 0 0 0 0 482.53958918759599 293.95680770308536 0 293.95680770308536 124.31819818778604 0 0 0 0 406.35825829301029 -17.582818738272181 0 -17.582818738272181 -64.460341719008284 0 0 0 0 551.02819198026555 140.79002631134063 0 140.79002631134063 -103.7503764371213 0 0 0 0 275.34692750684917 27.696167899877764 0 27.696167899877764 -14.851026380230905 0 0 0 0 241.28532848555915 151.27786486215336 0 151.27786486215336 86.646519425266888 0 0 0 0 627.51450943521922 323.48934935502621 0 323.48934935502621 -57.788870393182151 0 0 0 0 313.39128017926123 131.63304886780679 0 131.63304886780679 4.5921794755267911 0 0 0 0 60.776812297961442 -54.42848189813958 0 -54.42848189813958 -28.413691797293723 0 0 0 0 57.155266055080574 144.63949777484231 0 144.63949777484231 213.83095186707214 0 0 0 0 295.88286268812681 515.78821509059708 0 515.78821509059708 196.14078662672546 0 0 0 0 -8.9957056099497237 -3.4465693398140615 0 -3.4465693398140615 5.5403134869758901 0 0 0 0 -62.194479741243413 -32.594837695971364 0 -32.594837695971364 -16.048859417933272 0 0 0 0 -44.178743766190223 29.327225930351062 0 29.327225930351062 62.682259152113318 0 0 0 0 -161.29534903066315 24.108499213221421 0 24.108499213221421 95.150061942462344 0 0 0 0 81.923264556744755 40.16056594273104 0 40.16056594273104 7.3216360398498779 0 0 0 0 65.307601500942837 34.59357669914607 0 34.59357669914607 -2.5852339279081207 0 0 0 0 -134.74305494406144 -50.218156434486446 0 -50.218156434486446 54.688242560019717 0 0 0 0 569.90048867365113 324.28045809589821 0 324.28045809589821 -124.93112385887071 0 0 0 0 -51.313723984567758 25.941081372022325 0 25.941081372022325 48.304826501571654 0 0 0 0 65.927478038240224 33.298688035050873 0 33.298688035050873 -0.025290533627219801 0 0 0 0 58.809546302365334 29.604652530417411 0 29.604652530417411 3.1131687641275221 0 0 0 0 69.776355678972322 -72.839991911518155 0 -72.839991911518155 -350.37150108160859 0 0 0 0 -155.26904916905914 -154.06298985303874 0 -154.06298985303874 -73.816404303594027 0 0 0 0 -387.95792995300144 262.27012551098596 0 262.27012551098596 605.73817131998658 0 0 0 0 -34.16544725940912 567.93592686230841 0 567.93592686230841 -0.11809903947869316 0 0 0 0 -449.93640243951813 679.21639705850976 0 679.21639705850976 87.974497960913141 0 0 0 0 -667.31412552404799 202.98455014263163 0 202.98455014263163 103.23847286647651 0 0 0 0 2.9571915992128197 413.0329294494004 0 413.0329294494004 149.29395436457708 0 0 0 0 163.85266373756895 647.61621805897448 0 647.61621805897448 33.59966091363458 0 0 0 0 -1029.2383423385618 380.60398403834552 0 380.60398403834552 130.57427812971582 0 0 0 0 63.245560747891432 37.029890786914621 0 37.029890786914621 0.011973388783040391 0 0 0 0 -1497.1942916007829 -209.43657261916087 0 -209.43657261916087 5.5734713658457622 0 0 0 0 -1525.0944668370066 -124.57037539605517 0 -124.57037539605517 -43.776499232451897 0 0 0 0 21.838668719278417 16.240867275739845 0 16.240867275739845 8.2863397089183195 0 0 0 0 -4.9139302188086731 20.470752298231474 0 20.470752298231474 13.099643393616027 0 0 0 0 -874.40003832179355 315.55229177355068 0 315.55229177355068 148.44694250018802 0 0 0 0 -969.38780351658352 -554.2190546959755 0 -554.2190546959755 -129.73674291694624 0 0 0 0 -730.06314404250588 296.76228537131101 0 296.76228537131101 -35.991658750247552 0 0 0 0 -818.94794395621284 235.81039103592047 0 235.81039103592047 259.30761139432434 0 0 0 0 -492.60961412620816 250.79385404103726 0 250.79385404103726 213.89270970749203 0 0 0 0 -494.14123309066053 -26.35339005663991 0 -26.35339005663991 78.697841270564822 0 0 0 0 -386.3059636746766 -112.59503602272889 0 -112.59503602272889 18.946956726023927 0 0 0 0 -390.24659767039702 -49.654287819299498 0 -49.654287819299498 66.651853731658775 0 0 0 0 -297.51042197264906 109.82495855982415 0 109.82495855982415 172.95949081302388 0 0 0 0 -212.34349764473154 -44.187506772912457 0 -44.187506772912457 4.0159996259317268 0 0 0 0 -156.90671899626614 345.85512269077299 0 345.85512269077299 205.25854401931974 0 0 0 0 -253.69839116762159 120.59126390759775 0 120.59126390759775 130.86342864247854 0 0 0 0 -29.740383655735059 578.4714443674311 0 578.4714443674311 258.29379489227358 0 0 0 0 -346.57757618351025 339.33141457254533 0 339.33141457254533 249.71434485074133 0 0 0 0 -345.91442341631898 459.2506612812237 0 459.2506612812237 251.40536780183902 0 0 0 0 37.726741854130523 591.57110777747585 0 591.57110777747585 130.64274565314736 0 0 0 0 100.36860973467992 444.31286273890873 0 444.31286273890873 265.22383759421064 0 0 0 0 144.04540276405169 515.37089818956156 0 515.37089818956156 69.328105121501721 0 0 0 0 59.504166109400103 449.14160540880403 0 449.14160540880403 24.998884921398712 0 0 0 0 236.45299624030304 341.54160913699889 0 341.54160913699889 81.22758048925607 0 0 0 0 90.733712191889936 360.7456818393257 0 360.7456818393257 147.29609828197863 0 0 0 0 -178.82188260744442 377.326038424937 0 377.326038424937 163.26430209420505 0 0 0 0 0.77237775456160307 332.48336363742419 0 332.48336363742419 154.66690209548688 0 0 0 0 -58.845751982196816 209.92088164242159 0 209.92088164242159 168.21843236039422 0 0 0 0 -21.320028423142503 185.22436313809885 0 185.22436313809885 180.88787881095777 0 0 0 0 100.08447559598426 278.27379068891059 0 278.27379068891059 315.15246940471116 0 0 0 0 28.883529908773198 246.17115652014763 0 246.17115652014763 322.8672888285364 0 0 0 0 87.747668661235366 249.96110241831047 0 249.96110241831047 200.4184940943378 0 0 0 0 123.20605874205648 190.02563652386016 0 190.02563652386016 318.66542161756661 0 0 0 0 -3.3061922930311596 17.289824044056957 0 17.289824044056957 4.62540433714139 0 0 0 0 44.149007988642552 270.31673683938425 0 270.31673683938425 316.4262381264416 0 0 0 0 128.16806476477359 230.72141379366803 0 230.72141379366803 230.31128616418573 0 0 0 0 27.208695679313678 111.77271138979268 0 111.77271138979268 85.502277495281305 0 0 0 0 -2.5619093793718548 2.6281589934210956 0 2.6281589934210956 -4.5038187680407873 0 0 0 0 136.22502030213946 230.35107096603315 0 230.35107096603315 200.13652821342839 0 0 0 0 276.5070222163049 -165.12348025816027 0 -165.12348025816027 292.76386302453466 0 0 0 0 -678.82965268104454 -549.1003709257202 0 -549.1003709257202 -862.39270031324122 0 0 0 0 -1739.8611187896167 1808.1001572005334 0 1808.1001572005334 511.66965375596919 0 0 0 0 853.07062698730442 387.50853071238816 0 387.50853071238816 -853.77080854735686 0 0 0 0 -3671.4453217527334 -513.58944878246257 0 -513.58944878246257 1279.2634545528272 0 0 0 0 -9.0652482738487592 17.45672828094456 0 17.45672828094456 -7.4159693555610602 0 0 0 0 -404.87254914642836 87.659022276784526 0 87.659022276784526 -972.32615015335614 0 0 0 0 290.89559007485877 289.75588067473291 0 289.75588067473291 -268.74328347761184 0 0 0 0 390.5271762808261 595.75635656497616 0 595.75635656497616 453.38650649142801 0 0 0 0 473.79473538586171 575.61329109156213 0 575.61329109156213 -100.9279288318794 0 0 0 0 185.72722344048088 617.54489398905571 0 617.54489398905571 294.5458269060473 0 0 0 0 1479.540274222556 100.18222862760013 0 100.18222862760013 15.029895952029619 0 0 0 0 396.48493886570213 414.86967030953383 0 414.86967030953383 187.58001645978948 0 0 0 0 623.37090185801208 544.18551861406013 0 544.18551861406013 106.04124073398998 0 0 0 0 361.1278185211122 584.48515441549534 0 584.48515441549534 197.44053102686303 0 0 0 0 731.28402693293356 39.049269362951236 0 39.049269362951236 517.50535530800698 0 0 0 0 -1128.5082251524873 -534.10681410986581 0 -534.10681410986581 -957.13842607188462 0 0 0 0 -1135.2013590537244 160.5211560750613 0 160.5211560750613 0.012446111621102318 0 0 0 0 -1545.115952983906 737.83756653848104 0 737.83756653848104 -118.6040332890916 0 0 0 0 1865.4719913970184 543.41775371713629 0 543.41775371713629 -240.12465929216705 0 0 0 0 -3413.8644253848142 -224.35261560033905 0 -224.35261560033905 154.12541039494681 0 0 0 0 -1.6894361990799638 4.5297245168960956 0 4.5297245168960956 -0.5756396844527103 0 0 0 0 1024.9576658883016 807.56000422481156 0 807.56000422481156 153.86338940133282 0 0 0 0 778.95302373965387 309.59118235256756 0 309.59118235256756 37.033253353787586 0 0 0 0 722.57206523846253 401.98563455531257 0 401.98563455531257 -95.62129930962692 0 0 0 0 630.27505557861878 367.53806022671051 0 367.53806022671051 162.21002174987007 0 0 0 0 822.44242780721106 546.78807186640915 0 546.78807186640915 50.664796056051273 0 0 0 0 -365.49147428821016 887.97827582336322 0 887.97827582336322 -0.75075550777546596 0 0 0 0 240.97466978362354 960.78028036181058 0 960.78028036181058 -377.75455227952625 0 0 0 0 -1164.6875205400138 252.84688567189733 0 252.84688567189733 -338.27142645791173 0 0 0 0 -52.726236291855457 689.77520906775317 0 689.77520906775317 -532.59523831913248 0 0 0 0 -1313.4457411062776 200.71791745819974 0 200.71791745819974 -219.06949508891557 0 0 0 0 -419.09524574531247 807.62997503687257 0 807.62997503687257 -398.83426987100393 0 0 0 0 -245.62248039808401 850.25101118192106 0 850.25101118192106 -278.18018737598322 0 0 0 0 1260.253015835362 1214.9796989526803 0 1214.9796989526803 -468.31572733801295 0 0 0 0 191.42256131364411 1763.0307294892773 0 1763.0307294892773 607.74898360972293 0 0 0 0 -658.68096564288862 1360.4760386042472 0 1360.4760386042472 704.59697712154593 0 0 0 0 226.25174649705878 2395.4038724477359 0 2395.4038724477359 1913.7101256540045 0 0 0 0 -211.28392087022075 506.22191195438791 0 506.22191195438791 31.662059574009618 0 0 0 0 3892.6872535773582 412.84042523648532 0 412.84042523648532 -21.432307933500852 0 0 0 0 4275.2399175026512 1027.2509665243779 0 1027.2509665243779 -24.135172258131206 0 0 0 0 -1065.9372463338277 605.96439741093855 0 605.96439741093855 3051.8179663511692 0 0 0 0 2832.1356438356452 2513.3708467221295 0 2513.3708467221295 502.45993173051102 0 0 0 0 265.02882510112249 1726.0128714772436 0 1726.0128714772436 856.05610292093479 0 0 0 0 9.8326888591629427 30.879393757813013 0 30.879393757813013 19.060591798174016 0 0 0 0 -1217.6815675680482 476.841520492977 0 476.841520492977 1635.7764074004735 0 0 0 0 1383.5054501270351 4144.5426306810841 0 4144.5426306810841 4083.8592233957024 0 0 0 0 -862.99595099271392 -1405.205452061331 0 -1405.205452061331 -2459.683457907784 0 0 0 0 110.90695368984282 111.6482144378781 0 111.6482144378781 -12.164656635182268 0 0 0 0 51.821781293576635 10.320097183672431 0 10.320097183672431 4.9507917960039123 0 0 0 0 -1006.5826116799799 -1480.492082851928 0 -1480.492082851928 -2494.2862760346907 0 0 0 0 -342.45896350388648 1097.7102257940132 0 1097.7102257940132 6011.794262172305 0 0 0 0 195.05788426287472 148.61278581441002 0 148.61278581441002 855.79711667448282 0 0 0 0 129.27805924246059 124.96680766409554 0 124.96680766409554 2858.1839839088498 0 0 0 0 -117.52818135265261 -1255.5540729954955 0 -1255.5540729954955 -2694.0688149619382 0 0 0 0 -655.99550614749023 -1519.6244404439349 0 -1519.6244404439349 -2811.0915548149496 0 0 0 0 2828.2770590239088 1680.4284627740999 0 1680.4284627740999 864.20102165701974 0 0 0 0 31.97331167153817 8.4309976263244835 0 8.4309976263244835 1.7798440388620236 0 0 0 0 2627.0718749643347 4252.4381273509571 0 4252.4381273509571 572.47173892881256 0 0 0 0 2839.9638909600326 1821.4570037190279 0 1821.4570037190279 -678.53308185900096 0 0 0 0 -87.086027992500021 539.4250781670271 0 539.4250781670271 -100.45787252474111 0 0 0 0 -3281.9997890042723 364.24912982679234 0 364.24912982679234 850.01011696254136 0 0 0 0 9.0136165941657964 1464.3253890732012 0 1464.3253890732012 317.9362840839749 0 0 0 0 -1308.299964568454 -271.93848090869142 0 -271.93848090869142 -1022.5128855676157 0 0 0 0 1401.450684974101 398.65725981538708 0 398.65725981538708 -558.00583913666196 0 0 0 0 277.66580817529757 210.53339085087646 0 210.53339085087646 -8.2053970637498423 0 0 0 0 19.102839305872919 51.206665468446516 0 51.206665468446516 -33.027598349734717 0 0 0 0 227.20220583386254 142.35191563700209 0 142.35191563700209 -112.96805508938269 0 0 0 0 42.109890431398526 496.617114619934 0 496.617114619934 -196.01694000244606 0 0 0 0 85.656455234356372 93.750510649983141 0 93.750510649983141 35.965890374405518 0 0 0 0 149.20646000531269 185.90282000956358 0 185.90282000956358 82.46190937008214 0 0 0 0 256.07869091095927 168.4315822286153 0 168.4315822286153 -90.248282828135416 0 0 0 0 35.034537190208553 29.615228663438614 0 29.615228663438614 21.870139221808813 0 0 0 0 -296.90559246600606 206.55345412302995 0 206.55345412302995 62.160218884862843 0 0 0 0 -5.7126939953304827 146.17765324155334 0 146.17765324155334 -58.071210060661542 0 0 0 0 -31.849379760125885 183.35020793833246 0 183.35020793833246 198.59836281239404 0 0 0 0 165.28547306534892 180.2816198881701 0 180.2816198881701 -248.89049335906748 0 0 0 0 266.64712502353359 -143.17302339347953 0 -143.17302339347953 217.81886023614788 0 0 0 0 518.47865779476706 456.85155195210245 0 456.85155195210245 431.701486973805 0 0 0 0 1356.8965784142492 2011.3615794226498 0 2011.3615794226498 -2477.4905062591133 0 0 0 0 124.23251978528953 51.220886669365228 0 51.220886669365228 3.3412593534572324 0 0 0 0 -21.024144809751306 75.271080637787236 0 75.271080637787236 291.41224902957038 0 0 0 0 690.70132761329296 1905.0763075114446 0 1905.0763075114446 1927.075837211567 0 0 0 0 206.71897877525771 1425.0141101704212 0 1425.0141101704212 1654.9345794432738 0 0 0 0 -151.97959289535356 1705.3267312457974 0 1705.3267312457974 3323.3009455555875 0 0 0 0 -327.25815989855619 1151.6640854790094 0 1151.6640854790094 2165.9674747363533 0 0 0 0 1166.6790484878438 1189.2080079298212 0 1189.2080079298212 -626.31297441961942 0 0 0 0 2489.5500607942813 2937.975695193265 0 2937.975695193265 1268.1061654867226 0 0 0 0 -74.812701332179131 -524.35317836471222 0 -524.35317836471222 1153.5176164143486 0 0 0 0 2.3096907847007273 -1.5340705638456029 0 -1.5340705638456029 9.5704690098773995 0 0 0 0 2550.8510372543606 243.10712122585574 0 243.10712122585574 5963.7247962073889 0 0 0 0 375.34730943164323 -469.93899556201359 0 -469.93899556201359 -63.881267235141422 0 0 0 0 142.67457241917145 -205.25032297483995 0 -205.25032297483995 811.60986324763508 0 0 0 0 -97.696605728735449 -240.39480402701156 0 -240.39480402701156 2588.2480025560362 0 0 0 0 208.18295949327876 -416.29026116542082 0 -416.29026116542082 921.33339436433744 0 0 0 0 -58.034083482169081 4.6269770389480982 0 4.6269770389480982 1949.0351074494538 0 0 0 0 164.79360523316427 773.64914774164208 0 773.64914774164208 853.8168356155511 0 0 0 0 388.23076106631197 1366.7228644541756 0 1366.7228644541756 2343.543977215726 0 0 0 0 -90.109511373972055 241.94378969239187 0 241.94378969239187 1678.1404252524662 0 0 0 0 587.57754239850328 1130.2382167867181 0 1130.2382167867181 1452.7324936722289 0 0 0 0 2985.9747539372329 1967.1322470655286 0 1967.1322470655286 692.38046779014985 0 0 0 0 2593.2339059552178 1502.0623482110968 0 1502.0623482110968 206.57205504254671 0 0 0 0 208.49472608535143 1156.5916292115799 0 1156.5916292115799 3972.8482908966253 0 0 0 0 1911.5751575105241 2610.7312392408785 0 2610.7312392408785 3106.3725761593087 0 0 0 0 1045.7729659223405 699.16739683097694 0 699.16739683097694 -27.663326083013089 0 0 0 0 1685.852334313764 339.47330711439281 0 339.47330711439281 -448.51258729654364 0 0 0 0 1242.0478275860223 881.14862103708583 0 881.14862103708583 -146.20139388364623 0 0 0 0 482.77675396934501 1282.5789862781094 0 1282.5789862781094 982.84730349175879 0 0 0 0 720.6249357679626 -287.95369882458181 0 -287.95369882458181 -439.48849599362438 0 0 0 0 1676.8300436237914 221.73389167246569 0 221.73389167246569 -559.09263976073998 0 0 0 0 2811.3568965748163 666.63731859430845 0 666.63731859430845 -395.80611920336378 0 0 0 0 18.542528184401704 9.5308494086632152 0 9.5308494086632152 5.3583394379963067 0 0 0 0 801.50549277852406 573.44548663317983 0 573.44548663317983 -922.86672367490246 0 0 0 0 39.646133165870197 22.682292534664739 0 22.682292534664739 10.955065119652659 0 0 0 0 620.99595991909155 69.144424228987191 0 69.144424228987191 -653.05904500494216 0 0 0 0 108.49490510733449 -400.0563691463467 0 -400.0563691463467 -770.11975052666821 0 0 0 0 -545.16353634080588 -216.91882401778275 0 -216.91882401778275 -68.435319068958052 0 0 0 0 1692.8106021028361 -85.779941092041554 0 -85.779941092041554 -710.25045897781456 0 0 0 0 -626.17474141503044 -1857.9888403865443 0 -1857.9888403865443 -1168.0069266632781 0 0 0 0 823.38944009706756 674.29451366855938 0 674.29451366855938 475.14528928374057 0 0 0 0 5417.4076282588358 1350.65854796645 0 1350.65854796645 -3734.5614158996905 0 0 0 0 2279.5693132631059 3800.7473106925463 0 3800.7473106925463 3711.1622425755195 0 0 0 0 100.10855905356584 1842.6844555509597 0 1842.6844555509597 3016.0579832325584 0 0 0 0 -507.18867794545804 660.95123693117057 0 660.95123693117057 1556.3858822600159 0 0 0 0 1315.0354515998042 1370.0610502552299 0 1370.0610502552299 361.80778761194961 0 0 0 0 32.423413680604426 1437.2323944543168 0 1437.2323944543168 1928.4318430283456 0 0 0 0 213.47805637167767 239.31306933728774 0 239.31306933728774 140.80306023947924 0 0 0 0 -85.701271273224847 76.075731953009381 0 76.075731953009381 691.75518287200975 0 0 0 0 51.89294309008983 41.69596103058575 0 41.69596103058575 121.6889597544307 0 0 0 0 -264.18520500806335 261.82305088092107 0 261.82305088092107 114.27625546827426 0 0 0 0 5.9786347210247186 -16.561016127030598 0 -16.561016127030598 -67.387252604952664 0 0 0 0 -93.797019886857015 472.05887764266663 0 472.05887764266663 -469.61625679294957 0 0 0 0 103.54116171491478 -165.095023546226 0 -165.095023546226 -188.57222945001558 0 0 0 0 673.5274466379924 159.59273817685244 0 159.59273817685244 -304.03493989360868 0 0 0 0 549.75348988373298 703.5057249495585 0 703.5057249495585 -191.45680622438522 0 0 0 0 700.97630882469821 198.20054534463998 0 198.20054534463998 -454.96202224102262 0 0 0 0 736.50399712659419 723.46709540268057 0 723.46709540268057 -499.24948558257893 0 0 0 0 386.37457882679882 562.94288694287388 0 562.94288694287388 -450.40747582643235 0 0 0 0 -191.2204059667165 1582.1218252697654 0 1582.1218252697654 -885.901682042022 0 0 0 0 -5.1908074976381613 881.32762890810409 0 881.32762890810409 825.30853203791776 0 0 0 0 405.82791111143888 427.69313591784157 0 427.69313591784157 -397.1738437600543 0 0 0 0 202.0720677474892 121.85894328422 0 121.85894328422 638.10324922397558 0 0 0 0 -476.93771789307357 416.54911336077566 0 416.54911336077566 -2215.2703023049471 0 0 0 0 131.27865824167384 1419.2569619720089 0 1419.2569619720089 -4644.4601271274878 0 0 0 0 -11.612439649522855 5.8366467480586834 0 5.8366467480586834 -1.8978648868616421 0 0 0 0 -287.64230986927578 462.26034083781997 0 462.26034083781997 1598.5697051112656 0 0 0 0 -884.51801622100174 2243.757990795435 0 2243.757990795435 -1995.9963770164322 0 0 0 0 -922.00361039589325 1225.1437644870773 0 1225.1437644870773 -1025.49021758452 0 0 0 0 183.1475899900106 1152.4991741649283 0 1152.4991741649283 -1392.7653389463812 0 0 0 0 -603.87739840164431 754.65878260465979 0 754.65878260465979 -1680.6235376548193 0 0 0 0 -781.90465667271928 1127.3516208020192 0 1127.3516208020192 59.879623117143638 0 0 0 0 -1032.8546234415626 1157.4875162075732 0 1157.4875162075732 -681.81928961416997 0 0 0 0 -428.51992362920464 782.99187486970413 0 782.99187486970413 -1383.5325318475661 0 0 0 0 -361.20836227473046 408.40508552603569 0 408.40508552603569 -1028.4994124383957 0 0 0 0 -36.618527481568265 16.315514968692213 0 16.315514968692213 0.21204129503442104 0 0 0 0 -16.61061023696675 411.91262376017403 0 411.91262376017403 -2391.1254771930799 0 0 0 0 -220.91800197296834 203.15470736147472 0 203.15470736147472 -1016.0507670837833 0 0 0 0 -224.41325412815786 821.12553407491214 0 821.12553407491214 -694.45600512712554 0 0 0 0 -36.701664473330311 539.78709033019868 0 539.78709033019868 -422.10434167867061 0 0 0 0 -496.49220598678221 930.97309400085942 0 930.97309400085942 245.52964146823069 0 0 0 0 -629.27591078029945 609.78442785598781 0 609.78442785598781 94.961901985763689 0 0 0 0 -320.24393161213084 950.64845782715565 0 950.64845782715565 -505.45068198238005 0 0 0 0 -66.745287115125393 666.35794177404932 0 666.35794177404932 100.08887445695291 0 0 0 0 37.128463065673714 894.60460659156524 0 894.60460659156524 226.11475740780952 0 0 0 0 -249.4581494628801 1048.990065697275 0 1048.990065697275 556.02292714300711 0 0 0 0 253.8144448769599 1134.9740679166061 0 1134.9740679166061 477.65419728574852 0 0 0 0 215.36288899590818 1316.030925463255 0 1316.030925463255 780.39604681491619 0 0 0 0 199.33425116416765 1039.6503293885326 0 1039.6503293885326 1031.8072557553896 0 0 0 0 193.64251072585466 1176.9636783083333 0 1176.9636783083333 784.92402414269964 0 0 0 0 8.2082074084033252 7.5835603207127633 0 7.5835603207127633 3.6768215800036472 0 0 0 0 378.76314438939153 564.52704002851533 0 564.52704002851533 -955.18416043265461 0 0 0 0 587.3145491667965 1447.5788857774824 0 1447.5788857774824 1030.8674503955699 0 0 0 0 190.3995796166123 813.34866010630742 0 813.34866010630742 270.49299524612434 0 0 0 0 -227.72243445386994 645.93581967118371 0 645.93581967118371 340.96865267518115 0 0 0 0 -189.02495386060764 97.942317328848731 0 97.942317328848731 -98.119147876190254 0 0 0 0 -125.74784919142257 253.20133452094524 0 253.20133452094524 135.95889595592598 0 0 0 0 -360.45176356975571 319.19157014271332 0 319.19157014271332 136.81938963483117 0 0 0 0 -488.59855832031462 630.44241506446997 0 630.44241506446997 -555.29332133020398 0 0 0 0 -714.18938052566955 366.28837725896665 0 366.28837725896665 308.35428393931943 0 0 0 0 -346.82204361748882 236.22912454637117 0 236.22912454637117 -164.864867075652 0 0 0 0 -179.37656059968867 520.57188689635223 0 520.57188689635223 274.40238673768363 0 0 0 0 163.7622855060763 895.38858903487562 0 895.38858903487562 1234.4201310399803 0 0 0 0 450.70593143501901 725.24599265443976 0 725.24599265443976 554.11249862212753 0 0 0 0 -103.48418606830819 159.9028752557133 0 159.9028752557133 484.94147955120752 0 0 0 0 51.468987140015088 553.88849788185507 0 553.88849788185507 811.31825628352817 0 0 0 0 -35.305772721279936 208.23851589019978 0 208.23851589019978 111.85214442464348 0 0 0 0 -273.95518350982093 98.466427759636645 0 98.466427759636645 366.73442525826977 0 0 0 0 -231.29766647546785 172.33054359566813 0 172.33054359566813 117.9546003377036 0 0 0 0 -126.02087676950759 197.48365587347871 0 197.48365587347871 165.66689908027183 0 0 0 0 23.560027357633771 17.752179433846933 0 17.752179433846933 6.5604254195575464 0 0 0 0 -76.371518477957579 373.85540506816324 0 373.85540506816324 1058.9538208380836 0 0 0 0 0.15443606732878834 182.52254980004363 0 182.52254980004363 -551.32223936597438 0 0 0 0 -123.36851230345201 270.82120813415531 0 270.82120813415531 -356.85952984238975 0 0 0 0 34.760430930768393 23.304806818411052 0 23.304806818411052 7.1689182135214651 0 0 0 0 -115.55978143081302 389.75080615875777 0 389.75080615875777 157.1540369429531 0 0 0 0 157.57523983105784 186.49840827497246 0 186.49840827497246 -685.77578800521951 0 0 0 0 -314.81042009914017 570.20134832508666 0 570.20134832508666 869.40178614316392 0 0 0 0 -187.50141803307633 -215.53512480160862 0 -215.53512480160862 132.28177999777836 0 0 0 0 433.7038034722209 -212.15957432700088 0 -212.15957432700088 1679.5220326257695 0 0 0 0 238.69004817793029 1318.5332041897491 0 1318.5332041897491 1830.0995283320372 0 0 0 0 94.979025318330969 844.27261169932171 0 844.27261169932171 980.35703804423247 0 0 0 0 521.02235243443283 1129.5048149773647 0 1129.5048149773647 1448.5168132993131 0 0 0 0 -152.82525770353095 445.79486703760631 0 445.79486703760631 1353.3212971054163 0 0 0 0 -103.48109484759334 88.602165052529017 0 88.602165052529017 233.10120524578815 0 0 0 0 190.97970377089223 920.60344554592302 0 920.60344554592302 1036.8650706261687 0 0 0 0 143.61638948229665 569.47312633143156 0 569.47312633143156 761.62148983622319 0 0 0 0 824.39408507225744 1084.1651657028269 0 1084.1651657028269 825.30983838331304 0 0 0 0 347.49550053403073 860.44362421437563 0 860.44362421437563 1056.6724819520896 0 0 0 0 172.25299853649631 294.44332282414689 0 294.44332282414689 202.5414733729267 0 0 0 0 41.467634367276332 340.96675814845003 0 340.96675814845003 -779.26408170265495 0 0 0 0 -93.65311249687511 677.01402700191829 0 677.01402700191829 -1577.3533563438777 0 0 0 0 13.687974356200243 23.532289898242908 0 23.532289898242908 -6.9369432032226541 0 0 0 0 246.39707039445057 813.67883001623704 0 813.67883001623704 1040.0351137764228 0 0 0 0 516.48668558433565 396.1490444893152 0 396.1490444893152 1519.1161462536838 0 0 0 0 -346.37645236687968 1498.2898535356144 0 1498.2898535356144 3335.2078094095195 0 0 0 0 61.444986251444789 218.28081326440588 0 218.28081326440588 542.36481882774387 0 0 0 0 464.22780259411957 2038.4071767567948 0 2038.4071767567948 1095.3376209239013 0 0 0 0 623.71957697233302 1675.3324831456121 0 1675.3324831456121 -4955.0167142934661 0 0 0 0 0.3402705455373507 1755.9702641883341 0 1755.9702641883341 -1986.1357745112182 0 0 0 0 269.48972386337118 653.48827369486389 0 653.48827369486389 -3622.5037737407692 0 0 0 0 4.8048646536524302 10.283229990573119 0 10.283229990573119 -3.331401242564155 0 0 0 0 -215.258330848068 503.91706417150272 0 503.91706417150272 -2210.9525672907475 0 0 0 0 -342.84425989628653 1594.4382083963574 0 1594.4382083963574 -1398.3220653811586 0 0 0 0 167.01451567187905 1338.5782047666289 0 1338.5782047666289 -2126.7351841782693 0 0 0 0 -289.68370602920186 1758.5272346647616 0 1758.5272346647616 -1654.9158510449779 0 0 0 0 -196.29548516517389 1023.6121103522455 0 1023.6121103522455 -1086.4023874194754 0 0 0 0 -180.4406191703456 943.31653466280841 0 943.31653466280841 -324.33580889742007 0 0 0 0 -49.42678112122303 1325.2939405215166 0 1325.2939405215166 -808.29444866548874 0 0 0 0 -153.41629060168634 930.41841343257693 0 930.41841343257693 -404.24400261453411 0 0 0 0 -196.16671953511832 971.79268071589468 0 971.79268071589468 85.458645907609025 0 0 0 0 92.663760169991292 1054.8144238019449 0 1054.8144238019449 -345.39672103562043 0 0 0 0 626.63396677179844 851.71922932625966 0 851.71922932625966 -348.59420306410175 0 0 0 0 57.875139046867844 1045.068561520442 0 1045.068561520442 158.68413939961465 0 0 0 0 -173.20962695547496 1112.7707143875596 0 1112.7707143875596 -902.5218860837922 0 0 0 0 -323.97218900224834 1317.3977827713898 0 1317.3977827713898 -790.66168113565072 0 0 0 0 -374.67029881526832 1251.5067800580036 0 1251.5067800580036 -362.61436541669536 0 0 0 0 -91.972485734251677 1040.1601970023185 0 1040.1601970023185 -389.17027092436911 0 0 0 0 -156.41668024742103 1010.3955820531919 0 1010.3955820531919 -613.49479434089153 0 0 0 0 -334.11219516870915 1195.8021873366088 0 1195.8021873366088 -650.82268326637677 0 0 0 0 -273.43577436318446 1169.0741596561056 0 1169.0741596561056 -878.13241651807039 0 0 0 0 -475.37267294192861 1252.663681985825 0 1252.663681985825 -769.32933180775581 0 0 0 0 -218.44840281219513 1060.5857196037032 0 1060.5857196037032 -863.54153665304784 0 0 0 0 -336.93973235484009 958.39132712508217 0 958.39132712508217 -899.65036672212591 0 0 0 0 -261.7764149320119 734.23783342244406 0 734.23783342244406 -1223.3732748998154 0 0 0 0 -135.09251280549506 1101.2314342258105 0 1101.2314342258105 -1467.4688592842867 0 0 0 0 -463.19092481876214 522.48207428721435 0 522.48207428721435 -214.69923314807238 0 0 0 0 -282.93664911328233 848.02343839966488 0 848.02343839966488 -698.80343519532471 0 0 0 0 -716.46574251789571 978.80742220603861 0 978.80742220603861 -621.15398641218781 0 0 0 0 -500.45896219251154 695.82044851903265 0 695.82044851903265 -493.29984354804765 0 0 0 0 -307.69982233962219 171.66885856407316 0 171.66885856407316 -174.9757645112204 0 0 0 0 39.955349918399094 40.296017214396556 0 40.296017214396556 1.0077954562378864 0 0 0 0 -157.12601206176259 78.161526865205815 0 78.161526865205815 117.85857698421751 0 0 0 0 -62.89575668159523 86.472323233923817 0 86.472323233923817 -56.70618685905356 0 0 0 0 -41.821814012742834 -9.397971665721343 0 -9.397971665721343 64.630670246726368 0 0 0 0 4.3660198821426093 1.4982242768857361 0 1.4982242768857361 1.739661162062248 0 0 0 0 -186.19055157895127 160.79570244067872 0 160.79570244067872 38.951382728744647 0 0 0 0 -85.673563000449576 103.72113640153975 0 103.72113640153975 -22.78889126869035 0 0 0 0 5.7161809178551266 15.689306570496868 0 15.689306570496868 -6.7624181088929447 0 0 0 0 -78.449606281865272 51.900636243502959 0 51.900636243502959 -24.319269356772566 0 0 0 0 -18.768140438769478 11.438981553161284 0 11.438981553161284 -92.774337390841538 0 0 0 0 52.729285562170844 45.643232511112728 0 45.643232511112728 -57.386064041245845 0 0 0 0 9.7891834245345422 50.268318421285613 0 50.268318421285613 -8.9511998456249842 0 0 0 0 3.7207210776687134 42.32933783072076 0 42.32933783072076 -188.36778144759592 0 0 0 0 6.399076705190339 20.995972081200577 0 20.995972081200577 6.7312430337610181 0 0 0 0 -23.787847743398743 73.035487195644237 0 73.035487195644237 -36.933211378045598 0 0 0 0 -40.432922962623309 54.313503946505307 0 54.313503946505307 7.9463272010721084 0 0 0 0 36.62929672734009 48.56688763919648 0 48.56688763919648 -0.79550756223261487 0 0 0 0 -16.330920658030664 141.08369468770979 0 141.08369468770979 -279.14796307563756 0 0 0 0 -229.48882977363246 293.63789490791532 0 293.63789490791532 -237.91129601472494 0 0 0 0 454.48843754993868 162.51729076688207 0 162.51729076688207 8.411424125684789 0 0 0 0 -220.03714695817325 57.268433711316902 0 57.268433711316902 88.573902982723666 0 0 0 0 21.746502133109573 31.744854289470595 0 31.744854289470595 -7.0181512102975319 0 0 0 0 1.3329179954596384 3.0652752287275007 0 3.0652752287275007 9.1770005774062042 0 0 0 0 2299.549630761263 993.56896767349099 0 993.56896767349099 403.81552328456019 0 0 0 0 1189.1253252628085 1084.9475028048764 0 1084.9475028048764 804.65422868830501 0 0 0 0 820.99293055068119 -83.269523124610714 0 -83.269523124610714 -218.35696964818635 0 0 0 0 -25.974075659774826 -33.218755509893526 0 -33.218755509893526 1.9320972960449581 0 0 0 0 -32.545937489107018 145.38084747442917 0 145.38084747442917 -77.183030867046909 0 0 0 0 7.7864732285382274 32.744407779856118 0 32.744407779856118 16.716385769740896 0 0 0 0 -476.08776362331992 -503.32253080881492 0 -503.32253080881492 560.96913389654947 0 0 0 0 -635.55923003607313 -49.672675429344963 0 -49.672675429344963 1222.6523433196999 0 0 0 0 -364.21917432000919 572.15861387407131 0 572.15861387407131 2376.1508845988428 0 0 0 0 0.70180743721084582 6.6049462845873848 0 6.6049462845873848 18.586535571577315 0 0 0 0 -237.70003855788309 301.91522425080348 0 301.91522425080348 998.31998279859545 0 0 0 0 112.43978820863413 845.24899698571244 0 845.24899698571244 1814.5137947451283 0 0 0 0 -170.94629248103593 968.57408871692314 0 968.57408871692314 2391.1890451031795 0 0 0 0 -354.8230826332001 999.39975801783294 0 999.39975801783294 2464.630546059605 0 0 0 0 -90.620855015557026 1452.0161652788374 0 1452.0161652788374 3192.6517607133719 0 0 0 0 -21.061700732214376 1644.990618450669 0 1644.990618450669 2871.7066160176182 0 0 0 0 166.16760424536187 1296.622333204723 0 1296.622333204723 2200.6661467933445 0 0 0 0 143.02084665824077 1186.6977800187851 0 1186.6977800187851 1809.5019027069793 0 0 0 0 -163.41864589598845 1468.8178320573134 0 1468.8178320573134 2663.6121320964303 0 0 0 0 763.84122712613316 2017.402339140448 0 2017.402339140448 2458.3451529990998 0 0 0 0 1497.6746761657414 2016.8160445756876 0 2016.8160445756876 2116.9356727775448 0 0 0 0 461.06383817299502 862.02338985145616 0 862.02338985145616 3390.4348174773477 0 0 0 0 1594.8082452883828 880.60109341517091 0 880.60109341517091 3456.3092027617968 0 0 0 0 1249.1225326205604 2180.3877324159257 0 2180.3877324159257 2893.8864868569799 0 0 0 0 1939.8521408469533 31.434023955836892 0 31.434023955836892 2023.412570040935 0 0 0 0 281.97362215165049 265.63051765227283 0 265.63051765227283 2428.8048336053325 0 0 0 0 1421.4101719650062 -95.859822980311947 0 -95.859822980311947 2516.6209168226342 0 0 0 0 1395.7171698718157 870.27190152609546 0 870.27190152609546 1155.8854695790214 0 0 0 0 34.922447484651343 26.203473537042953 0 26.203473537042953 7.3062648777158614 0 0 0 0 1231.5560015051742 542.66261936210503 0 542.66261936210503 -1093.2175512216636 0 0 0 0 682.66492094841669 -513.07458301388397 0 -513.07458301388397 95.843895548234286 0 0 0 0 -423.73923881136579 815.78420165489661 0 815.78420165489661 2287.4414663703592 0 0 0 0 14.347980754826665 15.713686615395133 0 15.713686615395133 5.3058141315178631 0 0 0 0 -230.19167200324591 1170.8561097038473 0 1170.8561097038473 2672.6825915492682 0 0 0 0 141.36501857408439 1601.384343065125 0 1601.384343065125 -2626.3108790497645 0 0 0 0 -699.80520114538376 1562.4397612563625 0 1562.4397612563625 3652.0535672928381 0 0 0 0 -352.96951514933579 355.87613027534894 0 355.87613027534894 -1455.1982786279841 0 0 0 0 -681.43184826258221 1089.2226495104624 0 1089.2226495104624 -386.21554941963404 0 0 0 0 -353.10805077722762 684.01724562599702 0 684.01724562599702 -680.55071488967224 0 0 0 0 -650.62183357798494 1227.6935664526245 0 1227.6935664526245 410.19830122248095 0 0 0 0 -930.17966678808443 1595.6874332243242 0 1595.6874332243242 -1.6186615828846698 0 0 0 0 -994.71305826710523 1417.3894785037337 0 1417.3894785037337 629.3854595880548 0 0 0 0 -666.50201850707526 1108.9921504918093 0 1108.9921504918093 -237.83960023184045 0 0 0 0 -626.30740953596614 885.29267643787898 0 885.29267643787898 -531.00576972478302 0 0 0 0 -273.89066474977881 2040.6661517370521 0 2040.6661517370521 -1002.9272042979792 0 0 0 0 -1012.4144403476967 3060.6843713132839 0 3060.6843713132839 2327.8216476762118 0 0 0 0 1633.9043738349428 2141.2166612120709 0 2141.2166612120709 111.91676894715056 0 0 0 0 -1433.1004040022963 1487.6222058421481 0 1487.6222058421481 1247.7210319799706 0 0 0 0 -455.97078400993632 2199.607393466802 0 2199.607393466802 513.9935737021151 0 0 0 0 -1050.1863339133415 1345.6880839582336 0 1345.6880839582336 447.77703154676419 0 0 0 0 -951.45648363739019 1288.155647505555 0 1288.155647505555 -1209.1316294267708 0 0 0 0 -1875.1977956200008 823.66431852164669 0 823.66431852164669 276.65004959302314 0 0 0 0 650.20725149031205 -54.097388345495347 0 -54.097388345495347 -26.248028631511261 0 0 0 0 -4.3167519834436234 -2.4731547835213945 0 -2.4731547835213945 -3.4479458465802395 0 0 0 0 -1994.5844008115819 2220.5515569978015 0 2220.5515569978015 281.92478877965186 0 0 0 0 1110.9478403575995 631.19419170706169 0 631.19419170706169 677.19738691124076 0 0 0 0 506.39657098514726 1668.9451645130175 0 1668.9451645130175 2431.4335474569216 0 0 0 0 70.777377827471355 -243.88660386741321 0 -243.88660386741321 -43.85865324002225 0 0 0 0 -28.338493933726568 402.27648768809013 0 402.27648768809013 -645.7654001252522 0 0 0 0 646.29187613137765 -107.20425774988689 0 -107.20425774988689 -851.48811985862267 0 0 0 0 35.103217905765632 -61.776734742808912 0 -61.776734742808912 -302.00214441870048 0 0 0 0 -927.49682968726847 1370.1137361504079 0 1370.1137361504079 -1186.8996076729672 0 0 0 0 0.77104028589786822 -4.0416326303003984 0 -4.0416326303003984 -34.741290194208005 0 0 0 0 29.255706076306524 -59.431502920167986 0 -59.431502920167986 -166.53457832880667 0 0 0 0 -907.01896488713828 1660.4081519191968 0 1660.4081519191968 -2819.1591042097134 0 0 0 0 -2045.8906774947245 1750.2791048983636 0 1750.2791048983636 -444.88694159006627 0 0 0 0 -649.47398086194153 96.650588101016183 0 96.650588101016183 -1923.0967665764911 0 0 0 0 6.8529712891265433 10.983208210507684 0 10.983208210507684 -20.199989407619057 0 0 0 0 1.172049302952189 4.9032605101907336 0 4.9032605101907336 -8.5555457577811467 0 0 0 0 -1308.2672031244147 508.0646371207913 0 508.0646371207913 296.37186612490768 0 0 0 0 496.91813043550064 530.59380652114123 0 530.59380652114123 -125.34989676301484 0 0 0 0 -983.04816080914316 1406.413536359265 0 1406.413536359265 332.92117842994048 0 0 0 0 -2944.0483767820842 2019.7133407877336 0 2019.7133407877336 241.84217513975454 0 0 0 0 -1018.2406809218519 1315.3652367084105 0 1315.3652367084105 -174.56616509368178 0 0 0 0 -1327.1583737844485 1755.7423549395062 0 1755.7423549395062 390.77578275453561 0 0 0 0 -1497.8409203339033 1497.9129599790194 0 1497.9129599790194 1232.7342310487584 0 0 0 0 0.97902401658939198 1993.9570681267469 0 1993.9570681267469 2172.8033773321731 0 0 0 0 -427.38793670239102 825.6784712493245 0 825.6784712493245 304.53218209152692 0 0 0 0 -946.92744329823108 1880.4518780600256 0 1880.4518780600256 1685.340502032268 0 0 0 0 -0.35640374112699647 1713.7994486697171 0 1713.7994486697171 -402.70110360823674 0 0 0 0 -504.31468191480963 1353.3740215103135 0 1353.3740215103135 -653.10502797483059 0 0 0 0 -594.92841659996338 1047.4907669211061 0 1047.4907669211061 -1044.6996084842758 0 0 0 0 -1072.8248169079307 1360.0548072429592 0 1360.0548072429592 -580.86044066454633 0 0 0 0 0.18184083313099109 1336.2437423519768 0 1336.2437423519768 -852.85818342274433 0 0 0 0 171.633223552446 1450.1184997676901 0 1450.1184997676901 -785.57067052874481 0 0 0 0 1189.3781335473032 1666.5458467582357 0 1666.5458467582357 -2149.5852701811527 0 0 0 0 0.093501047376776114 1451.5526855057142 0 1451.5526855057142 -740.87596466143805 0 0 0 0 1961.3660983486043 380.93576626297727 0 380.93576626297727 -1153.7133684777364 0 0 0 0 5.1483420567115559 8.0320852781768224 0 8.0320852781768224 -12.941412451239444 0 0 0 0 -26.567148742662539 548.27911692603357 0 548.27911692603357 -139.59957852293155 0 0 0 0 -1609.0921774561284 1692.4056685417017 0 1692.4056685417017 -528.47864801012474 0 0 0 0 -1423.1226285299199 5.3967318477480148 0 5.3967318477480148 -8.0995945295180718 0 0 0 0 -13.667446288113922 9.3067639881600712 0 9.3067639881600712 -5.551811034944599 0 0 0 0 5.9491330692690099 119.91350463912022 0 119.91350463912022 -85.157878875397728 0 0 0 0 35.518884922200385 37.781449893739691 0 37.781449893739691 3.2371185506943903 0 0 0 0 -2475.1116782160825 2132.4481815447289 0 2132.4481815447289 -480.995741775434 0 0 0 0 -124.41839880379121 314.55692781692596 0 314.55692781692596 129.6843929937022 0 0 0 0 35.255392900962988 26.757908411931552 0 26.757908411931552 2.9695354189116756 0 0 0 0 -49.468164052144857 492.83211034645865 0 492.83211034645865 -1543.0589693760412 0 0 0 0 207.38730151733034 -102.10855963207723 0 -102.10855963207723 -94.182486240679054 0 0 0 0 190.21275387455535 126.84639092736325 0 126.84639092736325 -80.544767156825401 0 0 0 0 22.688175626761222 -58.916938712591218 0 -58.916938712591218 -11.438898095919285 0 0 0 0 -0.012173272421932779 80.672787776522455 0 80.672787776522455 40.039534016483231 0 0 0 0 16.094376404900686 71.175991645308386 0 71.175991645308386 -124.80490897716663 0 0 0 0 -451.76615173788741 210.27988739130524 0 210.27988739130524 -40.333783531274094 0 0 0 0 -4.4994008299178745 5.678657650095488 0 5.678657650095488 -6.1809025932671489 0 0 0 0 439.0146346723559 218.81147306431376 0 218.81147306431376 -2594.7572200176801 0 0 0 0 161.88258744106861 184.87744478103195 0 184.87744478103195 -55.901968963364197 0 0 0 0 -61.296827921265503 145.35174579912928 0 145.35174579912928 30.76591460758209 0 0 0 0 14.240783173501484 42.651242377015478 0 42.651242377015478 72.568568209302043 0 0 0 0 0.16466983788996004 18.544133077753941 0 18.544133077753941 32.095175649657904 0 0 0 0 103.93846300107543 8.158976569196966 0 8.158976569196966 -262.00844990768383 0 0 0 0 -3.5935872122232695 2.248730340289967 0 2.248730340289967 2.0028443052199236 0 0 0 0 -0.68954414257314056 263.14399540323575 0 263.14399540323575 861.75959659397631 0 0 0 0 73.626967886753846 395.68068183119976 0 395.68068183119976 626.54008333983802 0 0 0 0 366.79823001121986 329.56553989109307 0 329.56553989109307 -132.87731186963356 0 0 0 0 192.22757930573425 365.61859508110865 0 365.61859508110865 640.06675940895366 0 0 0 0 -20.227349505759776 -308.42879186545906 0 -308.42879186545906 660.96943429212456 0 0 0 0 -11.607287904185739 -6.2451418010541886 0 -6.2451418010541886 9.2630916246443036 0 0 0 0 7.6917975721543428 40.182471797887416 0 40.182471797887416 79.916822309217523 0 0 0 0 -262.76283615623834 50.117685015784446 0 50.117685015784446 336.17948520968275 0 0 0 0 -98.60215991246514 49.301979510346428 0 49.301979510346428 -23.593869481482216 0 0 0 0 -532.29938290880818 350.06116029790064 0 350.06116029790064 -232.89541404691045 0 0 0 0 -1228.3737277874461 709.78063990396186 0 709.78063990396186 -14.972511168916753 0 0 0 0 -1165.1967372036161 684.54436198149779 0 684.54436198149779 -174.03775580403453 0 0 0 0 -1154.8050816732284 638.70747666628449 0 638.70747666628449 6.0313334813199617 0 0 0 0 -1017.4445611614647 852.25956814795063 0 852.25956814795063 -526.19837607884983 0 0 0 0 -1107.0477368750435 480.26613628831183 0 480.26613628831183 149.20091347632115 0 0 0 0 -1568.0923801660683 945.96523785930185 0 945.96523785930185 -200.48424308370159 0 0 0 0 -1100.4172074721137 935.98843640981067 0 935.98843640981067 -607.73499518488097 0 0 0 0 -1125.7594024494028 1087.6325329500646 0 1087.6325329500646 -690.91084154497366 0 0 0 0 -2.5251381776112112 18.535254956657141 0 18.535254956657141 28.293188124045002 0 0 0 0 258.49262430525778 -469.75202049965651 0 -469.75202049965651 1362.1989992629242 0 0 0 0 334.87537800116115 -1341.6863333284055 0 -1341.6863333284055 2561.751396660824 0 0 0 0 -2722.1161733590998 1166.9951007322234 0 1166.9951007322234 -2078.6898465049308 0 0 0 0 -2.572439523808896 6.2311418515880987 0 6.2311418515880987 10.2543102049288 0 0 0 0 -2101.9731552465964 1987.9193934309951 0 1987.9193934309951 -1582.8780295809847 0 0 0 0 -750.99421537163289 1004.6044169896995 0 1004.6044169896995 -698.12614256533561 0 0 0 0 -3848.2727708428283 2404.8586502621183 0 2404.8586502621183 1129.2847549360886 0 0 0 0 3.2116360955098457 26.460100444859052 0 26.460100444859052 73.076002792823573 0 0 0 0 -858.37383968938957 1455.3048762656545 0 1455.3048762656545 -2338.5766341721392 0 0 0 0 -0.87881453150794187 23.214409516332466 0 23.214409516332466 9.2968746423621837 0 0 0 0 -1000.8192728639115 166.79260290406091 0 166.79260290406091 -222.03200295459828 0 0 0 0 -3314.5454097945258 612.35888140735369 0 612.35888140735369 291.7203136238968 0 0 0 0 4.8920027847198071 33.533812537843914 0 33.533812537843914 59.118101868640224 0 0 0 0 -1.8818546638067346 23.424503562418977 0 23.424503562418977 61.796176386844309 0 0 0 0 3.0091560109833608 18.444322966008514 0 18.444322966008514 16.405024246944038 0 0 0 0 -12.608808316203067 26.442159806971176 0 26.442159806971176 75.411263779977162 0 0 0 0 -0.43173200228193309 18.956290710240864 0 18.956290710240864 71.452910794338095 0 0 0 0 -10.601225081132725 20.361008952550037 0 20.361008952550037 93.802111436627456 0 0 0 0 1.5474942922010086 16.555384351529938 0 16.555384351529938 94.732492249008828 0 0 0 0 -1292.5403996918467 176.55588344289572 0 176.55588344289572 1906.8720413050323 0 0 0 0 -1777.2934061186679 1300.0251102381662 0 1300.0251102381662 -10.664636209519813 0 0 0 0 -1204.6575822516461 -419.53516347367258 0 -419.53516347367258 952.29412905290519 0 0 0 0 -1142.366925425973 -1124.3385088200012 0 -1124.3385088200012 2950.6721117460402 0 0 0 0 -1543.5060974121952 -803.37093395582633 0 -803.37093395582633 3140.0705183100508 0 0 0 0 -1260.7582173362462 188.68823275283648 0 188.68823275283648 1886.7177950632176 0 0 0 0 -293.50570235095802 -765.46659879347135 0 -765.46659879347135 3024.875916511759 0 0 0 0 -1472.7101488969347 -186.80151782170105 0 -186.80151782170105 2924.8213998491556 0 0 0 0 -1610.7546096563165 -272.03528621597798 0 -272.03528621597798 3196.5603263194207 0 0 0 0 1.9938359766243252 7.5972216133196184 0 7.5972216133196184 29.557852089931799 0 0 0 0 296.47965752857272 1167.4685920955162 0 1167.4685920955162 3096.988269278314 0 0 0 0 -1162.6100656213384 -1076.5293531868911 0 -1076.5293531868911 3416.5365348246123 0 0 0 0 -1557.5347445705265 -605.43097169275643 0 -605.43097169275643 4646.87425236743 0 0 0 0 0.16134900848931011 6.1363609162990791 0 6.1363609162990791 9.2213322599727121 0 0 0 0 -1.3669399437058019 292.53285717748804 0 292.53285717748804 3619.0088269584103 0 0 0 0 1373.2199806773569 1852.7971272169161 0 1852.7971272169161 -1381.4049409648942 0 0 0 0 -1653.6498289283772 786.31567866023397 0 786.31567866023397 4519.2363545669405 0 0 0 0 -6.122356622617076 11.883813562931145 0 11.883813562931145 17.945143405615255 0 0 0 0 -1635.8061697997709 979.67611743177235 0 979.67611743177235 2691.6829427776829 0 0 0 0 -999.88995696837083 253.78141764211614 0 253.78141764211614 1944.6255874459093 0 0 0 0 -871.87178051186493 480.57216407624946 0 480.57216407624946 1432.8426274565318 0 0 0 0 -517.02566593249594 720.70834711818225 0 720.70834711818225 1536.5593012786994 0 0 0 0 -473.49593218807786 -364.62483321565583 0 -364.62483321565583 5205.7575293926056 0 0 0 0 -1366.5230103353097 1115.3841954802992 0 1115.3841954802992 846.29366512414708 0 0 0 0 -1379.8849454188603 972.46877411183959 0 972.46877411183959 1231.3121202861826 0 0 0 0 -1325.5295565452834 998.06950852015325 0 998.06950852015325 1230.207904349154 0 0 0 0 -917.58726902492344 378.73445833609003 0 378.73445833609003 1098.4939069497414 0 0 0 0 -1498.5057055924954 1440.0417103139685 0 1440.0417103139685 -21.051488013996277 0 0 0 0 -1388.8704294039326 851.64278611831833 0 851.64278611831833 1402.9649104800264 0 0 0 0 -5.5890423289365003 4.7869985564470916 0 4.7869985564470916 10.028917537809519 0 0 0 0 -421.9933867007785 -2025.5340692284444 0 -2025.5340692284444 4551.8349365880931 0 0 0 0 -532.82058135217812 -949.50426413727291 0 -949.50426413727291 2450.8919526774698 0 0 0 0 -430.24925659084693 -284.64546397289087 0 -284.64546397289087 3313.0463853130714 0 0 0 0 -538.19965209464499 292.0994792332167 0 292.0994792332167 1698.5275961667649 0 0 0 0 -517.61365138093242 194.63441705312289 0 194.63441705312289 1430.0898328808216 0 0 0 0 -677.67861633155553 -17.875547193063539 0 -17.875547193063539 1982.7017627939967 0 0 0 0 -960.94418789783958 442.93251833599788 0 442.93251833599788 1296.5647037394565 0 0 0 0 -986.22882025242143 615.89502364067812 0 615.89502364067812 1287.5473976273497 0 0 0 0 -888.24154947902571 496.50423469554698 0 496.50423469554698 1205.9411250763078 0 0 0 0 -946.42788158793701 614.98331410888568 0 614.98331410888568 1151.2365790728945 0 0 0 0 -983.68831836650497 715.02546512035042 0 715.02546512035042 1161.688136509023 0 0 0 0 -732.254242122508 220.6222680777646 0 220.6222680777646 1689.3501111735895 0 0 0 0 -1085.6113211112097 619.54364529220766 0 619.54364529220766 1515.8808869256609 0 0 0 0 -922.74168493718025 726.8679537411881 0 726.8679537411881 838.18042141637852 0 0 0 0 -913.28370765588079 868.06805591998341 0 868.06805591998341 784.60672575894569 0 0 0 0 -890.36921001423616 829.68831814411533 0 829.68831814411533 758.40786235797714 0 0 0 0 -812.47947853137157 820.88381226979982 0 820.88381226979982 313.58700757277984 0 0 0 0 -811.74670319347206 856.82626803459789 0 856.82626803459789 330.7790420189267 0 0 0 0 -1043.2521078737336 904.88257096274174 0 904.88257096274174 808.82881766566425 0 0 0 0 -961.81878556735319 1041.9614973378684 0 1041.9614973378684 299.71872444536712 0 0 0 0 -706.36461284657707 616.15274145194053 0 616.15274145194053 331.63764883732074 0 0 0 0 -350.98602051303897 781.22778398575247 0 781.22778398575247 -105.15454931906424 0 0 0 0 -624.41508727200562 795.73793910473614 0 795.73793910473614 -366.3926169418869 0 0 0 0 -875.28352107686806 691.20949524331809 0 691.20949524331809 745.87471868605644 0 0 0 0 -907.1807909978379 748.34167686058208 0 748.34167686058208 758.24018095716565 0 0 0 0 -734.77990124243661 824.60366915113264 0 824.60366915113264 443.82051606846653 0 0 0 0 -612.80770476549515 626.08070497911831 0 626.08070497911831 630.89520520239603 0 0 0 0 -574.12770806246044 500.96239498333034 0 500.96239498333034 966.52937418608053 0 0 0 0 -610.13421903766903 644.12060220292233 0 644.12060220292233 932.49088846289669 0 0 0 0 -866.65746157270041 596.09514037811095 0 596.09514037811095 1053.1253353329957 0 0 0 0 -946.56016475692741 604.19299873252021 0 604.19299873252021 1054.1771372933117 0 0 0 0 -1135.787662627059 366.70544849272846 0 366.70544849272846 1161.3399380568553 0 0 0 0 -1040.1084168295711 582.00659192891908 0 582.00659192891908 1062.3737681304483 0 0 0 0 -646.74809068102331 405.39368540664145 0 405.39368540664145 1149.675379412176 0 0 0 0 -1614.3097733556751 -306.7988804936067 0 -306.7988804936067 645.66109367110766 0 0 0 0 -4.4443503046160231 2.6356181727063017 0 2.6356181727063017 0.28428788177006936 0 0 0 0 -781.65612341681117 -30.127685909716092 0 -30.127685909716092 592.58651416940847 0 0 0 0 -1307.6444382435729 469.14829907612875 0 469.14829907612875 1100.6016058001842 0 0 0 0 -292.05941397615243 1116.5077706649245 0 1116.5077706649245 1040.5996756054583 0 0 0 0 460.7314611437323 520.29280087920051 0 520.29280087920051 427.39501108043805 0 0 0 0 -2052.8827008489461 256.67667764057114 0 256.67667764057114 893.56708253354009 0 0 0 0 -373.44805426846142 532.60900843366107 0 532.60900843366107 -408.68377261061687 0 0 0 0 -451.19931870044093 560.27476850936364 0 560.27476850936364 456.66610133030917 0 0 0 0 -1783.159817435313 666.03671140866936 0 666.03671140866936 266.15853064667317 0 0 0 0 -757.52740889959387 681.28070385890169 0 681.28070385890169 -33.892484631629486 0 0 0 0 -1107.5476819269825 383.70974518235016 0 383.70974518235016 834.78881349672156 0 0 0 0 -2010.8630997624568 554.00243785564453 0 554.00243785564453 903.00293174281251 0 0 0 0 -1188.7678054163407 427.17895710579251 0 427.17895710579251 1089.9913444958511 0 0 0 0 -583.12988721625879 95.531459339967114 0 95.531459339967114 1268.3567118488972 0 0 0 0 -855.07392523559975 523.16210351078553 0 523.16210351078553 616.31975224382768 0 0 0 0 90.804507521519554 -530.37087602940301 0 -530.37087602940301 1431.8691947117695 0 0 0 0 -6.6422797763625567 -35.719356707776569 0 -35.719356707776569 687.85868865395605 0 0 0 0 -336.12190997274593 154.57817503021215 0 154.57817503021215 585.90925931020411 0 0 0 0 -518.62894262243208 82.232597587844793 0 82.232597587844793 704.9665051385964 0 0 0 0 3.7833146964840125 -294.78265218198794 0 -294.78265218198794 518.33638087286454 0 0 0 0 6.5536703730433601 30.413746456483793 0 30.413746456483793 41.403710719116276 0 0 0 0 -809.11290768822073 564.46128857632721 0 564.46128857632721 -190.97586496384611 0 0 0 0 -779.10990218551888 618.78212802782582 0 618.78212802782582 -289.79864645721682 0 0 0 0 -1089.2335037161538 718.27691705299367 0 718.27691705299367 -203.8862747547214 0 0 0 0 -807.88571548837353 516.35293563056257 0 516.35293563056257 -98.047109287712374 0 0 0 0 -290.59298293472966 373.21189518549363 0 373.21189518549363 -214.36983556467021 0 0 0 0 -486.17966892730328 319.60971517987491 0 319.60971517987491 4.083912406024865 0 0 0 0 15.342101326402087 45.652071339225621 0 45.652071339225621 55.268419166642261 0 0 0 0 -386.96878163362271 97.456231855864644 0 97.456231855864644 30.271260438203171 0 0 0 0 -1447.6179027595208 76.606112356806989 0 76.606112356806989 20.761680943091051 0 0 0 0 -1890.3144057903846 1070.9754383216205 0 1070.9754383216205 -1028.8650268099445 0 0 0 0 -666.75206600650563 -569.37846097817237 0 -569.37846097817237 648.99182825224125 0 0 0 0 2102.9697807714692 1327.2424577048805 0 1327.2424577048805 -1644.9889101424778 0 0 0 0 -21.757067264917907 1.7137383755749909 0 1.7137383755749909 14.575016918870944 0 0 0 0 447.9573380468064 2669.9080572394596 0 2669.9080572394596 1431.2749173817247 0 0 0 0 45.293505730165634 1293.9003080566399 0 1293.9003080566399 454.48654495435767 0 0 0 0 -772.74432930024341 225.64395811296708 0 225.64395811296708 32.086122695727681 0 0 0 0 -2276.7032051949645 946.32433671203762 0 946.32433671203762 791.46692527452251 0 0 0 0 -2789.1719152788355 106.00451181008066 0 106.00451181008066 670.18005058495328 0 0 0 0 -858.06682505329627 650.80553011441543 0 650.80553011441543 468.94611142273061 0 0 0 0 -897.39345635895734 1291.6710414439076 0 1291.6710414439076 -168.75128927416517 0 0 0 0 -58.628452045173617 461.26668673206586 0 461.26668673206586 222.93558840981495 0 0 0 0 77.636302897299174 126.02690825790341 0 126.02690825790341 296.31905802559049 0 0 0 0 293.31749625107113 340.79695470507068 0 340.79695470507068 142.50726631603902 0 0 0 0 2.8777374235132385 12.835856945055298 0 12.835856945055298 -10.877611295268707 0 0 0 0 -408.34076900295622 119.15868277071422 0 119.15868277071422 317.2909800480702 0 0 0 0 1193.6325940237839 1466.6785856899442 0 1466.6785856899442 1139.0953402759333 0 0 0 0 147.05502085504122 823.44743586653203 0 823.44743586653203 747.83085283613036 0 0 0 0 395.80092930197134 790.01752602076158 0 790.01752602076158 355.88097680131614 0 0 0 0 207.7405273366312 332.50355666872929 0 332.50355666872929 542.20272779550942 0 0 0 0 140.33655740928953 289.1833493270824 0 289.1833493270824 354.57089793942578 0 0 0 0 825.48316904486273 136.69400003323244 0 136.69400003323244 1338.8839204112155 0 0 0 0 377.89166405928063 1585.3937019209031 0 1585.3937019209031 1452.9262713126664 0 0 0 0 349.69427635159809 1107.4568251010933 0 1107.4568251010933 668.85548603521602 0 0 0 0 -239.49724928157229 1069.9714477531816 0 1069.9714477531816 983.3395572330337 0 0 0 0 -183.2626606542035 1170.7404450951508 0 1170.7404450951508 1132.2424616154603 0 0 0 0 -676.91076337691629 456.92094513135817 0 456.92094513135817 1503.0661625284156 0 0 0 0 0.76359121671680441 3.5951737403431423 0 3.5951737403431423 11.457802885769411 0 0 0 0 1685.7222990473674 1335.2108653109899 0 1335.2108653109899 787.17457568314421 0 0 0 0 -248.67979136164649 298.74845143943821 0 298.74845143943821 676.97668990718375 0 0 0 0 -200.01227191866201 167.56656515455688 0 167.56656515455688 35.971150415600277 0 0 0 0 53.384203562134644 265.42666903384816 0 265.42666903384816 189.29903482279042 0 0 0 0 75.52156752339215 382.69423088298299 0 382.69423088298299 50.652197170609725 0 0 0 0 -68.350310173125763 620.35004617521554 0 620.35004617521554 878.79472472201451 0 0 0 0 16.521638204510964 712.53395886164799 0 712.53395886164799 894.25500271187047 0 0 0 0 110.97633615676023 686.7102236351966 0 686.7102236351966 840.78495708752598 0 0 0 0 63.202790289575205 659.02770824363142 0 659.02770824363142 824.88998832524521 0 0 0 0 175.14349089995085 672.18259284958913 0 672.18259284958913 806.16032548059934 0 0 0 0 73.273351952131634 630.11882227899878 0 630.11882227899878 879.27936025467352 0 0 0 0 263.52056014059053 618.30885107207359 0 618.30885107207359 804.69775847536948 0 0 0 0 84.226941478525987 765.49853400519896 0 765.49853400519896 761.45517707279942 0 0 0 0 -156.81054945135838 507.61413912543503 0 507.61413912543503 780.36357891487569 0 0 0 0 157.76068254451093 629.85684045555536 0 629.85684045555536 827.55236585400053 0 0 0 0 188.59069807897322 430.40794422043837 0 430.40794422043837 700.60763499522932 0 0 0 0 127.98774415774096 521.26496456880704 0 521.26496456880704 635.68509194905346 0 0 0 0 704.23996160781871 702.76706235825748 0 702.76706235825748 690.93799393475638 0 0 0 0 396.22960194900224 234.08151533732598 0 234.08151533732598 533.81533441126521 0 0 0 0 200.55023054010235 522.37383374127967 0 522.37383374127967 47.538825730560347 0 0 0 0 695.65168650073383 354.68762688158915 0 354.68762688158915 351.86975534434896 0 0 0 0 421.7869597087265 336.19598871744165 0 336.19598871744165 697.39566336001008 0 0 0 0 245.58285785016051 756.41685145474912 0 756.41685145474912 971.33131234605389 0 0 0 0 -250.03207848723105 383.56775918515632 0 383.56775918515632 1066.3418528425391 0 0 0 0 -8.6021658875791331 5.1941580016724913 0 5.1941580016724913 1.0712899441551826 0 0 0 0 215.21901613051159 446.81894776382978 0 446.81894776382978 607.71879587222065 0 0 0 0 750.37716739388998 1114.8084586732839 0 1114.8084586732839 900.97276586177759 0 0 0 0 5.7738543453160673 716.3242902119855 0 716.3242902119855 488.50906042876886 0 0 0 0 -189.404213262962 783.36771698879056 0 783.36771698879056 876.29707867226534 0 0 0 0 -15.576754197085393 422.68345115791453 0 422.68345115791453 99.71183676282817 0 0 0 0 -268.6956914634502 428.80183842453698 0 428.80183842453698 463.60087860100521 0 0 0 0 142.96422413008986 307.20350145876364 0 307.20350145876364 1317.0722096276877 0 0 0 0 120.17793421889655 423.53984238882549 0 423.53984238882549 867.78362641315471 0 0 0 0 -95.188367070120876 317.88018650557933 0 317.88018650557933 892.91996531448967 0 0 0 0 -91.275033475176315 706.05777705723085 0 706.05777705723085 612.68865757971435 0 0 0 0 -103.34302437603765 612.64985192460517 0 612.64985192460517 1154.6139424277098 0 0 0 0 222.4917159845063 595.47794920483648 0 595.47794920483648 642.47710996215756 0 0 0 0 240.10940668913827 932.86633323158821 0 932.86633323158821 646.83264433520526 0 0 0 0 -2.6053005033858767 3.0514467317275944 0 3.0514467317275944 -0.30132511604304568 0 0 0 0 -378.53144808195066 141.9717256087024 0 141.9717256087024 478.85391859571246 0 0 0 0 -403.81717630564617 653.14207161232719 0 653.14207161232719 764.66603113288875 0 0 0 0 480.96337677477277 624.72626835215488 0 624.72626835215488 593.45348277894209 0 0 0 0 562.94157136321155 636.74434522429692 0 636.74434522429692 573.88874613201187 0 0 0 0 573.74783796870906 644.95335953906761 0 644.95335953906761 559.14230128851341 0 0 0 0 608.88480360263202 683.70638067641812 0 683.70638067641812 597.75035713649413 0 0 0 0 541.91221160193891 687.09891185105698 0 687.09891185105698 638.95261479730834 0 0 0 0 574.50411136457114 728.59587053801079 0 728.59587053801079 663.37915697853168 0 0 0 0 506.82963312546781 1010.2176784007315 0 1010.2176784007315 1236.342905086276 0 0 0 0 695.02892623636217 588.15418350314576 0 588.15418350314576 761.02025858216803 0 0 0 0 507.79231353889918 713.00595102814259 0 713.00595102814259 1039.1109259017176 0 0 0 0 340.77442344470182 602.59801894351403 0 602.59801894351403 1389.7931811113376 0 0 0 0 998.02923853397078 783.21658773731178 0 783.21658773731178 993.51126358864713 0 0 0 0 266.86718507439946 955.44685268539979 0 955.44685268539979 2898.0167857644556 0 0 0 0 148.32291483813606 969.16618212024332 0 969.16618212024332 950.57033088373282 0 0 0 0 532.94108429941843 726.99140474954947 0 726.99140474954947 744.0183302838268 0 0 0 0 364.12491845243494 750.44923407715396 0 750.44923407715396 1030.6634186160372 0 0 0 0 344.56840948329773 954.23555426098028 0 954.23555426098028 737.50499935551488 0 0 0 0 294.90046627082484 901.15540039351254 0 901.15540039351254 702.65150991987321 0 0 0 0 414.86400126761873 721.36957028747565 0 721.36957028747565 749.63023699374571 0 0 0 0 527.46020895394031 651.69556347176695 0 651.69556347176695 753.80594346264024 0 0 0 0 496.52238213151577 730.58168096153531 0 730.58168096153531 553.20363116705266 0 0 0 0 485.18713890621439 670.18464109244087 0 670.18464109244087 587.90337721621472 0 0 0 0 573.63566121646727 649.52498360429308 0 649.52498360429308 520.32319757054211 0 0 0 0 483.88911496839137 683.8061730248628 0 683.8061730248628 448.69577297204523 0 0 0 0 389.95357795163 625.42876559554134 0 625.42876559554134 519.98301131563494 0 0 0 0 497.9404604073934 621.54095316901657 0 621.54095316901657 447.87660534589668 0 0 0 0 388.70148939974024 529.68650794366113 0 529.68650794366113 794.6314526162314 0 0 0 0 497.24288607478957 443.23041227455542 0 443.23041227455542 625.27483315105201 0 0 0 0 535.78103577088041 564.34949844098446 0 564.34949844098446 486.93901007508975 0 0 0 0 19.812060447073918 4.0302731837414285 0 4.0302731837414285 -0.84891124667655049 0 0 0 0 1.9634461890998978 0.73682209220109485 0 0.73682209220109485 1.8121055212529882 0 0 0 0 467.75661897970713 373.69839365285588 0 373.69839365285588 370.08726987591217 0 0 0 0 379.98398253618507 558.35082665298978 0 558.35082665298978 773.97441920943675 0 0 0 0 244.28666104009608 559.79800309365964 0 559.79800309365964 1054.46636681573 0 0 0 0 275.68905337748583 347.38699675455427 0 347.38699675455427 554.66767202003393 0 0 0 0 174.7750528526667 429.96664186788257 0 429.96664186788257 911.72361230468232 0 0 0 0 404.85137837880757 623.07316833044752 0 623.07316833044752 746.28218174496578 0 0 0 0 437.12548744635205 770.9410588023693 0 770.9410588023693 988.72976996575017 0 0 0 0 357.89768005807855 595.8906649312521 0 595.8906649312521 731.07886958488962 0 0 0 0 526.05801002203953 645.05701396542281 0 645.05701396542281 651.58975431788713 0 0 0 0 504.64509618359443 587.6212231617792 0 587.6212231617792 587.2338025343779 0 0 0 0 527.25567897942892 652.73426133282101 0 652.73426133282101 645.26418103568722 0 0 0 0 591.58589119400131 661.68477884817548 0 661.68477884817548 568.75723618781194 0 0 0 0 526.94105755749479 606.80255014440263 0 606.80255014440263 648.62895442274748 0 0 0 0 692.23336590136751 750.98700522162108 0 750.98700522162108 697.43231999626732 0 0 0 0 457.35827458460699 703.25567436176789 0 703.25567436176789 581.75920638146908 0 0 0 0 519.37887769241206 407.46651188612668 0 407.46651188612668 746.13908289368555 0 0 0 0 838.74668150949583 803.35685929424653 0 803.35685929424653 816.95564555229066 0 0 0 0 652.41322361599305 588.46573197430553 0 588.46573197430553 645.39796657879197 0 0 0 0 472.46857206206914 970.99870148633636 0 970.99870148633636 1492.6017513305997 0 0 0 0 168.82472619479813 480.5411501583003 0 480.5411501583003 414.90818798080727 0 0 0 0 164.60941737190296 579.17774991143233 0 579.17774991143233 849.32851962148925 0 0 0 0 235.58817195013398 460.96455538058945 0 460.96455538058945 126.94614366015594 0 0 0 0 57.937872616865207 357.90864711103495 0 357.90864711103495 380.72554059984031 0 0 0 0 169.74792387831258 126.11314155021682 0 126.11314155021682 -122.58796749066096 0 0 0 0 306.6271572366968 -34.05594799609753 0 -34.05594799609753 -200.99451576675347 0 0 0 0 713.72619316136115 462.66353666359282 0 462.66353666359282 6.4275861145652016 0 0 0 0 31.028217305822182 100.67497137807368 0 100.67497137807368 -99.984771783136239 0 0 0 0 155.16904768047971 121.77610554592684 0 121.77610554592684 -134.74043068132596 0 0 0 0 62.384490457676463 87.051963710780115 0 87.051963710780115 -141.85386024593188 0 0 0 0 -17.40462184183707 -10.725390925070315 0 -10.725390925070315 -202.35289217738318 0 0 0 0 -40.187454426340992 15.897143168214825 0 15.897143168214825 -129.21885989508974 0 0 0 0 57.614379121747334 99.926479908208421 0 99.926479908208421 -134.01200079142382 0 0 0 0 -1.0833428123236786 4.630008527569089 0 4.630008527569089 -4.0118260871050495 0 0 0 0 32.612751934953849 19.977371279926956 0 19.977371279926956 -95.084636774103274 0 0 0 0 68.702446377254091 133.31297989792074 0 133.31297989792074 -17.363127185279154 0 0 0 0 0.82822630666487385 50.343992503105255 0 50.343992503105255 -169.47919978550635 0 0 0 0 -17.365224570909049 32.534807497955626 0 32.534807497955626 31.19784213173989 0 0 0 0 99.768612946616486 -105.09141552601068 0 -105.09141552601068 -223.92527965905902 0 0 0 0 7.1455186378021835 1.0530145497172327 0 1.0530145497172327 -0.12895059186573121 0 0 0 0 57.328533380263252 94.173497474796022 0 94.173497474796022 -73.574407728694496 0 0 0 0 -48.538575813014177 29.493031882782816 0 29.493031882782816 -19.40645460417727 0 0 0 0 239.01450279614073 377.67731846685365 0 377.67731846685365 -108.24497261627448 0 0 0 0 73.866048374387901 24.598713526590018 0 24.598713526590018 -215.23147243033964 0 0 0 0 281.82897409427096 237.99725270339695 0 237.99725270339695 -221.58146404105173 0 0 0 0 239.91610186978562 281.6618236959377 0 281.6618236959377 -83.038564168831726 0 0 0 0 -155.5347022820788 487.31458126655798 0 487.31458126655798 -189.97570991640714 0 0 0 0 63.986595909087555 -36.514081719471733 0 -36.514081719471733 -241.47925349230354 0 0 0 0 57.043730621261091 86.465238157882709 0 86.465238157882709 -153.53082826671042 0 0 0 0 86.269973488670075 198.65015146088763 0 198.65015146088763 -175.4830193540256 0 0 0 0 356.64868286559067 263.55319345456155 0 263.55319345456155 -196.32545867917361 0 0 0 0 79.723884834151249 219.21792560466565 0 219.21792560466565 -192.40598228125054 0 0 0 0 212.36834814025497 250.57155029220303 0 250.57155029220303 -287.07168562893639 0 0 0 0 -18.607690138043836 304.53229564714275 0 304.53229564714275 -298.07337360979545 0 0 0 0 57.761916770264577 104.17919062528426 0 104.17919062528426 -125.82811530282058 0 0 0 0 162.10455583236762 176.48423493602604 0 176.48423493602604 -304.97727913392009 0 0 0 0 45.150250543636503 135.51034220218571 0 135.51034220218571 -311.11458361250516 0 0 0 0 -2.6499190438989899 170.25541891531611 0 170.25541891531611 -248.97000087932429 0 0 0 0 15.203530884469103 4.0466667513089334 0 4.0466667513089334 -38.917933370827555 0 0 0 0 28.320594866527244 205.04586410241973 0 205.04586410241973 -504.41346350824642 0 0 0 0 66.950699829118093 213.47727596590539 0 213.47727596590539 -523.5721446576672 0 0 0 0 4.5466263285616151 517.25378338391715 0 517.25378338391715 21.008016480285733 0 0 0 0 -289.60480675354484 481.73875652028073 0 481.73875652028073 -242.05755682048584 0 0 0 0 3.0664041654695779 16.848001613850442 0 16.848001613850442 35.224264271819841 0 0 0 0 50.939355999842519 128.67903070848138 0 128.67903070848138 -972.24676872954296 0 0 0 0 -240.64704546015128 215.54012036970107 0 215.54012036970107 -297.56182923132656 0 0 0 0 -113.29340491420589 424.68418988231315 0 424.68418988231315 -553.84901162239839 0 0 0 0 -38.363710221150541 49.457625816164182 0 49.457625816164182 -235.39861933090651 0 0 0 0 113.16425679941312 241.54781979604559 0 241.54781979604559 -462.23984766338344 0 0 0 0 3.6346108358557103 341.02541911419439 0 341.02541911419439 -315.32745372564023 0 0 0 0 346.70509706097073 369.69518490065457 0 369.69518490065457 -351.31225038588354 0 0 0 0 437.68918768808362 683.16092340553496 0 683.16092340553496 -301.42320976543488 0 0 0 0 395.43935125987628 213.08612068549792 0 213.08612068549792 -142.62087468797199 0 0 0 0 593.42217544917366 323.06580652570574 0 323.06580652570574 -318.68412063301366 0 0 0 0 450.69850730075268 34.808933738037013 0 34.808933738037013 -380.42102552131109 0 0 0 0 2.0571764730341897 3.6466217822428888 0 3.6466217822428888 0.70402382311061551 0 0 0 0 83.694329271536844 263.65176076846615 0 263.65176076846615 -369.07937164047871 0 0 0 0 228.45781755784992 538.79216200636756 0 538.79216200636756 -10.803576178312142 0 0 0 0 -131.00689741264796 312.17570024866018 0 312.17570024866018 22.808307329791205 0 0 0 0 194.13398841806338 331.75055197367783 0 331.75055197367783 -99.359990607054897 0 0 0 0 123.78133755573072 164.59419409180009 0 164.59419409180009 8.7869578234866026 0 0 0 0 -531.97431260724261 410.15968407204673 0 410.15968407204673 -94.632841324439596 0 0 0 0 -243.73701865592739 85.301264408501766 0 85.301264408501766 -209.14586189830698 0 0 0 0 582.63041228803922 543.23152514539515 0 543.23152514539515 -387.35655140114977 0 0 0 0 145.14318428259139 1018.0647739452013 0 1018.0647739452013 -280.78944219764526 0 0 0 0 1281.3972553456551 1064.5195425645661 0 1064.5195425645661 -281.1243593877025 0 0 0 0 721.29917349177413 418.24048904816436 0 418.24048904816436 86.818561943324312 0 0 0 0 -647.37709033231658 1181.1113863770797 0 1181.1113863770797 -1105.4967278407721 0 0 0 0 -3186.8230347617064 1331.154393512003 0 1331.154393512003 1547.0908923953293 0 0 0 0 -1507.1868802551326 110.60699265637095 0 110.60699265637095 845.13065283275648 0 0 0 0 -0.75427946776644106 10.100027815425136 0 10.100027815425136 -12.288636573070589 0 0 0 0 -1138.6680833196442 819.05191249711356 0 819.05191249711356 164.12520223577803 0 0 0 0 2336.6953840743372 498.19649329423157 0 498.19649329423157 -415.61027518220726 0 0 0 0 780.52044512389693 743.16503204284982 0 743.16503204284982 1.9883875011291821 0 0 0 0 1181.9846701601637 92.160695400420991 0 92.160695400420991 297.98592520801685 0 0 0 0 825.21633348695468 525.16592818751178 0 525.16592818751178 166.84880182284815 0 0 0 0 624.44864208635408 442.39731826348998 0 442.39731826348998 347.2640675514665 0 0 0 0 504.67287738321465 287.48998781182354 0 287.48998781182354 171.79055257242908 0 0 0 0 736.91584709197923 364.21328173605843 0 364.21328173605843 -45.663900286333956 0 0 0 0 1.5826225240959939 18.73592707973981 0 18.73592707973981 -32.993863736156214 0 0 0 0 -693.53191731695551 83.415607683509734 0 83.415607683509734 -1192.2770885999644 0 0 0 0 1198.6477298504178 279.34104298356692 0 279.34104298356692 -212.7883562910547 0 0 0 0 1046.1269513601992 2002.3148062976479 0 2002.3148062976479 -892.19873495889806 0 0 0 0 -611.04669994130381 1928.2159108911151 0 1928.2159108911151 -496.45175751538318 0 0 0 0 -1321.249815600122 2050.1080755008165 0 2050.1080755008165 -1008.6238810667858 0 0 0 0 827.35751270721084 1485.5900914158592 0 1485.5900914158592 43.170282222346941 0 0 0 0 -569.28476857277565 1784.1664526204763 0 1784.1664526204763 95.948061815751771 0 0 0 0 -353.41042963013751 600.93986092795649 0 600.93986092795649 191.78727171337732 0 0 0 0 121.7497757060919 840.51598032197967 0 840.51598032197967 203.03328330775912 0 0 0 0 198.84045420578332 1026.6109736704491 0 1026.6109736704491 -185.5823555044517 0 0 0 0 429.76133181111072 654.72707679731138 0 654.72707679731138 277.78386107436972 0 0 0 0 1106.6808031241089 986.624913099163 0 986.624913099163 -660.2607565331873 0 0 0 0 576.71548862617055 329.55162805639384 0 329.55162805639384 -1032.2235927520214 0 0 0 0 685.0950958593312 580.30885974614557 0 580.30885974614557 -452.36651283474748 0 0 0 0 274.73834826421808 342.4301249322998 0 342.4301249322998 -381.89509457381905 0 0 0 0 293.31965889788989 252.26698732243392 0 252.26698732243392 -252.72843823360381 0 0 0 0 515.42143459166982 626.12298316937904 0 626.12298316937904 -55.10761028262641 0 0 0 0 606.64207548930426 628.29900351545166 0 628.29900351545166 -296.21405250229509 0 0 0 0 416.03795967358747 509.8801078796123 0 509.8801078796123 -251.57744820597918 0 0 0 0 273.32392684693332 568.35660733699387 0 568.35660733699387 -381.54271584646358 0 0 0 0 475.47458252494107 415.21739660624553 0 415.21739660624553 -437.38587373465998 0 0 0 0 260.78334915146115 309.23038136963351 0 309.23038136963351 -393.15336233596645 0 0 0 0 281.87241193520822 259.92697995115884 0 259.92697995115884 -642.32387026148172 0 0 0 0 391.68576146189298 792.36611343630284 0 792.36611343630284 -938.06039744540158 0 0 0 0 -253.47530029481277 32.566582393860699 0 32.566582393860699 188.22358366905428 0 0 0 0 15.124151835159864 505.40221338480751 0 505.40221338480751 -466.94334775591324 0 0 0 0 -1444.6164061923191 468.10772461543638 0 468.10772461543638 -250.05774981028662 0 0 0 0 -4.3094197049619893 15.82214710431154 0 15.82214710431154 -34.731941170395572 0 0 0 0 -3883.9832505700761 540.37844109174284 0 540.37844109174284 -27.413815439336759 0 0 0 0 -2585.6705803174991 1662.7598078991687 0 1662.7598078991687 -809.62264856194452 0 0 0 0 366.87082367457333 -267.85057312523259 0 -267.85057312523259 -67.971798629158002 0 0 0 0 871.93800771261158 -194.99520147554449 0 -194.99520147554449 -855.30435535571814 0 0 0 0 358.14206918235868 118.64090685167139 0 118.64090685167139 -487.38828487584578 0 0 0 0 1041.769783524207 629.43164917414197 0 629.43164917414197 -1916.6252105267995 0 0 0 0 -1895.8258859726775 113.70657449744749 0 113.70657449744749 53.493031399964366 0 0 0 0 246.87643794310861 2583.0723891729449 0 2583.0723891729449 361.10505981084862 0 0 0 0 -1696.302395769977 804.17374739057368 0 804.17374739057368 -807.0184147861105 0 0 0 0 49.393821040750481 120.90897325094738 0 120.90897325094738 -9.9794825496919657 0 0 0 0 -315.13639179366874 -360.92664639663781 0 -360.92664639663781 -88.096058001830897 0 0 0 0 27.765053930764282 15.808164813229723 0 15.808164813229723 8.5175963092472813 0 0 0 0 277.0824633782031 57.318083121667769 0 57.318083121667769 -1812.8428169636118 0 0 0 0 -719.93928141798824 1363.4658283145018 0 1363.4658283145018 -1954.6463273124657 0 0 0 0 -111.19800524480524 147.16454261132822 0 147.16454261132822 -970.63990176116204 0 0 0 0 38.297265581975807 354.11138625599688 0 354.11138625599688 -686.29233268498501 0 0 0 0 298.66490242280997 173.16249385380252 0 173.16249385380252 -775.50112618974163 0 0 0 0 -74.406157994817477 516.79961670425564 0 516.79961670425564 -245.92845295376537 0 0 0 0 -211.35151332101668 829.7263704664183 0 829.7263704664183 -954.24252877837205 0 0 0 0 -984.31730487391178 391.93969872400157 0 391.93969872400157 -353.15428376068667 0 0 0 0 -1552.2579837667145 981.07872891832631 0 981.07872891832631 -195.9295563658743 0 0 0 0 -1690.2518338335212 886.16867918001935 0 886.16867918001935 -43.680080952530261 0 0 0 0 -582.44049864116823 156.59080091479336 0 156.59080091479336 378.83299464532479 0 0 0 0 855.6688432944793 854.7906645745652 0 854.7906645745652 -410.01657819807224 0 0 0 0 -1861.2962178926391 1211.5359084157499 0 1211.5359084157499 441.90740742373509 0 0 0 0 -453.34697778763075 -845.04766736125021 0 -845.04766736125021 -1455.6118053968021 0 0 0 0 -14.052870687608788 12.348508951943501 0 12.348508951943501 -9.8216012017593926 0 0 0 0 -1854.3153756905667 1143.310557753066 0 1143.310557753066 75.193519031243341 0 0 0 0 240.52048628324701 1551.3613360228483 0 1551.3613360228483 -1730.3026464933573 0 0 0 0 -1675.5386070477107 -95.320412565000879 0 -95.320412565000879 -617.06955086954258 0 0 0 0 -813.68856850594057 409.75401643445593 0 409.75401643445593 -1943.2378792165473 0 0 0 0 -1366.7257831360766 1533.3408814234626 0 1533.3408814234626 -1210.9313911225763 0 0 0 0 -1127.5272905442107 1009.8113745574374 0 1009.8113745574374 -100.47799216286876 0 0 0 0 -1047.512740253318 960.3293459054712 0 960.3293459054712 -833.95406930637546 0 0 0 0 -865.47504418494646 709.66809895492952 0 709.66809895492952 -503.5347793218607 0 0 0 0 1.0209712425634692 21.496610927395039 0 21.496610927395039 -98.054533573354504 0 0 0 0 626.24051332446106 -343.17920346758387 0 -343.17920346758387 -338.44697128418557 0 0 0 0 465.89734849450178 41.119886905104067 0 41.119886905104067 -441.9031760636326 0 0 0 0 -1.99115547983439 9.907020341181493 0 9.907020341181493 -16.549905523824151 0 0 0 0 156.90396256954409 224.64628847643507 0 224.64628847643507 -174.29919161643647 0 0 0 0 336.82334968243958 289.95923411890544 0 289.95923411890544 -371.30983213431318 0 0 0 0 215.00551926072512 -60.118286386387808 0 -60.118286386387808 -608.20442697266481 0 0 0 0 245.41983153088222 81.169487100477909 0 81.169487100477909 36.719046245776553 0 0 0 0 24.513279075662261 29.712230698431995 0 29.712230698431995 -97.270884445225761 0 0 0 0 -849.14650439685647 225.30857793719042 0 225.30857793719042 -186.08322755826521 0 0 0 0 -136.22404789543361 -267.43232011116561 0 -267.43232011116561 -727.5834876885383 0 0 0 0 39.50265111927294 42.218487542288329 0 42.218487542288329 -70.13757828322116 0 0 0 0 13.746763870067298 64.156314318176555 0 64.156314318176555 -68.515145723140449 0 0 0 0 26.64370906616665 62.705363265831807 0 62.705363265831807 -3.0540660516362976 0 0 0 0 51.544202727525771 193.70732338363632 0 193.70732338363632 -397.62866505916463 0 0 0 0 3.7020060731462863 65.691387868936232 0 65.691387868936232 6.2745786240168968 0 0 0 0 21.284503131988458 325.76520356198307 0 325.76520356198307 -327.06555481476971 0 0 0 0 77.54949283352471 353.42447136669216 0 353.42447136669216 -336.40220250222774 0 0 0 0 68.501012394344343 140.09552431448211 0 140.09552431448211 67.865453683997259 0 0 0 0 -279.29952330056403 503.16666766963226 0 503.16666766963226 -421.9483848164964 0 0 0 0 80.045840245176805 276.03353293540567 0 276.03353293540567 -189.45019424743077 0 0 0 0 131.98403828863229 366.89150960464031 0 366.89150960464031 -313.15537212960771 0 0 0 0 -85.155065667320741 258.15067585809447 0 258.15067585809447 -311.6339844043905 0 0 0 0 74.512654612219194 398.23477861205174 0 398.23477861205174 -188.87902137216588 0 0 0 0 -106.80096738325665 334.53892791604449 0 334.53892791604449 37.948001536948141 0 0 0 0 233.88360985538748 405.16185642097844 0 405.16185642097844 -111.27427529732813 0 0 0 0 -220.70305994324735 499.39249953627223 0 499.39249953627223 14.507886937673902 0 0 0 0 -350.55131901071582 391.37218679416401 0 391.37218679416401 -69.867939438787289 0 0 0 0 -150.07740503243258 444.72978548499668 0 444.72978548499668 -175.42448100494221 0 0 0 0 -111.89449276315281 382.0709392564313 0 382.0709392564313 -380.33226293995358 0 0 0 0 -55.885797725146404 331.11277698884078 0 331.11277698884078 -170.50546220489014 0 0 0 0 15.389642861936068 22.547247993033665 0 22.547247993033665 13.539175634757839 0 0 0 0 39.175824238533608 29.992815161052278 0 29.992815161052278 13.038261305311352 0 0 0 0 122.89832154868054 148.03150295283922 0 148.03150295283922 109.25728200819867 0 0 0 0 8.766222525795456 125.4355393402584 0 125.4355393402584 187.67942586991558 0 0 0 0 18.913684326719022 6.7429460575356046 0 6.7429460575356046 1.8563439166661908 0 0 0 0 222.65019250704063 949.51755209229304 0 949.51755209229304 2993.4516283337725 0 0 0 0 309.30921883316478 1823.5219862491576 0 1823.5219862491576 -2096.9743547684993 0 0 0 0 -391.79168861362268 607.24728499916455 0 607.24728499916455 -1007.8177966375661 0 0 0 0 -521.14421128467075 1244.8918915481845 0 1244.8918915481845 -32.121997433700017 0 0 0 0 -846.4968663205218 909.67424372079768 0 909.67424372079768 -312.50447540575988 0 0 0 0 74.067369788899668 1035.3645345102705 0 1035.3645345102705 -666.86324308098119 0 0 0 0 -1027.4882430827711 669.64697570339194 0 669.64697570339194 24.060382033028873 0 0 0 0 -548.38436121517589 706.05478606971064 0 706.05478606971064 -178.02305336219433 0 0 0 0 6.9266785749350674 834.14463807501306 0 834.14463807501306 76.993847491801716 0 0 0 0 482.4017779083224 1826.3787062683114 0 1826.3787062683114 -331.43484116084437 0 0 0 0 176.58768641977804 2332.3120495439725 0 2332.3120495439725 639.58698299762909 0 0 0 0 -583.40911690331995 1992.1886994909 0 1992.1886994909 2890.0433845463558 0 0 0 0 -6.9723057837252114 41.140562024316154 0 41.140562024316154 55.595954571419895 0 0 0 0 -441.87542534715612 306.4379559203735 0 306.4379559203735 -131.86897690445039 0 0 0 0 -423.1420523973793 335.56296701366136 0 335.56296701366136 -90.889223677731934 0 0 0 0 898.55699269601973 1253.327639439226 0 1253.327639439226 457.2028353534115 0 0 0 0 -532.36013965895108 255.9443148425562 0 255.9443148425562 -83.227085695209098 0 0 0 0 -1208.725016882192 639.0131914295489 0 639.0131914295489 -41.826466748483654 0 0 0 0 -795.37008298018191 513.31707683353306 0 513.31707683353306 -179.4453338119929 0 0 0 0 -1027.3006105963273 656.9920091401425 0 656.9920091401425 -105.55879777905648 0 0 0 0 -886.85890758757887 696.52563569971244 0 696.52563569971244 -119.91060438802924 0 0 0 0 -1014.8798330472346 342.83472704617452 0 342.83472704617452 46.628739611755009 0 0 0 0 -918.90409450954758 475.65229107017512 0 475.65229107017512 -12.576148768270286 0 0 0 0 -845.70299203975446 550.94626701271227 0 550.94626701271227 -113.04368497607356 0 0 0 0 -1568.3856855456761 224.89371967183479 0 224.89371967183479 -223.4823180573876 0 0 0 0 -1374.0417506711383 885.13429833220471 0 885.13429833220471 -112.57209726123983 0 0 0 0 -3622.2322015561367 1073.761931852132 0 1073.761931852132 163.06358519886271 0 0 0 0 -1.2104913303360334 13.641293106232268 0 13.641293106232268 1.1805031521481624 0 0 0 0 4821.9591252327955 1156.0248420770731 0 1156.0248420770731 -1124.4359776898709 0 0 0 0 -4.2854939060863089 31.537341430174735 0 31.537341430174735 16.908499857947305 0 0 0 0 -1429.1237022948626 486.08361649022117 0 486.08361649022117 35.372626852571557 0 0 0 0 374.43411029395065 956.27772855596413 0 956.27772855596413 476.78175502412341 0 0 0 0 2931.8334333454695 973.99464440852171 0 973.99464440852171 -607.35608342437263 0 0 0 0 2300.4096265251865 -810.1126459118932 0 -810.1126459118932 -268.5965539375793 0 0 0 0 482.63764687609364 528.79234612095024 0 528.79234612095024 -197.78910266195453 0 0 0 0 925.0176189779595 806.018426615301 0 806.018426615301 -567.81829618035408 0 0 0 0 -24.015076682765823 30.954048992589776 0 30.954048992589776 -40.593413306547774 0 0 0 0 238.48636937662377 -607.99015797733227 0 -607.99015797733227 -295.18991684338789 0 0 0 0 266.78690033816383 1400.4274353794754 0 1400.4274353794754 191.40463186506531 0 0 0 0 -263.07462626311462 863.3313317775428 0 863.3313317775428 -349.07603410529555 0 0 0 0 -464.6698320802534 841.14868486495834 0 841.14868486495834 -1012.551818536871 0 0 0 0 -305.68332393197488 1002.9031196280239 0 1002.9031196280239 -374.72816885188513 0 0 0 0 -80.274183513844036 456.53818960982335 0 456.53818960982335 -670.36980968623539 0 0 0 0 -1.4908196863575256 36.756510215884305 0 36.756510215884305 -5.5873160863315547 0 0 0 0 316.89344140357571 118.49070266888884 0 118.49070266888884 -328.38214315492951 0 0 0 0 -204.07454304138082 789.0315558445327 0 789.0315558445327 -828.92554660271344 0 0 0 0 466.72586424275869 470.66975053579267 0 470.66975053579267 -572.5729151148953 0 0 0 0 415.45571131420729 253.20975660083877 0 253.20975660083877 -739.60174487737277 0 0 0 0 -22.366609483149603 52.592154863210311 0 52.592154863210311 -64.705379853820531 0 0 0 0 202.7781119892461 195.14911825429954 0 195.14911825429954 -437.97676315921126 0 0 0 0 42.418424798171714 30.046374964252344 0 30.046374964252344 10.785881714140686 0 0 0 0 -180.76062449626625 448.53635283771655 0 448.53635283771655 -556.53172818192343 0 0 0 0 341.18703733720758 50.02636318412533 0 50.02636318412533 -161.77876501283026 0 0 0 0 203.87535083608236 262.14779411927157 0 262.14779411927157 -45.792614794547262 0 0 0 0 7.2345663799561635 76.787889517561325 0 76.787889517561325 -34.44834826245355 0 0 0 0 4.1617605223870058 83.002797712999921 0 83.002797712999921 -10.940447474615524 0 0 0 0 205.12284809304401 276.52712613203039 0 276.52712613203039 -186.91018912661821 0 0 0 0 52.116327005991479 75.408935863774786 0 75.408935863774786 12.035142954629919 0 0 0 0 -6.1837425886277515 18.792974922297049 0 18.792974922297049 31.752187309117481 0 0 0 0 5.7088720892788842 65.357170882783976 0 65.357170882783976 11.163507447316078 0 0 0 0 23.593350809963567 52.213623326622049 0 52.213623326622049 -22.461242052510972 0 0 0 0 -71.116819077367836 112.06157233100726 0 112.06157233100726 -96.416858374488584 0 0 0 0 -1.1327344014134724 12.265588757126807 0 12.265588757126807 -22.190333504612681 0 0 0 0 9.0452470767765298 26.699871345720311 0 26.699871345720311 15.042331071282401 0 0 0 0 -110.52198173642682 105.58984510082792 0 105.58984510082792 33.264625725184487 0 0 0 0 49.941296930570388 24.888780685428628 0 24.888780685428628 -92.878001098398727 0 0 0 0 92.595780548115727 -18.767166785601603 0 -18.767166785601603 -54.614233573524871 0 0 0 0 -40.918495152291143 210.90522271375357 0 210.90522271375357 20.768316772939215 0 0 0 0 -73.337680114316754 186.31605800471084 0 186.31605800471084 14.982423970358468 0 0 0 0 57.381129195389803 148.52418237884353 0 148.52418237884353 -2.9698895895080568 0 0 0 0 101.44374591085943 179.3000771276038 0 179.3000771276038 -43.139682149459986 0 0 0 0 -11.969849940389395 150.52253409849072 0 150.52253409849072 -1.2262881859364825 0 0 0 0 -80.739543552830582 214.9240688156915 0 214.9240688156915 -17.355513719826376 0 0 0 0 -111.70756573995459 196.47680366876466 0 196.47680366876466 34.300009849122944 0 0 0 0 -97.277008337143343 161.95318078933087 0 161.95318078933087 80.399307848264471 0 0 0 0 -65.134806660324102 178.82778111044217 0 178.82778111044217 6.0000041488870011 0 0 0 0 3.4039512191944254 81.520173046715826 0 81.520173046715826 42.035608393263175 0 0 0 0 -32.280370517080883 102.63704447163855 0 102.63704447163855 48.244789578601626 0 0 0 0 -43.740364388373564 95.895508458884251 0 95.895508458884251 53.432667151708301 0 0 0 0 -188.05153997559682 102.06696698969245 0 102.06696698969245 104.8189478494387 0 0 0 0 -116.42468380497303 153.65533424688238 0 153.65533424688238 -57.357387222333728 0 0 0 0 -16.615110032369557 136.38805763251568 0 136.38805763251568 -66.292335215355251 0 0 0 0 -46.368214692512993 204.54505719692872 0 204.54505719692872 3.991465828948094 0 0 0 0 -86.910743160085985 137.24043267735908 0 137.24043267735908 4.1337474771135021 0 0 0 0 -22.043870487652214 64.492338911368847 0 64.492338911368847 53.99736806179736 0 0 0 0 -341.45746078777302 -53.432272850552181 0 -53.432272850552181 318.69655127902661 0 0 0 0 -84.006864562979899 479.73038629188886 0 479.73038629188886 -235.66150536939676 0 0 0 0 -79.271995721559506 420.33736549314563 0 420.33736549314563 -360.45545412643696 0 0 0 0 -251.21589607349597 371.91467236107928 0 371.91467236107928 -142.90777451010217 0 0 0 0 -210.35553045076085 487.66926361734659 0 487.66926361734659 37.048784333528602 0 0 0 0 -580.76023552313563 1376.0799565408051 0 1376.0799565408051 -1151.5951615808808 0 0 0 0 -1180.9451420364712 776.96976838412229 0 776.96976838412229 -175.693978635245 0 0 0 0 -459.29101509042084 409.32939141380848 0 409.32939141380848 -746.2677592816799 0 0 0 0 -561.97837624391832 323.74725133896482 0 323.74725133896482 -36.089634774172737 0 0 0 0 48.25300310755847 214.34844984994925 0 214.34844984994925 -217.72574677154989 0 0 0 0 106.6767070076603 61.477362978555902 0 61.477362978555902 -57.254350333154434 0 0 0 0 -390.09624645323493 12.021287393392413 0 12.021287393392413 166.42038781789597 0 0 0 0 -84.57283963705413 83.225734384472162 0 83.225734384472162 -15.419321657689579 0 0 0 0 11.335702270354432 64.830452260014056 0 64.830452260014056 90.325653357970907 0 0 0 0 141.48298706327478 11.474531434281516 0 11.474531434281516 -9.8108997146682668 0 0 0 0 2.5382749909976781 34.751212475148463 0 34.751212475148463 -6.7436354924772033 0 0 0 0 -26.207447466789745 52.070530629493078 0 52.070530629493078 -31.369202938829403 0 0 0 0 -104.53373397911616 22.134153747799594 0 22.134153747799594 61.87437077206215 0 0 0 0 -93.68128939595772 89.983045307217253 0 89.983045307217253 -8.6596798180835322 0 0 0 0 3.8276179720499215 50.021554765766552 0 50.021554765766552 -38.78846690652265 0 0 0 0 -93.672914342256263 89.599180334813354 0 89.599180334813354 -21.597365653447923 0 0 0 0 -93.145541200995297 51.231209066872722 0 51.231209066872722 5.1642732170685406 0 0 0 0 11.09261530556148 27.903883840860018 0 27.903883840860018 -8.2368603154253321 0 0 0 0 -49.788047490406711 60.264034607034688 0 60.264034607034688 57.938659494486345 0 0 0 0 -30.348284985637292 189.5221424216079 0 189.5221424216079 -203.43070602236958 0 0 0 0 -123.07524589795503 -104.6802913711399 0 -104.6802913711399 290.50452652105378 0 0 0 0 -100.91360051208176 94.840091930476433 0 94.840091930476433 -148.98841654186708 0 0 0 0 -3.9115443196037916 13.293875318800957 0 13.293875318800957 -5.1460713953921244 0 0 0 0 -52.72159739540075 27.020693218847555 0 27.020693218847555 24.267928929770278 0 0 0 0 -14.127222170965979 68.517547963219386 0 68.517547963219386 68.819544422387935 0 0 0 0 -522.17904876195826 257.10534647180248 0 257.10534647180248 13.870857118767162 0 0 0 0 -1.1660573758992427 2.2066569790324593 0 2.2066569790324593 -8.6723480930250183 0 0 0 0 160.28745629176774 -62.114737251645209 0 -62.114737251645209 78.434690610889447 0 0 0 0 -489.54862920178857 250.37333678360301 0 250.37333678360301 -118.82778249423063 0 0 0 0 11.589250045813628 7.9175877792819733 0 7.9175877792819733 -2.563765775165308 0 0 0 0 53.765902818303402 59.000539639069359 0 59.000539639069359 -31.718283007065761 0 0 0 0 -89.658500930003356 91.998183255764161 0 91.998183255764161 -189.61115491226337 0 0 0 0 -292.73620244783524 401.01156486566197 0 401.01156486566197 -51.87863577961889 0 0 0 0 -352.24765500021749 223.74193402348396 0 223.74193402348396 -27.357168415788919 0 0 0 0 8.405973809140562 6.4932767516305887 0 6.4932767516305887 -3.2886151081399611 0 0 0 0 207.58433968183817 263.41358384915634 0 263.41358384915634 -4.1325991137352958 0 0 0 0 -15.68102326335611 344.74451465111088 0 344.74451465111088 -32.190266782796243 0 0 0 0 -393.45821791118942 132.68444233026662 0 132.68444233026662 -199.84339058028434 0 0 0 0 390.29677637910936 -139.96942042483033 0 -139.96942042483033 -319.38818417973198 0 0 0 0 -511.45269975842893 132.01944113834554 0 132.01944113834554 -254.90528257808546 0 0 0 0 304.64910447224975 53.314335292028773 0 53.314335292028773 -70.497535246280677 0 0 0 0 5.3781175876349323 5.4704138474868103 0 5.4704138474868103 -3.591772139075772 0 0 0 0 306.76507601063349 154.71198813973569 0 154.71198813973569 -64.651466938716567 0 0 0 0 133.32635297138768 29.761139993114284 0 29.761139993114284 2.305567219362274 0 0 0 0 -7.3632312801892112 65.652149828149248 0 65.652149828149248 1.0164278551374082 0 0 0 0 0.0234445122332545 102.36256318712412 0 102.36256318712412 -97.746527944054606 0 0 0 0 5.5034762739087455 104.14650805515504 0 104.14650805515504 -82.444510344901403 0 0 0 0 11.942722781110206 52.381489446508695 0 52.381489446508695 38.102449760869547 0 0 0 0 37.121431384293828 141.23319351039709 0 141.23319351039709 -12.002924580635408 0 0 0 0 -20.464591703814222 156.57487452593978 0 156.57487452593978 -145.70388313287731 0 0 0 0 5.9604281934571191 77.985422897449226 0 77.985422897449226 -94.715853754868476 0 0 0 0 -1.1753223674022593 72.927434596831972 0 72.927434596831972 -115.0695602438991 0 0 0 0 -76.014999913808424 113.63279842252996 0 113.63279842252996 -143.613056240888 0 0 0 0 -8.5026795423473231 123.31782727435802 0 123.31782727435802 -174.62635189449975 0 0 0 0 -92.377438413008349 175.08048839710864 0 175.08048839710864 -183.79530042134286 0 0 0 0 6.7945751331608335 74.025170594413112 0 74.025170594413112 -144.31662836723353 0 0 0 0 -29.668284257000778 99.738931701211186 0 99.738931701211186 -155.70936649534588 0 0 0 0 -0.050833709130529314 87.781113436299165 0 87.781113436299165 -186.50977231322031 0 0 0 0 -31.421011969629035 94.087282710732325 0 94.087282710732325 -144.41482960398207 0 0 0 0 -36.170256329991389 17.433347631966171 0 17.433347631966171 26.856539746719136 0 0 0 0 0.44308268625582059 0.1736481962165044 0 0.1736481962165044 -3.1026707846508614 0 0 0 0 16.089527832245636 11.700098038218442 0 11.700098038218442 -9.9450344238031221 0 0 0 0 -16.152020005945815 44.701480416443701 0 44.701480416443701 -25.96920161469825 0 0 0 0 -124.27237277157838 105.52685133419982 0 105.52685133419982 101.00049200981084 0 0 0 0 -21.745538542949362 41.665853029498976 0 41.665853029498976 -23.704767837969484 0 0 0 0 -28.348121057462834 16.777778136969076 0 16.777778136969076 12.572063333685952 0 0 0 0 2.4407702138053082 9.3170016274246166 0 9.3170016274246166 2.9261366591513678 0 0 0 0 31.902805622172309 -242.97839888116687 0 -242.97839888116687 3.8032502106507309 0 0 0 0 -25.164129249489633 0.87156933859841956 0 0.87156933859841956 41.549169154895935 0 0 0 0 3.6428907996844373 -3.4161818683960234 0 -3.4161818683960234 -3.9538284096610923 0 0 0 0 0.08309083164203912 12.943296260681564 0 12.943296260681564 -7.1219352889293077 0 0 0 0 3.0890500380843946 2.7319289959142452 0 2.7319289959142452 0.54451934052072914 0 0 0 0 241.75022387693753 -364.95466177064191 0 -364.95466177064191 552.00861206728587 0 0 0 0 -16.355423543136567 247.83689611846057 0 247.83689611846057 390.56587923985353 0 0 0 0 0.14618931089353282 1.5503576539613277 0 1.5503576539613277 601.03038651786483 0 0 0 0 184.2566152545478 299.10726905010779 0 299.10726905010779 53.456227228787611 0 0 0 0 -357.21485237719025 287.51269415606112 0 287.51269415606112 793.26877394584153 0 0 0 0 -456.88328232361528 87.699211945751813 0 87.699211945751813 398.81793367676437 0 0 0 0 -562.91133300637011 469.61573907321326 0 469.61573907321326 389.7183382820931 0 0 0 0 -28.645662550668931 201.37477015694822 0 201.37477015694822 8.5815070506505435 0 0 0 0 31.548840775265887 54.232457548056146 0 54.232457548056146 90.521183591729951 0 0 0 0 -19.881905346337589 46.984738472153367 0 46.984738472153367 183.2625241416863 0 0 0 0 -7.1718283687660005 -23.750334689953888 0 -23.750334689953888 -244.63201234709231 0 0 0 0 -193.89069794965326 60.561802560659999 0 60.561802560659999 35.689927218321827 0 0 0 0 -130.02209139798651 227.57203403083986 0 227.57203403083986 -307.93071746633359 0 0 0 0 -321.81035349877493 165.69585291847397 0 165.69585291847397 110.40556252008537 0 0 0 0 -96.194848450657446 272.84072041847321 0 272.84072041847321 -47.731761862052736 0 0 0 0 -294.77798624971183 -109.79646105737265 0 -109.79646105737265 768.29300218771823 0 0 0 0 -3.2114446722043795 191.77756941046482 0 191.77756941046482 1.4159438642018358 0 0 0 0 -948.94443994741596 487.48338712449913 0 487.48338712449913 228.07763158090347 0 0 0 0 -970.5165400714759 978.70296305159172 0 978.70296305159172 -726.33636042028229 0 0 0 0 -1312.4080513061926 884.77516450215262 0 884.77516450215262 -203.68585953216825 0 0 0 0 -6.8766642733951358 1.687783040653315 0 1.687783040653315 9.4844331411474698 0 0 0 0 -2.6200182504253462 -147.94527772458969 0 -147.94527772458969 745.85962530539837 0 0 0 0 -751.36617261866922 662.82801642914274 0 662.82801642914274 -491.91236691729864 0 0 0 0 -10.769036028449364 -8.6347255052264416 0 -8.6347255052264416 5.9826417026575882 0 0 0 0 -70.351234696029792 -43.947448883053809 0 -43.947448883053809 -8.3816693088053142 0 0 0 0 -202.26904299299349 74.270048340447829 0 74.270048340447829 307.64436495049631 0 0 0 0 -141.68528110542684 25.675171111364762 0 25.675171111364762 156.54701983340055 0 0 0 0 -0.14224667368398514 121.8548547973005 0 121.8548547973005 -112.99891230138383 0 0 0 0 -1.9839216530691601 0.93378261567690402 0 0.93378261567690402 17.724358815294799 0 0 0 0 -142.57250546151772 272.71245705595356 0 272.71245705595356 -133.55967663648698 0 0 0 0 24.971119653753703 78.607346221113403 0 78.607346221113403 -231.20779553685497 0 0 0 0 21.039966135107079 50.071790003580816 0 50.071790003580816 81.431075566686673 0 0 0 0 -172.72362504171906 -65.879140468490732 0 -65.879140468490732 611.12201176529925 0 0 0 0 -733.72993741736354 251.96947536979496 0 251.96947536979496 -130.05697452200548 0 0 0 0 -126.81092507972608 635.79031829023552 0 635.79031829023552 -1199.0454926919483 0 0 0 0 -320.79807917934522 811.75104838056359 0 811.75104838056359 -1307.3131419321853 0 0 0 0 -669.0924404010002 732.75708671385291 0 732.75708671385291 -1189.4373609132454 0 0 0 0 -337.20792075385543 755.64927031765546 0 755.64927031765546 -1101.7400470917564 0 0 0 0 -390.55223041244608 390.89267460169503 0 390.89267460169503 -189.8155933166272 0 0 0 0 -167.47171560564311 471.80700921774769 0 471.80700921774769 -691.10193986911327 0 0 0 0 -169.3261106730788 20.343548903161718 0 20.343548903161718 9.6197576022796056 0 0 0 0 -92.969398931356409 -77.992496228376694 0 -77.992496228376694 -295.67114801242133 0 0 0 0 -101.20582695149889 8.3978179378348727 0 8.3978179378348727 10.353371156058337 0 0 0 0 -218.97099660264576 -10.433683599483629 0 -10.433683599483629 173.56046627255273 0 0 0 0 -52.778135418011843 -5.823598393686467 0 -5.823598393686467 21.501920916976644 0 0 0 0 -36.053483144349158 25.792004316739053 0 25.792004316739053 -45.314000261304386 0 0 0 0 -108.39089521663118 61.975212022749474 0 61.975212022749474 -757.10218092350624 0 0 0 0 -172.3082947912626 0.69993100829742616 0 0.69993100829742616 -40.742328714957694 0 0 0 0 -86.832621235248126 22.751030216287361 0 22.751030216287361 -1.4793760234362594 0 0 0 0 -249.61717652348671 -51.594998110478627 0 -51.594998110478627 213.39917504270852 0 0 0 0 -81.944779090238001 5.71059091049068 0 5.71059091049068 10.891766976556141 0 0 0 0 -28.467813083838337 -98.97419869134319 0 -98.97419869134319 -1.1436375630437396 0 0 0 0 -66.460227674630005 11.356305827168399 0 11.356305827168399 14.993352989735286 0 0 0 0 -92.046716118497869 15.912371312098969 0 15.912371312098969 3.5911125418648524 0 0 0 0 -8.245276036803034 -8.6633032593133947 0 -8.6633032593133947 5.9887683914195122 0 0 0 0 39.783417621452827 -30.678284430046915 0 -30.678284430046915 -17.951791926940132 0 0 0 0 -40.618249728224328 10.35869766664473 0 10.35869766664473 -55.473742109970772 0 0 0 0 52.27983967011096 142.5835059916426 0 142.5835059916426 11.334803931858914 0 0 0 0 -43.722096523424625 -228.06278773318991 0 -228.06278773318991 -298.57609077671077 0 0 0 0 -92.036634753167164 -360.4191655140894 0 -360.4191655140894 -166.43113768150215 0 0 0 0 -115.76980750755683 149.83120732897805 0 149.83120732897805 49.369914691909798 0 0 0 0 -11.244113176696036 0.96463243294748224 0 0.96463243294748224 -0.71018539589914553 0 0 0 0 -114.3494092777928 131.72605705491333 0 131.72605705491333 210.35541980572452 0 0 0 0 -101.93867694926297 21.469172914990025 0 21.469172914990025 -6.4706368833783685 0 0 0 0 12.837804013428467 80.626374602568831 0 80.626374602568831 39.723570751419174 0 0 0 0 -58.400945169230909 107.1240285602762 0 107.1240285602762 34.29850798148982 0 0 0 0 -64.850349704388009 14.713947116226052 0 14.713947116226052 1.6770189872537777 0 0 0 0 -26.747782734095381 236.62628582839534 0 236.62628582839534 387.05717906745122 0 0 0 0 -54.375764771504237 173.49718168250001 0 173.49718168250001 243.07000629372487 0 0 0 0 -117.88248110111635 289.80728789229397 0 289.80728789229397 446.6283678124455 0 0 0 0 -1172.3177473768055 301.55451611214812 0 301.55451611214812 713.49410874095338 0 0 0 0 -179.53998771500301 26.764622164766479 0 26.764622164766479 539.21918676102359 0 0 0 0 -834.0204543191594 -79.72529584824224 0 -79.72529584824224 826.08793216379854 0 0 0 0 -22.786489780147974 9.8000456499470943 0 9.8000456499470943 -0.89801230538106225 0 0 0 0 -624.03027581746483 305.05654798145406 0 305.05654798145406 299.76506068586968 0 0 0 0 -899.16283273915542 761.83788753074623 0 761.83788753074623 540.02338749902992 0 0 0 0 -2140.4326216459745 1824.3826197485905 0 1824.3826197485905 -831.7040474012465 0 0 0 0 -204.80359682204607 -63.90725739271511 0 -63.90725739271511 -1504.9812100808831 0 0 0 0 -1850.7231294748517 507.08044111606796 0 507.08044111606796 -669.5979446653364 0 0 0 0 -28.069016161742184 -27.93291505948946 0 -27.93291505948946 -722.81367224522501 0 0 0 0 -354.30392193744592 766.7639176732373 0 766.7639176732373 -1350.7595649763825 0 0 0 0 -368.86370832039393 1407.2733385665342 0 1407.2733385665342 -3194.2562273557478 0 0 0 0 -72.201946955603489 814.85173520116587 0 814.85173520116587 -1347.3152295515433 0 0 0 0 -32.196680606282939 58.832619286627335 0 58.832619286627335 -8.7031451824669777 0 0 0 0 -354.30514698389379 1033.8485440083496 0 1033.8485440083496 -1351.6136222030837 0 0 0 0 -66.155952983917047 55.154915270428077 0 55.154915270428077 3.30065534614904 0 0 0 0 -845.40417930667536 449.30697656485427 0 449.30697656485427 137.50181644057739 0 0 0 0 -29.115640251235163 34.782621678328724 0 34.782621678328724 10.994433472951641 0 0 0 0 -76.535989806445286 10.774776679591014 0 10.774776679591014 155.80764180306869 0 0 0 0 -46.872614620297099 38.554913171756198 0 38.554913171756198 10.433159603648164 0 0 0 0 -28.347663035545338 32.756872650028527 0 32.756872650028527 58.804962844806141 0 0 0 0 -27.083969283443366 21.901687584178035 0 21.901687584178035 10.198066123150056 0 0 0 0 -88.869326795030389 53.931486996747068 0 53.931486996747068 2.7985434617712288 0 0 0 0 -483.4836635332465 -3.9137228346826305 0 -3.9137228346826305 166.98995619355264 0 0 0 0 -45.730490146161173 -26.24665500302217 0 -26.24665500302217 1.2837876309640706 0 0 0 0 -47.369882420933322 42.551915352629635 0 42.551915352629635 -42.242006265907548 0 0 0 0 -88.320877169200685 42.600074269561446 0 42.600074269561446 -1.0612867537420243 0 0 0 0 -258.78830676998405 92.7375552797821 0 92.7375552797821 214.60557526571074 0 0 0 0 -290.26495158032503 -24.229856052004834 0 -24.229856052004834 -55.155914168790332 0 0 0 0 -391.94627075588505 170.70432034489932 0 170.70432034489932 -23.786600831517717 0 0 0 0 -394.72070013263874 179.32915440600482 0 179.32915440600482 -69.617817351099802 0 0 0 0 -404.29209648851247 157.66777016950073 0 157.66777016950073 -112.68878090771614 0 0 0 0 -234.33527062716894 116.4555191751715 0 116.4555191751715 -136.80310767362243 0 0 0 0 -238.30475749309289 52.822791871780282 0 52.822791871780282 -46.047996256005717 0 0 0 0 -306.08653427863828 99.238797082711244 0 99.238797082711244 -71.26573581242701 0 0 0 0 -264.15797312246286 143.38927236705786 0 143.38927236705786 -88.403364501107717 0 0 0 0 -182.09484098584471 78.621931860383484 0 78.621931860383484 -84.484581360622542 0 0 0 0 -186.68943063159531 71.441494889731985 0 71.441494889731985 -38.292103068786673 0 0 0 0 -167.89387845017336 100.83336767612491 0 100.83336767612491 -43.710585396576789 0 0 0 0 -113.76874973282611 10.814442395399965 0 10.814442395399965 -37.863099939189851 0 0 0 0 -89.255858297316081 25.364707952583558 0 25.364707952583558 -34.321817838819697 0 0 0 0 -83.25931514883996 48.482393929516547 0 48.482393929516547 -79.25161889118317 0 0 0 0 -111.98669256460016 42.101498353647912 0 42.101498353647912 -6.9704658195259981 0 0 0 0 -195.64915692960494 110.22524032814545 0 110.22524032814545 -35.096127168246312 0 0 0 0 -110.21912780789171 49.52467396469001 0 49.52467396469001 -61.350693250307813 0 0 0 0 -97.939775015278428 97.024583005328168 0 97.024583005328168 -71.43004853092134 0 0 0 0 -138.60254232092484 59.01030816605271 0 59.01030816605271 -36.839007211965509 0 0 0 0 -207.20291007835476 87.109420530829084 0 87.109420530829084 -71.972725267929491 0 0 0 0 -305.05594696343906 124.6280931923684 0 124.6280931923684 -42.379462336197321 0 0 0 0 -297.0619029475838 154.82564834972618 0 154.82564834972618 -105.78620897163637 0 0 0 0 -422.86900214588968 148.60822780413582 0 148.60822780413582 -35.606234203121858 0 0 0 0 -421.28173395409249 180.28967453421501 0 180.28967453421501 -101.18526916114206 0 0 0 0 358.65916683796968 147.08485648616988 0 147.08485648616988 19.513212886668043 0 0 0 0 364.22254548578348 137.98732774746895 0 137.98732774746895 8.6541038230352569 0 0 0 0 -52.908384737515007 57.865839265694376 0 57.865839265694376 -31.127915641947766 0 0 0 0 -31.001090468246332 32.146774388610112 0 32.146774388610112 -15.966236686721174 0 0 0 0 -46.064976898043824 20.331129177895491 0 20.331129177895491 12.868745214742376 0 0 0 0 -21.601833659995464 30.113003698832472 0 30.113003698832472 -48.359238058124902 0 0 0 0 -21.635015813757491 27.208271881216206 0 27.208271881216206 -41.782845312583959 0 0 0 0 -32.153746853888151 27.005088350881124 0 27.005088350881124 -56.526706285454566 0 0 0 0 -32.12767438722949 26.151581577330944 0 26.151581577330944 -28.641455422417494 0 0 0 0 -12.080072433122503 1.073033409563223 0 1.073033409563223 0.99044569260172466 0 0 0 0 35.76212058000965 47.813031236262759 0 47.813031236262759 -44.750069847599661 0 0 0 0 67.392950838344404 35.4848654208472 0 35.4848654208472 -55.358091583679197 0 0 0 0 -18.462879557489941 37.391974546902929 0 37.391974546902929 -25.226792113739066 0 0 0 0 186.37771421558136 176.85370513572343 0 176.85370513572343 112.56261680211173 0 0 0 0 41.427521958707075 6.46964516157459 0 6.46964516157459 3.565391757292673 0 0 0 0 103.9592788873706 79.962461627204902 0 79.962461627204902 30.486532743438147 0 0 0 0 12.473412077228062 -1.2803284498961318 0 -1.2803284498961318 -8.3548936733126311 0 0 0 0 37.492019353434443 19.92386426057783 0 19.92386426057783 -42.40349045797484 0 0 0 0 -60.967477846003021 30.292788631297299 0 30.292788631297299 31.97661746176891 0 0 0 0 16.56470369046292 -2.8101174382172758 0 -2.8101174382172758 15.375984528916888 0 0 0 0 -60.610186294827145 44.184544563337113 0 44.184544563337113 -35.57916695784661 0 0 0 0 -85.002733366680332 81.835371521025081 0 81.835371521025081 6.3300820308504626 0 0 0 0 -94.326531135800906 108.40788525640528 0 108.40788525640528 -42.692849428509362 0 0 0 0 -132.35626961632079 78.964025781482633 0 78.964025781482633 17.247078336775303 0 0 0 0 523.25042525272875 122.44185903708421 0 122.44185903708421 4.9081246593559626 0 0 0 0 387.19875051005511 179.87693349285109 0 179.87693349285109 -21.523438004325726 0 0 0 0 384.98065789233806 196.12209853288277 0 196.12209853288277 46.81765687870211 0 0 0 0 -343.83919794319081 121.85951345843932 0 121.85951345843932 -205.03790579607448 0 0 0 0 580.96478157657293 246.43406191480972 0 246.43406191480972 -28.887249078703462 0 0 0 0 0.20578464217424397 -0.12738304429890945 0 -0.12738304429890945 2.0946797014622121 0 0 0 0 -188.10944780877617 173.3817988357041 0 173.3817988357041 -294.87915187441104 0 0 0 0 -502.8092960237409 800.83666732117126 0 800.83666732117126 -376.38990555693454 0 0 0 0 -419.54092369167483 508.46856058089907 0 508.46856058089907 -124.41809467368876 0 0 0 0 -142.01294248068007 202.47095693978918 0 202.47095693978918 161.73999935482425 0 0 0 0 384.99103780234509 265.62804877552571 0 265.62804877552571 55.307042525673751 0 0 0 0 -44.51306715275561 28.894309808976942 0 28.894309808976942 1.5366041155642733 0 0 0 0 -671.0758682856831 753.84428000329353 0 753.84428000329353 -106.36162940868962 0 0 0 0 -388.31259694115579 951.05299370806461 0 951.05299370806461 -945.76234000365366 0 0 0 0 -501.82820974753122 779.46347622999019 0 779.46347622999019 -392.68260848807404 0 0 0 0 -672.25868527674902 869.60543234235956 0 869.60543234235956 -734.07445747985912 0 0 0 0 -724.41657801938436 514.27768895278541 0 514.27768895278541 -980.86904050767771 0 0 0 0 -22.314929855842919 51.489284359114322 0 51.489284359114322 -66.209656992066925 0 0 0 0 -439.95031839689909 789.05098108416132 0 789.05098108416132 -605.3668721630238 0 0 0 0 -499.02146466937847 798.19058897620562 0 798.19058897620562 -769.19886970265361 0 0 0 0 -493.90737462704419 830.52860882150708 0 830.52860882150708 -624.19067933074621 0 0 0 0 -448.65814110245628 944.71692305104625 0 944.71692305104625 -723.47141004711739 0 0 0 0 -505.87213085409167 959.98259866773151 0 959.98259866773151 -681.48163191325148 0 0 0 0 -825.87996049244975 1141.228141686508 0 1141.228141686508 -768.99935725468094 0 0 0 0 -561.71814865885244 909.46188738279307 0 909.46188738279307 -572.17929260162055 0 0 0 0 -430.64114719443023 888.17612188315525 0 888.17612188315525 -970.35160672594793 0 0 0 0 -763.33342226190143 976.41296962783963 0 976.41296962783963 -945.23631506019592 0 0 0 0 -406.08996955040493 739.96798071898957 0 739.96798071898957 -638.05518699906861 0 0 0 0 -354.13513979644631 728.71930449130014 0 728.71930449130014 -685.64241965505062 0 0 0 0 -116.66694533323971 303.79419145852262 0 303.79419145852262 -677.31023502226162 0 0 0 0 -267.82299983964185 262.09302461460902 0 262.09302461460902 -304.90397708531236 0 0 0 0 -264.68643616379268 552.64292786738952 0 552.64292786738952 -703.07947198639886 0 0 0 0 -203.77900742937345 395.55706296685821 0 395.55706296685821 -1243.2350725315046 0 0 0 0 -654.32768984045833 813.50694637988636 0 813.50694637988636 -975.84504738626856 0 0 0 0 -927.48725296859629 327.46239763529593 0 327.46239763529593 -1777.6838530968234 0 0 0 0 -2264.3126353827392 1269.1930805387092 0 1269.1930805387092 -576.54882275364071 0 0 0 0 -667.73747837954033 1282.2699230148737 0 1282.2699230148737 -1832.1914628953818 0 0 0 0 107.15994209794735 82.313618553198467 0 82.313618553198467 -411.80720217386988 0 0 0 0 31.663381786435281 74.746233908821054 0 74.746233908821054 67.732317741207453 0 0 0 0 3.9225721040378403 11.695448898147006 0 11.695448898147006 -19.235268691029944 0 0 0 0 -872.92538864002563 1763.095112731462 0 1763.095112731462 -1957.9129387873545 0 0 0 0 -1997.8107168534625 1409.8912929291 0 1409.8912929291 -912.99931575190567 0 0 0 0 -746.13448427325056 1399.3996930481662 0 1399.3996930481662 -1158.2635231488027 0 0 0 0 46.472914022508434 54.662061583030052 0 54.662061583030052 53.79435582123557 0 0 0 0 24.603140787767188 203.20989449431727 0 203.20989449431727 51.507455828657839 0 0 0 0 284.22618037459324 -33.663097550299426 0 -33.663097550299426 29.385601548463455 0 0 0 0 251.90353235826478 110.50713005091529 0 110.50713005091529 22.036173314780171 0 0 0 0 -127.16500934648502 127.51099355135375 0 127.51099355135375 87.877576113824034 0 0 0 0 71.073722510482185 59.935262791696005 0 59.935262791696005 48.269379873505159 0 0 0 0 -26.646658201978425 93.640278605231288 0 93.640278605231288 48.19596711648046 0 0 0 0 26.212220342365526 117.5033638864536 0 117.5033638864536 41.533570096056792 0 0 0 0 150.43935251110815 101.48282154761546 0 101.48282154761546 28.563291736842075 0 0 0 0 27.038642498857371 106.71514703551657 0 106.71514703551657 67.469846346939448 0 0 0 0 104.88682483622688 94.686305519557209 0 94.686305519557209 -22.825835830328288 0 0 0 0 48.038007495939382 117.44705373439501 0 117.44705373439501 45.587361788479029 0 0 0 0 48.246973802757566 102.28737299614295 0 102.28737299614295 3.2853314418753143 0 0 0 0 -7.9593405524210539 134.17082534967267 0 134.17082534967267 -9.5196334991633194 0 0 0 0 -2.1013272313086979 94.681764627453902 0 94.681764627453902 6.9702475025440549 0 0 0 0 -207.03263992346547 108.36055622750064 0 108.36055622750064 -31.533140350104077 0 0 0 0 -66.633100848805043 117.80929340646253 0 117.80929340646253 42.101177487842506 0 0 0 0 -48.625738811525508 -3.2444198357245213 0 -3.2444198357245213 39.121699641501664 0 0 0 0 -582.65851178835874 475.86460912475013 0 475.86460912475013 -313.76469853866729 0 0 0 0 -724.64723315958327 537.15036222660638 0 537.15036222660638 -273.9782581498439 0 0 0 0 -1081.0612285200204 616.8490689954142 0 616.8490689954142 -236.76395445675007 0 0 0 0 327.59386268361413 804.13698217685305 0 804.13698217685305 567.17873769784273 0 0 0 0 422.12515926727065 922.09450625498721 0 922.09450625498721 498.35840000472672 0 0 0 0 373.55172956382739 1106.1741652582714 0 1106.1741652582714 804.48864730434434 0 0 0 0 433.97699960996397 1050.4949323499568 0 1050.4949323499568 630.5305266403011 0 0 0 0 456.12382332263951 1041.8797979765277 0 1041.8797979765277 418.96274690041901 0 0 0 0 355.97562016916345 686.65063877413195 0 686.65063877413195 317.04165364066375 0 0 0 0 744.9903803395573 910.10826626084599 0 910.10826626084599 345.29502738189331 0 0 0 0 585.36204671689484 572.99335168184189 0 572.99335168184189 195.45529134468961 0 0 0 0 472.86203044482681 471.33452445160947 0 471.33452445160947 117.75777219812153 0 0 0 0 1019.9503242006613 820.85117366811755 0 820.85117366811755 171.20606096194388 0 0 0 0 599.32147517472913 643.73767167671576 0 643.73767167671576 96.720454581241938 0 0 0 0 975.42132399799902 251.51553097188889 0 251.51553097188889 -43.991905913222581 0 0 0 0 513.39369844949397 324.57613775179925 0 324.57613775179925 82.381576991676411 0 0 0 0 529.75972248685139 247.03974124452361 0 247.03974124452361 17.833813567507605 0 0 0 0 222.35189374590482 215.28896566332332 0 215.28896566332332 107.73553626796638 0 0 0 0 146.98913517469919 180.31276433102221 0 180.31276433102221 82.359665119976853 0 0 0 0 275.74187232836266 171.07477575842495 0 171.07477575842495 51.299905867526832 0 0 0 0 119.71761013928335 214.30914311982633 0 214.30914311982633 73.135417037214211 0 0 0 0 57.543642826800351 130.30552081645146 0 130.30552081645146 67.195795267864014 0 0 0 0 179.19184262215276 153.49688977199548 0 153.49688977199548 41.632454554011929 0 0 0 0 212.24691104326121 248.32189231514349 0 248.32189231514349 58.297950119755114 0 0 0 0 100.61046694580727 282.14568578793478 0 282.14568578793478 139.33729849333758 0 0 0 0 244.82762676198035 483.87455642309942 0 483.87455642309942 239.75695476672263 0 0 0 0 325.26835340481375 422.90974495879118 0 422.90974495879118 208.20848607478547 0 0 0 0 161.33007751860714 570.32708610485861 0 570.32708610485861 359.70292880067427 0 0 0 0 424.83342641704076 744.61403856822653 0 744.61403856822653 345.94517009792617 0 0 0 0 73.128546544176061 314.07039395988249 0 314.07039395988249 121.60919647500123 0 0 0 0 248.09310872905189 576.50458257025457 0 576.50458257025457 309.50215614804983 0 0 0 0 -14.528653637869866 521.55392301540996 0 521.55392301540996 384.91575060018658 0 0 0 0 289.43991739294142 734.71363093573746 0 734.71363093573746 471.69268825999461 0 0 0 0 392.62822081381455 634.22292811720399 0 634.22292811720399 311.04185066697391 0 0 0 0 394.64800548117637 811.64196409314172 0 811.64196409314172 485.32811260847666 0 0 0 0 343.5923345174524 679.90457817816787 0 679.90457817816787 523.34585260660242 0 0 0 0 25.593768201972125 52.594781091167533 0 52.594781091167533 32.194250730841304 0 0 0 0 87.977924001650536 141.72218496927962 0 141.72218496927962 -22.397403632698115 0 0 0 0 -6.1975796804524066 8.1370056959572139 0 8.1370056959572139 -0.46076381736530436 0 0 0 0 -138.21826722714468 138.39969864988961 0 138.39969864988961 721.87661619305436 0 0 0 0 181.90964982230071 484.17997872113301 0 484.17997872113301 116.86811475409195 0 0 0 0 123.83015126330429 533.13760395965801 0 533.13760395965801 486.00434957679681 0 0 0 0 415.90279453476978 640.24991543493343 0 640.24991543493343 395.39040135859977 0 0 0 0 -50.833985564328032 221.18056610591157 0 221.18056610591157 357.33794580106769 0 0 0 0 62.096639371950005 230.15772627929255 0 230.15772627929255 -439.75249857264862 0 0 0 0 -73.11338345069089 35.516678520449204 0 35.516678520449204 121.00243591051549 0 0 0 0 -2.5634179302706457 1.4981203683764761 0 1.4981203683764761 -0.74745963838870466 0 0 0 0 26.635891969082877 51.776636711772881 0 51.776636711772881 8.2709784492762992 0 0 0 0 -117.18075828845031 301.08669187642226 0 301.08669187642226 -83.717707947427698 0 0 0 0 -197.03947519692883 153.41800125472582 0 153.41800125472582 64.391819360258523 0 0 0 0 -215.78134193668666 364.60002328539849 0 364.60002328539849 157.85169656831567 0 0 0 0 -45.036015894984303 59.798220227816273 0 59.798220227816273 -49.179405714239692 0 0 0 0 65.451205487785046 208.3652237451679 0 208.3652237451679 -205.39479696060152 0 0 0 0 99.795321981335292 129.09055218909089 0 129.09055218909089 -62.911052361290785 0 0 0 0 6.9186811560939532 211.95064988779268 0 211.95064988779268 -19.702352583088214 0 0 0 0 20.522725019065547 231.54856580271371 0 231.54856580271371 -31.90327617310686 0 0 0 0 58.299381463594898 83.156623296334217 0 83.156623296334217 39.375847639380424 0 0 0 0 44.755909530867939 166.8827384063261 0 166.8827384063261 -58.807735179223528 0 0 0 0 100.40809683469706 133.81061939789652 0 133.81061939789652 -59.846992089109335 0 0 0 0 1.5865448332042433 174.39093276329368 0 174.39093276329368 -44.808112799284572 0 0 0 0 -14.061398155336065 89.850030773093749 0 89.850030773093749 64.670672246735194 0 0 0 0 10.322006344998954 108.08727528167219 0 108.08727528167219 32.866191650478868 0 0 0 0 32.593512874471344 46.123314168982688 0 46.123314168982688 12.289699610206299 0 0 0 0 39.930530732526677 51.433678618668637 0 51.433678618668637 15.938903482732712 0 0 0 0 42.991160305571555 80.117552918013615 0 80.117552918013615 26.042625041939246 0 0 0 0 36.650675094861072 93.453796582805808 0 93.453796582805808 52.353566587218666 0 0 0 0 47.943401474476559 116.16910697614003 0 116.16910697614003 -51.188774715232285 0 0 0 0 2.6667613174175244 11.841968616645431 0 11.841968616645431 28.764664468385263 0 0 0 0 47.73627647140529 74.61569050388789 0 74.61569050388789 -20.873541914581438 0 0 0 0 41.440895914611076 41.440953370345071 0 41.440953370345071 -19.18638380485811 0 0 0 0 17.788899806682764 78.847024134398993 0 78.847024134398993 5.2765748915266215 0 0 0 0 27.311763534860802 68.063984085019911 0 68.063984085019911 -31.0036049575574 0 0 0 0 -0.059855447994777933 62.869921168472501 0 62.869921168472501 -182.2392508815683 0 0 0 0 45.27562216964435 42.533313171920156 0 42.533313171920156 -88.097029524698314 0 0 0 0 15.511906958425243 34.117244840734202 0 34.117244840734202 11.566943820696906 0 0 0 0 19.080175452887488 41.09217658776106 0 41.09217658776106 19.041959609283367 0 0 0 0 14.949177325185687 21.455104655912777 0 21.455104655912777 3.7609431349829379 0 0 0 0 35.616556026943726 39.739764194484451 0 39.739764194484451 2.3048584009811748 0 0 0 0 -107.38683897741488 66.624098789418809 0 66.624098789418809 5.3732516354729611 0 0 0 0 -182.98207602447656 66.742996678258351 0 66.742996678258351 15.669829737802502 0 0 0 0 -21.752755312509031 89.49485810804353 0 89.49485810804353 17.475634474036099 0 0 0 0 -135.32466394587937 103.15274330973762 0 103.15274330973762 91.654564162730821 0 0 0 0 -204.88441870956012 59.72728133470082 0 59.72728133470082 58.928821396578314 0 0 0 0 -197.752224878368 54.809337528546166 0 54.809337528546166 6.5220721919176867 0 0 0 0 -254.48892279069696 303.30738087141071 0 303.30738087141071 -346.06294688765774 0 0 0 0 -234.61817177548801 98.682271268007753 0 98.682271268007753 10.253564740851289 0 0 0 0 -26.844255042943871 -14.54944305252755 0 -14.54944305252755 32.339935224302963 0 0 0 0 -205.10719055456866 87.960157723893644 0 87.960157723893644 -8.6043860642821528 0 0 0 0 -229.44733622456897 71.256707579925205 0 71.256707579925205 24.949568342562998 0 0 0 0 -194.7358390622685 57.487765596457393 0 57.487765596457393 12.114488755265484 0 0 0 0 8.4360709432512522 97.752024596506089 0 97.752024596506089 -20.521884876116019 0 0 0 0 67.412565637707303 174.13462059308222 0 174.13462059308222 30.901868813234614 0 0 0 0 91.165551339407102 130.73653407372331 0 130.73653407372331 -40.070051935659649 0 0 0 0 -2.3807639650672172 31.715399397967616 0 31.715399397967616 -1.4910351723533033 0 0 0 0 -46.477415166213177 164.56257305306644 0 164.56257305306644 124.35061864088584 0 0 0 0 37.650705352658406 147.71959218937263 0 147.71959218937263 -108.59190641128953 0 0 0 0 -151.94612412966671 398.73479546448652 0 398.73479546448652 -215.8387607531331 0 0 0 0 57.734831495690742 196.31876425881637 0 196.31876425881637 -54.958913946873508 0 0 0 0 80.265958779447828 243.52961602426512 0 243.52961602426512 -96.367758309170313 0 0 0 0 86.17560129663616 165.43833432577958 0 165.43833432577958 -172.75776118629437 0 0 0 0 51.972687113870052 165.82270965656062 0 165.82270965656062 -126.79098846134002 0 0 0 0 196.35545292435563 120.7386559608276 0 120.7386559608276 -240.17766793251212 0 0 0 0 165.78323514139629 183.49879512329062 0 183.49879512329062 -327.7406763116378 0 0 0 0 -338.20793494221289 108.99385647157033 0 108.99385647157033 245.43130524287699 0 0 0 0 111.71067640339606 107.99813944386551 0 107.99813944386551 -153.1108486922094 0 0 0 0 15.764128593803093 43.254299324902121 0 43.254299324902121 7.8768333576383611 0 0 0 0 189.79584364139009 847.40583793856058 0 847.40583793856058 -748.27775207657396 0 0 0 0 208.13206887135311 213.7864319154105 0 213.7864319154105 -289.67303948156041 0 0 0 0 -28.10166675968339 150.84528997305654 0 150.84528997305654 -6.9349069610691458 0 0 0 0 -1346.3927976533341 90.26650605116447 0 90.26650605116447 107.470758902753 0 0 0 0 31.829025752576328 51.719670231701812 0 51.719670231701812 4.3557848000545363 0 0 0 0 -211.11228755396223 562.34188887568598 0 562.34188887568598 -462.85538879667001 0 0 0 0 386.03077606906299 -48.573954645224148 0 -48.573954645224148 -41.573705369766685 0 0 0 0 -346.8863867131804 307.53982559178257 0 307.53982559178257 130.66694244230166 0 0 0 0 -35.949679039080017 142.46446356915015 0 142.46446356915015 -22.245242298455707 0 0 0 0 -582.23813938199601 -121.80695003947039 0 -121.80695003947039 584.8232419884298 0 0 0 0 -625.13626595281312 227.97973353730777 0 227.97973353730777 195.10145357673173 0 0 0 0 -531.81265920776787 390.79046843612741 0 390.79046843612741 101.31184918370855 0 0 0 0 -425.5191842327331 213.68307194151566 0 213.68307194151566 190.77639895986067 0 0 0 0 -466.42511933074638 194.81151880870311 0 194.81151880870311 194.87512794829672 0 0 0 0 -256.7943132960354 -87.306651749269804 0 -87.306651749269804 141.89260450519214 0 0 0 0 -564.45469784769375 -98.902994794756523 0 -98.902994794756523 149.07894779449998 0 0 0 0 -259.62810976616674 97.109636084562226 0 97.109636084562226 38.028662824930507 0 0 0 0 -249.9985201285017 -136.70873431811196 0 -136.70873431811196 -807.72421277266403 0 0 0 0 -1061.5263884346095 -250.56605844203295 0 -250.56605844203295 227.6562432146311 0 0 0 0 -1047.0762723399203 478.24120680288615 0 478.24120680288615 180.03373753024789 0 0 0 0 -1411.1483629719364 17.712417583301431 0 17.712417583301431 370.21963239088655 0 0 0 0 3.0925281534699138 -2.2956939382212198 0 -2.2956939382212198 -0.52156804086115471 0 0 0 0 233.9195962724425 202.68501177852158 0 202.68501177852158 -322.25024189072428 0 0 0 0 -1953.9289514628981 -737.76379842673487 0 -737.76379842673487 177.14749907389341 0 0 0 0 -1340.7059811977015 -607.21736826449342 0 -607.21736826449342 198.10629207504098 0 0 0 0 -2263.621582379159 -38.853881850001926 0 -38.853881850001926 368.4177630757622 0 0 0 0 -1118.3472825664867 874.47431174165831 0 874.47431174165831 46.346421104026376 0 0 0 0 -11.018510847607104 -230.70573192395386 0 -230.70573192395386 -783.6191702344513 0 0 0 0 -13.814035710296594 -176.13116538483155 0 -176.13116538483155 1045.1533516533964 0 0 0 0 209.70627496683665 122.07981220090005 0 122.07981220090005 391.02217013412155 0 0 0 0 -57.33805502742689 1463.1185077333939 0 1463.1185077333939 1805.9949553414626 0 0 0 0 -11.543661458951977 224.69466204291373 0 224.69466204291373 194.09067658172137 0 0 0 0 -1320.0049336793891 -424.78991915736697 0 -424.78991915736697 424.46738282614388 0 0 0 0 -1136.6192111948276 -639.47231032088166 0 -639.47231032088166 663.26068101878627 0 0 0 0 -922.97946994406448 237.43791287606291 0 237.43791287606291 1146.7237626838032 0 0 0 0 -1496.7097429240043 -601.40235933337681 0 -601.40235933337681 598.09064837350161 0 0 0 0 -1041.7043518204591 -490.29407143271601 0 -490.29407143271601 -797.82257489685435 0 0 0 0 -44.206180236256714 60.47314001353476 0 60.47314001353476 55.321756304545204 0 0 0 0 -1374.6993796986717 466.05910299416428 0 466.05910299416428 -8.0262060957611538 0 0 0 0 759.6283502446604 59.204814936092589 0 59.204814936092589 -20.378150278746034 0 0 0 0 8.7311118122906919 193.45399139438086 0 193.45399139438086 73.39294505957514 0 0 0 0 10.828322895879325 138.9889326155313 0 138.9889326155313 72.246241163228405 0 0 0 0 65.41175631119404 87.823903088283259 0 87.823903088283259 14.273312242818065 0 0 0 0 35.931440693543379 38.872277958356989 0 38.872277958356989 93.592792413799913 0 0 0 0 686.2935748010932 268.38750392350994 0 268.38750392350994 15.088364081512736 0 0 0 0 42.621995624751435 92.084197118763768 0 92.084197118763768 254.05936327231348 0 0 0 0 21.39895904622972 222.84809073552697 0 222.84809073552697 298.35014550418191 0 0 0 0 49.202522419070306 174.63664831887843 0 174.63664831887843 46.858669901012718 0 0 0 0 124.85228081090213 198.90887587079223 0 198.90887587079223 68.567130417582575 0 0 0 0 87.499759987333505 198.35267647613597 0 198.35267647613597 130.68477426852459 0 0 0 0 75.074299634107433 84.976646903829419 0 84.976646903829419 15.542758132854061 0 0 0 0 69.408796053874539 146.72172865185712 0 146.72172865185712 70.467599567173238 0 0 0 0 43.987094393202824 66.197884202528456 0 66.197884202528456 -2.9175361842574432 0 0 0 0 34.462020930688595 62.543981551003526 0 62.543981551003526 103.39742436037113 0 0 0 0 93.496575299821416 259.50038711532591 0 259.50038711532591 81.995279731187111 0 0 0 0 364.67743806651561 432.4475351758756 0 432.4475351758756 493.13579029812536 0 0 0 0 -236.55041705389522 161.64024513259847 0 161.64024513259847 102.86800975617371 0 0 0 0 1639.9720219563751 340.38439697047033 0 340.38439697047033 -580.26249173959513 0 0 0 0 -2.7970148048509884 -0.044503064159329142 0 -0.044503064159329142 42.241675434640626 0 0 0 0 87.447789513651514 437.16303485516437 0 437.16303485516437 1039.5957494949998 0 0 0 0 -74.745613499602769 75.005702993715204 0 75.005702993715204 -60.377259827761918 0 0 0 0 -707.60328948675306 -45.051034809128396 0 -45.051034809128396 296.87354545932067 0 0 0 0 -347.88505594732123 320.52023911359856 0 320.52023911359856 607.27380806303881 0 0 0 0 -61.494673884633812 227.73704030917284 0 227.73704030917284 94.798505631533772 0 0 0 0 33.676594423130155 210.87113786448754 0 210.87113786448754 85.952676484868107 0 0 0 0 2620.4451035110542 1209.7395337400199 0 1209.7395337400199 -931.96551203168656 0 0 0 0 -0.35724550764435037 4.8621354847892064 0 4.8621354847892064 13.89113407862008 0 0 0 0 -883.85967083965761 1606.8657924317504 0 1606.8657924317504 703.10481663944665 0 0 0 0 -536.53941940175355 1561.9442840371412 0 1561.9442840371412 -368.23947853444952 0 0 0 0 -1070.3455743407812 2678.6017013695891 0 2678.6017013695891 -1448.2289129197047 0 0 0 0 -347.222788085297 2509.5987436696269 0 2509.5987436696269 -4118.2742989127582 0 0 0 0 -593.28589051328345 -521.80553077517106 0 -521.80553077517106 5899.4740864107007 0 0 0 0 5.1841711645629474 14.845131955532167 0 14.845131955532167 12.102903290122541 0 0 0 0 -32.604551334241577 224.77757428352032 0 224.77757428352032 203.22852643117116 0 0 0 0 -343.93646018553045 -320.69959411980381 0 -320.69959411980381 394.15274860162754 0 0 0 0 -964.63771034877573 1182.3952109136881 0 1182.3952109136881 1606.2324885934286 0 0 0 0 -653.24995661206503 1270.9020245898755 0 1270.9020245898755 633.20376391771424 0 0 0 0 -118.46915524863289 175.89286232825134 0 175.89286232825134 79.567581459878056 0 0 0 0 -542.51750560058281 122.65982811952472 0 122.65982811952472 141.75503287879474 0 0 0 0 28.357402525958605 97.963350696431007 0 97.963350696431007 5.7665608462884848 0 0 0 0 34.198255007533589 277.52727297856654 0 277.52727297856654 150.02307761980228 0 0 0 0 -159.65785610381863 169.11956611904861 0 169.11956611904861 115.60060284826068 0 0 0 0 29.588475731473153 80.461891472177911 0 80.461891472177911 86.212849383532941 0 0 0 0 74.30010643665446 66.500285513844574 0 66.500285513844574 -20.969932505871839 0 0 0 0 13.1143393140228 97.4165393538442 0 97.4165393538442 87.392963920625334 0 0 0 0 81.059337306578527 87.846418124165211 0 87.846418124165211 88.406391894524859 0 0 0 0 28.760075570786114 60.529113943484731 0 60.529113943484731 93.755648689089853 0 0 0 0 64.032746931798044 43.876154587745248 0 43.876154587745248 -29.898499176243043 0 0 0 0 184.29189983950346 107.62204773762915 0 107.62204773762915 15.45444543304211 0 0 0 0 38.335224529524567 104.77840341247793 0 104.77840341247793 166.20707873542415 0 0 0 0 10.250224337141844 105.48202180862245 0 105.48202180862245 59.321836371062091 0 0 0 0 122.30200511787552 90.788591630003793 0 90.788591630003793 60.580106170746149 0 0 0 0 37.925275093206437 155.65913038652798 0 155.65913038652798 167.55339467779413 0 0 0 0 52.837075743509558 34.534459678956182 0 34.534459678956182 67.15719242371415 0 0 0 0 47.178743752078219 42.424316013103365 0 42.424316013103365 -45.905523000735407 0 0 0 0 76.874035701504909 233.98535288245694 0 233.98535288245694 231.45363483715255 0 0 0 0 126.86121623499275 221.89169617549544 0 221.89169617549544 13.237247580027542 0 0 0 0 114.01221391675062 168.54927291397144 0 168.54927291397144 17.960460832371155 0 0 0 0 59.925305854994804 255.80538455500209 0 255.80538455500209 116.78879353561933 0 0 0 0 240.62798042112991 261.84366184011878 0 261.84366184011878 -223.50778879161589 0 0 0 0 228.56118445392349 260.55186292400776 0 260.55186292400776 24.125726482090613 0 0 0 0 151.44793383248907 176.3954055976601 0 176.3954055976601 52.190548144614695 0 0 0 0 369.47076375316828 108.6898439822121 0 108.6898439822121 -42.982471822951084 0 0 0 0 13.352086763972039 6.3383467232302166 0 6.3383467232302166 -7.882765880817928 0 0 0 0 -425.08147112568258 443.08976740851381 0 443.08976740851381 -227.97000091943664 0 0 0 0 -182.56088511549751 418.10968122277063 0 418.10968122277063 -288.25664833459268 0 0 0 0 -294.99923954461701 194.70656153312575 0 194.70656153312575 -73.786845703748895 0 0 0 0 -174.80119316421769 153.78951051098318 0 153.78951051098318 -106.0065006064342 0 0 0 0 -389.98950163699919 479.99612383702606 0 479.99612383702606 -464.75717894122863 0 0 0 0 -457.17511373126763 261.10217320221182 0 261.10217320221182 -68.990438095149557 0 0 0 0 6.5940142278765848 14.570296569801883 0 14.570296569801883 12.098209025055729 0 0 0 0 -226.57854609086644 327.43358089892899 0 327.43358089892899 625.19423699541767 0 0 0 0 -24.470451432775008 494.05851361667465 0 494.05851361667465 444.68763987147304 0 0 0 0 -114.54892282490619 709.04961306428595 0 709.04961306428595 1062.2202237097081 0 0 0 0 -155.72880274491035 195.48826049960735 0 195.48826049960735 -74.13352433361365 0 0 0 0 63.859025079778803 635.1059273507351 0 635.1059273507351 52.597210585723587 0 0 0 0 -174.53629029233707 183.49480565836211 0 183.49480565836211 16.665258199256641 0 0 0 0 105.33058506804809 249.14169211338094 0 249.14169211338094 -191.86671400131354 0 0 0 0 26.939872495830059 552.06516453313066 0 552.06516453313066 917.00128126111667 0 0 0 0 270.44131469971035 286.72807458375883 0 286.72807458375883 449.44975700454324 0 0 0 0 216.66989381529856 579.251081554866 0 579.251081554866 294.87555425348546 0 0 0 0 12.684714874980273 496.9551445528864 0 496.9551445528864 748.62176974529575 0 0 0 0 80.219505001237849 404.33026736812008 0 404.33026736812008 253.49149732551723 0 0 0 0 24.304321620555129 551.48894399024311 0 551.48894399024311 58.549299012895517 0 0 0 0 134.72744134654931 512.05696601662839 0 512.05696601662839 243.21463092953309 0 0 0 0 -51.926562063992606 490.27338104113869 0 490.27338104113869 398.60188017849123 0 0 0 0 83.108226409764029 482.2164144308058 0 482.2164144308058 390.11543885510127 0 0 0 0 18.734873146697623 16.492385318951161 0 16.492385318951161 0.97396823785010067 0 0 0 0 71.88867133144231 219.52546046849784 0 219.52546046849784 612.26826799301671 0 0 0 0 -332.38328353804536 245.26380201743768 0 245.26380201743768 -452.25940740742453 0 0 0 0 -34.321612778265262 344.05714525180019 0 344.05714525180019 -889.24690567334028 0 0 0 0 -3.5887920461406111 3.0587703056129243 0 3.0587703056129243 -0.4072613008189423 0 0 0 0 7.1275184401890215 19.060035142611277 0 19.060035142611277 3.61300565276757 0 0 0 0 -14.089710770109377 368.24253155512497 0 368.24253155512497 1570.5645744150825 0 0 0 0 68.628959110355936 194.22623943488088 0 194.22623943488088 667.31724491322575 0 0 0 0 430.95265966010629 497.91884571800028 0 497.91884571800028 905.65263015296159 0 0 0 0 419.39410710747325 -100.05999213369398 0 -100.05999213369398 1713.81866436173 0 0 0 0 403.64064382447395 373.66353185588468 0 373.66353185588468 -1142.7877613586661 0 0 0 0 -147.17622683386435 -378.52474932082634 0 -378.52474932082634 -1251.3207476466405 0 0 0 0 -3.5071852430152717 0.28019242276678824 0 0.28019242276678824 -1.6531466960031558 0 0 0 0 -691.20556247589411 1238.8664660955164 0 1238.8664660955164 -1718.264057222942 0 0 0 0 -1175.1167532776599 471.04277237434098 0 471.04277237434098 90.153202114919964 0 0 0 0 -241.86272395792184 1147.5525083719504 0 1147.5525083719504 -2292.3757919490081 0 0 0 0 1.6107547432034153 4.769753525979926 0 4.769753525979926 1.5889046234757651 0 0 0 0 -1223.6122118397034 393.24739421869799 0 393.24739421869799 3817.7901282250436 0 0 0 0 -1745.4760499314234 1859.7957776420285 0 1859.7957776420285 2096.2418007642527 0 0 0 0 583.28174635377218 581.9037076898021 0 581.9037076898021 194.79849760775687 0 0 0 0 695.22005244317916 -154.65540407237859 0 -154.65540407237859 197.12038916675374 0 0 0 0 361.38348613729727 -13.763875437355182 0 -13.763875437355182 445.30455317134329 0 0 0 0 19.640835682519537 -54.490387624922732 0 -54.490387624922732 266.80571374189458 0 0 0 0 338.22821382359598 148.57892024014382 0 148.57892024014382 -136.68111810013943 0 0 0 0 -422.2317790426323 692.28560043996367 0 692.28560043996367 -527.31940363527974 0 0 0 0 -229.33485600506538 103.60253448076401 0 103.60253448076401 -42.890916506185022 0 0 0 0 414.39131457561598 215.87711411048804 0 215.87711411048804 -567.21059202033211 0 0 0 0 -450.70533072288526 364.87446027137048 0 364.87446027137048 -1250.7561222919076 0 0 0 0 -217.46977650827284 813.68553913470532 0 813.68553913470532 -422.17464258043037 0 0 0 0 1473.5290605573373 401.36044288124685 0 401.36044288124685 -563.41802107469266 0 0 0 0 512.53351715053941 -90.939972721556842 0 -90.939972721556842 -253.15255045638924 0 0 0 0 -673.52889522742771 -2.8657120971483891 0 -2.8657120971483891 1327.1242625924733 0 0 0 0 636.85179095639614 564.33689049402437 0 564.33689049402437 51.140137330746256 0 0 0 0 -34.7708761028833 216.90305462836028 0 216.90305462836028 187.59865019970226 0 0 0 0 82.169157045718748 708.61418542649699 0 708.61418542649699 642.94879108018108 0 0 0 0 239.46737451874651 424.02918651357459 0 424.02918651357459 328.2954254680244 0 0 0 0 39.333678848575801 135.4647782675429 0 135.4647782675429 -71.658707750014401 0 0 0 0 -228.26701649308961 65.757366541174179 0 65.757366541174179 199.13341498383852 0 0 0 0 21.83314881489289 228.73606951757617 0 228.73606951757617 167.72839293946672 0 0 0 0 -40.959960013409727 159.74570905304881 0 159.74570905304881 170.34275649897609 0 0 0 0 36.720367237925529 72.891626358544272 0 72.891626358544272 266.69537243578952 0 0 0 0 27.427168059211397 54.465395209890829 0 54.465395209890829 26.280664445323119 0 0 0 0 305.75389911480306 -44.089364431250488 0 -44.089364431250488 -905.57740549817845 0 0 0 0 -214.18959649131284 490.33932337892202 0 490.33932337892202 -312.24494383130332 0 0 0 0 -399.53851397955441 295.19515537009283 0 295.19515537009283 73.071019806842287 0 0 0 0 141.53765531945467 125.82180292457596 0 125.82180292457596 62.319586884054864 0 0 0 0 225.23853015973003 149.70540828013944 0 149.70540828013944 53.305840879703197 0 0 0 0 66.942395951176877 242.55671714536402 0 242.55671714536402 55.520629629325867 0 0 0 0 157.70809480412572 63.259515963641206 0 63.259515963641206 51.635404286331323 0 0 0 0 490.58062007278568 185.18673964367918 0 185.18673964367918 419.9253725418348 0 0 0 0 1026.0112357567905 112.2960915892354 0 112.2960915892354 136.17609842715319 0 0 0 0 297.56375943691455 -63.57545315409152 0 -63.57545315409152 317.44840007039602 0 0 0 0 332.17703741809237 104.29712984502112 0 104.29712984502112 302.02211044961587 0 0 0 0 -112.97081245111258 9.2234028018574463 0 9.2234028018574463 295.5725689037863 0 0 0 0 -38.245931272691905 275.48543846463144 0 275.48543846463144 -28.803440143630723 0 0 0 0 208.8483523917148 17.487804351436353 0 17.487804351436353 269.60216100141406 0 0 0 0 190.69635561128962 126.8240744107552 0 126.8240744107552 173.42289327245339 0 0 0 0 90.37233364864187 -25.155743042290851 0 -25.155743042290851 555.78269794384687 0 0 0 0 219.41197490468977 71.351444815622799 0 71.351444815622799 9.62705497277679 0 0 0 0 6.5638206269668444 157.36394046332862 0 157.36394046332862 228.14919691247906 0 0 0 0 -75.243629294294806 100.73193049905967 0 100.73193049905967 689.65148805936042 0 0 0 0 -3.3522380769217861 35.214339900644163 0 35.214339900644163 43.812909668360355 0 0 0 0 -186.47371877763362 290.23985130758956 0 290.23985130758956 421.12355346566619 0 0 0 0 -52.743029432585899 274.08082307040968 0 274.08082307040968 28.587128949540784 0 0 0 0 -5.4925062077381881 573.23254016981809 0 573.23254016981809 -241.93367548735114 0 0 0 0 -128.1291753583173 557.33958020353748 0 557.33958020353748 111.74169009851175 0 0 0 0 -371.25914085168188 600.959431919895 0 600.959431919895 -153.29248194501997 0 0 0 0 117.65588139804095 21.227832176851734 0 21.227832176851734 192.54752521724731 0 0 0 0 9.817901985898061 392.03174445481272 0 392.03174445481272 -113.78294891187397 0 0 0 0 -602.15373276271566 467.19359980316585 0 467.19359980316585 -610.79232693615154 0 0 0 0 -641.40479720050462 491.49312947860744 0 491.49312947860744 -612.44803952656366 0 0 0 0 -236.56124751530933 824.78815219535682 0 824.78815219535682 -138.7842847082502 0 0 0 0 -670.51793847565932 646.47641629986174 0 646.47641629986174 -185.31707309511694 0 0 0 0 -390.4812042190315 1045.5502168613966 0 1045.5502168613966 -431.73443819362728 0 0 0 0 -498.47221713933413 940.069099015147 0 940.069099015147 -520.7266874750494 0 0 0 0 -504.63076552259372 894.14816288062502 0 894.14816288062502 -795.05677122792986 0 0 0 0 -695.29013270954147 537.67502292363679 0 537.67502292363679 -635.78835481820715 0 0 0 0 -572.59997032537285 868.39146421712212 0 868.39146421712212 -572.62652405043809 0 0 0 0 -722.60469197210818 724.7450826870795 0 724.7450826870795 -688.77359849843197 0 0 0 0 -419.73187215341022 710.19022607113584 0 710.19022607113584 -869.5682290066834 0 0 0 0 -344.27482612022868 1074.5955716924655 0 1074.5955716924655 -937.14571425190661 0 0 0 0 -251.76502258235087 951.14585164517121 0 951.14585164517121 -790.63624319470546 0 0 0 0 -587.20990693048952 1178.1218350058334 0 1178.1218350058334 -760.74368376505299 0 0 0 0 -343.67275842350392 1132.1163603814862 0 1132.1163603814862 -1055.3519164207682 0 0 0 0 -846.11932457578951 1109.5356239889734 0 1109.5356239889734 -1049.5628467112838 0 0 0 0 -1352.9993910227277 1648.5045131063962 0 1648.5045131063962 -1692.1859049378108 0 0 0 0 -939.29354661227262 632.61975163970783 0 632.61975163970783 -2073.1750814493389 0 0 0 0 70.103688038958353 1438.7388408589904 0 1438.7388408589904 -1710.5618543129749 0 0 0 0 339.67773947623937 947.04237220975119 0 947.04237220975119 -1386.2645264060993 0 0 0 0 107.36543547594556 564.5928184549557 0 564.5928184549557 -937.55056774011246 0 0 0 0 -253.03694381794776 1652.6822811982638 0 1652.6822811982638 -2568.7819034334971 0 0 0 0 9.0671832670235446 63.594618509895895 0 63.594618509895895 53.593095331368346 0 0 0 0 142.68478641039655 -548.5443605360997 0 -548.5443605360997 1721.7271847753182 0 0 0 0 3.8290799902724686 3.4770565409314713 0 3.4770565409314713 -3.6566136638064108 0 0 0 0 -1178.6978049858262 1985.8061653128971 0 1985.8061653128971 -2293.2652835343615 0 0 0 0 -290.88202377147172 628.94033142007174 0 628.94033142007174 -609.78345939781866 0 0 0 0 -545.41087114373295 436.10404020659917 0 436.10404020659917 -4.058227489447745 0 0 0 0 -163.25228095065177 107.74235063846936 0 107.74235063846936 -220.0740702109324 0 0 0 0 -599.48478613054249 958.2300644650968 0 958.2300644650968 -403.5019837423024 0 0 0 0 -649.25118470367488 1101.6060398489781 0 1101.6060398489781 -1103.747111412551 0 0 0 0 -579.79037921874988 797.67100682539603 0 797.67100682539603 -658.9383424297921 0 0 0 0 -823.73759640718345 659.13489742918318 0 659.13489742918318 -535.98860881003202 0 0 0 0 -637.10960039811289 930.76822911709314 0 930.76822911709314 -1745.964281968365 0 0 0 0 -985.77497448847134 1028.17562664656 0 1028.17562664656 -1118.0130598981796 0 0 0 0 -619.34883386902948 1157.9685868433844 0 1157.9685868433844 -1802.4092964977026 0 0 0 0 -874.92861729400283 1343.4300760624519 0 1343.4300760624519 -1237.6140776110115 0 0 0 0 -612.85913007790077 453.25086016985006 0 453.25086016985006 -748.95853347441152 0 0 0 0 -937.03964274005921 1147.0953361983775 0 1147.0953361983775 -1000.1869174347303 0 0 0 0 -1186.8971359882962 761.57991693027361 0 761.57991693027361 -1955.9253949213598 0 0 0 0 576.10630783119814 -242.62532191070932 0 -242.62532191070932 1965.9200876014656 0 0 0 0 322.2339926447512 -65.809207889495156 0 -65.809207889495156 1553.0192192481045 0 0 0 0 178.2219730366669 112.48045712574822 0 112.48045712574822 2445.0623687563675 0 0 0 0 75.330784216688699 -696.1739357041879 0 -696.1739357041879 2950.4587697886673 0 0 0 0 -1224.7827816655699 1686.970479165393 0 1686.970479165393 -1879.6787025791336 0 0 0 0 -552.56397922092401 1678.521589097254 0 1678.521589097254 -3111.2184246641191 0 0 0 0 9.265673900612498 44.34200818300765 0 44.34200818300765 37.117642787306238 0 0 0 0 450.36510613177234 -574.40886300273996 0 -574.40886300273996 1769.1018343278847 0 0 0 0 186.68661520121714 -308.51777208925705 0 -308.51777208925705 1621.6158253457834 0 0 0 0 163.80822975185038 -358.78522188286297 0 -358.78522188286297 1547.6720148013119 0 0 0 0 14.529941571167001 -124.37662736737548 0 -124.37662736737548 1315.4244603964326 0 0 0 0 -23.421603298010268 -1.4685987774792011 0 -1.4685987774792011 1234.1567140259431 0 0 0 0 -16.932571615201596 76.207593844388612 0 76.207593844388612 1473.0807795601268 0 0 0 0 19.451412203285145 14.491648931900272 0 14.491648931900272 2103.2282617824058 0 0 0 0 133.45775952423082 -79.016644847564748 0 -79.016644847564748 1394.7463274543261 0 0 0 0 166.385801488168 385.86846236441124 0 385.86846236441124 812.5928839467233 0 0 0 0 -2.6510757418254798 218.43819779591286 0 218.43819779591286 1446.1835069755525 0 0 0 0 40.45123088150126 324.1524210354346 0 324.1524210354346 789.39776864138548 0 0 0 0 -67.770281284333578 382.80502976031494 0 382.80502976031494 843.5750930140639 0 0 0 0 59.016673582651492 356.0326811667619 0 356.0326811667619 347.05795025655971 0 0 0 0 -5.6888426641353362 306.3344204943387 0 306.3344204943387 785.99914821665152 0 0 0 0 106.57615337096286 372.23907888554095 0 372.23907888554095 9.5562796918929962 0 0 0 0 -66.83708757403565 121.02753770590789 0 121.02753770590789 803.33284067214117 0 0 0 0 436.40318181122348 207.32765422976081 0 207.32765422976081 -60.347643940709531 0 0 0 0 57.867005329324456 -27.937464318463753 0 -27.937464318463753 402.30729728742153 0 0 0 0 -88.538441690783657 237.31886842762833 0 237.31886842762833 2234.9418654395195 0 0 0 0 401.40248872970551 930.02281758534627 0 930.02281758534627 517.68548502863268 0 0 0 0 13.614155576012308 235.43255567021515 0 235.43255567021515 1658.4287621580879 0 0 0 0 302.371782682716 305.61467605987127 0 305.61467605987127 805.84986281306681 0 0 0 0 -918.94587839195901 969.88557279626548 0 969.88557279626548 530.2900501550248 0 0 0 0 -783.58781279687082 708.52871644264087 0 708.52871644264087 775.69214453260793 0 0 0 0 -974.68300610563278 703.64180470644351 0 703.64180470644351 1216.933904186244 0 0 0 0 -776.05094193355262 600.15706011938346 0 600.15706011938346 672.92588177588186 0 0 0 0 -547.01857252873651 338.15113131070393 0 338.15113131070393 698.98256092520569 0 0 0 0 -99.021915508750681 268.74775019659137 0 268.74775019659137 433.72277066299284 0 0 0 0 -405.13997838701744 487.36428496196459 0 487.36428496196459 791.18583445467812 0 0 0 0 -297.81872972949259 43.774024091333558 0 43.774024091333558 981.60101237156778 0 0 0 0 -87.385896977655648 188.14663412488153 0 188.14663412488153 676.6371426538899 0 0 0 0 -146.6174483821751 218.78112250525737 0 218.78112250525737 1032.8398080833576 0 0 0 0 -167.57625914371101 116.57367899081692 0 116.57367899081692 996.61953762032499 0 0 0 0 -31.226727057612152 -151.45492956030648 0 -151.45492956030648 1304.6864690250513 0 0 0 0 -33.430845175351351 -283.00206835841527 0 -283.00206835841527 1097.6072905783913 0 0 0 0 -462.65593246501294 -114.66392103557882 0 -114.66392103557882 925.50297440814393 0 0 0 0 -367.9562265320958 327.64357869903415 0 327.64357869903415 620.45046161266509 0 0 0 0 -367.58963132779218 155.84452705651711 0 155.84452705651711 119.77572597340622 0 0 0 0 -985.51435926216004 261.18500639004924 0 261.18500639004924 761.72723395959474 0 0 0 0 -415.98204030413171 365.580649724463 0 365.580649724463 740.24318129300082 0 0 0 0 -62.637216100715932 136.27305471360523 0 136.27305471360523 868.48632107477169 0 0 0 0 52.582869219099393 21.541059809489525 0 21.541059809489525 1056.0485680863203 0 0 0 0 -162.09377531371319 200.88157116340881 0 200.88157116340881 918.46509160697315 0 0 0 0 -174.76218833679377 -1.199857169900497 0 -1.199857169900497 951.7400060963555 0 0 0 0 -263.65134674378032 -80.188404770833586 0 -80.188404770833586 1010.3724868455902 0 0 0 0 -336.37785460549208 43.003333206892421 0 43.003333206892421 975.09936163979 0 0 0 0 38.82056124156334 95.559339676120345 0 95.559339676120345 53.491308364291086 0 0 0 0 -92.05037611555008 119.01612826820201 0 119.01612826820201 740.90536414648523 0 0 0 0 -6.5030033504290259 -69.187057572991762 0 -69.187057572991762 853.03349269775208 0 0 0 0 430.9561714158832 488.65540300092653 0 488.65540300092653 -7.6556336342910072 0 0 0 0 -92.945412886464283 244.34461621163064 0 244.34461621163064 1097.2966958614088 0 0 0 0 -93.450482635764502 194.8172240117492 0 194.8172240117492 977.94075461412058 0 0 0 0 86.448852978835021 -188.18655002419109 0 -188.18655002419109 1166.9088727872149 0 0 0 0 7.4978714770313672 -387.45712317364087 0 -387.45712317364087 1284.9664397805755 0 0 0 0 320.17676619065787 -480.95015521674941 0 -480.95015521674941 1332.9610213278784 0 0 0 0 148.21221342778881 -309.5876791890405 0 -309.5876791890405 999.19675422436922 0 0 0 0 -249.81052618178637 -124.68454984350683 0 -124.68454984350683 1122.1949237871886 0 0 0 0 -542.75017916699289 1165.5022672512314 0 1165.5022672512314 -799.04775306628017 0 0 0 0 -670.6208990934465 676.6261131126812 0 676.6261131126812 -709.40230667427386 0 0 0 0 8.5145976941984074 4.2939807382215918 0 4.2939807382215918 -7.2276982310327753 0 0 0 0 15.572353166347057 76.140175409440701 0 76.140175409440701 69.085733347748018 0 0 0 0 -538.53729905592627 1113.6552268034284 0 1113.6552268034284 -1143.1000414760911 0 0 0 0 -689.29374578575244 401.37601270179493 0 401.37601270179493 -1368.088520067904 0 0 0 0 -735.38012154370074 897.48756845637718 0 897.48756845637718 -987.35998951301008 0 0 0 0 -690.17361909042666 567.74523189738102 0 567.74523189738102 -875.03253406178192 0 0 0 0 -853.40019616265226 634.54091495766988 0 634.54091495766988 -793.25428671581903 0 0 0 0 -615.78601891129074 371.43524819413869 0 371.43524819413869 -1171.093129371744 0 0 0 0 -334.92879884461399 1037.4479618998921 0 1037.4479618998921 -901.55307586945128 0 0 0 0 4.4507934382712975 1.4296374249950645 0 1.4296374249950645 -8.0683528048437552 0 0 0 0 -1517.9906112603785 289.85084275112604 0 289.85084275112604 -1044.9851717011334 0 0 0 0 -37.621298270993066 1202.9489359543732 0 1202.9489359543732 -915.91337425810343 0 0 0 0 -759.59988421444086 1246.9776826660614 0 1246.9776826660614 -907.23513293470751 0 0 0 0 -955.41729181339178 1856.7471117646419 0 1856.7471117646419 -1344.2759560854611 0 0 0 0 -393.83068362462291 950.61986117428023 0 950.61986117428023 -1024.2628837591619 0 0 0 0 -691.71929062536947 684.53451561411202 0 684.53451561411202 -809.64454765499249 0 0 0 0 -160.89585498371162 499.91246184268675 0 499.91246184268675 -765.63540517031834 0 0 0 0 -540.35827721587339 593.74596974253654 0 593.74596974253654 -894.53604832278506 0 0 0 0 31.010074859174075 100.10961907362916 0 100.10961907362916 -12.01866176117737 0 0 0 0 17.00183115668985 10.146573420517001 0 10.146573420517001 -23.379069318632517 0 0 0 0 -31.408693853754812 308.51053531004436 0 308.51053531004436 -626.99098495842918 0 0 0 0 -59.406445794540105 236.70521412892776 0 236.70521412892776 -794.91390512825456 0 0 0 0 -12.385250757542963 147.92716749533429 0 147.92716749533429 -1390.3101110208445 0 0 0 0 -6.4455964809438058 11.683872953782739 0 11.683872953782739 17.678844943313443 0 0 0 0 120.41078398378158 392.70791520096827 0 392.70791520096827 -1902.8494672667039 0 0 0 0 -371.37397776498466 173.98408242367901 0 173.98408242367901 137.53679272074805 0 0 0 0 -204.9847293546045 976.70860254263971 0 976.70860254263971 -1481.2011886456021 0 0 0 0 -93.981661222494949 657.19794000385446 0 657.19794000385446 -936.18152900184214 0 0 0 0 -162.66885889216246 290.4281483889863 0 290.4281483889863 -369.68421563991251 0 0 0 0 -153.60926269276388 504.83181220478582 0 504.83181220478582 -1294.0917382595653 0 0 0 0 -421.60374638283611 972.09348259908438 0 972.09348259908438 -530.97286215196073 0 0 0 0 42.054495004804267 507.06893976803985 0 507.06893976803985 -583.97047392138484 0 0 0 0 -136.12753383908057 476.81344569959765 0 476.81344569959765 -580.11032760891976 0 0 0 0 0.86980104709800798 585.07333099116295 0 585.07333099116295 -716.32210010755807 0 0 0 0 -52.025964450960601 578.08445075892814 0 578.08445075892814 -572.91203773841426 0 0 0 0 237.28918662525393 692.06310960652627 0 692.06310960652627 -560.49587495402375 0 0 0 0 -502.02291216052072 894.39497762716564 0 894.39497762716564 327.70245669176074 0 0 0 0 32.469861997598855 528.48903829480696 0 528.48903829480696 -624.85714745550649 0 0 0 0 467.95885737608478 614.2615390781466 0 614.2615390781466 -756.71366422690699 0 0 0 0 -2532.1736804604543 276.63333951248569 0 276.63333951248569 26.480710625284701 0 0 0 0 0.32793888780852143 0.3336211937358371 0 0.3336211937358371 -4.5207181495042619 0 0 0 0 -1028.7540741288103 1813.6955169560533 0 1813.6955169560533 -1157.6364943161461 0 0 0 0 -1737.245704799745 685.33808990227408 0 685.33808990227408 -2265.52781539032 0 0 0 0 397.51210537487896 44.923513736062887 0 44.923513736062887 -150.74720753833572 0 0 0 0 -42.929599052028408 46.485176669205757 0 46.485176669205757 -42.05089728062265 0 0 0 0 11.825893489060036 1978.5361552377144 0 1978.5361552377144 481.23816949664433 0 0 0 0 1271.3860901769731 1259.6746442436452 0 1259.6746442436452 -776.40500187775615 0 0 0 0 -606.00316546998329 444.87936227814498 0 444.87936227814498 -432.74133970643015 0 0 0 0 -94.003262581560648 119.13737083968567 0 119.13737083968567 -247.34992631376372 0 0 0 0 1110.5672848160393 737.85410484005115 0 737.85410484005115 -1021.6700596253431 0 0 0 0 -5.9972773657923248 8.33102481252498 0 8.33102481252498 -7.8731286928860413 0 0 0 0 -130.483307636885 502.61099139262296 0 502.61099139262296 -461.12424301092688 0 0 0 0 568.96629744696838 422.23750503058545 0 422.23750503058545 -769.11747221458791 0 0 0 0 232.39343858633947 1308.2077480092557 0 1308.2077480092557 -1392.0548642148569 0 0 0 0 -116.25181966609671 403.03629119176912 0 403.03629119176912 647.97261849924689 0 0 0 0 546.10540133038739 -143.56674637113792 0 -143.56674637113792 154.12822025101923 0 0 0 0 -493.87934971350842 419.37675314495937 0 419.37675314495937 118.99762891604769 0 0 0 0 -90.420813548563046 201.66100094407693 0 201.66100094407693 198.22863938266528 0 0 0 0 96.760933784520603 174.69171714797994 0 174.69171714797994 175.09556473212433 0 0 0 0 -453.11456363416073 318.36597692497162 0 318.36597692497162 400.57079459827582 0 0 0 0 -721.16470064240821 3.3327432577716536 0 3.3327432577716536 2582.8683382137824 0 0 0 0 -16.418648715864613 16.969447236270149 0 16.969447236270149 -16.771927120184472 0 0 0 0 -334.05234662791554 596.30967763361696 0 596.30967763361696 1363.4903935899347 0 0 0 0 -535.99688042929847 72.48003217274163 0 72.48003217274163 1283.9853042291361 0 0 0 0 379.5716070217386 616.26461506749911 0 616.26461506749911 257.05215883459095 0 0 0 0 -13.427343967776206 21.979345723754193 0 21.979345723754193 -22.956958743389549 0 0 0 0 -532.60243994411576 1268.0012826565053 0 1268.0012826565053 -411.09740767619223 0 0 0 0 -693.48060429826637 420.39735929389053 0 420.39735929389053 540.25337557063176 0 0 0 0 -403.90813067584895 123.2118770754314 0 123.2118770754314 177.68306420976296 0 0 0 0 -10.271048856834717 19.342875956722338 0 19.342875956722338 -27.666793905351085 0 0 0 0 1740.9808355666228 766.84135225566934 0 766.84135225566934 -3406.7151359524796 0 0 0 0 -469.89654428789436 157.82016133695288 0 157.82016133695288 160.26530100685341 0 0 0 0 -445.44572697119838 231.04853978813844 0 231.04853978813844 108.41579212239594 0 0 0 0 395.7430385293992 -77.079998375163086 0 -77.079998375163086 -440.2201504570512 0 0 0 0 41.403789874302674 -54.830256651523086 0 -54.830256651523086 -72.637522433080449 0 0 0 0 -344.30299563486528 527.09265385253184 0 527.09265385253184 1213.2035352532839 0 0 0 0 763.42440643125383 -86.986173558114388 0 -86.986173558114388 -652.60106083612845 0 0 0 0 254.93733051566608 -191.20204331790046 0 -191.20204331790046 -286.04028480677516 0 0 0 0 422.00110362193527 -219.19840753364406 0 -219.19840753364406 -1849.9249886013349 0 0 0 0 406.24761188891353 375.1139997854425 0 375.1139997854425 -20.429653722108924 0 0 0 0 -18.918195414459625 29.674833972001284 0 29.674833972001284 -41.267931936119425 0 0 0 0 742.20107211901041 373.60085641080093 0 373.60085641080093 -198.26678416636423 0 0 0 0 114.27801295647305 -80.150351239469273 0 -80.150351239469273 -89.413898194743524 0 0 0 0 -88.653515690273707 20.915733162995821 0 20.915733162995821 -129.38828101366926 0 0 0 0 -13.923342945435152 27.570419537860932 0 27.570419537860932 -12.235101139584467 0 0 0 0 140.93441875316967 -96.611508086426511 0 -96.611508086426511 -278.70429925718054 0 0 0 0 -150.71608568783267 27.777865037824085 0 27.777865037824085 41.159029304299111 0 0 0 0 289.12360680719803 226.53107311083204 0 226.53107311083204 -66.646474182754901 0 0 0 0 476.69444840210599 747.97926902159816 0 747.97926902159816 312.6918306888183 0 0 0 0 -28.601583403837491 39.992519986995056 0 39.992519986995056 -51.984511807033925 0 0 0 0 -203.94566672765723 632.0845072355296 0 632.0845072355296 363.47930884633752 0 0 0 0 -498.52515104408485 86.351963062364121 0 86.351963062364121 784.59218220903131 0 0 0 0 61.915349563969357 775.65943588424125 0 775.65943588424125 -184.96213780596736 0 0 0 0 20.643732468768576 -115.52098188895616 0 -115.52098188895616 758.28076835306911 0 0 0 0 -182.20882066273225 263.7444121115368 0 263.7444121115368 575.00709547250881 0 0 0 0 428.33585647697828 -154.78268448534072 0 -154.78268448534072 445.76304127060575 0 0 0 0 632.9537917418802 126.63718668229103 0 126.63718668229103 -70.811839733127272 0 0 0 0 -3.2211899626762559 5.9625246978385107 0 5.9625246978385107 -12.284669606518094 0 0 0 0 426.49516258109543 263.30014051021499 0 263.30014051021499 233.39046688132657 0 0 0 0 178.74548612683157 747.52795883011822 0 747.52795883011822 -515.73148101131665 0 0 0 0 -35.155968777023723 47.909858500396496 0 47.909858500396496 -50.589868671391372 0 0 0 0 409.37520741034859 491.26757831705618 0 491.26757831705618 363.75848563224281 0 0 0 0 162.06116519569878 78.618255922394383 0 78.618255922394383 -195.2862214377601 0 0 0 0 163.41510874859887 301.36767174193665 0 301.36767174193665 549.10400527933962 0 0 0 0 270.97304862305828 139.63782011281728 0 139.63782011281728 138.62296776903531 0 0 0 0 -342.41038110651061 109.04478939572073 0 109.04478939572073 -166.6683619671312 0 0 0 0 13.630870020117996 28.070431716251008 0 28.070431716251008 -33.628752105928868 0 0 0 0 315.41167778217277 261.63437556690042 0 261.63437556690042 -749.16361250076807 0 0 0 0 -811.55350531769727 1263.3100268814378 0 1263.3100268814378 172.06149821904546 0 0 0 0 -493.8275802728449 1028.4138544763919 0 1028.4138544763919 333.25504063937115 0 0 0 0 439.97379493093149 390.66936545162844 0 390.66936545162844 62.559752394838142 0 0 0 0 -348.82206768177639 670.25045406335266 0 670.25045406335266 783.24532121449738 0 0 0 0 848.73947025061352 558.96471025550272 0 558.96471025550272 -1726.3854972757326 0 0 0 0 -2.7857956160289845 66.85771415229496 0 66.85771415229496 -56.728901561502767 0 0 0 0 6.8582885865235603 16.294492505195919 0 16.294492505195919 -34.341983981743709 0 0 0 0 -1270.3277628632368 -96.967956143987976 0 -96.967956143987976 772.22926832489611 0 0 0 0 -9.4752805437449013 52.737241650339861 0 52.737241650339861 13.304651191932543 0 0 0 0 -1.8950214035881743 30.032417941337684 0 30.032417941337684 -10.386323431527742 0 0 0 0 28.739615610487817 60.037270880804044 0 60.037270880804044 -31.648188488882511 0 0 0 0 1.2063659345976703 30.816735325272475 0 30.816735325272475 -24.883718849726392 0 0 0 0 -4.8813410403727175 26.000727546537746 0 26.000727546537746 -26.056519672270952 0 0 0 0 -4.2596066731803148 54.830122669774028 0 54.830122669774028 -19.349394785040204 0 0 0 0 4.7731529396871295 26.48574074822616 0 26.48574074822616 -14.221290274356843 0 0 0 0 1.9413911255609939 36.184889021519197 0 36.184889021519197 2.2041153771820774 0 0 0 0 2.8365297921287826 27.298343624350721 0 27.298343624350721 -24.406726337055069 0 0 0 0 -12.321454772290281 53.747793882242149 0 53.747793882242149 -69.22904244867641 0 0 0 0 3.8593925003610252 55.320919262887365 0 55.320919262887365 25.418434511123824 0 0 0 0 -7.4902241567215242 16.077989771608145 0 16.077989771608145 -42.594933863922506 0 0 0 0 4.7556487990715119 38.516777146850586 0 38.516777146850586 -4.3143270324395715 0 0 0 0 11.15417236045505 50.667222002506605 0 50.667222002506605 -87.715232373670915 0 0 0 0 13.959894817062017 36.570948567561956 0 36.570948567561956 -8.303258187541255 0 0 0 0 7.6297529742951156 44.800478816208852 0 44.800478816208852 -77.102795238035469 0 0 0 0 -29.447771457261297 168.00148248146365 0 168.00148248146365 89.941855849711146 0 0 0 0 -2.2927377632852211 6.0011990281160301 0 6.0011990281160301 -13.72446269207941 0 0 0 0 90.113006132321061 99.311458620855774 0 99.311458620855774 -49.040719120900576 0 0 0 0 15.460217901673452 27.231934659687322 0 27.231934659687322 -8.7793042030841892 0 0 0 0 14.5882331976185 47.310938236303649 0 47.310938236303649 6.6014880837265988 0 0 0 0 152.11050992341188 503.85240484997485 0 503.85240484997485 -1233.4232932476534 0 0 0 0 -10.53366579946487 46.560794319627803 0 46.560794319627803 60.172643264159888 0 0 0 0 6.8164272754627433 26.33305950363178 0 26.33305950363178 4.2956386921551548 0 0 0 0 24.159346580278907 65.651690794278238 0 65.651690794278238 39.998773883795366 0 0 0 0 550.48119055952702 155.8589310765401 0 155.8589310765401 -1616.1354050458704 0 0 0 0 -70.225584263964265 63.030998579004518 0 63.030998579004518 81.560917152497495 0 0 0 0 25.655287969856946 38.374953421223168 0 38.374953421223168 -2.6037809613794192 0 0 0 0 -193.97478713732198 -178.03882856612472 0 -178.03882856612472 -349.28635672132805 0 0 0 0 423.83826528384816 -66.189845101362152 0 -66.189845101362152 -1371.20394916242 0 0 0 0 -135.02536877745297 605.31828712031802 0 605.31828712031802 1067.3876112991693 0 0 0 0 36.626161411590147 84.319620379821572 0 84.319620379821572 -134.71456212905105 0 0 0 0 357.74785128411895 -370.54933906561928 0 -370.54933906561928 -295.10747757428544 0 0 0 0 592.20841062656837 273.65308693360566 0 273.65308693360566 -533.52251640279428 0 0 0 0 -113.96888736738765 654.96436402521431 0 654.96436402521431 61.308952429233614 0 0 0 0 -279.62469343370685 495.69757341212426 0 495.69757341212426 -575.76266806371859 0 0 0 0 -10.130503449716343 91.598745317998691 0 91.598745317998691 -181.9106938931036 0 0 0 0 -15.738982849863532 52.284291403244424 0 52.284291403244424 -145.38953497198054 0 0 0 0 -57.135102395090144 110.75222980124863 0 110.75222980124863 -17.817012382940447 0 0 0 0 15.628903799970431 95.801717065832236 0 95.801717065832236 -86.909744740506994 0 0 0 0 -96.586846160367713 63.389077943347729 0 63.389077943347729 -93.960933239766291 0 0 0 0 -343.24571971935893 112.28751273196553 0 112.28751273196553 112.15795812922352 0 0 0 0 -1.3471443190622061 61.845797658689669 0 61.845797658689669 66.088843051474868 0 0 0 0 -60.567787184187182 81.427370360964233 0 81.427370360964233 134.12156527259867 0 0 0 0 -23.238291205816495 115.79573873292429 0 115.79573873292429 49.345243974636105 0 0 0 0 -9.1118135993975358 45.672944097408532 0 45.672944097408532 7.7806753604863008 0 0 0 0 20.499251123994327 74.92738898764037 0 74.92738898764037 -1.4492063394482102 0 0 0 0 10.563961562740587 103.90459443690452 0 103.90459443690452 -74.040664117950655 0 0 0 0 -28.797459816647425 42.289713570745192 0 42.289713570745192 -6.4874912559425768 0 0 0 0 -44.946520575635077 62.451381526016576 0 62.451381526016576 35.363085058746719 0 0 0 0 -30.56987488914092 82.690260293720712 0 82.690260293720712 0.67695760680339845 0 0 0 0 12.044569553680049 7.6453756319140211 0 7.6453756319140211 43.955755323600897 0 0 0 0 2.256809099795646 22.931213021613075 0 22.931213021613075 -5.0582363909679771 0 0 0 0 2.7405458156458948 30.278918619750719 0 30.278918619750719 -20.378048246306466 0 0 0 0 -28.413989578576555 49.597150635254017 0 49.597150635254017 -12.240598006738232 0 0 0 0 -15.357300997082348 48.274346186075491 0 48.274346186075491 -3.8516511805162281 0 0 0 0 12.810101480336556 29.047460491748797 0 29.047460491748797 -16.162849255869048 0 0 0 0 -9.2200663237799745 56.020984765024878 0 56.020984765024878 -31.067746440850897 0 0 0 0 425.42224639391134 -404.78859840271616 0 -404.78859840271616 1027.2949112374699 0 0 0 0 -648.04329503733607 873.3905892126495 0 873.3905892126495 203.85925361336558 0 0 0 0 -1.8090273894410132 51.388604671061174 0 51.388604671061174 41.695946162049253 0 0 0 0 -5.6909015821292996 36.003781458930462 0 36.003781458930462 -29.59300963372516 0 0 0 0 -16.042582211696946 28.85478397453668 0 28.85478397453668 41.572773270571794 0 0 0 0 21.316575267309652 37.095549534431584 0 37.095549534431584 -10.328972798403782 0 0 0 0 -1071.8788646912362 337.39274161527283 0 337.39274161527283 704.13894353529759 0 0 0 0 1.5242744290778489 7.3676172809509382 0 7.3676172809509382 19.160777193906455 0 0 0 0 12.604327773412287 49.478664854851729 0 49.478664854851729 88.977744528865998 0 0 0 0 10.47131409830763 139.51823043196055 0 139.51823043196055 -19.543201541135204 0 0 0 0 -111.22186975846853 43.705286487542253 0 43.705286487542253 223.22622724814028 0 0 0 0 -40.72180506983932 -14.023916092097352 0 -14.023916092097352 -15.437875321200409 0 0 0 0 -3.0098231717958583 8.0101138539615704 0 8.0101138539615704 12.460290962080617 0 0 0 0 22.703703252864216 444.35914265596512 0 444.35914265596512 -383.71345448801367 0 0 0 0 -1.7657405662484962 -259.52335352863884 0 -259.52335352863884 213.54887326712924 0 0 0 0 -2.4309209703715169 253.03461991026052 0 253.03461991026052 -1000.7872102972469 0 0 0 0 -1676.467998946946 65.063030463172254 0 65.063030463172254 302.20554377287044 0 0 0 0 -590.85792888559081 -1.8527732303409721 0 -1.8527732303409721 -51.276355286638136 0 0 0 0 -393.18941131144311 191.39919233109686 0 191.39919233109686 -12.52509607844695 0 0 0 0 182.89977878546506 32.282909136274611 0 32.282909136274611 -56.77685861082864 0 0 0 0 -615.44326576029061 268.04075041861461 0 268.04075041861461 145.38395293825306 0 0 0 0 -268.83832861356132 314.88873769274505 0 314.88873769274505 89.759917055966071 0 0 0 0 -70.406980407791707 340.79394360314473 0 340.79394360314473 134.18612673278403 0 0 0 0 14.06587876555573 52.675236312407392 0 52.675236312407392 103.27254226144487 0 0 0 0 24.858177984722715 96.811303186004807 0 96.811303186004807 85.079107224166364 0 0 0 0 157.09560025622341 21.121623481110873 0 21.121623481110873 127.15728958733962 0 0 0 0 5.7363364737413889 13.480867934091449 0 13.480867934091449 27.684428454894444 0 0 0 0 -83.684880045138016 35.255281957319312 0 35.255281957319312 72.564695529439632 0 0 0 0 1.7013977898555339 1.9251409856338886 0 1.9251409856338886 0.4883619213136754 0 0 0 0 -114.73940209667853 232.89844001786423 0 232.89844001786423 152.74914804404034 0 0 0 0 -105.17126614833796 -90.674576432487811 0 -90.674576432487811 653.86333367543557 0 0 0 0 134.93250427093153 -24.713654765118008 0 -24.713654765118008 9.1599850624043029 0 0 0 0 -225.0542904135782 109.12168871253959 0 109.12168871253959 86.969543164572315 0 0 0 0 -129.99625808915516 110.28469322683486 0 110.28469322683486 508.11566047543602 0 0 0 0 -7.2296644058099986 54.376657928276408 0 54.376657928276408 67.065850777631098 0 0 0 0 -92.130579136028246 300.72017457291076 0 300.72017457291076 411.05978480754493 0 0 0 0 55.269512564522302 333.68447952978704 0 333.68447952978704 -8.1989105123429908 0 0 0 0 -35.131397724333937 62.316966361385916 0 62.316966361385916 35.656781480975759 0 0 0 0 8.4692004385578912 114.36209100608176 0 114.36209100608176 99.372016799561607 0 0 0 0 -7.8652942433545832 116.36263334687584 0 116.36263334687584 66.754791991546881 0 0 0 0 102.3817140867759 74.862280390438173 0 74.862280390438173 -235.8241105392317 0 0 0 0 -115.85194513040078 78.708655898622965 0 78.708655898622965 103.00035818367482 0 0 0 0 -8.8688187461812049 111.7977656008361 0 111.7977656008361 87.594669504112971 0 0 0 0 32.060268841442031 152.47547561428274 0 152.47547561428274 117.12963807498788 0 0 0 0 53.992214702342963 114.14269010404566 0 114.14269010404566 57.695908963403078 0 0 0 0 12.551426183512376 125.85396939362545 0 125.85396939362545 104.27527383086544 0 0 0 0 33.989785492318333 71.082337823288981 0 71.082337823288981 69.078061792984954 0 0 0 0 -16.973123546475108 75.017243574620807 0 75.017243574620807 87.290430382170598 0 0 0 0 37.682547709269585 74.630814104958205 0 74.630814104958205 75.971744706426961 0 0 0 0 -56.09804194111166 164.50692269717547 0 164.50692269717547 54.538742697492125 0 0 0 0 84.104575198114617 130.54945265716378 0 130.54945265716378 56.10214152521803 0 0 0 0 -65.259331204741102 118.04943928630018 0 118.04943928630018 74.784616010325408 0 0 0 0 11.569842298687639 26.630135278948643 0 26.630135278948643 10.400764175158486 0 0 0 0 -70.462317566357342 102.92873169307404 0 102.92873169307404 61.230876699832152 0 0 0 0 177.70125505174656 226.61785146664624 0 226.61785146664624 166.29728771163354 0 0 0 0 31.483181992760478 123.21691401087956 0 123.21691401087956 115.07366428587125 0 0 0 0 -421.56776668770544 261.46317914862993 0 261.46317914862993 236.3482883956458 0 0 0 0 -342.39677454799858 195.75084419425548 0 195.75084419425548 120.22252312066848 0 0 0 0 -495.30968111146649 215.40457557317131 0 215.40457557317131 168.3801168781356 0 0 0 0 -370.81438869898921 253.04494497813721 0 253.04494497813721 164.14457044214669 0 0 0 0 -334.96168905930608 208.48151498697189 0 208.48151498697189 166.86199310939264 0 0 0 0 -235.58685521403459 220.84482431202377 0 220.84482431202377 132.02883773819485 0 0 0 0 -178.1525711355207 269.34401971196348 0 269.34401971196348 113.98163120044046 0 0 0 0 -230.13176086120802 148.79779607849196 0 148.79779607849196 93.506174601827297 0 0 0 0 -79.921216520331654 155.74713009699553 0 155.74713009699553 92.640744457225082 0 0 0 0 -241.0464908508111 56.40859524606276 0 56.40859524606276 89.953663744985533 0 0 0 0 -449.78384225256013 121.36127454393863 0 121.36127454393863 176.55757018688382 0 0 0 0 -229.7981528876843 171.08933394738915 0 171.08933394738915 179.9501701562549 0 0 0 0 -418.6445897718022 203.59085347858309 0 203.59085347858309 236.589587924238 0 0 0 0 -456.47721833928154 208.54488830588525 0 208.54488830588525 266.26226053575738 0 0 0 0 -459.43469719558016 -24.755601641414614 0 -24.755601641414614 -12.52605762854364 0 0 0 0 -732.95320535599967 96.12347662594766 0 96.12347662594766 295.51371995675981 0 0 0 0 -477.7098982741918 -2.9924255322075624 0 -2.9924255322075624 103.33443818731394 0 0 0 0 537.64094543052488 511.7545808661489 0 511.7545808661489 -79.821793848411289 0 0 0 0 -4.1228098417215264 3.3726256063246751 0 3.3726256063246751 -0.21978832335014431 0 0 0 0 -1464.0472348416079 -62.816220940023413 0 -62.816220940023413 6.1709152570256265 0 0 0 0 71.39922454914813 121.54676744241162 0 121.54676744241162 105.67499551754356 0 0 0 0 119.44119206411051 241.76022699974783 0 241.76022699974783 168.37299652927322 0 0 0 0 200.93935044729005 179.61802299070769 0 179.61802299070769 186.00951773539055 0 0 0 0 -11.062278887851573 6.214412107652393 0 6.214412107652393 -2.5269139681934689 0 0 0 0 314.68599516677205 361.62952731895712 0 361.62952731895712 278.7986328467814 0 0 0 0 152.89134815267971 94.495958714749577 0 94.495958714749577 238.21622860497155 0 0 0 0 53.630403154456872 168.99197208115766 0 168.99197208115766 307.44525066781353 0 0 0 0 138.6224670384845 55.959252370254035 0 55.959252370254035 147.56784294809768 0 0 0 0 98.126189611895825 71.494942176308541 0 71.494942176308541 209.69111707841148 0 0 0 0 21.372480074656423 102.74428932931691 0 102.74428932931691 125.57438247047114 0 0 0 0 290.21858155532937 86.655907831621562 0 86.655907831621562 18.148109126610507 0 0 0 0 93.824602713521699 235.84344594777582 0 235.84344594777582 16.919455993174779 0 0 0 0 99.649927993388417 145.72976820061132 0 145.72976820061132 118.46938140732757 0 0 0 0 165.55155422590724 176.05102743778798 0 176.05102743778798 21.674996302739601 0 0 0 0 -73.166915508307284 479.52072454270638 0 479.52072454270638 46.11036039454666 0 0 0 0 -64.456523052765988 450.71389001592433 0 450.71389001592433 -113.52468382113466 0 0 0 0 147.12075984338347 131.26474064143133 0 131.26474064143133 85.800308567608909 0 0 0 0 -0.0515071037953021 507.33748923759288 0 507.33748923759288 -146.16056115991523 0 0 0 0 6.5790736623166595 474.14100253706965 0 474.14100253706965 -108.63922167478131 0 0 0 0 -270.76354073380935 554.48303363948389 0 554.48303363948389 -96.917591185705533 0 0 0 0 57.769612530077666 24.478446776490046 0 24.478446776490046 -0.78774283512500531 0 0 0 0 654.83031618100358 238.99139790075651 0 238.99139790075651 -201.86499663464383 0 0 0 0 -7.5009756102226675 852.72225360437005 0 852.72225360437005 -199.84150249871163 0 0 0 0 92.596387103301822 670.0717318373662 0 670.0717318373662 -1267.2804206314026 0 0 0 0 0.88095264227399639 0.60699954373968978 0 0.60699954373968978 -0.94003646204610369 0 0 0 0 62.765880295206443 515.38619429460141 0 515.38619429460141 359.08523698196359 0 0 0 0 76.944045810814714 480.86094190402764 0 480.86094190402764 81.538439406490397 0 0 0 0 349.44901858788216 521.67517827001939 0 521.67517827001939 -68.95851829944877 0 0 0 0 221.27984071374522 606.33450076854388 0 606.33450076854388 9.9723023001461115 0 0 0 0 -53.196527104882989 594.7676098314023 0 594.7676098314023 -115.29093452744837 0 0 0 0 -114.75590444976115 476.62698028525301 0 476.62698028525301 29.775215783545718 0 0 0 0 102.95862478966592 454.38609022938181 0 454.38609022938181 -167.93456318597282 0 0 0 0 92.737546936812578 534.9989820383671 0 534.9989820383671 41.079163126501498 0 0 0 0 -149.41934940069041 395.0585387622541 0 395.0585387622541 316.7466619305178 0 0 0 0 -89.115894537360873 591.34169223280151 0 591.34169223280151 219.57129067332426 0 0 0 0 -51.23876562085934 445.7624546261568 0 445.7624546261568 579.81343423713042 0 0 0 0 397.93650022879592 745.39726040674759 0 745.39726040674759 267.2363746842384 0 0 0 0 3.9667882362846285 -377.29602391886874 0 -377.29602391886874 1391.9861437489806 0 0 0 0 248.34625887805305 958.61692289940765 0 958.61692289940765 1371.204561610677 0 0 0 0 -72.94998698332347 509.6760652868777 0 509.6760652868777 466.6445531523932 0 0 0 0 -233.23195078282151 213.72246900573919 0 213.72246900573919 798.0380095253422 0 0 0 0 -233.28991505823797 249.51414668752477 0 249.51414668752477 294.83790233140826 0 0 0 0 -264.24835488549434 292.77981399050532 0 292.77981399050532 380.28245495544979 0 0 0 0 -212.50623524202456 291.30337101283681 0 291.30337101283681 209.61035915913817 0 0 0 0 -264.67037314470508 300.88001960204383 0 300.88001960204383 228.89808542025639 0 0 0 0 -239.98853808449348 283.54967879693686 0 283.54967879693686 237.89274870262579 0 0 0 0 -249.46377727064828 424.84895797114405 0 424.84895797114405 125.85705970729032 0 0 0 0 -227.79339919802442 307.5933873046306 0 307.5933873046306 201.92325612774584 0 0 0 0 -229.26486612540975 356.02700131926872 0 356.02700131926872 128.14249859111806 0 0 0 0 -173.09898266324308 451.08873477462475 0 451.08873477462475 248.77784242710095 0 0 0 0 -1926.5003345701844 591.48012947632469 0 591.48012947632469 -22.014896620548825 0 0 0 0 -1211.4339211407205 759.34109762840285 0 759.34109762840285 -171.79430413821683 0 0 0 0 -1758.3140467056655 1239.303444198722 0 1239.303444198722 -1007.1355372324306 0 0 0 0 -1239.1970470618835 889.09648062302676 0 889.09648062302676 -775.74327066644037 0 0 0 0 -1161.2892466501507 551.5272989777236 0 551.5272989777236 -1504.4784354772382 0 0 0 0 -1562.0265451288069 771.43561317903777 0 771.43561317903777 -356.73586597724898 0 0 0 0 -1362.3176677332231 387.04220540869778 0 387.04220540869778 -970.77806285686711 0 0 0 0 -1044.3401400675211 782.08600155685372 0 782.08600155685372 -1052.7701443380574 0 0 0 0 -822.32368807597959 506.22847656976228 0 506.22847656976228 -725.79644643899337 0 0 0 0 -529.72094216788537 557.47144852848942 0 557.47144852848942 -1301.0289880128175 0 0 0 0 -407.27170745783951 622.11571263622864 0 622.11571263622864 -986.95591908271206 0 0 0 0 -129.32263346135733 159.41517893052151 0 159.41517893052151 -1021.2053501334067 0 0 0 0 -169.5716549458084 92.346152126052402 0 92.346152126052402 -630.03327303596052 0 0 0 0 -238.16663382164552 347.13841085849708 0 347.13841085849708 -580.04032088295207 0 0 0 0 -336.10503328009509 626.82770409495606 0 626.82770409495606 -554.16367270043156 0 0 0 0 -674.1105037041998 787.94311286939956 0 787.94311286939956 -767.08147376982538 0 0 0 0 -587.36932972836075 566.70238756904428 0 566.70238756904428 -210.18005003236613 0 0 0 0 -570.23797350664972 767.27418555272561 0 767.27418555272561 -258.16461126170134 0 0 0 0 -211.53156244111597 583.84481199981201 0 583.84481199981201 -169.90012956017608 0 0 0 0 -66.031283767442801 503.63304817482549 0 503.63304817482549 -287.10642684215236 0 0 0 0 -247.3016951342579 434.84034234086903 0 434.84034234086903 -139.75070662169833 0 0 0 0 -74.243154035430052 184.75532665304354 0 184.75532665304354 -541.3051063259818 0 0 0 0 -100.84670281389845 346.39368869869395 0 346.39368869869395 -733.87140644457395 0 0 0 0 -80.189176021202002 254.82026019993577 0 254.82026019993577 -328.38025626587842 0 0 0 0 23.570735403700382 273.08321164729296 0 273.08321164729296 -47.019860973463437 0 0 0 0 72.477143373340368 192.38645807491775 0 192.38645807491775 -562.67399775028025 0 0 0 0 53.038183687807759 373.71346945603727 0 373.71346945603727 -157.26430933120173 0 0 0 0 60.99952553640469 517.1602029488713 0 517.1602029488713 52.437498425084414 0 0 0 0 1.15129138235352 520.48548926421427 0 520.48548926421427 477.29551428542072 0 0 0 0 410.02988626488468 382.93530506548541 0 382.93530506548541 103.56427688143958 0 0 0 0 -559.00419444439467 668.87064010010181 0 668.87064010010181 1890.369095682292 0 0 0 0 967.17856462272175 174.02835788038601 0 174.02835788038601 601.24647799104787 0 0 0 0 -728.49086676639854 842.40161323641587 0 842.40161323641587 896.28900995655931 0 0 0 0 -524.20570595629397 782.92323942960866 0 782.92323942960866 808.7366540333569 0 0 0 0 -569.64862128770619 712.03264975110596 0 712.03264975110596 268.48505650253719 0 0 0 0 35.575095581945789 478.068439487261 0 478.068439487261 215.68538092535164 0 0 0 0 -425.80718972918112 410.61117449392805 0 410.61117449392805 876.10243785661089 0 0 0 0 -199.83275388510083 509.5547066586314 0 509.5547066586314 215.79880684468844 0 0 0 0 -502.92174792330479 575.19566489897261 0 575.19566489897261 288.94697400658697 0 0 0 0 -906.86354023132299 758.28677634963697 0 758.28677634963697 283.09617752040504 0 0 0 0 -747.36731435870752 725.39416535833698 0 725.39416535833698 287.80241457557713 0 0 0 0 -747.06631432304857 665.03640326653658 0 665.03640326653658 596.48982868535677 0 0 0 0 -859.3019704981416 897.95179741298853 0 897.95179741298853 712.21662497219222 0 0 0 0 -731.85878804982713 819.49330912031132 0 819.49330912031132 760.51427832961417 0 0 0 0 -853.69247371286474 924.85689909562643 0 924.85689909562643 477.62672918334283 0 0 0 0 -991.07239726293483 825.41402509859108 0 825.41402509859108 695.40701751230472 0 0 0 0 -752.11760762901395 664.77228886731064 0 664.77228886731064 426.11697835993618 0 0 0 0 -1238.6574672399438 750.6186061601984 0 750.6186061601984 411.63375017051658 0 0 0 0 -959.5920043620863 378.2413562484935 0 378.2413562484935 228.35534106120031 0 0 0 0 -928.86643805523636 893.33111353964341 0 893.33111353964341 -215.24239957896498 0 0 0 0 -1324.6923222349433 580.47253229910893 0 580.47253229910893 258.20262932794867 0 0 0 0 -1248.2522725739691 621.03862342708089 0 621.03862342708089 -33.234750752795662 0 0 0 0 -775.94913079090475 855.21536092030055 0 855.21536092030055 555.19066666610888 0 0 0 0 125.62441441885312 953.33525992425893 0 953.33525992425893 243.95283552383444 0 0 0 0 -879.78452694702719 936.9881270237056 0 936.9881270237056 709.37041632766909 0 0 0 0 -741.98000580135704 1058.1495630619711 0 1058.1495630619711 451.50615470919001 0 0 0 0 -840.51971746099298 917.29175093601771 0 917.29175093601771 831.35177664916228 0 0 0 0 -910.88665192100598 919.20670532415443 0 919.20670532415443 1023.9914032736742 0 0 0 0 -885.7190966312628 431.92631845973301 0 431.92631845973301 925.3523296549065 0 0 0 0 0.12615995506416766 1.2303890663886534 0 1.2303890663886534 -2.3095935415338857 0 0 0 0 -858.87989520339761 1425.5306537262313 0 1425.5306537262313 -1003.1674515574268 0 0 0 0 -487.62299681047443 690.81249516681055 0 690.81249516681055 -452.68284126110302 0 0 0 0 -793.7086193900177 302.48089914053844 0 302.48089914053844 235.36669815142159 0 0 0 0 -433.61738713234081 1008.2485282954076 0 1008.2485282954076 495.68177419648055 0 0 0 0 -797.78513084365477 790.36625366028056 0 790.36625366028056 857.45343726037026 0 0 0 0 -216.16973336273804 538.9017783833533 0 538.9017783833533 81.55565551523614 0 0 0 0 568.0938986123947 942.74790085493805 0 942.74790085493805 324.15292818779199 0 0 0 0 -459.02610088668007 354.15860502306714 0 354.15860502306714 76.795445472962456 0 0 0 0 -672.46672340770601 360.26886216608182 0 360.26886216608182 55.251680815179952 0 0 0 0 -493.97267876836122 287.50171715278339 0 287.50171715278339 -228.66050741256186 0 0 0 0 -789.65420829254435 521.24164011033645 0 521.24164011033645 -318.77738808082358 0 0 0 0 -675.02880350926716 453.0186299676252 0 453.0186299676252 -608.36028022989922 0 0 0 0 -975.80904318811008 219.29957797977841 0 219.29957797977841 -106.38401831103693 0 0 0 0 -5.6770360193499982 -13.154843138924804 0 -13.154843138924804 -21.385878191166356 0 0 0 0 -1100.0474980667932 1012.9398494404995 0 1012.9398494404995 -678.02513163935373 0 0 0 0 -1181.0382875292416 661.56546431251627 0 661.56546431251627 -142.44988047807055 0 0 0 0 -8.2158436274584687 -2.589237989128236 0 -2.589237989128236 -3.7003331675703635 0 0 0 0 -1282.1413185175334 954.5277975261979 0 954.5277975261979 -444.53695493351188 0 0 0 0 -999.80791918226168 835.24577624025187 0 835.24577624025187 -413.40245451073588 0 0 0 0 -1322.841372711825 659.10258915304803 0 659.10258915304803 119.96594788540824 0 0 0 0 -965.38218069235154 339.7257437388871 0 339.7257437388871 -177.30721150749469 0 0 0 0 -697.11764360405505 627.46514928698889 0 627.46514928698889 -247.56546490646451 0 0 0 0 -367.41223537176847 286.60704430754595 0 286.60704430754595 222.57725995793589 0 0 0 0 -682.43582363228779 683.93851379479383 0 683.93851379479383 -36.963217844421706 0 0 0 0 -619.16342463585897 225.95405149862199 0 225.95405149862199 101.95689980951011 0 0 0 0 -109.85108181367104 93.735951042537636 0 93.735951042537636 141.72805576675455 0 0 0 0 -85.360742213568301 91.067924516477433 0 91.067924516477433 47.526039239128295 0 0 0 0 -79.86002928248115 51.490843655511604 0 51.490843655511604 7.9123768815406414 0 0 0 0 -178.49108550311939 157.68016029684998 0 157.68016029684998 86.523091034035133 0 0 0 0 -142.36950854531651 67.329633099683235 0 67.329633099683235 52.807837529013739 0 0 0 0 -204.86139865298173 156.49197416797779 0 156.49197416797779 148.32611254141739 0 0 0 0 -247.85762601703755 135.8175800000954 0 135.8175800000954 183.93451664184158 0 0 0 0 -45.693468064723902 120.9038770126693 0 120.9038770126693 60.308309198574662 0 0 0 0 -89.618042996912351 105.58995468188542 0 105.58995468188542 55.200372475729765 0 0 0 0 -186.74915360576415 79.197575364969452 0 79.197575364969452 375.61318906918677 0 0 0 0 -85.951049928553402 -52.230897181743785 0 -52.230897181743785 476.81248589980532 0 0 0 0 -138.48186672135489 118.28221547857447 0 118.28221547857447 216.44406513659851 0 0 0 0 -39.750101609628473 -1.2384869468764919 0 -1.2384869468764919 242.91125338252095 0 0 0 0 4.9193048865729452 6.2176851397417465 0 6.2176851397417465 6.9112975323591286 0 0 0 0 -46.517190429731272 7.8801618864326883 0 7.8801618864326883 244.43940782298569 0 0 0 0 -490.08511782606365 386.9637360819579 0 386.9637360819579 44.146391289385065 0 0 0 0 -373.85763667908031 -5.2447392647172819 0 -5.2447392647172819 26.489192135202757 0 0 0 0 -2.6951923093482151 18.963702018903462 0 18.963702018903462 21.69611496775633 0 0 0 0 3.8986651306626641 10.155499753370332 0 10.155499753370332 7.3096955418637464 0 0 0 0 -330.17842979682609 452.61828555937245 0 452.61828555937245 -216.41214860479522 0 0 0 0 -73.298964179667962 21.573524616264379 0 21.573524616264379 3.1919013697536514 0 0 0 0 -23.192095181875629 9.9608809025558003 0 9.9608809025558003 75.28272112076229 0 0 0 0 -110.01387238677125 113.91735482820513 0 113.91735482820513 102.00152509419604 0 0 0 0 -139.67072617873782 116.87280620228648 0 116.87280620228648 29.533100176267908 0 0 0 0 -117.00547871596063 79.993352126882201 0 79.993352126882201 79.204107561548881 0 0 0 0 39.366712660616884 53.211103768520758 0 53.211103768520758 28.05819132341442 0 0 0 0 -54.597584913513856 -29.525998295835961 0 -29.525998295835961 -43.6433959100832 0 0 0 0 -710.47246772162907 276.0420729145244 0 276.0420729145244 -26.147461406544608 0 0 0 0 -498.35580368150841 485.91446338862079 0 485.91446338862079 -439.28561206170707 0 0 0 0 -556.71376606688136 352.135465799136 0 352.135465799136 125.53618885826108 0 0 0 0 -975.37416026588471 522.11590727836665 0 522.11590727836665 -606.07344188957359 0 0 0 0 -947.85093099204823 643.18943877458514 0 643.18943877458514 -246.46818440948482 0 0 0 0 -615.0259906233332 597.19272490981166 0 597.19272490981166 -731.9020069486287 0 0 0 0 -170.31683894605885 30.350172490289424 0 30.350172490289424 171.63223713924526 0 0 0 0 -237.42173049185658 433.29958043345323 0 433.29958043345323 -370.00035183998989 0 0 0 0 -19.985071451694296 72.830176078644996 0 72.830176078644996 68.060606472889702 0 0 0 0 -358.81987240022863 562.44815233796544 0 562.44815233796544 -622.42960958441836 0 0 0 0 -675.98816239739244 415.3470320763372 0 415.3470320763372 -39.301818022067891 0 0 0 0 -555.4051681633573 743.29060073565051 0 743.29060073565051 -483.41481913423922 0 0 0 0 -167.87300836460741 101.60446589832003 0 101.60446589832003 63.818333524166135 0 0 0 0 -176.30115042610123 93.353350600686099 0 93.353350600686099 43.39204965839599 0 0 0 0 -312.78045981895411 707.69941811107856 0 707.69941811107856 -189.95611690649457 0 0 0 0 -57.830207486025756 178.15712692406578 0 178.15712692406578 100.1844160069802 0 0 0 0 -65.565110545227071 85.914133279969974 0 85.914133279969974 123.35809065574199 0 0 0 0 -104.47951967367408 126.31522634721409 0 126.31522634721409 85.507825078732367 0 0 0 0 -109.90888926593951 84.163933882895407 0 84.163933882895407 77.107954992081261 0 0 0 0 -134.49606114243215 68.395474981747611 0 68.395474981747611 39.726566440600436 0 0 0 0 -103.73323736694567 89.948911623401528 0 89.948911623401528 51.390379823773557 0 0 0 0 -59.640257434385376 124.5578794399259 0 124.5578794399259 46.437349599145819 0 0 0 0 -205.97672792416415 55.002984414887578 0 55.002984414887578 67.943166737658771 0 0 0 0 -223.64124406601331 118.40474118526413 0 118.40474118526413 10.107623148171569 0 0 0 0 -204.14303948255838 73.119477896324042 0 73.119477896324042 94.205119061827872 0 0 0 0 -89.221868544882369 67.285122399099748 0 67.285122399099748 17.905727327604858 0 0 0 0 -206.18380650465406 156.07529744785643 0 156.07529744785643 131.44349037506618 0 0 0 0 -192.31024348120991 177.82126553934722 0 177.82126553934722 75.768007630882494 0 0 0 0 -14.389067372685531 274.22930246295437 0 274.22930246295437 77.11046140408871 0 0 0 0 -152.91706572611292 191.58170420415263 0 191.58170420415263 78.158107052548075 0 0 0 0 -196.53450118423643 270.7122259252501 0 270.7122259252501 77.927170364098856 0 0 0 0 -355.7067918811008 172.47210769856247 0 172.47210769856247 137.16539072307933 0 0 0 0 659.52983409581793 -300.02835501578375 0 -300.02835501578375 -612.0906864684257 0 0 0 0 -3.1853504033013635 -3.319035836787009 0 -3.319035836787009 -3.2022132170115327 0 0 0 0 -185.5035180591367 2138.4798621300579 0 2138.4798621300579 -3731.9270294970702 0 0 0 0 -74.781874758657068 205.93146526120472 0 205.93146526120472 -180.73259801974928 0 0 0 0 -634.57205444888314 191.58287689732788 0 191.58287689732788 -48.18820808037708 0 0 0 0 -384.36768725397087 174.98713546528393 0 174.98713546528393 -48.670189647222287 0 0 0 0 -377.98616881724729 255.53548472861644 0 255.53548472861644 90.468942360355868 0 0 0 0 -122.62062012336719 116.36585245455353 0 116.36585245455353 152.3684261099188 0 0 0 0 473.54391681068228 295.9338040073344 0 295.9338040073344 -1717.381270383652 0 0 0 0 -562.37526899218938 1021.1928439273324 0 1021.1928439273324 -1601.8164994187609 0 0 0 0 -411.00911725334299 463.66386778956439 0 463.66386778956439 -378.29061052946781 0 0 0 0 -31.939454714083695 225.38123108882428 0 225.38123108882428 -511.74896437370626 0 0 0 0 -57.115955305466031 0.46620392986806536 0 0.46620392986806536 16.835556393062713 0 0 0 0 -1788.1338820853343 1112.1811984086507 0 1112.1811984086507 -510.82330587486877 0 0 0 0 -327.76890429187915 136.83743967938426 0 136.83743967938426 400.38230077156913 0 0 0 0 -191.80503569199936 2146.2495960966189 0 2146.2495960966189 -403.27190357212748 0 0 0 0 -2646.2415928550035 2113.2906009563121 0 2113.2906009563121 450.15053740499025 0 0 0 0 64.585307989604189 130.26520908573639 0 130.26520908573639 -16.793514119068277 0 0 0 0 -1250.6095331269389 -2440.8721885847444 0 -2440.8721885847444 -1976.0642796190696 0 0 0 0 -34.695818516895088 111.30043852454219 0 111.30043852454219 -6.1276634059322532 0 0 0 0 -21.048422362321872 13.360760190044857 0 13.360760190044857 -5.4409500357657237 0 0 0 0 -78.223917758176157 59.839004741823622 0 59.839004741823622 2.0214795625645507 0 0 0 0 -772.42302167956223 2215.6124837687535 0 2215.6124837687535 -1242.3170641870238 0 0 0 0 -87.916860982088991 75.30481210218727 0 75.30481210218727 29.243915773033898 0 0 0 0 -1010.4119976876391 1453.2684474998132 0 1453.2684474998132 1201.9240454588889 0 0 0 0 -945.92531734565273 628.77288952062372 0 628.77288952062372 -608.80468262458453 0 0 0 0 -617.1368628985947 526.20961682318011 0 526.20961682318011 -589.6792869202327 0 0 0 0 -923.69254858547356 671.78593057110265 0 671.78593057110265 -468.76722976582823 0 0 0 0 -1247.7455901905196 784.27004985445819 0 784.27004985445819 -684.55196064553456 0 0 0 0 188.16990871956568 1295.9071259744628 0 1295.9071259744628 -1406.1288499244583 0 0 0 0 -153.58624439417505 113.610470478 0 113.610470478 73.445411538307837 0 0 0 0 35.357809256325709 1248.1925701825312 0 1248.1925701825312 -1583.087543159716 0 0 0 0 344.20929490565322 1486.3423287955557 0 1486.3423287955557 -3457.6193769078091 0 0 0 0 135.60202688019308 877.74345191355133 0 877.74345191355133 -1264.7477614771924 0 0 0 0 -461.79726460220991 346.59870015632987 0 346.59870015632987 138.66124335759378 0 0 0 0 -1139.8080050064309 1267.6611663906187 0 1267.6611663906187 -867.56046161810809 0 0 0 0 -72.278709155690819 -9.9513420757051563 0 -9.9513420757051563 -20.864294139956726 0 0 0 0 -805.26210373169306 945.63460359873716 0 945.63460359873716 -1209.0354827141855 0 0 0 0 -918.23454373615095 818.51547450087673 0 818.51547450087673 -406.5377654443364 0 0 0 0 -829.9314435882261 850.4882272758332 0 850.4882272758332 -696.53358287323499 0 0 0 0 -1102.161881837761 1059.6601987667236 0 1059.6601987667236 -785.55617609426554 0 0 0 0 -1303.2955213041278 1042.6591603989145 0 1042.6591603989145 -729.29672035783005 0 0 0 0 -215.59092464364949 25.453009206561546 0 25.453009206561546 -42.397013541973138 0 0 0 0 -50.511598601504033 32.690854681469389 0 32.690854681469389 13.069850824642621 0 0 0 0 -129.56089057211648 969.27005192255456 0 969.27005192255456 -1372.0084359979337 0 0 0 0 -206.98462986994605 53.679611281093713 0 53.679611281093713 17.574200421461185 0 0 0 0 -411.57773043315683 62.705190884743388 0 62.705190884743388 -43.802921561738913 0 0 0 0 -213.14653638187235 101.49460365306041 0 101.49460365306041 80.689747611405465 0 0 0 0 43.043749500950781 174.74332396689402 0 174.74332396689402 -29.668600017981177 0 0 0 0 -1122.8871584326116 432.62400112816249 0 432.62400112816249 -803.63732476867153 0 0 0 0 -202.67846153026272 134.20149774789212 0 134.20149774789212 122.05898877776124 0 0 0 0 -1145.8911581960092 492.80740503200286 0 492.80740503200286 -872.80225305671775 0 0 0 0 288.75610974329174 657.67311731590598 0 657.67311731590598 -1290.0435572804599 0 0 0 0 292.45976503577549 -35.264732256637217 0 -35.264732256637217 -3490.3404144017018 0 0 0 0 -2784.2710426583471 429.81943511505506 0 429.81943511505506 -417.22303642025508 0 0 0 0 -31.685399716418942 8.9225086186474165 0 8.9225086186474165 13.722778698657663 0 0 0 0 148.00778029099456 849.42843288693257 0 849.42843288693257 -2698.0044435754753 0 0 0 0 -265.86949741007993 861.9397825465785 0 861.9397825465785 -916.90998218586901 0 0 0 0 -928.99152840051102 15.301137737420504 0 15.301137737420504 33.041028414612811 0 0 0 0 -253.16194466960951 59.510348241267309 0 59.510348241267309 69.43306717415723 0 0 0 0 -359.20072429178981 152.75010378000661 0 152.75010378000661 -1041.5984542241413 0 0 0 0 -566.33721932192566 -360.60951922734239 0 -360.60951922734239 -1664.3616847979738 0 0 0 0 -239.41539410421711 40.379938332857449 0 40.379938332857449 -57.360561403903276 0 0 0 0 -763.61336962772566 596.26106564971269 0 596.26106564971269 -266.73513246174844 0 0 0 0 -7.1151301496904509 88.90621151738064 0 88.90621151738064 122.48723122379057 0 0 0 0 -993.97074333281353 705.04881653214306 0 705.04881653214306 -197.13833586707187 0 0 0 0 -327.7689042918937 136.83743967938426 0 136.83743967938426 400.38230077155458 0 0 0 0 -705.88713394813749 411.98796981842315 0 411.98796981842315 -188.71267770214763 0 0 0 0 -711.81919262534029 407.79538931102252 0 407.79538931102252 -178.09015678193828 0 0 0 0 -923.13376884260651 473.45813093942706 0 473.45813093942706 -24.263951670414826 0 0 0 0 -598.22176128896899 378.70581013612173 0 378.70581013612173 -179.28687771954378 0 0 0 0 -618.28349933890058 511.11343485469843 0 511.11343485469843 -221.13551528300013 0 0 0 0 4.839285760752901 68.376237323098309 0 68.376237323098309 152.78532281984462 0 0 0 0 -629.01170729644946 520.19608959727702 0 520.19608959727702 -169.0272917737384 0 0 0 0 -608.95022162237728 137.80414993018621 0 137.80414993018621 673.65598118774869 0 0 0 0 -427.94226566002908 596.78499459002342 0 596.78499459002342 103.12860526531767 0 0 0 0 -284.30259831308467 -364.54824795530112 0 -364.54824795530112 847.39075956480883 0 0 0 0 -21.151743354033769 1.33403190108492 0 1.33403190108492 -0.2022756588342709 0 0 0 0 -670.97386681912758 2211.9692194987583 0 2211.9692194987583 -3695.679510966811 0 0 0 0 -763.92541462401277 2678.2985093073785 0 2678.2985093073785 -3173.8268222627739 0 0 0 0 385.46070255922677 545.45075034225738 0 545.45075034225738 -2148.1554472868738 0 0 0 0 -327.76890429187188 136.8374396793879 0 136.8374396793879 400.38230077156641 0 0 0 0 330.72187614162431 3.4429776361866971 0 3.4429776361866971 -216.32321841487283 0 0 0 0 -563.91995253832283 148.78820007723516 0 148.78820007723516 -315.42555851846191 0 0 0 0 -550.1247287497099 25.911088537504838 0 25.911088537504838 -364.7812380408468 0 0 0 0 -463.20587901347608 17.782498755317647 0 17.782498755317647 -171.51922967677092 0 0 0 0 -277.48352553727455 398.14364327522708 0 398.14364327522708 -176.6513298725331 0 0 0 0 -705.73466128274595 483.82595897989904 0 483.82595897989904 -388.10146337189508 0 0 0 0 -859.39647341083401 291.2071082936186 0 291.2071082936186 -580.03816367265972 0 0 0 0 -761.48527833464323 -40.998618194964365 0 -40.998618194964365 -437.32679975864539 0 0 0 0 -864.62741100552375 -12.978972590324702 0 -12.978972590324702 -295.27989498682291 0 0 0 0 -1322.240637352128 1341.1813362539078 0 1341.1813362539078 -1682.5835783946823 0 0 0 0 -1028.8755686439472 569.38811841925053 0 569.38811841925053 -834.23818558615312 0 0 0 0 -1587.7988646780141 171.25982049309096 0 171.25982049309096 -408.87875042873202 0 0 0 0 -1.7005729800088147 -5.7968871811523002 0 -5.7968871811523002 -5.7054676465043883 0 0 0 0 -95.04896191257285 -318.21385208605716 0 -318.21385208605716 103.65185717579698 0 0 0 0 -756.43969323809142 704.89174447752157 0 704.89174447752157 -816.70205524979247 0 0 0 0 -582.95961969750351 382.84142678543867 0 382.84142678543867 -941.47231109413406 0 0 0 0 -522.35521268977027 767.37346191692995 0 767.37346191692995 -721.79563365887952 0 0 0 0 -189.87458498351043 307.80205042217494 0 307.80205042217494 -638.50842947573983 0 0 0 0 -212.62732645990036 141.58218471109603 0 141.58218471109603 137.21477565131232 0 0 0 0 -663.39958160357492 734.38313551113606 0 734.38313551113606 -99.950282271398464 0 0 0 0 50.348024258712769 163.76297009168428 0 163.76297009168428 -99.267731342168517 0 0 0 0 3.2618531329208054 762.84527273475396 0 762.84527273475396 205.43002653622534 0 0 0 0 -492.29246970725944 600.55363060457603 0 600.55363060457603 -121.24491131856485 0 0 0 0 -421.57231108254928 529.70378601001721 0 529.70378601001721 -157.14507953610155 0 0 0 0 -341.94797949815984 421.53494084296108 0 421.53494084296108 -51.840960755213018 0 0 0 0 -493.22744302058709 535.94547090317064 0 535.94547090317064 -79.628250851856137 0 0 0 0 8.2279342860275051 117.3981049057918 0 117.3981049057918 -112.61802824002504 0 0 0 0 -803.41619457355409 215.38413338711871 0 215.38413338711871 -43.324152147051791 0 0 0 0 -795.23162939830036 145.86142715111168 0 145.86142715111168 -379.80137863265554 0 0 0 0 -560.86781737759884 481.49354944883089 0 481.49354944883089 -231.26844603836798 0 0 0 0 15.305521951840888 124.79326772623138 0 124.79326772623138 -114.69704838710454 0 0 0 0 -536.03707737391233 213.19061033176695 0 213.19061033176695 -502.27147053237786 0 0 0 0 -500.52585931315843 180.73014607237201 0 180.73014607237201 -510.37997025451477 0 0 0 0 -354.50615100936557 197.12435121363342 0 197.12435121363342 -510.48567148068832 0 0 0 0 -606.33262262968492 384.6957742430568 0 384.6957742430568 -367.31574141656165 0 0 0 0 -513.16341537905828 407.91507010930218 0 407.91507010930218 -470.10684436847805 0 0 0 0 -547.08800473260271 471.34962493685453 0 471.34962493685453 -382.76063067192445 0 0 0 0 -492.08536381278827 453.07514051682665 0 453.07514051682665 -380.95131128772573 0 0 0 0 -392.99227978386716 604.99887541632779 0 604.99887541632779 -315.49512147702626 0 0 0 0 -214.24840291378035 122.49841935035624 0 122.49841935035624 111.64698923402545 0 0 0 0 -408.69201918160616 569.98359970089223 0 569.98359970089223 -338.41260306970071 0 0 0 0 -204.76873146495944 118.87057115723708 0 118.87057115723708 102.71975014654257 0 0 0 0 -402.1458344949333 496.38250059550774 0 496.38250059550774 -392.5978338818386 0 0 0 0 -407.90990132907837 456.2750599885062 0 456.2750599885062 -276.6112817790854 0 0 0 0 -458.28248168353275 599.23079039358345 0 599.23079039358345 -301.12431206514884 0 0 0 0 -454.0963075888094 579.18013644012717 0 579.18013644012717 -304.29185311785841 0 0 0 0 -584.45254988410306 584.89678553631529 0 584.89678553631529 -303.70548651824993 0 0 0 0 -529.84244766445772 628.02395118743152 0 628.02395118743152 -306.97833165958582 0 0 0 0 -317.63251867566578 603.42751846784086 0 603.42751846784086 -357.24863957313994 0 0 0 0 -410.57940186540873 638.19924788373464 0 638.19924788373464 -356.67975754259623 0 0 0 0 -316.30685413014544 553.97377942173989 0 553.97377942173989 -322.91759196466592 0 0 0 0 -256.79673044304309 627.83997369142708 0 627.83997369142708 -374.82585968190688 0 0 0 0 -175.28464008945127 128.48099797969508 0 128.48099797969508 102.55316479445199 0 0 0 0 65.40715578956187 125.70910482298615 0 125.70910482298615 42.953733657300688 0 0 0 0 -317.70674628400229 620.20619161538343 0 620.20619161538343 -374.12548000537936 0 0 0 0 -706.97283135724138 -37.566322999504337 0 -37.566322999504337 -237.66648557866927 0 0 0 0 -669.70562623236037 509.63637193766408 0 509.63637193766408 -458.50757414648251 0 0 0 0 -20.135734231338915 -1.5836136695096457 0 -1.5836136695096457 -68.749682911253728 0 0 0 0 -650.01411488369558 580.49717692247941 0 580.49717692247941 -181.33483055782563 0 0 0 0 -635.36362598138294 548.77106799237663 0 548.77106799237663 -145.182254239553 0 0 0 0 -653.41092243346793 539.91587707329018 0 539.91587707329018 -125.53795224474015 0 0 0 0 -498.67642708940798 386.67976255477197 0 386.67976255477197 -104.62570733680332 0 0 0 0 -615.50232695981686 518.15081505203125 0 518.15081505203125 -127.46184500680829 0 0 0 0 -639.09573070272745 435.00788181730604 0 435.00788181730604 -106.53851452098752 0 0 0 0 -644.6878470649699 469.54999585700352 0 469.54999585700352 -59.245881677547004 0 0 0 0 -508.46510612584098 483.37698148644995 0 483.37698148644995 -157.2530730376111 0 0 0 0 -585.52036759933435 544.97042036436324 0 544.97042036436324 -181.96965754700068 0 0 0 0 -627.25217806437286 533.75212115838076 0 533.75212115838076 -195.41625116996875 0 0 0 0 -645.16673643872855 517.31862774220644 0 517.31862774220644 -176.60391987372714 0 0 0 0 -567.33401904200218 551.80511163646588 0 551.80511163646588 -221.30134927578183 0 0 0 0 -537.28427008957806 527.08213573993999 0 527.08213573993999 -294.5255431567075 0 0 0 0 -627.43319537274147 526.39719167801013 0 526.39719167801013 -146.32914678001544 0 0 0 0 -606.6639456842604 578.74955192228481 0 578.74955192228481 -216.79261029463669 0 0 0 0 -647.71302174988523 648.17093253671919 0 648.17093253671919 -283.68880572303169 0 0 0 0 -542.94324552856415 576.21472723146871 0 576.21472723146871 -309.60870227717533 0 0 0 0 -612.30196179407631 599.3656707006885 0 599.3656707006885 -254.44538922762149 0 0 0 0 -566.21969940377312 586.12233678318444 0 586.12233678318444 -313.82184711626905 0 0 0 0 -561.21603722794316 616.98076690301423 0 616.98076690301423 -485.51452473195968 0 0 0 0 -570.76927529109889 635.50247216322168 0 635.50247216322168 -300.32238222439992 0 0 0 0 -623.32150481047211 726.27279702256419 0 726.27279702256419 -452.33202186440758 0 0 0 0 -692.72543830051291 700.20061365298898 0 700.20061365298898 -233.41134423448239 0 0 0 0 -708.22611742226582 670.99740217962244 0 670.99740217962244 -244.74837790630409 0 0 0 0 -657.48546804630269 607.89830818806695 0 607.89830818806695 -180.15845555611304 0 0 0 0 -671.77649455604842 600.41524524965644 0 600.41524524965644 -184.06573175232188 0 0 0 0 -718.53326517627283 513.06960752995656 0 513.06960752995656 -60.487973670737119 0 0 0 0 -650.69654189680296 485.38655590606504 0 485.38655590606504 -77.387921627465403 0 0 0 0 -686.0778617809774 549.0618622769689 0 549.0618622769689 -101.18099248922954 0 0 0 0 -673.71196492738818 547.26021597479121 0 547.26021597479121 -109.79668227498769 0 0 0 0 -758.42267365605949 601.71398897131439 0 601.71398897131439 -117.38035258610944 0 0 0 0 -715.8967088255813 608.30533185884997 0 608.30533185884997 -130.1506372923177 0 0 0 0 -853.18863483340829 686.13627157548035 0 686.13627157548035 -159.20649348647567 0 0 0 0 -715.71507728206052 726.60100671659893 0 726.60100671659893 -239.33965955332678 0 0 0 0 -794.41009730925907 614.22617548262133 0 614.22617548262133 -133.40827782492852 0 0 0 0 -923.74228021932504 549.15241773250455 0 549.15241773250455 -44.196336659853841 0 0 0 0 -763.5446007700084 419.40096321123565 0 419.40096321123565 -10.999015083856648 0 0 0 0 -697.80965063603799 485.23604828298267 0 485.23604828298267 -64.758261859165941 0 0 0 0 -655.23475849097304 230.10432065210625 0 230.10432065210625 -3.035162533444236 0 0 0 0 -778.57017075200565 405.78505130685517 0 405.78505130685517 -17.107112241099458 0 0 0 0 -642.7443664369639 330.15430430577544 0 330.15430430577544 -2.7297575106058503 0 0 0 0 -368.24963134284189 284.46064756399574 0 284.46064756399574 -75.99220607492316 0 0 0 0 -549.86654849802562 289.89497347034376 0 289.89497347034376 -34.224464709113818 0 0 0 0 -566.8117508547839 353.09019917890146 0 353.09019917890146 -59.431469884468243 0 0 0 0 -482.52891308240942 364.74771655462973 0 364.74771655462973 -68.602596061915392 0 0 0 0 -591.3651201091925 341.84650336188497 0 341.84650336188497 -38.659113837406039 0 0 0 0 -377.10449948508176 282.50073055388202 0 282.50073055388202 -103.01416038203752 0 0 0 0 -486.00328315715069 344.87896588059721 0 344.87896588059721 -133.38255092009786 0 0 0 0 -739.38937066747712 502.0657596640649 0 502.0657596640649 -62.308096835069591 0 0 0 0 -656.03971618229116 467.07755063507648 0 467.07755063507648 -63.462488905549435 0 0 0 0 -744.6282870003015 422.38884507956391 0 422.38884507956391 -31.32423472465598 0 0 0 0 -591.91972869990855 383.62203442715531 0 383.62203442715531 -46.387176542571979 0 0 0 0 -474.13416027586209 363.28624332605978 0 363.28624332605978 -50.30524419561516 0 0 0 0 -602.67597575368563 392.586681174158 0 392.586681174158 -53.404876872285968 0 0 0 0 -614.62743221271739 486.09132735061758 0 486.09132735061758 -71.082888374308823 0 0 0 0 -651.67488565534586 463.57782620663056 0 463.57782620663056 -34.983625812426908 0 0 0 0 -535.02717371626932 498.83950772839307 0 498.83950772839307 -30.180917469566339 0 0 0 0 -658.338260919405 450.35600408169194 0 450.35600408169194 33.06108367422712 0 0 0 0 -197.84793549615279 426.53323151629593 0 426.53323151629593 -193.59755307153682 0 0 0 0 -5.2183314697329166 5.7020640626147525 0 5.7020640626147525 30.452497408352798 0 0 0 0 15.462154564262221 10.505820588149959 0 10.505820588149959 -31.992352843012014 0 0 0 0 -621.09645105886193 359.59859012824018 0 359.59859012824018 38.647421956382459 0 0 0 0 -69.247026658624236 -75.038264620467089 0 -75.038264620467089 275.10040355531964 0 0 0 0 -453.37394032646262 421.2817772119015 0 421.2817772119015 -168.97010043582122 0 0 0 0 -597.83401080801741 432.24223223107219 0 432.24223223107219 -105.41442709215335 0 0 0 0 -907.58381252722756 680.10926422001648 0 680.10926422001648 -292.14561035454972 0 0 0 0 -283.53167769840729 550.12264722079271 0 550.12264722079271 -327.34558711757199 0 0 0 0 -398.64005409818674 335.70242741094626 0 335.70242741094626 -135.95000810094643 0 0 0 0 -706.73425785230575 635.48394473486587 0 635.48394473486587 -22.294923458084668 0 0 0 0 -0.61196345411426023 87.105176357819403 0 87.105176357819403 -80.650915570438912 0 0 0 0 -156.9443068437613 271.91885704674132 0 271.91885704674132 -446.34836898630601 0 0 0 0 -576.13603719403545 324.90835741497722 0 324.90835741497722 -13.156860866060015 0 0 0 0 3.144813596932245 78.050400696778482 0 78.050400696778482 129.88407800406657 0 0 0 0 -667.54431653223401 517.22161512800631 0 517.22161512800631 -68.094641821182449 0 0 0 0 -11.260009245801484 468.23609987495001 0 468.23609987495001 -267.88794042196878 0 0 0 0 226.27745256965136 130.37989188736537 0 130.37989188736537 -237.4941098368281 0 0 0 0 295.36636192029982 382.90096280022408 0 382.90096280022408 -505.18656570104213 0 0 0 0 7.9494698387080547 86.664431869748185 0 86.664431869748185 -104.93976477431649 0 0 0 0 -937.18219050824337 850.08863492893579 0 850.08863492893579 35.023275558585738 0 0 0 0 1.3202673208368623 34.395345377630726 0 34.395345377630726 31.800798507216257 0 0 0 0 -351.72732100623398 103.00566251933196 0 103.00566251933196 -420.71000004865346 0 0 0 0 -695.33018453593104 120.86075880767021 0 120.86075880767021 -288.25867117816233 0 0 0 0 -75.658148727445223 790.15558883591439 0 790.15558883591439 -653.21964982057762 0 0 0 0 -844.47947637990364 477.20664121937443 0 477.20664121937443 -183.73156962631037 0 0 0 0 -414.10713761333318 295.09732382187212 0 295.09732382187212 -286.69372707224102 0 0 0 0 -378.17618525480793 282.94792890884855 0 282.94792890884855 -285.51071782657255 0 0 0 0 -505.8363941661155 483.85194289879655 0 483.85194289879655 -187.34781871622545 0 0 0 0 -136.93012750522394 363.98769043615175 0 363.98769043615175 -187.08430527307064 0 0 0 0 140.81868187731379 447.60691118161412 0 447.60691118161412 -385.82367888481531 0 0 0 0 -129.40650174916414 522.57945410902039 0 522.57945410902039 -281.06542656978127 0 0 0 0 -92.724926986184983 408.01661310229247 0 408.01661310229247 -120.26149247166177 0 0 0 0 230.96236305310958 390.18485156636598 0 390.18485156636598 -245.92535708093783 0 0 0 0 -374.72586971246346 384.29164606128325 0 384.29164606128325 -121.31339348585607 0 0 0 0 -60.643137099279556 298.38571096982196 0 298.38571096982196 -126.72578628752672 0 0 0 0 -19.919039531458111 262.66830407286034 0 262.66830407286034 -104.34595186699153 0 0 0 0 -375.41378047729631 314.4456154736863 0 314.4456154736863 -36.906637462569051 0 0 0 0 252.44927513126822 376.67372917056491 0 376.67372917056491 -135.71649588272703 0 0 0 0 -16.522546796353708 432.23854056727578 0 432.23854056727578 -6.2855400503394776 0 0 0 0 188.75300025871547 434.8630410912956 0 434.8630410912956 -6.6440557387377339 0 0 0 0 896.11235880168533 628.26909348191475 0 628.26909348191475 -293.36997154576238 0 0 0 0 430.54847240548406 576.59735989233013 0 576.59735989233013 -0.071616134294345102 0 0 0 0 -2850.936140632668 685.57737359821112 0 685.57737359821112 277.95394106690947 0 0 0 0 1296.0614016678428 326.23969687377758 0 326.23969687377758 -230.92490691509738 0 0 0 0 -4.3154468251226614 9.2196326596879246 0 9.2196326596879246 -8.26718025780076 0 0 0 0 199.83906869986095 710.07453600913868 0 710.07453600913868 -302.97930528682446 0 0 0 0 -2.6633178231373122 12.984714344423313 0 12.984714344423313 -18.435892817705053 0 0 0 0 458.49000361431536 230.54153833273449 0 230.54153833273449 -549.67199415522919 0 0 0 0 -704.78286975320225 413.37935167588148 0 413.37935167588148 148.71426169184087 0 0 0 0 -2253.2793647769795 1013.5235912732023 0 1013.5235912732023 -146.69031129511131 0 0 0 0 -675.86097800631978 598.24557101685059 0 598.24557101685059 -256.3540001866495 0 0 0 0 -2384.6400002915943 -113.31499318478745 0 -113.31499318478745 -166.49597805924714 0 0 0 0 -2225.0091748177219 177.59009808371047 0 177.59009808371047 1.0830124755739234 0 0 0 0 -198.54628025655984 177.53718130847847 0 177.53718130847847 -220.74379132350441 0 0 0 0 -554.82602367119398 715.88296209339751 0 715.88296209339751 -549.29726992074575 0 0 0 0 458.43298427666014 -47.546898840599169 0 -47.546898840599169 -157.86132439090579 0 0 0 0 5.1429594824708342 14.599647000104502 0 14.599647000104502 -26.675556443961568 0 0 0 0 -256.21211751782539 -308.66812097036018 0 -308.66812097036018 59.581436081749416 0 0 0 0 214.01032605989167 -176.46138172746578 0 -176.46138172746578 112.78209631283244 0 0 0 0 -31.154445450243657 -87.817097536106303 0 -87.817097536106303 122.68525470279565 0 0 0 0 74.955380814310047 84.816104058449127 0 84.816104058449127 -80.965734302364581 0 0 0 0 98.900606896459053 53.200125714760247 0 53.200125714760247 -33.267404536028621 0 0 0 0 62.97436805009324 52.53759771226305 0 52.53759771226305 -87.637151198199035 0 0 0 0 -94.041591952516683 190.66882193266429 0 190.66882193266429 206.07208774518222 0 0 0 0 221.68872066590637 215.08379685078023 0 215.08379685078023 -13.668058780531283 0 0 0 0 -72.746883001377228 343.27234421851108 0 343.27234421851108 -52.053515779829468 0 0 0 0 133.69335496990925 299.48895999246338 0 299.48895999246338 45.036718164068589 0 0 0 0 145.467747656456 186.09167256084459 0 186.09167256084459 143.11525056942838 0 0 0 0 171.80786195999372 199.32115912975132 0 199.32115912975132 -27.835756518490598 0 0 0 0 86.508219051543378 102.67797162784123 0 102.67797162784123 -55.326894681845097 0 0 0 0 156.45687354283291 193.92011293993346 0 193.92011293993346 -126.07360295758554 0 0 0 0 185.01622093046171 262.62123453590084 0 262.62123453590084 38.163234635718254 0 0 0 0 150.78818300864805 281.44024397849807 0 281.44024397849807 71.98814253925957 0 0 0 0 -101.13780199909161 645.72377246586984 0 645.72377246586984 -261.07788858849381 0 0 0 0 137.67855026021834 452.64078008654087 0 452.64078008654087 -110.53284794284264 0 0 0 0 -353.1700044364934 367.01386268317219 0 367.01386268317219 62.771198856964475 0 0 0 0 115.37429314859037 360.23901608661981 0 360.23901608661981 -106.4360876427163 0 0 0 0 72.106196639153495 457.11518054356566 0 457.11518054356566 -72.9606162324053 0 0 0 0 83.138925093469879 216.08353439255006 0 216.08353439255006 32.612995895826316 0 0 0 0 108.703676853947 299.23565997062838 0 299.23565997062838 231.93018373627092 0 0 0 0 137.73986781974003 185.95554469971316 0 185.95554469971316 135.0572924596793 0 0 0 0 105.06696919602086 178.37714338880468 0 178.37714338880468 256.73956553412791 0 0 0 0 52.392858904150984 61.37598906499619 0 61.37598906499619 135.1706421920062 0 0 0 0 14.203464463854175 150.00158390163051 0 150.00158390163051 167.82664008461643 0 0 0 0 -42.543710716470414 30.680582565370877 0 30.680582565370877 40.365765446053594 0 0 0 0 143.71600655280054 219.53645959738651 0 219.53645959738651 172.00433214024179 0 0 0 0 182.92161808114179 315.48241787374582 0 315.48241787374582 248.57387993500333 0 0 0 0 189.24790451356421 230.26025677465555 0 230.26025677465555 126.00841029525691 0 0 0 0 207.98481918097241 270.84952296211577 0 270.84952296211577 38.533895838582509 0 0 0 0 202.11575767722024 268.98030157241465 0 268.98030157241465 47.532144702022947 0 0 0 0 146.75622824693164 351.60965390960382 0 351.60965390960382 429.08529645097769 0 0 0 0 170.33574429832333 244.73333772226465 0 244.73333772226465 322.19143967909417 0 0 0 0 157.04611694265441 282.88035600497517 0 282.88035600497517 493.05487037299099 0 0 0 0 212.03884356132767 259.6116592798146 0 259.6116592798146 274.00452223015873 0 0 0 0 157.49971023914713 244.18220543619896 0 244.18220543619896 276.98688234626297 0 0 0 0 189.87250026961556 392.03191227201569 0 392.03191227201569 574.99335736831972 0 0 0 0 23.423374226264968 157.86763116411055 0 157.86763116411055 260.70193063450643 0 0 0 0 -15.36010270500935 18.33570722564416 0 18.33570722564416 -13.269298084302246 0 0 0 0 65.090445514452654 83.296468927760998 0 83.296468927760998 212.39985287177296 0 0 0 0 5.4526037749557759 93.04936449124753 0 93.04936449124753 124.67329202624389 0 0 0 0 -46.183645072044854 1.0766631709044159 0 1.0766631709044159 8.634001195155891 0 0 0 0 23.799502592929457 58.631309586169209 0 58.631309586169209 63.753474753105365 0 0 0 0 1.6928546429155347 58.018950533766073 0 58.018950533766073 106.23123276786785 0 0 0 0 9.6789557656065881 38.608081050968508 0 38.608081050968508 77.062403599972413 0 0 0 0 -0.41593818305480568 21.555806045165184 0 21.555806045165184 -2.396260303694107 0 0 0 0 4.2983649975885783 76.482001636273196 0 76.482001636273196 104.1223981891485 0 0 0 0 -32.260843638476963 -3.2519288170262843 0 -3.2519288170262843 22.301610443409757 0 0 0 0 82.321276084292549 163.39090596298274 0 163.39090596298274 182.82835922855026 0 0 0 0 -66.141503547738466 52.088368956134673 0 52.088368956134673 92.025243090631193 0 0 0 0 -22.499041173959885 27.247993011637401 0 27.247993011637401 -11.496079924229466 0 0 0 0 22.76180428997759 52.622875556981512 0 52.622875556981512 165.37358487302185 0 0 0 0 1.5742518134748202 1.0737681675774589 0 1.0737681675774589 6.5497131145453409 0 0 0 0 2.9045277122395419 149.38916954695287 0 149.38916954695287 196.84910502071853 0 0 0 0 29.198680732854712 88.870818361610844 0 88.870818361610844 61.336444771382787 0 0 0 0 -48.230064624739498 -40.423648682658381 0 -40.423648682658381 11.787366157944348 0 0 0 0 -142.82887229978769 28.271090612261105 0 28.271090612261105 113.52904264304902 0 0 0 0 -12.620992644594139 98.426472871874751 0 98.426472871874751 150.81079146784214 0 0 0 0 67.614789087718236 -66.277162393686922 0 -66.277162393686922 167.13542801716085 0 0 0 0 -196.82960931618891 -97.04238724380275 0 -97.04238724380275 71.675858719337612 0 0 0 0 5.457398450470297 -3.1850568459189859 0 -3.1850568459189859 -3.9079289684125511 0 0 0 0 276.5314699341634 441.26970457409652 0 441.26970457409652 136.8948653725156 0 0 0 0 152.20992873793875 69.014253359409395 0 69.014253359409395 78.797463112614423 0 0 0 0 -4.4542447034298362 6.4930672484854082 0 6.4930672484854082 -8.0599470432930218 0 0 0 0 32.428536125640676 142.30058894627382 0 142.30058894627382 55.923973780498272 0 0 0 0 -17.537414480688312 57.494992483802889 0 57.494992483802889 27.092265035444143 0 0 0 0 -5.5029567486923341 4.4114222479968941 0 4.4114222479968941 10.890091927217966 0 0 0 0 29.448331637046067 90.227191633007351 0 90.227191633007351 -19.987126769072347 0 0 0 0 -20.206555711705732 7.2577451926881622 0 7.2577451926881622 -38.508589584202127 0 0 0 0 -37.831578761050679 16.495469786250496 0 16.495469786250496 72.994894412622216 0 0 0 0 -36.003921994137272 105.18637871310551 0 105.18637871310551 120.60034054315702 0 0 0 0 30.890252455345944 82.271116359256439 0 82.271116359256439 105.88561293865951 0 0 0 0 -21.709320769899932 57.862389993378883 0 57.862389993378883 125.9144272035569 0 0 0 0 13.263548493760027 88.862335395948207 0 88.862335395948207 117.4090427160113 0 0 0 0 5.0291425267041632 54.944251570417826 0 54.944251570417826 86.558665648530905 0 0 0 0 -17.762144212698331 33.670363612613784 0 33.670363612613784 79.697140261208858 0 0 0 0 -9.8490968703044928 64.040220278993957 0 64.040220278993957 102.33364774897871 0 0 0 0 0.74852469410689082 48.138762415562724 0 48.138762415562724 22.592864690653187 0 0 0 0 -20.34430620647845 43.079347942116001 0 43.079347942116001 69.895638951680041 0 0 0 0 -6.4992134990716295 36.174420802361965 0 36.174420802361965 61.790416415911295 0 0 0 0 -18.275352533450587 50.786452489832101 0 50.786452489832101 58.629123169222112 0 0 0 0 -9.0114604617374425 37.297858007443921 0 37.297858007443921 40.849747571216483 0 0 0 0 -13.211116194329975 14.266797797463937 0 14.266797797463937 96.703771852612945 0 0 0 0 -377.41471840160375 119.77216439735275 0 119.77216439735275 128.35114946434624 0 0 0 0 -29.984367228170186 43.12747203617819 0 43.12747203617819 75.942713799921563 0 0 0 0 -383.86448445636051 101.0279560627132 0 101.0279560627132 195.88183422188558 0 0 0 0 -503.74448555141498 0.47209860126349668 0 0.47209860126349668 68.229817778657889 0 0 0 0 -417.11049605943117 228.38803194487627 0 228.38803194487627 97.26295922864665 0 0 0 0 4.3844584450878159 12.94804215906462 0 12.94804215906462 -1.2247312690887355 0 0 0 0 156.75316451667277 -217.63883260096463 0 -217.63883260096463 452.97047775138344 0 0 0 0 -1023.2632178503845 457.34429499302496 0 457.34429499302496 1180.9951936344005 0 0 0 0 -781.66224832931766 185.45320551391342 0 185.45320551391342 300.95125689228007 0 0 0 0 -798.53544001796399 49.626898403643281 0 49.626898403643281 243.92372706145397 0 0 0 0 -769.82256424771913 30.735935436285217 0 30.735935436285217 149.2319783019484 0 0 0 0 -761.49018099629029 101.46087500519934 0 101.46087500519934 41.267705329868477 0 0 0 0 -898.57997954948951 499.04551253208774 0 499.04551253208774 -50.172252222604584 0 0 0 0 -1046.2954214053825 609.93224924894821 0 609.93224924894821 118.64149926554819 0 0 0 0 -933.9943141357071 477.02210261056825 0 477.02210261056825 -483.1053456079826 0 0 0 0 -1140.0328014173574 654.59793764406641 0 654.59793764406641 -219.11060945253121 0 0 0 0 -678.53736437531188 338.64255395537475 0 338.64255395537475 -340.85026406540419 0 0 0 0 -3.8402152497219504 23.865320285930011 0 23.865320285930011 89.881358470920077 0 0 0 0 -3.997188891931728 51.4450645854904 0 51.4450645854904 91.228873225995812 0 0 0 0 8.9765491939280224 42.892764587035714 0 42.892764587035714 60.168679642150494 0 0 0 0 34.977813225847513 12.621020603159423 0 12.621020603159423 151.96176297488273 0 0 0 0 -556.27712018658349 4.3040107239721692 0 4.3040107239721692 236.93422743747033 0 0 0 0 5.1936303403854254 552.90372909578582 0 552.90372909578582 -891.08194494971394 0 0 0 0 40.068255919669809 69.54152672650946 0 69.54152672650946 103.97636992754997 0 0 0 0 -2380.9023053196361 1748.8868721640683 0 1748.8868721640683 -528.30254238473208 0 0 0 0 -703.08721702631738 1276.0355302963144 0 1276.0355302963144 -1111.4594739195272 0 0 0 0 -938.87324325896043 1407.2951515165623 0 1407.2951515165623 -94.233231486175555 0 0 0 0 -93.70350000065082 281.72477664835969 0 281.72477664835969 -929.34033397457097 0 0 0 0 -983.86252671632974 1198.9052447462091 0 1198.9052447462091 334.74572616823571 0 0 0 0 -1706.3862553114159 -187.38547267724789 0 -187.38547267724789 -583.02309147275082 0 0 0 0 -564.83535641029448 854.83601198762517 0 854.83601198762517 -1153.1933581018247 0 0 0 0 -933.31987871006277 655.57106208046389 0 655.57106208046389 -115.74312159295368 0 0 0 0 -512.76176106889761 640.39424421518697 0 640.39424421518697 -377.18764425346308 0 0 0 0 -367.00951196379174 578.28923441522147 0 578.28923441522147 -247.93626744215726 0 0 0 0 -371.07923215011397 558.94479595345911 0 558.94479595345911 -338.58922650438399 0 0 0 0 -304.97568623754705 460.90209609786871 0 460.90209609786871 -33.123966622704756 0 0 0 0 -56.847070729574625 325.58630323530633 0 325.58630323530633 -643.50555481000265 0 0 0 0 27.772490013892821 133.44370091115343 0 133.44370091115343 -225.5499767749061 0 0 0 0 113.16899295756593 287.01689871967392 0 287.01689871967392 124.43729216358042 0 0 0 0 48.259170667194795 109.02379623501791 0 109.02379623501791 -1.0276523568308988 0 0 0 0 26.12185503190765 100.25144683992454 0 100.25144683992454 25.653942557909673 0 0 0 0 -4.1053972408589701 89.398569863277984 0 89.398569863277984 41.423663011034506 0 0 0 0 33.329172575475241 115.61831933315989 0 115.61831933315989 122.82485131636349 0 0 0 0 -26.934690003310607 135.11199162356388 0 135.11199162356388 -26.586736795590696 0 0 0 0 51.018896716652819 85.417696549809193 0 85.417696549809193 115.03154312583433 0 0 0 0 -13.587977681314237 32.201965884964892 0 32.201965884964892 44.89641936490019 0 0 0 0 19.626424994425179 89.102501806260989 0 89.102501806260989 111.51311066368999 0 0 0 0 13.250054610787558 37.63498438344854 0 37.63498438344854 -0.65570122968936673 0 0 0 0 17.180619838462007 53.289110222453473 0 53.289110222453473 48.677609310119806 0 0 0 0 30.855545420774433 83.069563545092024 0 83.069563545092024 97.25735940782647 0 0 0 0 19.113309366461181 60.305882488448333 0 60.305882488448333 82.013475877737619 0 0 0 0 20.685396544487006 57.019265907126503 0 57.019265907126503 44.694577565463234 0 0 0 0 2.3032117667346341 8.961612852939254 0 8.961612852939254 21.779786559096756 0 0 0 0 25.463106128469562 42.435660009151981 0 42.435660009151981 18.722314616889413 0 0 0 0 354.10586814500857 123.48435586813866 0 123.48435586813866 -303.96449429803033 0 0 0 0 -81.929405435017543 1164.1819509525048 0 1164.1819509525048 -781.90176761973453 0 0 0 0 219.95891742143431 691.16200790005678 0 691.16200790005678 -1828.0610661943483 0 0 0 0 -145.19856831908692 1562.0500246555894 0 1562.0500246555894 -1481.4213208045257 0 0 0 0 0.42595495095883962 1964.5402841527866 0 1964.5402841527866 -624.95258568851568 0 0 0 0 -1010.1291080166848 1577.9531247451523 0 1577.9531247451523 -513.1141443737979 0 0 0 0 2.0171820566548391 7.4877045077283242 0 7.4877045077283242 -1.3471709352829748 0 0 0 0 1832.5100565309695 699.97713487447254 0 699.97713487447254 -654.56061910625067 0 0 0 0 1013.206004008629 275.73560100371105 0 275.73560100371105 -288.04571679155197 0 0 0 0 1948.686733700335 -85.621882299084973 0 -85.621882299084973 106.28552805590334 0 0 0 0 982.95611954394553 223.59600666364895 0 223.59600666364895 7.6743905145121971 0 0 0 0 1799.4472079394327 569.85830576611625 0 569.85830576611625 -179.59369464789415 0 0 0 0 2015.8850824275723 477.11357187295971 0 477.11357187295971 -385.181116478685 0 0 0 0 1.2774380744085647 630.95840833547209 0 630.95840833547209 537.8058306012972 0 0 0 0 870.6191333392926 63.371951326178532 0 63.371951326178532 163.33855662810674 0 0 0 0 2487.4813401989522 1456.5417230801304 0 1456.5417230801304 158.53084436865902 0 0 0 0 -4503.1440843787932 1956.6078303331278 0 1956.6078303331278 -161.76307891517354 0 0 0 0 3812.3490395369008 -80.014921618609151 0 -80.014921618609151 -433.38156312307365 0 0 0 0 9.1000470978672467 14.032714894914477 0 14.032714894914477 -1.2766270597276161 0 0 0 0 -2827.6922198128887 3347.8000614751527 0 3347.8000614751527 -28.675121408421546 0 0 0 0 854.61183970991988 641.05456407825932 0 641.05456407825932 8.6131288511533057 0 0 0 0 239.38550047378521 744.07164479633502 0 744.07164479633502 32.628412236219447 0 0 0 0 -26.540418873308226 1571.3261083936286 0 1571.3261083936286 445.72858269631251 0 0 0 0 783.37994633153721 356.28699760764675 0 356.28699760764675 -354.07386625935396 0 0 0 0 390.99353450836497 1025.8385348933698 0 1025.8385348933698 800.39162318859962 0 0 0 0 488.94197540523601 556.90926271884928 0 556.90926271884928 -405.8096508847666 0 0 0 0 -101.93940023882897 -147.38913298362968 0 -147.38913298362968 -166.41117782267702 0 0 0 0 212.85843483828648 149.90355154268946 0 149.90355154268946 186.47194442238833 0 0 0 0 690.57153768207354 -56.81894423781705 0 -56.81894423781705 210.2514013706791 0 0 0 0 2.4543995762008279 9.3064645607796592 0 9.3064645607796592 0.013376139693804134 0 0 0 0 749.10389748596936 10.700669974794209 0 10.700669974794209 -594.39011328507331 0 0 0 0 -0.74878970670886247 2.936102948401583 0 2.936102948401583 -5.0229216861729071 0 0 0 0 172.14518284944643 -102.9505372711792 0 -102.9505372711792 -850.55686455130854 0 0 0 0 9.3398663225487688 1905.0666209808467 0 1905.0666209808467 -4374.956571615774 0 0 0 0 74.197544174588984 -1423.334283893073 0 -1423.334283893073 2591.5917558219662 0 0 0 0 0.034639986403721318 25.234094734099479 0 25.234094734099479 -4.8929253814494587 0 0 0 0 -4.3762966423975911 6.4705947311140903 0 6.4705947311140903 -10.53569909447036 0 0 0 0 0.28663056675472376 1.4107805408508796 0 1.4107805408508796 -6.3227929338860633 0 0 0 0 -403.75354574600351 532.83407767032531 0 532.83407767032531 -1326.0905497901113 0 0 0 0 29.139189830515534 29.882443099061675 0 29.882443099061675 -4.1522053849121221 0 0 0 0 0.72929377140744123 3.6104380550792143 0 3.6104380550792143 0.99004844496631961 0 0 0 0 1310.2766919544083 778.84379016042294 0 778.84379016042294 -951.94857717814739 0 0 0 0 -1117.4289028338062 634.96330492416109 0 634.96330492416109 -171.30708695500653 0 0 0 0 7.3351613629492931 345.91201529348109 0 345.91201529348109 -995.64420576364137 0 0 0 0 -7.9537621038006989 17.645242088177525 0 17.645242088177525 -40.287013236163958 0 0 0 0 -50.581594789284281 -93.502971829766466 0 -93.502971829766466 -279.13225723306823 0 0 0 0 96.590121426897895 -76.488346754370468 0 -76.488346754370468 -438.48464233842242 0 0 0 0 77.881174734327942 -298.77314874615695 0 -298.77314874615695 -418.87651324615945 0 0 0 0 -102.91574905952439 -20.295072170385538 0 -20.295072170385538 -21.196520774743817 0 0 0 0 46.021073247276945 62.994661222614923 0 62.994661222614923 -13.565117592421302 0 0 0 0 21.646913921780651 65.942574970360965 0 65.942574970360965 -7.6353328195964423 0 0 0 0 0.061102871230104938 51.539214347084908 0 51.539214347084908 3.8307316573100252 0 0 0 0 45.704629292245954 86.508823744263736 0 86.508823744263736 -1.9349522752553412 0 0 0 0 -17.236935196882285 35.417582579325256 0 35.417582579325256 -66.023082985079668 0 0 0 0 90.166710844117915 126.13925872996775 0 126.13925872996775 12.386487178240714 0 0 0 0 90.658819924341969 104.09098210860799 0 104.09098210860799 -6.592924784970819 0 0 0 0 10.331976766785374 99.842843688085622 0 99.842843688085622 47.061074496796209 0 0 0 0 314.31453389173839 190.11442207818891 0 190.11442207818891 -61.308332606659405 0 0 0 0 192.80395366926678 84.87637709480282 0 84.87637709480282 8.3686054578752191 0 0 0 0 49.71735322818131 106.44713358513306 0 106.44713358513306 171.32250375198464 0 0 0 0 49.876692683479632 113.3071002780688 0 113.3071002780688 25.37718454857071 0 0 0 0 18.424872578121722 89.36404010033084 0 89.36404010033084 -2.0874209093888112 0 0 0 0 -0.012360755747067742 96.637342847922298 0 96.637342847922298 32.083373905852568 0 0 0 0 58.264450062844134 59.843599372565336 0 59.843599372565336 -45.868256911108929 0 0 0 0 1176.4840969531797 751.08015805729519 0 751.08015805729519 114.71701349717478 0 0 0 0 388.49608798716508 -265.46734153121395 0 -265.46734153121395 349.47778166856278 0 0 0 0 -103.79428029985866 520.6478289425977 0 520.6478289425977 -136.70046786683088 0 0 0 0 4.9976791192457881 3.2735006473031376 0 3.2735006473031376 -3.1692060333163434 0 0 0 0 -454.80120142413944 158.46504004957478 0 158.46504004957478 -113.95582846571006 0 0 0 0 809.24315657070838 478.58481471034975 0 478.58481471034975 -48.48476523897989 0 0 0 0 -50.748151569398203 37.817485673697433 0 37.817485673697433 26.553798962502057 0 0 0 0 -431.44221455484512 166.30037035456189 0 166.30037035456189 -116.88154923904563 0 0 0 0 -347.05826082955173 192.67863341716537 0 192.67863341716537 -145.37306702064552 0 0 0 0 150.76347724485095 245.24062819291282 0 245.24062819291282 287.65568675040231 0 0 0 0 -13.438093462213004 12.11155558316554 0 12.11155558316554 14.811498874309615 0 0 0 0 -0.8896392597868612 4.2534713229288883 0 4.2534713229288883 -12.626392125373325 0 0 0 0 -17.43076215533074 72.550357185236862 0 72.550357185236862 -82.130979487548757 0 0 0 0 -23.820962170793791 66.737254979001591 0 66.737254979001591 -75.57843423903978 0 0 0 0 -18.702295763549046 145.6839540340552 0 145.6839540340552 -17.420861063314078 0 0 0 0 -1.8586123359273188 94.740890071298054 0 94.740890071298054 -89.749065058094857 0 0 0 0 -24.567841773474356 75.997600016835349 0 75.997600016835349 -56.948886009518901 0 0 0 0 -65.594333140761591 119.23165328484174 0 119.23165328484174 -102.42190259104973 0 0 0 0 -11.470099964819383 72.829535208697052 0 72.829535208697052 -78.691401632200723 0 0 0 0 -13.296518564326107 103.19988622582423 0 103.19988622582423 -48.83837967805448 0 0 0 0 0.44177720282459632 116.92743869426704 0 116.92743869426704 -61.355649673198059 0 0 0 0 -4.5369117107475176 115.85352541290922 0 115.85352541290922 -61.082894122511789 0 0 0 0 6.4286793584469706 110.29037570543369 0 110.29037570543369 -76.643654198156582 0 0 0 0 79.118654393590987 267.50822559066728 0 267.50822559066728 -49.403374802335748 0 0 0 0 17.997186614375096 181.53740433088387 0 181.53740433088387 -109.63588933058418 0 0 0 0 -34.13420259905979 90.993661627093388 0 90.993661627093388 -93.374458065194631 0 0 0 0 -7.6650293027923908 75.644300540696349 0 75.644300540696349 -160.7168475149374 0 0 0 0 -43.449142258265056 51.944002096970507 0 51.944002096970507 -134.95227661536774 0 0 0 0 57.782120080082677 222.49148284756302 0 222.49148284756302 -299.69761894569456 0 0 0 0 -13.250815523148049 39.295342968256591 0 39.295342968256591 -197.43607265000901 0 0 0 0 -39.052855125351925 15.704285541731224 0 15.704285541731224 -432.95293944576406 0 0 0 0 -100.69624782147002 202.08956222676352 0 202.08956222676352 -340.78461365925796 0 0 0 0 -741.69025934769888 85.097954150562146 0 85.097954150562146 -5.0168061144286185 0 0 0 0 -9.5285287075093947 132.7200101294693 0 132.7200101294693 -417.55594578878663 0 0 0 0 -7.2644586778478697 477.17330683742694 0 477.17330683742694 -539.73253789642331 0 0 0 0 81.907476306514582 326.63847340680877 0 326.63847340680877 -290.73461359247449 0 0 0 0 99.093568578304257 535.09134711491242 0 535.09134711491242 82.116894035105361 0 0 0 0 26.71157988536288 281.7674398066265 0 281.7674398066265 -45.631924606444954 0 0 0 0 48.708191653218819 200.20068560229811 0 200.20068560229811 -191.99591516340297 0 0 0 0 205.60899639589479 455.96749352000552 0 455.96749352000552 -293.4920583005769 0 0 0 0 102.60802770087321 493.30391560229327 0 493.30391560229327 -130.77388416685426 0 0 0 0 -80.871684271492995 593.50131199284624 0 593.50131199284624 486.14947006664443 0 0 0 0 -168.17662963073235 437.51365470534802 0 437.51365470534802 364.19696291787841 0 0 0 0 -154.77321572817164 378.9658357145745 0 378.9658357145745 452.1947205288634 0 0 0 0 -14.353942384797847 283.2766974154074 0 283.2766974154074 276.12803708881256 0 0 0 0 -180.66307824311662 270.79229360667432 0 270.79229360667432 756.51659474166809 0 0 0 0 43.019513024075422 236.51424312432573 0 236.51424312432573 314.01866552734691 0 0 0 0 -138.02772172598634 303.63982637827394 0 303.63982637827394 689.44777879485991 0 0 0 0 24.198824786872137 262.0167837876761 0 262.0167837876761 310.05573717431389 0 0 0 0 -14.602903078208328 161.99603012666557 0 161.99603012666557 55.163969162720605 0 0 0 0 119.17228179459926 411.58092007175219 0 411.58092007175219 281.2790652865624 0 0 0 0 -18.918879986507818 180.93652430604561 0 180.93652430604561 255.2189512716468 0 0 0 0 37.222673596581444 96.118345671922725 0 96.118345671922725 129.9490023650942 0 0 0 0 30.64354068933244 75.512451241402232 0 75.512451241402232 499.23402465880645 0 0 0 0 10.81249177220343 226.33148661134487 0 226.33148661134487 85.038157134833455 0 0 0 0 49.035130388321704 329.69607856427501 0 329.69607856427501 52.866289511315699 0 0 0 0 9.962135279623908 301.63908419827749 0 301.63908419827749 219.56950810886337 0 0 0 0 14.808861471217824 228.60981196826469 0 228.60981196826469 117.08179210447997 0 0 0 0 68.931774267402943 113.72467196325306 0 113.72467196325306 8.6929704658032279 0 0 0 0 -0.49759298743447289 166.96517073809446 0 166.96517073809446 22.464677051782928 0 0 0 0 -27.383861268521287 151.03560753472266 0 151.03560753472266 39.598530279265105 0 0 0 0 16.278654712048592 164.21081499510001 0 164.21081499510001 -25.062428826280666 0 0 0 0 41.04338761435497 31.341678056339333 0 31.341678056339333 -2.1605481334044221 0 0 0 0 3.3003498735124595 77.995549916820892 0 77.995549916820892 -53.121243400371895 0 0 0 0 -28.304588411847362 107.54281800187528 0 107.54281800187528 -245.03545813630626 0 0 0 0 -56.426087725791149 91.200577966530545 0 91.200577966530545 -2.4735940161699546 0 0 0 0 7.3260283446626318 18.198497187087128 0 18.198497187087128 -16.91264703461141 0 0 0 0 -13.660141693646437 131.27605183437936 0 131.27605183437936 -234.44847064168789 0 0 0 0 -77.404732157738181 230.97797472980801 0 230.97797472980801 -353.22705011962535 0 0 0 0 -179.8141590107698 233.00116211297245 0 233.00116211297245 -175.55933796495174 0 0 0 0 -84.140074780651048 136.15058833029468 0 136.15058833029468 -87.098040066486647 0 0 0 0 -73.934635622816131 204.42563860230894 0 204.42563860230894 -44.77123372092683 0 0 0 0 91.840976403094828 345.6362492994358 0 345.6362492994358 -11.001401075296599 0 0 0 0 -272.00485630495677 223.46211794484088 0 223.46211794484088 9.9738818572986929 0 0 0 0 -115.14145624375669 75.634764100117536 0 75.634764100117536 -188.76409850070195 0 0 0 0 18.641132551172632 -18.248408192253919 0 -18.248408192253919 24.811989007316697 0 0 0 0 187.24084505721112 99.416470029650554 0 99.416470029650554 -46.800501282263212 0 0 0 0 -131.46393989359422 54.058333321944019 0 54.058333321944019 -138.56727620360107 0 0 0 0 -454.75681005732622 92.289205184737511 0 92.289205184737511 -136.3891810456571 0 0 0 0 0.18535271293938038 18.646188418928261 0 18.646188418928261 34.837306050208063 0 0 0 0 -768.25308682904142 1286.1477534679561 0 1286.1477534679561 995.27724995077006 0 0 0 0 -623.9805689539935 202.48679438887484 0 202.48679438887484 -158.79138111951397 0 0 0 0 18.214178114887261 4.0482592839823042 0 4.0482592839823042 2.010498091957885 0 0 0 0 -383.77579645789228 334.84789808236019 0 334.84789808236019 -383.04210349018285 0 0 0 0 -13.897816094802693 45.096021490501698 0 45.096021490501698 251.03103136207028 0 0 0 0 466.20729121367913 411.68151329414377 0 411.68151329414377 300.71183430311066 0 0 0 0 300.38148564941366 237.57514643756258 0 237.57514643756258 210.22202954224485 0 0 0 0 882.16028950287728 449.57725760746689 0 449.57725760746689 189.00242706806716 0 0 0 0 329.63938168446475 -215.46024085939416 0 -215.46024085939416 51.580290602723835 0 0 0 0 1067.762337734006 -59.271262520253003 0 -59.271262520253003 -64.955435175594175 0 0 0 0 1536.2998219846049 568.85603663704751 0 568.85603663704751 205.97034679812168 0 0 0 0 832.13750495488057 380.29122606259807 0 380.29122606259807 155.53667506663623 0 0 0 0 1456.2610389833571 140.05840565692051 0 140.05840565692051 21.931665327898372 0 0 0 0 828.59839600174746 736.86661639778686 0 736.86661639778686 508.7362562121416 0 0 0 0 530.04662508543697 657.1177611385192 0 657.1177611385192 500.88769857725856 0 0 0 0 -154.49491714159376 218.35795173075894 0 218.35795173075894 1083.4569040523784 0 0 0 0 -508.0573491268151 -1009.2587337124496 0 -1009.2587337124496 -591.78665935348909 0 0 0 0 361.46439604402985 952.27403064465761 0 952.27403064465761 611.38556220592363 0 0 0 0 2118.2625105883344 398.74850319770121 0 398.74850319770121 -3310.8352768546029 0 0 0 0 60.742353315174114 112.82657519491477 0 112.82657519491477 -333.71482017975359 0 0 0 0 -1707.8109354555199 -122.45753793884523 0 -122.45753793884523 896.09425185170403 0 0 0 0 1.2203785825882782 8.6344442595590465 0 8.6344442595590465 21.687540403824173 0 0 0 0 -235.12401731495629 234.48990438854526 0 234.48990438854526 480.54876575767412 0 0 0 0 -571.18505542408093 -127.18582184880506 0 -127.18582184880506 139.60837283293222 0 0 0 0 -203.60400017900974 191.3960085806666 0 191.3960085806666 483.16377348811113 0 0 0 0 2272.480901948642 904.75504970229667 0 904.75504970229667 115.83902607072741 0 0 0 0 1701.0305098495664 1696.6158958264714 0 1696.6158958264714 777.86752447721665 0 0 0 0 1008.2992863887048 964.24559296797997 0 964.24559296797997 571.65018281313678 0 0 0 0 1417.0293691939441 1007.3294448708548 0 1007.3294448708548 564.44052877420836 0 0 0 0 478.90256272885017 1286.0554044753226 0 1286.0554044753226 1153.0218935149314 0 0 0 0 475.46524140523979 -203.24357153992696 0 -203.24357153992696 50.996717973779596 0 0 0 0 -38.008423176332144 -135.53462031199706 0 -135.53462031199706 2381.8761163285044 0 0 0 0 1151.3024262399413 1790.1400242756681 0 1790.1400242756681 1300.0048028873898 0 0 0 0 -45.946524494676851 -175.7808139437725 0 -175.7808139437725 290.31745692678669 0 0 0 0 166.67970462063386 395.1324785279503 0 395.1324785279503 -334.49990217843879 0 0 0 0 449.52328950763331 921.64508003195806 0 921.64508003195806 703.07311172855952 0 0 0 0 -682.36582715733675 786.60161806446558 0 786.60161806446558 -14.590861447530187 0 0 0 0 -17.193088474079218 17.806019859339099 0 17.806019859339099 -4.1165981518102761 0 0 0 0 726.07998791808495 1224.4960037269775 0 1224.4960037269775 819.97443749420199 0 0 0 0 -28.515235019032843 1021.1568819200911 0 1021.1568819200911 1175.0500590388365 0 0 0 0 910.67800046103366 1351.4705451049913 0 1351.4705451049913 907.26510343909467 0 0 0 0 387.63679952872917 1345.9692724431843 0 1345.9692724431843 1424.9690315929147 0 0 0 0 -828.45373139342701 729.19843805537312 0 729.19843805537312 1504.0607364526404 0 0 0 0 86.312997075932799 569.5324573777325 0 569.5324573777325 960.95345815980181 0 0 0 0 45.197333846455876 185.6656765499622 0 185.6656765499622 761.58716762766562 0 0 0 0 -138.73879296865198 597.21596169392114 0 597.21596169392114 1003.8563362133646 0 0 0 0 -681.3470067527669 822.55059372632604 0 822.55059372632604 492.57793371985815 0 0 0 0 -512.98422247098642 482.14362131945563 0 482.14362131945563 865.26349937957639 0 0 0 0 -402.91433774467441 497.95351941709305 0 497.95351941709305 805.21181752698976 0 0 0 0 -395.83114745965577 441.41364916812017 0 441.41364916812017 1162.4122230988542 0 0 0 0 -9.6407106602868566 8.9952188176005805 0 8.9952188176005805 -1.7204053450142069 0 0 0 0 -1364.9433765927388 687.22052820306271 0 687.22052820306271 2716.3703976200413 0 0 0 0 693.58514078566805 796.71854925903608 0 796.71854925903608 -1995.9078120176273 0 0 0 0 -992.29318481410155 2247.8202627705105 0 2247.8202627705105 -2235.6905604959502 0 0 0 0 -2084.3379884682145 1533.3721915399128 0 1533.3721915399128 1803.7019803114381 0 0 0 0 641.34580979272141 681.39939553631484 0 681.39939553631484 983.74698883380188 0 0 0 0 297.82293984963326 -95.040733232912316 0 -95.040733232912316 1497.4321895719313 0 0 0 0 -491.4904892447521 1452.4523984422121 0 1452.4523984422121 -2308.7690529477004 0 0 0 0 1295.2528826750222 -477.97935901357738 0 -477.97935901357738 -1035.9975726393386 0 0 0 0 7.9726418882216876 7.4930232379895756 0 7.4930232379895756 1.1720945605125479 0 0 0 0 -1115.3257347335457 847.99549183476483 0 847.99549183476483 -968.87448435186343 0 0 0 0 1250.0204622804581 1460.3766961841325 0 1460.3766961841325 -2534.6315824254852 0 0 0 0 -4454.4898528645535 2104.4311916704341 0 2104.4311916704341 -1058.2860586220559 0 0 0 0 -1516.7322262948728 1560.4386312703828 0 1560.4386312703828 -625.81866011516286 0 0 0 0 21.855710185239246 31.279307877775892 0 31.279307877775892 -1.245145587252992 0 0 0 0 -328.49561241683114 706.20982844485479 0 706.20982844485479 -531.79552184946442 0 0 0 0 -844.46413104576641 534.64933667765035 0 534.64933667765035 -102.16864679431274 0 0 0 0 -1020.7953346443828 966.21102134672583 0 966.21102134672583 -584.42690375792517 0 0 0 0 20.755382160246086 19.942686127974042 0 19.942686127974042 6.4731410561758622 0 0 0 0 -278.46334453005693 585.63569859066774 0 585.63569859066774 -823.7398400443235 0 0 0 0 -395.61238792556105 209.90265514074554 0 209.90265514074554 -177.45608945775166 0 0 0 0 -827.71258957014652 211.04010627472235 0 211.04010627472235 -314.53122419777719 0 0 0 0 -1275.8122933463892 682.46867265540732 0 682.46867265540732 75.478458490164485 0 0 0 0 156.51893662845214 183.51839645882001 0 183.51839645882001 -227.02559480785567 0 0 0 0 163.88391872847933 99.772176623315772 0 99.772176623315772 -63.212702728342265 0 0 0 0 98.710717396228574 67.603300771501381 0 67.603300771501381 248.77986585064355 0 0 0 0 170.22510478712502 204.99697898273371 0 204.99697898273371 53.129195838806481 0 0 0 0 53.353146313020261 20.208047025738779 0 20.208047025738779 18.693382337722142 0 0 0 0 106.54707356356084 205.799625371601 0 205.799625371601 -249.91813874318177 0 0 0 0 -44.172963298478862 143.62424877920057 0 143.62424877920057 177.9417821877214 0 0 0 0 -105.79935673765431 441.51945554606755 0 441.51945554606755 -527.27491854412983 0 0 0 0 -88.738375253829872 151.90069405563554 0 151.90069405563554 -243.17214528774275 0 0 0 0 99.98764168744674 283.36701090724091 0 283.36701090724091 -197.21244403820037 0 0 0 0 136.90777718118261 133.40348812548518 0 133.40348812548518 -287.44203143338382 0 0 0 0 274.68858839443419 268.27427309430277 0 268.27427309430277 -155.54096170992125 0 0 0 0 245.64435893148766 265.33184375801284 0 265.33184375801284 -309.41707826727452 0 0 0 0 481.68001235218253 290.22768889441795 0 290.22768889441795 -304.00471098862999 0 0 0 0 345.82622621486735 343.78135031038096 0 343.78135031038096 -66.189160097339482 0 0 0 0 288.84986489178846 210.72449872859215 0 210.72449872859215 -288.25512810308737 0 0 0 0 617.88649309214088 401.25352733046748 0 401.25352733046748 -379.15572304793295 0 0 0 0 332.97367480292451 446.20572683737555 0 446.20572683737555 -386.12625828291129 0 0 0 0 73.809671695489669 656.97306045812547 0 656.97306045812547 392.65363357320894 0 0 0 0 81.721606915263692 595.67271391435497 0 595.67271391435497 -54.93311577206623 0 0 0 0 171.40411282822606 334.89877443909427 0 334.89877443909427 289.10801433221059 0 0 0 0 -20.542584631242789 339.39368732825096 0 339.39368732825096 309.60308165099195 0 0 0 0 -28.854301986819337 382.09335524587186 0 382.09335524587186 300.5074938009202 0 0 0 0 190.57394240566646 299.23750397253389 0 299.23750397253389 -69.672532179368773 0 0 0 0 157.44692566824961 184.05665687092187 0 184.05665687092187 211.97554052188207 0 0 0 0 75.757137791850255 197.17043767641007 0 197.17043767641007 430.70886187614087 0 0 0 0 114.16822519904235 129.58912587399027 0 129.58912587399027 438.25524288447923 0 0 0 0 94.113614936097292 258.60804809935871 0 258.60804809935871 263.19838088059987 0 0 0 0 162.06375230971025 204.8562360603355 0 204.8562360603355 530.28628974675667 0 0 0 0 97.500684231607011 51.068356084160769 0 51.068356084160769 680.03997471978801 0 0 0 0 85.100347397710721 168.74250851771569 0 168.74250851771569 470.89342327027407 0 0 0 0 -41.957512675173348 228.76478760627288 0 228.76478760627288 512.71474519763433 0 0 0 0 -96.015606953325914 106.55635929689379 0 106.55635929689379 639.72026085734251 0 0 0 0 -4.8622431066518175 3.0298339893176518 0 3.0298339893176518 -1.2725106058700639 0 0 0 0 -157.22684947229573 252.05910136301463 0 252.05910136301463 934.64995047993398 0 0 0 0 400.51733564592723 -85.969986059604707 0 -85.969986059604707 -1498.2457579749716 0 0 0 0 -276.12401163850154 34.359187407462741 0 34.359187407462741 -595.89822622066276 0 0 0 0 103.07870766174165 250.5228683725818 0 250.5228683725818 577.24820003310015 0 0 0 0 -144.81362615618855 538.51212719595424 0 538.51212719595424 1041.1020295227536 0 0 0 0 -14.930170883613414 11.31890612182513 0 11.31890612182513 -3.6435761764198649 0 0 0 0 386.00077044218779 296.05591937336067 0 296.05591937336067 -2086.4437689397455 0 0 0 0 -9.2281153632896462 5.1341380657751614 0 5.1341380657751614 -2.5932386668072098 0 0 0 0 -13.62491117202444 -97.811774562282153 0 -97.811774562282153 -1234.8413198571434 0 0 0 0 -21.671112584474031 154.81907929205772 0 154.81907929205772 764.08270068925776 0 0 0 0 37.225812840100843 90.933107112774451 0 90.933107112774451 607.40118621069905 0 0 0 0 3.6717286293860525 159.89979055059666 0 159.89979055059666 519.1851180586491 0 0 0 0 36.914754169934895 -9.0355548316110799 0 -9.0355548316110799 644.17672830241645 0 0 0 0 60.809728127438575 159.21569820054356 0 159.21569820054356 250.67532337842567 0 0 0 0 94.383016037856578 20.532641449561197 0 20.532641449561197 354.41074973589275 0 0 0 0 -18.314111460420804 15.061448401798895 0 15.061448401798895 -3.6936209372269211 0 0 0 0 -116.78837843431393 192.93008826147707 0 192.93008826147707 752.37588181311003 0 0 0 0 -157.39575963828247 39.975804607940518 0 39.975804607940518 689.6637491297588 0 0 0 0 46.368322663824074 26.365248058471479 0 26.365248058471479 182.60867793342186 0 0 0 0 -0.75439692845975515 129.02602362381367 0 129.02602362381367 452.92359336639493 0 0 0 0 174.57632532011485 102.21271718460048 0 102.21271718460048 454.36699347734725 0 0 0 0 108.72301642462844 -52.358963912152831 0 -52.358963912152831 22.324310891002824 0 0 0 0 -1146.1051779180998 -977.70243123095861 0 -977.70243123095861 -648.62156554195099 0 0 0 0 -580.79841924269567 1205.0249708350602 0 1205.0249708350602 200.63499771871284 0 0 0 0 -43.215376816573553 566.44776040796205 0 566.44776040796205 798.6479955634386 0 0 0 0 -132.37866633982048 906.89653877751334 0 906.89653877751334 1218.3715779418108 0 0 0 0 562.69908490885791 993.03136135850809 0 993.03136135850809 919.22509472925594 0 0 0 0 -301.00699207000434 686.24140264777452 0 686.24140264777452 981.93578497700582 0 0 0 0 116.16463997472601 708.28023491756812 0 708.28023491756812 948.25975925473904 0 0 0 0 69.924964633275522 845.28219706762684 0 845.28219706762684 928.59559021921814 0 0 0 0 563.26390912558418 920.3607085568874 0 920.3607085568874 831.84756791286236 0 0 0 0 -44.965035955654457 434.94541509166083 0 434.94541509166083 1039.3549739473087 0 0 0 0 146.37118239607662 369.75821396064566 0 369.75821396064566 916.6056985342002 0 0 0 0 43.264418422768358 532.5547149482245 0 532.5547149482245 807.69828025360403 0 0 0 0 3.4270844832935836 607.66961489336427 0 607.66961489336427 868.21494157513553 0 0 0 0 89.944404967391165 551.89632099983373 0 551.89632099983373 692.09550421775657 0 0 0 0 90.921845613531787 588.77817294746512 0 588.77817294746512 754.77298584873279 0 0 0 0 175.42367307512905 565.63260012374667 0 565.63260012374667 760.36153355926217 0 0 0 0 549.57205729455745 685.68332898626159 0 685.68332898626159 529.29805220247363 0 0 0 0 175.00088420690736 664.25013666884297 0 664.25013666884297 666.66046218063457 0 0 0 0 159.86488898753305 677.81728160286184 0 677.81728160286184 806.53311691407362 0 0 0 0 260.47120243388053 545.967354162211 0 545.967354162211 539.69577894780559 0 0 0 0 201.76332585548516 452.11061922567387 0 452.11061922567387 437.31864931624932 0 0 0 0 257.18812304432504 223.50915343140969 0 223.50915343140969 200.00236510537252 0 0 0 0 91.734292692533927 385.57065686361148 0 385.57065686361148 537.1166158454663 0 0 0 0 72.838134532270487 537.38585896678705 0 537.38585896678705 680.07025936449008 0 0 0 0 97.727754464933241 325.65444312186742 0 325.65444312186742 368.08286252137987 0 0 0 0 36.210198962115101 383.35811194197095 0 383.35811194197095 817.20450848103974 0 0 0 0 -62.020064594536962 75.596660058384941 0 75.596660058384941 487.93813522005257 0 0 0 0 156.2278159208945 72.438837358431556 0 72.438837358431556 9.9997628499804705 0 0 0 0 61.356828616713756 170.15243831518319 0 170.15243831518319 273.40994950689856 0 0 0 0 346.16492417562404 1190.529303362847 0 1190.529303362847 3305.0182150077435 0 0 0 0 2466.5069115701772 2469.6803761343817 0 2469.6803761343817 -1490.442213068565 0 0 0 0 7.1771089984775926 4.6643010501138633 0 4.6643010501138633 2.1715713233639944 0 0 0 0 112.71741146585555 302.67835687591287 0 302.67835687591287 541.96275313320984 0 0 0 0 -22.918847712973729 247.58062904972826 0 247.58062904972826 597.55574744810656 0 0 0 0 13.931533217035053 13.596195758076917 0 13.596195758076917 8.3486677767264172 0 0 0 0 66.401342496887082 639.71184516092126 0 639.71184516092126 1117.0370048550349 0 0 0 0 47.225107810721966 270.09023903297884 0 270.09023903297884 832.96418792542318 0 0 0 0 55.94240091022948 355.39934581235912 0 355.39934581235912 1655.0796822031989 0 0 0 0 1018.6179282837838 1075.5344899680795 0 1075.5344899680795 813.17649490872554 0 0 0 0 69.951190264895558 425.33277163416096 0 425.33277163416096 545.37046051246216 0 0 0 0 370.94575848660315 529.32141294143639 0 529.32141294143639 397.35218782474112 0 0 0 0 347.73441176450069 769.66562952579829 0 769.66562952579829 670.10536149065592 0 0 0 0 172.90898195651243 561.6245591810748 0 561.6245591810748 610.2228993072531 0 0 0 0 221.69223844677617 442.35200285133942 0 442.35200285133942 452.41334798480239 0 0 0 0 -25.420457799530197 14.588822966659052 0 14.588822966659052 -8.2856698698894178 0 0 0 0 183.98565872151812 582.55571094443076 0 582.55571094443076 649.33695899975282 0 0 0 0 190.32043943351891 401.32897671868614 0 401.32897671868614 675.10737459003576 0 0 0 0 204.03990136584616 574.4747803921764 0 574.4747803921764 541.32344037899384 0 0 0 0 -5.4201654325747128 17.902662220299675 0 17.902662220299675 52.318670521233997 0 0 0 0 -37.509343098121349 25.263811839383557 0 25.263811839383557 4.3676220719365517 0 0 0 0 -382.29704540708917 386.8104489103971 0 386.8104489103971 25.718907429745741 0 0 0 0 -306.80263771876344 217.52439710319595 0 217.52439710319595 458.74434471563291 0 0 0 0 -624.01900781440781 -385.26197371669423 0 -385.26197371669423 -178.82315147672034 0 0 0 0 -811.38583629112691 702.82921676725505 0 702.82921676725505 -467.24356912191757 0 0 0 0 -7.7904909170748056 6.5685155831334043 0 6.5685155831334043 16.189280692593336 0 0 0 0 -1007.8930279397173 646.78865665679416 0 646.78865665679416 -260.19955708759488 0 0 0 0 -917.17740682091971 261.23621199076848 0 261.23621199076848 -303.4395215419022 0 0 0 0 101.48536656431679 257.3261247887649 0 257.3261247887649 418.88969539132631 0 0 0 0 -1.0319326357035834 28.379149230031629 0 28.379149230031629 34.889542846939122 0 0 0 0 421.25499223021325 141.74092846581925 0 141.74092846581925 -100.88625697440148 0 0 0 0 -702.73425990261603 565.68709685916815 0 565.68709685916815 -397.95827514725215 0 0 0 0 628.58527000276081 -86.748410633849403 0 -86.748410633849403 202.26821472803204 0 0 0 0 3356.7753625736223 957.90296037182816 0 957.90296037182816 -284.57427028227335 0 0 0 0 -1643.7742896716518 120.69927512843969 0 120.69927512843969 -320.57687769925064 0 0 0 0 -912.1322419597418 569.33159345489969 0 569.33159345489969 -226.09105950543551 0 0 0 0 -895.38224929812714 486.78745672048058 0 486.78745672048058 -324.36979992130409 0 0 0 0 -634.60780773480656 686.03441085712711 0 686.03441085712711 -313.48998477351552 0 0 0 0 -736.91172903429833 468.60758103487501 0 468.60758103487501 -319.7906114969237 0 0 0 0 -1104.9666160434572 881.88669906807763 0 881.88669906807763 -41.875376250452973 0 0 0 0 -348.07130919466726 800.07430600981252 0 800.07430600981252 -209.53333363479993 0 0 0 0 -88.053269072930561 390.81840362437606 0 390.81840362437606 -129.22477186127708 0 0 0 0 -583.68565493109054 983.80258708849306 0 983.80258708849306 -42.735333145592904 0 0 0 0 -1072.2269394510949 543.29417925776988 0 543.29417925776988 -103.00881534660584 0 0 0 0 -1932.7364709518733 1687.6540991534671 0 1687.6540991534671 339.51101478505279 0 0 0 0 3100.5037772347277 842.59189184290335 0 842.59189184290335 81.791406868131162 0 0 0 0 3.6601266322654311 14.236672852997401 0 14.236672852997401 15.083341122366077 0 0 0 0 2951.2843200154311 2454.3295727314207 0 2454.3295727314207 -2304.3240913502468 0 0 0 0 -2933.4867459964225 990.0104981413931 0 990.0104981413931 637.23341351485942 0 0 0 0 -2307.9579464149429 161.4695530101767 0 161.4695530101767 -855.06492689628885 0 0 0 0 -1904.5575369938742 1839.4781246839002 0 1839.4781246839002 1481.3292806064633 0 0 0 0 699.84024586892338 -73.176155498869548 0 -73.176155498869548 43.90614338011892 0 0 0 0 13.709037622407777 539.93452164488599 0 539.93452164488599 13.603476936377206 0 0 0 0 -107.93723281708662 383.81116767523611 0 383.81116767523611 -221.91018513206427 0 0 0 0 -236.77495794813149 361.70407844688634 0 361.70407844688634 112.40677105015476 0 0 0 0 -191.192966556584 498.24471950641077 0 498.24471950641077 -90.971782749060822 0 0 0 0 -265.29336506956315 637.08622522629912 0 637.08622522629912 -348.37773269685522 0 0 0 0 -116.29561594314873 576.81017144379132 0 576.81017144379132 -483.12413581052533 0 0 0 0 -231.61784651482594 549.917002935352 0 549.917002935352 -488.81107335724573 0 0 0 0 -402.02685526767164 405.06357716251273 0 405.06357716251273 -419.17199281811708 0 0 0 0 -189.353643087612 367.85266232117078 0 367.85266232117078 -413.49477239232692 0 0 0 0 47.687871464993805 502.08407003914374 0 502.08407003914374 -565.85946901069713 0 0 0 0 -4.9789346127945464 805.68678426065935 0 805.68678426065935 -611.63384068129926 0 0 0 0 -7.2488785223317791 17.670515618380449 0 17.670515618380449 -23.184935543674833 0 0 0 0 5023.6698366699857 91.270077055740785 0 91.270077055740785 -919.74405293393374 0 0 0 0 -2420.6766227364151 82.167966888662704 0 82.167966888662704 86.734588362603972 0 0 0 0 -2325.7026685386372 1006.178417707999 0 1006.178417707999 -368.41862832961124 0 0 0 0 3.4309250609530348 7.7143909525784977 0 7.7143909525784977 -20.7474263920009 0 0 0 0 5330.4228503382037 -146.85824682934583 0 -146.85824682934583 -1139.7247122056874 0 0 0 0 -1252.5954576141448 -305.10721085922341 0 -305.10721085922341 -6.9085168708334095 0 0 0 0 -1620.0130130948673 497.78411653770854 0 497.78411653770854 215.95790401626437 0 0 0 0 -1068.0178346562316 -698.43009982050035 0 -698.43009982050035 2087.8123668622757 0 0 0 0 108.34949486996629 43.101666651095002 0 43.101666651095002 -10.517703789166262 0 0 0 0 -237.14546898455592 471.27725326467771 0 471.27725326467771 329.39058189804564 0 0 0 0 -1008.6903667267179 370.02090392586979 0 370.02090392586979 324.97580046048097 0 0 0 0 -382.21735355054261 -198.30782267422546 0 -198.30782267422546 5.8125790190160842 0 0 0 0 -248.58331602896214 20.479828506640388 0 20.479828506640388 -511.71360924858118 0 0 0 0 -189.1805289822878 364.11143558355542 0 364.11143558355542 -636.69527818756887 0 0 0 0 582.0059075729223 345.51484855919534 0 345.51484855919534 -702.22651265795002 0 0 0 0 628.34978040261194 1010.3774533452615 0 1010.3774533452615 -557.45815540389549 0 0 0 0 423.95889176503988 2012.8748209973041 0 2012.8748209973041 1092.4371343082823 0 0 0 0 1231.8932510677841 628.12596554184165 0 628.12596554184165 -871.01576710853897 0 0 0 0 2519.6583207630902 2009.2494147066664 0 2009.2494147066664 -409.88965589644613 0 0 0 0 -508.85346217842198 1266.0493104420007 0 1266.0493104420007 -81.609891823082762 0 0 0 0 1635.9787515785429 94.062557576317886 0 94.062557576317886 359.88083311005721 0 0 0 0 -20.091393335320106 42.048051110758536 0 42.048051110758536 -41.993641801118741 0 0 0 0 -132.40541813505115 672.28295145994161 0 672.28295145994161 458.82822071643386 0 0 0 0 -195.10063757044554 585.12680642870873 0 585.12680642870873 504.17945330025759 0 0 0 0 270.51519634101714 554.39228718914273 0 554.39228718914273 152.59511123217817 0 0 0 0 -824.4781952148187 607.40894152253077 0 607.40894152253077 474.34896756076341 0 0 0 0 392.3115757634805 413.45702774668098 0 413.45702774668098 293.1236776397418 0 0 0 0 1272.5189440815011 436.68988736475876 0 436.68988736475876 316.03460513985783 0 0 0 0 808.16606924466032 1006.3265712620869 0 1006.3265712620869 228.42654716649849 0 0 0 0 -22.601508554698057 42.00994252733193 0 42.00994252733193 -28.851874705616069 0 0 0 0 1024.505052710876 1013.5832266590742 0 1013.5832266590742 251.32049388905216 0 0 0 0 138.36768045739154 796.1907867507598 0 796.1907867507598 888.59840088788224 0 0 0 0 73.884441695114219 123.43712858761819 0 123.43712858761819 118.24569187055022 0 0 0 0 898.24681885764585 473.50240248389309 0 473.50240248389309 77.281745755165048 0 0 0 0 -18.010034555321909 -17.231493915997817 0 -17.231493915997817 -515.81026353723428 0 0 0 0 -80.226481625810266 450.38983873064353 0 450.38983873064353 -5.0195294349214237 0 0 0 0 -88.475032628746703 412.28168115438166 0 412.28168115438166 602.89240174052247 0 0 0 0 -431.10488636390073 115.44684104533917 0 115.44684104533917 786.15140905104272 0 0 0 0 -185.75192916305969 154.39009755859661 0 154.39009755859661 670.14700376249675 0 0 0 0 -224.55141674191691 43.916084860262345 0 43.916084860262345 357.684353368546 0 0 0 0 -262.14975621999474 341.19957933699334 0 341.19957933699334 636.36316138275424 0 0 0 0 3.0854971168277601 8.3390599118857835 0 8.3390599118857835 17.978721147532582 0 0 0 0 1103.4021876707848 675.70104501040987 0 675.70104501040987 -213.71396974821982 0 0 0 0 1227.5310701778653 512.25441744099408 0 512.25441744099408 -217.94124464560446 0 0 0 0 666.63245648925658 769.37043380034447 0 769.37043380034447 -84.418684590375051 0 0 0 0 -16.542691749790691 29.406489407352495 0 29.406489407352495 -11.671154116433812 0 0 0 0 -746.23716338185477 -0.52344736303712125 0 -0.52344736303712125 1803.2011756782449 0 0 0 0 1024.0371420439624 665.90605148832583 0 665.90605148832583 -648.12085878953076 0 0 0 0 -343.09857327913051 438.69203564336203 0 438.69203564336203 1307.078731615944 0 0 0 0 16.756052508673747 1345.3775079502684 0 1345.3775079502684 830.61411341000348 0 0 0 0 85.451203088567127 731.48207982776876 0 731.48207982776876 -98.187109510308801 0 0 0 0 -232.6993417997146 1022.4789682897062 0 1022.4789682897062 -307.65800169758222 0 0 0 0 187.94804478768492 536.47026061355791 0 536.47026061355791 -649.43885514906651 0 0 0 0 -2122.3172508099815 -31.082045119390386 0 -31.082045119390386 -137.47274319184726 0 0 0 0 -5.1257729926385593 10.413111581290764 0 10.413111581290764 -2.7907644258382049 0 0 0 0 3298.4446088959594 1710.1749696705656 0 1710.1749696705656 -253.85601431532268 0 0 0 0 -79.177493903500363 -189.7802217644421 0 -189.7802217644421 -895.83640969137923 0 0 0 0 1017.8059419288293 954.7759602655301 0 954.7759602655301 396.74130027750653 0 0 0 0 2065.2207316318527 320.97705815817608 0 320.97705815817608 509.04595608873387 0 0 0 0 933.50622468747315 436.22744815269834 0 436.22744815269834 32.302187410547049 0 0 0 0 297.03078384281253 526.69721986141667 0 526.69721986141667 561.59971397144182 0 0 0 0 289.66478188155452 598.92192632605656 0 598.92192632605656 -22.947988583637198 0 0 0 0 278.3057804202017 946.37500429578347 0 946.37500429578347 588.28155083304591 0 0 0 0 278.87495769007364 948.00252225138138 0 948.00252225138138 -149.45990922439523 0 0 0 0 1208.7094586862659 1007.1264527392013 0 1007.1264527392013 872.55987595424085 0 0 0 0 2234.8374170329043 1266.390661015208 0 1266.390661015208 195.97158471703733 0 0 0 0 1252.4008834800625 726.21797855281693 0 726.21797855281693 125.01889927619777 0 0 0 0 652.25662317126989 978.18032539347041 0 978.18032539347041 -173.60667793012544 0 0 0 0 35.068792484176811 320.90537707947078 0 320.90537707947078 -348.82272626956183 0 0 0 0 -434.0813726252527 229.03189177463355 0 229.03189177463355 -338.96539440447214 0 0 0 0 241.4571844793245 572.77513980563708 0 572.77513980563708 154.16725757549284 0 0 0 0 221.75106342128129 130.40276681584692 0 130.40276681584692 -154.42592411283476 0 0 0 0 -138.75305498304078 169.83396115189316 0 169.83396115189316 183.36765167993144 0 0 0 0 292.5962176605899 879.30441358826806 0 879.30441358826806 26.979913600458531 0 0 0 0 1549.5773750725202 553.86999091129474 0 553.86999091129474 -12.065912520421989 0 0 0 0 1356.2350540525804 2060.0837019300961 0 2060.0837019300961 168.91951528900972 0 0 0 0 58.788271718105534 1818.3380893932263 0 1818.3380893932263 132.23186967915626 0 0 0 0 1576.849777421332 1262.9378015486691 0 1262.9378015486691 -1235.0911599885221 0 0 0 0 -1037.0446771257702 1624.7521067180787 0 1624.7521067180787 -511.11019756933092 0 0 0 0 938.1514523839287 73.075879434607486 0 73.075879434607486 480.41444414219586 0 0 0 0 835.83907071311842 943.51168120232251 0 943.51168120232251 1027.7809551483224 0 0 0 0 445.28690067362913 2068.3227197801189 0 2068.3227197801189 106.13086954847677 0 0 0 0 -920.36897433164995 1848.2858400356272 0 1848.2858400356272 110.07382670169076 0 0 0 0 11.743090071159145 9.7090932995077708 0 9.7090932995077708 14.089082850421917 0 0 0 0 2294.4671869785016 1274.2411035093519 0 1274.2411035093519 113.01897404109332 0 0 0 0 2859.7927409615186 50.102403617723212 0 50.102403617723212 -198.25429671796155 0 0 0 0 1708.6392719689356 925.19602686073267 0 925.19602686073267 -173.29063925852824 0 0 0 0 1313.1086024575307 4.2817174427409554 0 4.2817174427409554 -129.19041049235238 0 0 0 0 195.3839115423325 173.62655419747171 0 173.62655419747171 129.3129111704875 0 0 0 0 -801.93012824967445 805.5776761457455 0 805.5776761457455 -737.10071367714772 0 0 0 0 192.67980835190974 214.59252915261823 0 214.59252915261823 -66.641795351897599 0 0 0 0 30.280467007378888 51.4767298862171 0 51.4767298862171 -1.7772369957161231 0 0 0 0 -863.25854605370841 603.94386922955164 0 603.94386922955164 -241.95610510544611 0 0 0 0 -266.39744249811338 482.37800857594993 0 482.37800857594993 -862.05969868465399 0 0 0 0 -340.83024512152042 175.48308463549483 0 175.48308463549483 -500.32858262028458 0 0 0 0 -670.87084592672181 463.63219232322081 0 463.63219232322081 -431.59206374235146 0 0 0 0 -436.9545930219756 319.61758371560791 0 319.61758371560791 -670.55887635262479 0 0 0 0 18.544235121809095 126.56031865955154 0 126.56031865955154 -122.83402121494805 0 0 0 0 -682.01165716050309 594.19316196192085 0 594.19316196192085 -491.85457029612371 0 0 0 0 682.98034744488541 -170.84791101027804 0 -170.84791101027804 -993.55907626660337 0 0 0 0 545.35270004250924 968.52782708653831 0 968.52782708653831 -2110.5737184949103 0 0 0 0 -624.29854921298102 -228.98590224618965 0 -228.98590224618965 -2344.2584429727285 0 0 0 0 29.080054109776484 0.38666101412991338 0 0.38666101412991338 -119.8579145986364 0 0 0 0 -581.17818386507861 362.75821923642798 0 362.75821923642798 336.684624270114 0 0 0 0 -852.94045572221512 614.47472005271629 0 614.47472005271629 117.47782171928702 0 0 0 0 -675.70844198670238 716.509000701888 0 716.509000701888 -239.42233091421076 0 0 0 0 -3.487227696273095 7.0455129242013754 0 7.0455129242013754 -10.301380604849953 0 0 0 0 673.89638360349636 656.7589999400152 0 656.7589999400152 -268.62291014002403 0 0 0 0 241.76974013732979 44.641921960668697 0 44.641921960668697 -167.99256331204379 0 0 0 0 -4.9384227830327347 13.589175966598987 0 13.589175966598987 -22.053351157992893 0 0 0 0 101.73765118350275 -63.386310891340145 0 -63.386310891340145 -630.52598273649346 0 0 0 0 -220.05678993975744 675.55018279403885 0 675.55018279403885 -431.82806065743898 0 0 0 0 229.70919087539369 374.44767683975078 0 374.44767683975078 -31.64007479713473 0 0 0 0 930.46105549320055 557.96540718050528 0 557.96540718050528 -371.17432223436481 0 0 0 0 492.69895628624363 -427.31104355172647 0 -427.31104355172647 -456.51619513847982 0 0 0 0 221.13871938233933 -325.83165498918424 0 -325.83165498918424 -1044.3475836938742 0 0 0 0 1148.1261396601476 672.43222988128036 0 672.43222988128036 155.69164180547523 0 0 0 0 -5.7925572214790577 50.070141558369862 0 50.070141558369862 -43.274121780335975 0 0 0 0 -37.125889314134838 -58.485861323591962 0 -58.485861323591962 -712.41915093101125 0 0 0 0 561.87880380073329 417.31939844327644 0 417.31939844327644 -356.37268399220193 0 0 0 0 320.25347490720742 16.921009442370632 0 16.921009442370632 -20.535984922658827 0 0 0 0 295.92148860293673 78.446404404876375 0 78.446404404876375 -176.02586364118179 0 0 0 0 -5.8194832657071629 61.173725628465874 0 61.173725628465874 -58.314367783038222 0 0 0 0 821.07907359112141 668.32862914627003 0 668.32862914627003 205.35627414574265 0 0 0 0 1211.5488901746285 991.25270988640114 0 991.25270988640114 108.7494918440043 0 0 0 0 1012.7043447589967 704.3550275689995 0 704.3550275689995 232.08797366005456 0 0 0 0 1472.5069967344607 715.70840843166661 0 715.70840843166661 -226.5953265963617 0 0 0 0 1222.8113885263156 1056.2857620736941 0 1056.2857620736941 378.06914434659848 0 0 0 0 1042.3122428210045 830.35616796159593 0 830.35616796159593 760.88056588450127 0 0 0 0 1171.4787983676797 2175.0218262816634 0 2175.0218262816634 -2576.4342545211985 0 0 0 0 297.01922473983723 1052.0637918340872 0 1052.0637918340872 881.19023466085855 0 0 0 0 1069.752940779872 442.5458148387479 0 442.5458148387479 760.91137152142619 0 0 0 0 616.11312004057982 620.83806808916779 0 620.83806808916779 1463.7084964609676 0 0 0 0 -3.4788643968713018 40.181541172504616 0 40.181541172504616 -32.003457477790633 0 0 0 0 -176.84487019343942 -384.58594515826189 0 -384.58594515826189 -1561.5745275502559 0 0 0 0 -13.940229122003075 182.00037294886715 0 182.00037294886715 -998.14349478146687 0 0 0 0 -312.80041017534677 -334.64584909388213 0 -334.64584909388213 -809.12295997623005 0 0 0 0 1682.9651534696823 2291.3887595174456 0 2291.3887595174456 6810.3258027265401 0 0 0 0 -217.27042853759485 -87.003694918370456 0 -87.003694918370456 -1449.9948640253606 0 0 0 0 1016.8828519625822 4141.2117871910159 0 4141.2117871910159 1673.0980372229178 0 0 0 0 -619.7164705474861 -655.27689565902256 0 -655.27689565902256 -2190.0006305354182 0 0 0 0 -277.13552658178378 292.60050643647264 0 292.60050643647264 -1899.7371609395777 0 0 0 0 74.452104334661271 529.64524905099097 0 529.64524905099097 -2107.2882500840569 0 0 0 0 -134.57247606002784 604.1736220306957 0 604.1736220306957 -1052.4738581975689 0 0 0 0 -154.61350041575497 -95.631484622797871 0 -95.631484622797871 -1474.5874738138664 0 0 0 0 -17.044958281912841 677.90262350095145 0 677.90262350095145 -1192.8294099681734 0 0 0 0 192.25048712507123 312.91129252021346 0 312.91129252021346 801.11795635015005 0 0 0 0 -153.38971345560276 1316.7032022562635 0 1316.7032022562635 -1126.2615874111507 0 0 0 0 12.533464274543803 776.730666839474 0 776.730666839474 -2335.5395378170506 0 0 0 0 -204.32873666349042 587.53308531206312 0 587.53308531206312 -1284.2209727002191 0 0 0 0 -92.740066063881386 250.56347567358171 0 250.56347567358171 -1827.7063087428542 0 0 0 0 232.05862788335071 104.82572766520025 0 104.82572766520025 -3678.6799145989644 0 0 0 0 368.41899933082459 1027.8005532285752 0 1027.8005532285752 -4124.4045582030376 0 0 0 0 -3.9229485181161863 13.99873097009727 0 13.99873097009727 -7.8918752236195218 0 0 0 0 522.42023149039596 -709.89179331352352 0 -709.89179331352352 -4692.1043991334736 0 0 0 0 -10.221132301028604 14.928577800186652 0 14.928577800186652 -7.008763555349816 0 0 0 0 943.90292510850122 3432.6496064615494 0 3432.6496064615494 7083.8910742529406 0 0 0 0 -281.86317562607292 -982.83957130560157 0 -982.83957130560157 -3170.5388173842512 0 0 0 0 -475.79804472374963 -126.31082044565846 0 -126.31082044565846 -597.25642615335528 0 0 0 0 -31.950209036497256 41.090969709975909 0 41.090969709975909 -27.553673881862409 0 0 0 0 1439.1547988190432 4340.3113921676304 0 4340.3113921676304 2734.0988420363137 0 0 0 0 -804.11019637304707 136.57492414074295 0 136.57492414074295 -88.04001248854911 0 0 0 0 -406.60904542493518 258.16714134144058 0 258.16714134144058 -315.74776213881341 0 0 0 0 57.967801585007692 375.58184027976677 0 375.58184027976677 -280.29063469133689 0 0 0 0 -665.92542298871558 898.5439715574721 0 898.5439715574721 -306.32952227977512 0 0 0 0 -377.50534121796954 166.53311175415365 0 166.53311175415365 -159.70984255123039 0 0 0 0 786.40964275330771 390.72595506090875 0 390.72595506090875 -3800.3513858800725 0 0 0 0 -375.59868180035483 488.70995247592782 0 488.70995247592782 -1745.7828486497892 0 0 0 0 -165.02610284369439 2045.1879132053946 0 2045.1879132053946 -329.94443469295584 0 0 0 0 -1395.9076184231089 1459.5025841060051 0 1459.5025841060051 -8.149550399400141 0 0 0 0 10.264100137075275 11.258781473621127 0 11.258781473621127 5.9261117115041486 0 0 0 0 -1340.2860777571041 651.94418873583345 0 651.94418873583345 -88.847777515744383 0 0 0 0 -38.180344421591144 557.5602884846121 0 557.5602884846121 -529.45605362283459 0 0 0 0 -1001.9232597669907 1257.9890141609812 0 1257.9890141609812 -736.3580394201781 0 0 0 0 -790.62469814064389 396.49773466623083 0 396.49773466623083 -346.79481644515909 0 0 0 0 22.178861958231039 24.425651412994853 0 24.425651412994853 15.512407654238075 0 0 0 0 -534.28391806849686 650.99230354708197 0 650.99230354708197 -166.63662480155836 0 0 0 0 1089.8112472655193 856.23201949865143 0 856.23201949865143 -123.15478862558666 0 0 0 0 679.45278838007653 145.6119099729658 0 145.6119099729658 -511.22168827188398 0 0 0 0 1267.1802277888346 784.91475740255191 0 784.91475740255191 -212.61140604067623 0 0 0 0 1262.4746074249997 774.99476922874237 0 774.99476922874237 -151.06905441954586 0 0 0 0 1293.7332036707376 792.10150593393701 0 792.10150593393701 23.755211227475229 0 0 0 0 1218.3841104996973 924.03533628541663 0 924.03533628541663 -89.78946698193613 0 0 0 0 1019.451719999357 635.20036137651005 0 635.20036137651005 -334.87893277525291 0 0 0 0 570.18566185841337 259.69638784885683 0 259.69638784885683 -132.98852126670135 0 0 0 0 237.44306023663376 130.66095060868975 0 130.66095060868975 -192.07713434045581 0 0 0 0 272.39514494265313 507.54204401702373 0 507.54204401702373 -166.84634277188525 0 0 0 0 1074.1784403272613 580.37057261120208 0 580.37057261120208 -6.5403100483017624 0 0 0 0 713.0326666291221 47.678047789238917 0 47.678047789238917 163.03978625642503 0 0 0 0 660.22624784617801 575.13200053976834 0 575.13200053976834 238.38594762361754 0 0 0 0 598.25653013493866 343.29112565893956 0 343.29112565893956 -361.15127173188375 0 0 0 0 467.30872098130931 772.28879879182023 0 772.28879879182023 -784.16621793532249 0 0 0 0 992.91684126084147 346.29063015665088 0 346.29063015665088 -642.2013168151534 0 0 0 0 479.24149530180148 303.50476914075989 0 303.50476914075989 -371.43406660054461 0 0 0 0 585.19405496471973 208.67221843172638 0 208.67221843172638 -371.09808119660011 0 0 0 0 310.41374425074901 169.89658218230034 0 169.89658218230034 -353.69971915891801 0 0 0 0 54.78328777331626 397.68496009796581 0 397.68496009796581 -407.4525741437883 0 0 0 0 160.74410152963537 154.31713082616443 0 154.31713082616443 -450.41406493412069 0 0 0 0 -699.19288236154534 739.53378133463184 0 739.53378133463184 -485.04551073394032 0 0 0 0 -444.64694873411645 212.6577425702435 0 212.6577425702435 -218.92516986026021 0 0 0 0 82.49493373875157 265.78494755662905 0 265.78494755662905 -401.04982117286272 0 0 0 0 -440.98384319037723 468.79868129321403 0 468.79868129321403 -627.26624904703385 0 0 0 0 24.950949220539371 25.996028971867844 0 25.996028971867844 14.223157357338991 0 0 0 0 -889.44351708993781 1112.9104685233815 0 1112.9104685233815 -563.69974711630493 0 0 0 0 -530.16068625182379 326.38165872596619 0 326.38165872596619 -388.89111287062042 0 0 0 0 -331.59601971067605 721.32468785299352 0 721.32468785299352 -605.44749363856681 0 0 0 0 -377.84258925242466 661.89064910021989 0 661.89064910021989 -556.42803438632836 0 0 0 0 -272.99934084591951 737.68777283987038 0 737.68777283987038 -526.66632362745804 0 0 0 0 25.65133170379579 36.247659368861179 0 36.247659368861179 -0.35588272383131425 0 0 0 0 448.05403511918848 801.8108292324996 0 801.8108292324996 -609.48422514233425 0 0 0 0 -417.41911707598774 602.50177328628888 0 602.50177328628888 -221.907013493259 0 0 0 0 315.64451165235369 1433.7768464950204 0 1433.7768464950204 -475.98607582269869 0 0 0 0 428.05389226299303 120.692854057158 0 120.692854057158 -490.64969433226361 0 0 0 0 -851.70670032299677 37.275888334066622 0 37.275888334066622 187.45824116880976 0 0 0 0 22.392741123118356 33.093168471443477 0 33.093168471443477 2.7879333345231885 0 0 0 0 -1765.3247832815905 1111.4830405178909 0 1111.4830405178909 -260.45014962103596 0 0 0 0 -408.02030842354725 528.35254662373882 0 528.35254662373882 20.283987362709013 0 0 0 0 -460.09322772607266 315.7889965775048 0 315.7889965775048 -595.17545309012928 0 0 0 0 -150.70006460882723 125.87096443058545 0 125.87096443058545 181.11415836790547 0 0 0 0 14.462417196150852 23.157960462351923 0 23.157960462351923 4.5600910898749589 0 0 0 0 977.82906118610117 100.87262156762154 0 100.87262156762154 -420.88815995034747 0 0 0 0 3.8611302560335616 7.7402497875915515 0 7.7402497875915515 2.5507319914362085 0 0 0 0 -2865.9874589442479 1698.8812416076835 0 1698.8812416076835 -183.38794189149485 0 0 0 0 2051.6068326609529 -245.63581044626699 0 -245.63581044626699 -380.18490391685191 0 0 0 0 -549.44858159044088 658.56829368406761 0 658.56829368406761 119.95777752179856 0 0 0 0 15.808571966700583 901.44710886479629 0 901.44710886479629 -67.693223787297029 0 0 0 0 -505.83987391304981 15.929478256064613 0 15.929478256064613 -544.90882691792285 0 0 0 0 -997.36893485859036 1098.7229937220209 0 1098.7229937220209 -399.49420344788814 0 0 0 0 16.528298700609753 53.070026504560587 0 53.070026504560587 29.967790069555775 0 0 0 0 -53.058277123531468 67.161308759967568 0 67.161308759967568 -27.952680459299685 0 0 0 0 -633.73130719843903 597.94218763946265 0 597.94218763946265 -135.63684424831808 0 0 0 0 -46.926230082811514 72.944571813419714 0 72.944571813419714 -31.376657639201909 0 0 0 0 524.53652998224061 1020.5194915609391 0 1020.5194915609391 -306.97064077394316 0 0 0 0 45.558241594961146 191.5092953795247 0 191.5092953795247 -50.571406442779335 0 0 0 0 -225.79844393100939 230.60922901565209 0 230.60922901565209 -113.73257757579631 0 0 0 0 -385.19564759507193 488.9314506193914 0 488.9314506193914 -206.39136063730621 0 0 0 0 -614.19258391167386 355.42602270740463 0 355.42602270740463 -67.188712823332025 0 0 0 0 -236.20233664599073 287.28726215301867 0 287.28726215301867 -363.61370231756155 0 0 0 0 -210.14585838390485 398.91649159780354 0 398.91649159780354 44.89188943564659 0 0 0 0 -228.1331533274606 267.31013628172695 0 267.31013628172695 -66.389099518986768 0 0 0 0 -395.58841240595211 692.94627475152083 0 692.94627475152083 -261.40547835881534 0 0 0 0 17.509190995598203 20.868372710222047 0 20.868372710222047 27.302432752021929 0 0 0 0 -1411.0879944773478 73.288805322661574 0 73.288805322661574 -127.08277650998207 0 0 0 0 -2236.7812120499511 1351.2916442605447 0 1351.2916442605447 -324.23055966271932 0 0 0 0 7.9299943541945481 8.2390610469536796 0 8.2390610469536796 5.2287589463560948 0 0 0 0 1004.0114749189524 744.72500112688431 0 744.72500112688431 -347.04152107933442 0 0 0 0 796.80471877150558 861.43060886152671 0 861.43060886152671 360.57480611842038 0 0 0 0 607.55682866828283 586.84951140285557 0 586.84951140285557 61.877151814616809 0 0 0 0 2097.2254309374111 702.51892355546443 0 702.51892355546443 -211.63341746423612 0 0 0 0 633.59962839458603 625.84618125179804 0 625.84618125179804 -30.254369877438876 0 0 0 0 367.52366834023269 251.50485996052157 0 251.50485996052157 -249.13596859952668 0 0 0 0 459.04682230987237 838.60733678823817 0 838.60733678823817 94.595713726244867 0 0 0 0 219.75593176019902 584.80469168306809 0 584.80469168306809 445.80402365594637 0 0 0 0 63.56433018707321 267.84057473253051 0 267.84057473253051 262.8968063231805 0 0 0 0 161.4633459529723 355.88745851888598 0 355.88745851888598 -80.996948655749293 0 0 0 0 0.44752119289478287 1069.9998063492712 0 1069.9998063492712 1167.4060810406809 0 0 0 0 113.24919617612613 913.5625170484127 0 913.5625170484127 349.36614763013858 0 0 0 0 228.88220151799032 788.35761958318108 0 788.35761958318108 127.98694960687862 0 0 0 0 229.38650125349204 801.67693818442569 0 801.67693818442569 247.41874890001054 0 0 0 0 -0.39840350116719492 1241.7506641430045 0 1241.7506641430045 -120.38970296936168 0 0 0 0 -1418.894663359999 748.31719979291302 0 748.31719979291302 -198.91838782100967 0 0 0 0 2.3149254917856865 8.856171745305403 0 8.856171745305403 -1.2959933707659275 0 0 0 0 -0.42272228939691558 455.49859457743514 0 455.49859457743514 -265.01331491252495 0 0 0 0 -463.68497615255183 368.10343115610522 0 368.10343115610522 -147.73197861769586 0 0 0 0 -0.28200712992111221 161.58877732135807 0 161.58877732135807 -59.977633332264304 0 0 0 0 4.5552431816468015 310.35525816128211 0 310.35525816128211 -61.054952091735231 0 0 0 0 3.6913231890180072 15.540018714580924 0 15.540018714580924 -1.9339783987736894 0 0 0 0 725.89422962228127 467.64525035223733 0 467.64525035223733 152.57636102800461 0 0 0 0 339.0284183442709 570.60156920754889 0 570.60156920754889 482.43649920060489 0 0 0 0 488.10432255333581 238.40467942234318 0 238.40467942234318 -67.540395489268121 0 0 0 0 471.41797018211219 741.85976980332998 0 741.85976980332998 -681.55823194625555 0 0 0 0 711.9284973643953 198.7357175152697 0 198.7357175152697 -287.73699788835074 0 0 0 0 555.19807182962541 530.27604334487842 0 530.27604334487842 -532.38296870599152 0 0 0 0 36.776573765528155 650.18408509570509 0 650.18408509570509 -557.27907400464755 0 0 0 0 371.72370710445102 801.66391631153238 0 801.66391631153238 -631.4790488537692 0 0 0 0 426.49770080117742 765.40316481745322 0 765.40316481745322 -647.00401922333913 0 0 0 0 648.8183526887733 224.28561922800873 0 224.28561922800873 -277.29776011113427 0 0 0 0 804.15974917892891 1064.5946772520547 0 1064.5946772520547 -746.89097110470993 0 0 0 0 -32.006266564265388 820.96829870345573 0 820.96829870345573 -630.61011788885662 0 0 0 0 -98.643313691765798 568.4753933727211 0 568.4753933727211 -568.82764582366508 0 0 0 0 -2064.4052427848219 1678.2801592690612 0 1678.2801592690612 -357.92113366494777 0 0 0 0 1.543631296561216 273.99109151394259 0 273.99109151394259 274.44082003494987 0 0 0 0 1909.436994977601 1077.8621377760737 0 1077.8621377760737 -291.40301652700509 0 0 0 0 1.5968122779048457 9.4032255807093748 0 9.4032255807093748 -1.3065587140166315 0 0 0 0 151.17576282728987 342.14859386797798 0 342.14859386797798 141.1845802628668 0 0 0 0 -363.80522270403162 611.17455097860329 0 611.17455097860329 -277.2849803222598 0 0 0 0 64.989071047413745 598.61922896311989 0 598.61922896311989 -573.46063440262515 0 0 0 0 3.3760234671154166 16.353495119592253 0 16.353495119592253 -2.0117874198265895 0 0 0 0 -2.2065772619949429 994.0565071790827 0 994.0565071790827 -917.75488462066278 0 0 0 0 674.26854427630315 -733.57278775807936 0 -733.57278775807936 -3699.7481437517272 0 0 0 0 -141.57195464553661 1055.9103281151401 0 1055.9103281151401 -1350.5279571938663 0 0 0 0 87.404824553756043 449.24017900422768 0 449.24017900422768 -40.457357208098983 0 0 0 0 -412.40323251088557 475.85034780861315 0 475.85034780861315 1117.8886361317127 0 0 0 0 3.2578606630549416 4.5754988543943682 0 4.5754988543943682 -0.91013303481216212 0 0 0 0 404.64251961707487 1030.5642742874625 0 1030.5642742874625 -1901.8532760043017 0 0 0 0 -936.68649271785398 892.45225339639728 0 892.45225339639728 -1164.1880723912764 0 0 0 0 4.9608552752305286 6.6901740381015316 0 6.6901740381015316 12.44731675627628 0 0 0 0 921.34774618811207 256.94558024076832 0 256.94558024076832 -773.93178589621675 0 0 0 0 -436.54751760211002 2327.170057850728 0 2327.170057850728 -200.25018056004774 0 0 0 0 -919.1911865931761 810.2606728630999 0 810.2606728630999 -912.46679806244356 0 0 0 0 -280.3742963920522 1300.2044769189961 0 1300.2044769189961 -2399.8806858585158 0 0 0 0 -65.522332178807119 300.28314816676721 0 300.28314816676721 -1502.068757307934 0 0 0 0 -9.2935809130129883 11.070226466294599 0 11.070226466294599 -0.57925766106130538 0 0 0 0 -538.92017545035924 774.97243752364739 0 774.97243752364739 -214.93682388389425 0 0 0 0 -3315.1815617103712 3443.7016359240079 0 3443.7016359240079 -5255.4094476380487 0 0 0 0 -83.441966320766369 382.00727446556266 0 382.00727446556266 -1206.2977156696925 0 0 0 0 -2712.3609979632874 1113.0930781468069 0 1113.0930781468069 -90.644337918172823 0 0 0 0 -2991.7366199867101 2889.010047888667 0 2889.010047888667 -1848.4625400201039 0 0 0 0 427.9263435958128 1939.2524987267388 0 1939.2524987267388 -5008.6270470468589 0 0 0 0 -5.5447515609301377 14.087676988862199 0 14.087676988862199 1.3767323594086776 0 0 0 0 -279.05126482335618 497.80829185964831 0 497.80829185964831 -837.31605375216168 0 0 0 0 514.09947815798932 368.76190030624412 0 368.76190030624412 -1964.3347190204368 0 0 0 0 -678.9746874315897 1919.5795714817941 0 1919.5795714817941 -2370.2388463623283 0 0 0 0 -602.86162734334357 1846.6602837021455 0 1846.6602837021455 -1308.1708429529826 0 0 0 0 -292.18221320006705 1115.8705239283081 0 1115.8705239283081 -1095.8961266938131 0 0 0 0 -1471.8321631127037 1780.2978217652344 0 1780.2978217652344 -1164.8818123867532 0 0 0 0 -1116.6242113340704 1737.5082953888486 0 1737.5082953888486 -1165.4913421109582 0 0 0 0 -1031.1043527986403 1627.6077503976758 0 1627.6077503976758 -1570.1716213126929 0 0 0 0 -1500.1519607984374 1414.6111251601542 0 1414.6111251601542 -1375.4474513316818 0 0 0 0 -1030.0328368805203 1643.4851750137896 0 1643.4851750137896 -1421.9886691059182 0 0 0 0 -875.51414060685056 1518.5122102657951 0 1518.5122102657951 -1510.7168258598685 0 0 0 0 -198.59590845779167 1679.8622712600118 0 1679.8622712600118 -1655.6594478001789 0 0 0 0 -400.69989435546449 1406.8848204293172 0 1406.8848204293172 -1208.6613578947727 0 0 0 0 -149.39977576456477 1636.5189244251865 0 1636.5189244251865 -1005.9723197705462 0 0 0 0 0.63362773859989829 1705.5046248782601 0 1705.5046248782601 -884.87444990016229 0 0 0 0 -194.50640656898031 1219.9253087510369 0 1219.9253087510369 572.21403344747523 0 0 0 0 -85.068215366554796 1226.2434725223211 0 1226.2434725223211 -1431.8833458784793 0 0 0 0 -0.12989350019779522 1646.6360127971966 0 1646.6360127971966 -2108.6141686596748 0 0 0 0 -153.32575742976405 937.71868117935446 0 937.71868117935446 -1679.0875140540011 0 0 0 0 -0.0014529341424349695 44.504845708390349 0 44.504845708390349 -21.68412808796711 0 0 0 0 -90.107293580102123 818.43499864821115 0 818.43499864821115 -3329.0238764494425 0 0 0 0 -6.9135674187472205 4.2335730170974237 0 4.2335730170974237 -8.1352781892597648 0 0 0 0 -0.028281336039071903 38.841473195272556 0 38.841473195272556 -37.443432732630754 0 0 0 0 -16.482037478126585 31.394577419574489 0 31.394577419574489 -26.933076424524188 0 0 0 0 4.0370944013221219 16.600408658061781 0 16.600408658061781 -8.8609823896492514 0 0 0 0 -43.180779155154596 114.77300009791725 0 114.77300009791725 479.9423424055567 0 0 0 0 -30.745798647683841 561.17354392767538 0 561.17354392767538 1126.0036419624084 0 0 0 0 -129.5495962157438 91.585804734597332 0 91.585804734597332 508.27851367205949 0 0 0 0 -111.9343521884548 -83.490127933286203 0 -83.490127933286203 2217.5680376897653 0 0 0 0 4.7078857086535209 2.4359622874275146 0 2.4359622874275146 0.91405086080231968 0 0 0 0 -7.6170854855026846 245.05668012075103 0 245.05668012075103 258.93426340997394 0 0 0 0 -55.548495425164219 402.82564463024573 0 402.82564463024573 336.83937693262124 0 0 0 0 -6.1617666463280329 310.68244332039467 0 310.68244332039467 461.45553329738323 0 0 0 0 5.9837452011634014 64.737516436020087 0 64.737516436020087 241.69345051642449 0 0 0 0 -41.473635811727149 50.228864893601852 0 50.228864893601852 -36.312837388993856 0 0 0 0 -59.728553688109969 89.874918969064311 0 89.874918969064311 -24.651584561725031 0 0 0 0 -51.199019139101267 51.044375244812272 0 51.044375244812272 -35.888851331409455 0 0 0 0 -37.045467103132978 54.166905549134071 0 54.166905549134071 -91.226220447264495 0 0 0 0 -37.976725623942912 84.717456149948703 0 84.717456149948703 -89.163445945428975 0 0 0 0 26.200641809100432 4.2705448463524931 0 4.2705448463524931 -38.149950745836691 0 0 0 0 -620.92997406769427 1358.7539753900601 0 1358.7539753900601 -1878.2482962312206 0 0 0 0 -100.38522757199826 82.075311880253139 0 82.075311880253139 -103.36202548817164 0 0 0 0 27.751999862852529 3.2008291596684444 0 3.2008291596684444 -21.463199372281821 0 0 0 0 -98.381493827197119 70.695875052697374 0 70.695875052697374 -78.233725529484218 0 0 0 0 -185.76395959674846 72.641345371201169 0 72.641345371201169 -36.085304393687693 0 0 0 0 -188.62178218836198 68.731562918495911 0 68.731562918495911 -65.071864625266244 0 0 0 0 -127.81114253732085 55.970471798460494 0 55.970471798460494 -67.635128005691513 0 0 0 0 -71.07829221492284 15.888631806959893 0 15.888631806959893 -89.268767715140712 0 0 0 0 -192.79839781034389 60.199513919786114 0 60.199513919786114 -82.038386458661989 0 0 0 0 -308.01130412145358 208.29776350294742 0 208.29776350294742 -149.95281163195614 0 0 0 0 -178.80350936198374 352.1185347407154 0 352.1185347407154 183.61018654252985 0 0 0 0 -57.031707374437588 53.549163374500829 0 53.549163374500829 -38.93878499883165 0 0 0 0 -261.94168819834522 59.700763539181935 0 59.700763539181935 33.293187493385631 0 0 0 0 -202.01045243858243 743.78774377534864 0 743.78774377534864 -396.29682639091698 0 0 0 0 28.251626916908435 52.867695881838188 0 52.867695881838188 12.88196172085037 0 0 0 0 -452.84145637918846 388.4393688940072 0 388.4393688940072 -268.01924504739873 0 0 0 0 -365.49957559784525 193.39334844996483 0 193.39334844996483 -116.10481132678251 0 0 0 0 -250.73383101841318 189.05954137618392 0 189.05954137618392 -178.03306968339166 0 0 0 0 -387.96148405014537 455.4459877801055 0 455.4459877801055 -454.8291342012526 0 0 0 0 -225.3856347225701 210.18215947252065 0 210.18215947252065 126.52754754415946 0 0 0 0 -268.34333131006133 193.26697935614175 0 193.26697935614175 -144.08985705794476 0 0 0 0 -179.03012513881549 42.926412374537904 0 42.926412374537904 -65.176958303080028 0 0 0 0 -177.59487512931264 150.58600720964159 0 150.58600720964159 108.3836520601908 0 0 0 0 -86.550941751338542 92.640413485954923 0 92.640413485954923 215.62274824755877 0 0 0 0 -162.00440501513367 295.17267485425691 0 295.17267485425691 228.65861886604398 0 0 0 0 -102.22430271243502 411.26224189935965 0 411.26224189935965 452.19192126498092 0 0 0 0 -109.19869910227862 557.46186754087103 0 557.46186754087103 140.84793644517777 0 0 0 0 -34.261060413733503 352.01942266988772 0 352.01942266988772 264.86497382068774 0 0 0 0 -154.00868015244487 702.37065684606932 0 702.37065684606932 135.85748375068943 0 0 0 0 -96.722309609263903 709.0470733016009 0 709.0470733016009 -135.46991687716218 0 0 0 0 11.764875869106618 600.66599475559633 0 600.66599475559633 -403.07237739613629 0 0 0 0 307.30892903599306 178.47061685407243 0 178.47061685407243 -133.10982545408115 0 0 0 0 475.45300081672031 570.5535268146923 0 570.5535268146923 -521.00384827025118 0 0 0 0 41.239454649359686 509.22136444337957 0 509.22136444337957 -66.152487143066537 0 0 0 0 104.28642053688236 343.81293979676047 0 343.81293979676047 -34.074746815895196 0 0 0 0 -88.041432660218561 240.54272024612146 0 240.54272024612146 19.763472573278705 0 0 0 0 -103.02369623648701 242.39409997910116 0 242.39409997910116 37.401577418160741 0 0 0 0 -88.362855343002593 188.18442724421038 0 188.18442724421038 -64.60828182726982 0 0 0 0 -100.22169738914818 143.35855350704514 0 143.35855350704514 12.664633511078137 0 0 0 0 -112.17772327946295 101.36190008247286 0 101.36190008247286 -121.73452482100402 0 0 0 0 -67.578365498513449 194.15107743427507 0 194.15107743427507 -106.80250799975693 0 0 0 0 -1050.3527475749725 698.55321574686968 0 698.55321574686968 -1552.4904104934808 0 0 0 0 21.568982809424426 6.4576387646239937 0 6.4576387646239937 -13.227406543818688 0 0 0 0 -1450.3844509704104 1344.8113763214642 0 1344.8113763214642 -1558.5718774043635 0 0 0 0 -64.34428166761063 222.88423598501686 0 222.88423598501686 -36.677414149919059 0 0 0 0 -9.6808000565360999 232.78190857892332 0 232.78190857892332 -141.85401880787686 0 0 0 0 -767.41939631924288 2257.4231592276292 0 2257.4231592276292 -2324.2651850438269 0 0 0 0 8.3879350175167815 4.1467953042867407 0 4.1467953042867407 -4.6580126451655133 0 0 0 0 -553.36715746826121 -24.38993928560194 0 -24.38993928560194 -746.95389279292431 0 0 0 0 -1883.6382478888263 132.61270647933998 0 132.61270647933998 645.97181049983556 0 0 0 0 -3522.2668428438483 3662.4370905180986 0 3662.4370905180986 -4844.0203427753513 0 0 0 0 -23.551425306323097 7.2956723787089572 0 7.2956723787089572 -1.3184828860096047 0 0 0 0 -6083.7539816573553 2444.2042068025912 0 2444.2042068025912 -4149.8116455515265 0 0 0 0 -4579.8780663916259 4125.443934086361 0 4125.443934086361 -2491.0390430574189 0 0 0 0 643.38045662509103 -779.90905267834751 0 -779.90905267834751 -2242.6852432132291 0 0 0 0 1331.2378028625535 -424.6007640630778 0 -424.6007640630778 -4620.50632616863 0 0 0 0 -228.4267640056205 2095.8663289638644 0 2095.8663289638644 -4249.2090116245963 0 0 0 0 -673.921358069907 992.49466604981353 0 992.49466604981353 -3018.7732165125781 0 0 0 0 -759.25593539053807 2699.3462457509595 0 2699.3462457509595 -4308.6610385762324 0 0 0 0 -731.12320449319668 3004.1946252835623 0 3004.1946252835623 -5340.8145625392281 0 0 0 0 -566.24953567044577 1123.9768203608692 0 1123.9768203608692 -6045.3568146157777 0 0 0 0 -208.58456716264482 1573.6529191568479 0 1573.6529191568479 -2015.3697843390692 0 0 0 0 30.739794458902907 1414.2853867183585 0 1414.2853867183585 -2710.7083315480922 0 0 0 0 53.673921600769972 950.59654918094748 0 950.59654918094748 -1355.406822979392 0 0 0 0 176.53077533477335 972.34265353725641 0 972.34265353725641 -1532.1302376482054 0 0 0 0 -29.283411399587578 10.452663477816827 0 10.452663477816827 -0.061289036047185164 0 0 0 0 -102.67091028561117 -70.350486397568602 0 -70.350486397568602 -854.25499776554352 0 0 0 0 202.33340525761014 560.69399204314686 0 560.69399204314686 -1503.5455143842555 0 0 0 0 18.253785033710301 1035.5162109763478 0 1035.5162109763478 -558.11931602311961 0 0 0 0 290.97382868328714 306.38735229113081 0 306.38735229113081 -841.76222658503684 0 0 0 0 83.682001878303709 949.87946669876692 0 949.87946669876692 -1398.592506179295 0 0 0 0 -119.46989696149831 447.25694430426302 0 447.25694430426302 645.59934100786631 0 0 0 0 679.3697486135934 1074.4071896366368 0 1074.4071896366368 -4022.9049337864781 0 0 0 0 11.11380906085833 1193.7004834413819 0 1193.7004834413819 257.75322277603118 0 0 0 0 -5.6521708801711839 3.1306178336577659 0 3.1306178336577659 -1.8561402484670566 0 0 0 0 -339.64195502756047 -241.36157369090506 0 -241.36157369090506 -2115.1660621314659 0 0 0 0 194.45358790270984 615.80474202142796 0 615.80474202142796 -2171.2256111940187 0 0 0 0 -408.43451869266573 515.04120175581193 0 515.04120175581193 -419.24936863743642 0 0 0 0 -392.72297590028757 1065.1378262527869 0 1065.1378262527869 -1170.0637050736404 0 0 0 0 -216.12294291157741 428.14052172127413 0 428.14052172127413 -1022.6800736184232 0 0 0 0 -13.619307204469806 943.42353195304895 0 943.42353195304895 -786.72695907478919 0 0 0 0 1123.645464308298 -207.89623767940793 0 -207.89623767940793 -557.61079265113949 0 0 0 0 -102.93098409136292 1187.1058354611159 0 1187.1058354611159 -2231.6626597569702 0 0 0 0 922.05823646666249 858.84771307947813 0 858.84771307947813 -1480.3987671966897 0 0 0 0 -1545.0697373161966 898.32699656503246 0 898.32699656503246 -1162.5636746358359 0 0 0 0 236.77497250210581 387.30550442491585 0 387.30550442491585 -253.50634491737583 0 0 0 0 724.56311134430871 722.74028682065546 0 722.74028682065546 -137.57309343988891 0 0 0 0 -148.19067182180152 330.41284269027165 0 330.41284269027165 -574.28438637586078 0 0 0 0 -430.46783102685004 1763.3546958993611 0 1763.3546958993611 -1485.5451158685755 0 0 0 0 115.15835875886842 525.84107657148706 0 525.84107657148706 590.04673235361406 0 0 0 0 14.239147366097313 1475.0065252335262 0 1475.0065252335262 -869.18199981452562 0 0 0 0 1541.5691582068393 366.82902919785556 0 366.82902919785556 -696.26793931676366 0 0 0 0 -65.440053104393883 72.787309991777875 0 72.787309991777875 51.012648874428123 0 0 0 0 -4.1424090062154733 28.170945476757822 0 28.170945476757822 18.26095108412801 0 0 0 0 -58.561526043080619 51.564797119096127 0 51.564797119096127 -6.8715682882505575 0 0 0 0 18.485943219915498 80.764333757513668 0 80.764333757513668 27.051707159916987 0 0 0 0 35.5970907737792 154.52580037780808 0 154.52580037780808 68.724650784322876 0 0 0 0 -74.119020063321756 45.671249261437111 0 45.671249261437111 5.2438431318394692 0 0 0 0 -26.851612104685046 160.09983308258052 0 160.09983308258052 33.588463766456698 0 0 0 0 -47.77411233490426 55.21916453204976 0 55.21916453204976 -15.590830988285546 0 0 0 0 -62.467051200936112 43.473949331804761 0 43.473949331804761 13.545593715462019 0 0 0 0 -148.53440205415245 24.219303193014639 0 24.219303193014639 20.597726028445322 0 0 0 0 7.0094065367791956 15.403426735192397 0 15.403426735192397 4.4092656862712261 0 0 0 0 -140.11222650647687 106.3835882419371 0 106.3835882419371 -168.52301108346728 0 0 0 0 -133.64732823942904 17.611789352886262 0 17.611789352886262 -152.54705547074991 0 0 0 0 -135.71610584943301 133.32902413419424 0 133.32902413419424 33.266009293627576 0 0 0 0 -103.01521940287785 189.62427245629806 0 189.62427245629806 -378.07123931489332 0 0 0 0 -312.55117289275222 184.20527014126856 0 184.20527014126856 -252.83023451809277 0 0 0 0 -110.00025282172101 95.101519538438879 0 95.101519538438879 -184.40362368585193 0 0 0 0 -302.25450074340915 146.42202173047554 0 146.42202173047554 -168.00864086717775 0 0 0 0 3461.2423001480929 107.10717007665517 0 107.10717007665517 -217.01970971799165 0 0 0 0 1275.2915217108675 141.81436750163994 0 141.81436750163994 402.26599704644468 0 0 0 0 1312.9994155228487 -354.69250045905937 0 -354.69250045905937 -92.415385294126736 0 0 0 0 2362.5294508562474 98.905281895888038 0 98.905281895888038 -301.06720730813686 0 0 0 0 451.28460203907161 534.03917182490841 0 534.03917182490841 202.60059980656661 0 0 0 0 468.47221260101651 410.13548762667779 0 410.13548762667779 -586.61679313323111 0 0 0 0 362.86336795499665 662.98036881436565 0 662.98036881436565 641.06274657910399 0 0 0 0 246.51451181087759 376.18273229341867 0 376.18273229341867 182.21591040510975 0 0 0 0 1295.158099534332 123.37518915133478 0 123.37518915133478 -23.00722513863002 0 0 0 0 610.06145026671584 212.39927694236394 0 212.39927694236394 390.35639525640727 0 0 0 0 1.0353827057988383 523.91415168052481 0 523.91415168052481 439.6288139711105 0 0 0 0 3.4493477760390903 6.4795030203596298 0 6.4795030203596298 0.005701861363718308 0 0 0 0 3681.127163208439 704.96716352961084 0 704.96716352961084 1010.8784158839844 0 0 0 0 1412.2622312372841 1400.7234005838473 0 1400.7234005838473 262.08937459917797 0 0 0 0 2671.6356556904211 1941.0204652570101 0 1941.0204652570101 -66.494949548316072 0 0 0 0 -366.43509874382289 1143.485033690813 0 1143.485033690813 303.31778718103669 0 0 0 0 966.23902714651194 -382.2328081172891 0 -382.2328081172891 386.94364171790221 0 0 0 0 13.236615537730188 9.3064542253949298 0 9.3064542253949298 3.3437307094963558 0 0 0 0 3308.584046686663 -585.67367660188665 0 -585.67367660188665 -186.50942342949566 0 0 0 0 2526.3258576385997 1189.9336445905865 0 1189.9336445905865 -67.623870538722258 0 0 0 0 1691.1872215979238 708.97655129573468 0 708.97655129573468 -415.58022393370629 0 0 0 0 -131.35179481383238 38.480792211987136 0 38.480792211987136 -347.01163815372274 0 0 0 0 -427.93693864905799 114.40974982301123 0 114.40974982301123 164.63202178939537 0 0 0 0 479.23577294833376 -136.31160912038467 0 -136.31160912038467 -471.14290840979083 0 0 0 0 31.179555617884489 23.993185145208713 0 23.993185145208713 16.265665786502211 0 0 0 0 415.57190082268789 228.8352487486045 0 228.8352487486045 -148.42385627934709 0 0 0 0 543.34171652511577 518.40292928744748 0 518.40292928744748 -302.11659089897876 0 0 0 0 394.70943087415071 803.7901358565241 0 803.7901358565241 -625.01913548479206 0 0 0 0 499.27012383982037 52.636004445565959 0 52.636004445565959 -639.19508820190094 0 0 0 0 -93.923626419928041 852.99052732640121 0 852.99052732640121 -1133.2650417702098 0 0 0 0 218.45822956520715 622.48102003939857 0 622.48102003939857 -1603.5316696093068 0 0 0 0 -142.64378589756961 497.51235112894938 0 497.51235112894938 -839.08813303755596 0 0 0 0 291.38732490121038 19.100282032944961 0 19.100282032944961 -1127.8117269190666 0 0 0 0 318.33277491151239 256.24457344017355 0 256.24457344017355 -464.19253811787348 0 0 0 0 -212.49746527935349 638.31568614043135 0 638.31568614043135 -836.12786655902164 0 0 0 0 -77.371103517449228 1044.8996652775386 0 1044.8996652775386 -460.4836619536436 0 0 0 0 -153.27217693949933 1133.0703264014737 0 1133.0703264014737 -519.95367412370979 0 0 0 0 34.355525169870816 840.35675899240596 0 840.35675899240596 -1145.7011365355174 0 0 0 0 254.40182098161313 563.64778849162394 0 563.64778849162394 -948.67424750563805 0 0 0 0 24.345983320177766 1058.5521914489364 0 1058.5521914489364 -677.3825028614956 0 0 0 0 403.10586738452548 932.60945037109195 0 932.60945037109195 -640.79722838395537 0 0 0 0 19.537177947233431 1120.9847912266341 0 1120.9847912266341 -341.7171582133742 0 0 0 0 674.69621708064369 1095.3529211057885 0 1095.3529211057885 -566.44595179572934 0 0 0 0 387.10520316613838 1088.2363850355032 0 1088.2363850355032 -442.25103157722333 0 0 0 0 361.19246565570938 1066.073238353194 0 1066.073238353194 -56.649089544342132 0 0 0 0 -293.95871884006192 1254.4249596942027 0 1254.4249596942027 -415.37096637964714 0 0 0 0 -170.26664018598967 1209.6402958403196 0 1209.6402958403196 -274.57383631210541 0 0 0 0 62.92101148574875 1225.9450565289226 0 1225.9450565289226 -491.13593387615401 0 0 0 0 -173.96491056646482 1182.770195342604 0 1182.770195342604 -466.50890522246482 0 0 0 0 -243.23125342480489 551.53531419282808 0 551.53531419282808 -398.1617614285351 0 0 0 0 -62.760142212559003 1151.2309977732875 0 1151.2309977732875 -647.93966599501437 0 0 0 0 32.211940879438771 1014.0406159693375 0 1014.0406159693375 -460.82197660965903 0 0 0 0 45.103792205933132 1106.6974183212587 0 1106.6974183212587 -8.0405939765041694 0 0 0 0 -132.87198190347408 607.92963446647627 0 607.92963446647627 197.10623279231368 0 0 0 0 840.49783214312629 992.8030221707595 0 992.8030221707595 83.892111659399234 0 0 0 0 879.55302202544408 1093.0406345144584 0 1093.0406345144584 -180.33121217190637 0 0 0 0 317.15340605846723 988.65876355946239 0 988.65876355946239 -194.15935597856878 0 0 0 0 335.62370752845891 905.72797271696618 0 905.72797271696618 167.34860766174097 0 0 0 0 1281.7243483617785 714.9477782077447 0 714.9477782077447 122.76769434239395 0 0 0 0 791.92467449692776 1268.3273878445907 0 1268.3273878445907 308.4204208496958 0 0 0 0 684.75472970784176 842.27243530217675 0 842.27243530217675 267.48343877874504 0 0 0 0 -683.57920130561251 650.59878092415784 0 650.59878092415784 345.66659863188397 0 0 0 0 -52.136881079291925 752.80048238820746 0 752.80048238820746 727.88738480949542 0 0 0 0 373.02780232595978 1328.9174722469907 0 1328.9174722469907 777.29838194332842 0 0 0 0 1250.9870278312592 1630.9250168789295 0 1630.9250168789295 606.46199087286368 0 0 0 0 140.1749115408893 550.6134642220859 0 550.6134642220859 -31.233883633918595 0 0 0 0 -118.83380897904863 417.64540324531845 0 417.64540324531845 117.64016157425067 0 0 0 0 -109.01598757411466 257.24394873805113 0 257.24394873805113 -393.15425206051441 0 0 0 0 -120.68945419508964 674.4797862336527 0 674.4797862336527 -274.82482615555637 0 0 0 0 -1003.3122850522486 612.81050588523431 0 612.81050588523431 -515.89903423453507 0 0 0 0 -403.78572739560332 444.18287404103467 0 444.18287404103467 -527.47873216456946 0 0 0 0 -246.22263904611464 497.57914747660107 0 497.57914747660107 -1207.4357979968336 0 0 0 0 -305.31333506936789 1298.2560196256527 0 1298.2560196256527 -1044.6459078210301 0 0 0 0 -292.55466101848288 1201.0574388452078 0 1201.0574388452078 -424.78647549696325 0 0 0 0 -1070.1101678461855 1232.1572810946091 0 1232.1572810946091 -138.66489631746663 0 0 0 0 753.02887400795589 216.08416844660496 0 216.08416844660496 -859.96225841339037 0 0 0 0 -3.5129579713974692 7.7207737085627173 0 7.7207737085627173 -10.614398513286687 0 0 0 0 224.31125852935656 235.95913698930235 0 235.95913698930235 2.9121092080895323 0 0 0 0 -562.93801561362852 861.47464194847635 0 861.47464194847635 122.58775765135215 0 0 0 0 -530.5382874563802 358.68458492058926 0 358.68458492058926 162.88778813813406 0 0 0 0 -274.70596720116737 129.30983102691971 0 129.30983102691971 351.20044274370957 0 0 0 0 -313.15556341732736 -213.44371476750166 0 -213.44371476750166 -549.42154854171531 0 0 0 0 23.683086322809686 686.89327791333562 0 686.89327791333562 -84.075754273479106 0 0 0 0 -104.1754238144479 76.071685500219672 0 76.071685500219672 2.3062603630331182 0 0 0 0 -310.98693781484326 412.17370407488488 0 412.17370407488488 -154.32063156951335 0 0 0 0 -97.603405813183514 75.190926615200226 0 75.190926615200226 -1.724257961849105 0 0 0 0 410.17703464316583 577.82496237582018 0 577.82496237582018 -952.43855282131699 0 0 0 0 -216.0105846307415 749.27320760223665 0 749.27320760223665 -1026.3620814836613 0 0 0 0 586.55513030453585 619.51037672685925 0 619.51037672685925 -981.96954133281542 0 0 0 0 -97.488776309859531 1268.4994250797063 0 1268.4994250797063 -1226.5609869251639 0 0 0 0 1541.6011216337938 1065.5110139979988 0 1065.5110139979988 -1227.0821276201459 0 0 0 0 2111.2382182596048 743.58165564647788 0 743.58165564647788 -1070.2093480592157 0 0 0 0 508.90660727134673 498.03372267235682 0 498.03372267235682 -468.26185786281712 0 0 0 0 594.64449108269764 481.56882683779986 0 481.56882683779986 683.8837632305258 0 0 0 0 1605.7243959244879 -45.78434889746859 0 -45.78434889746859 -207.24784952381742 0 0 0 0 908.33030681640957 1163.8213400138484 0 1163.8213400138484 481.48787934928623 0 0 0 0 -49.846166482486296 924.66058038652409 0 924.66058038652409 58.728288366488414 0 0 0 0 -91.502724947669776 543.13513249409152 0 543.13513249409152 -107.64484051518957 0 0 0 0 649.43998946050851 602.78084057027809 0 602.78084057027809 175.05437504130532 0 0 0 0 667.96621925945146 386.2460751974395 0 386.2460751974395 -363.84549398778472 0 0 0 0 -104.39054045618104 474.96042040873726 0 474.96042040873726 -227.89308390249789 0 0 0 0 -411.80183905307786 524.92184078861465 0 524.92184078861465 -807.08071907358681 0 0 0 0 691.36306468029579 169.86570850888529 0 169.86570850888529 -786.34777616942301 0 0 0 0 -96.94608835395502 75.099546432226532 0 75.099546432226532 -2.1313565728887056 0 0 0 0 -454.4252999787177 264.84980108852869 0 264.84980108852869 -388.21047425780853 0 0 0 0 -1948.3778426242061 102.44892420506221 0 102.44892420506221 -270.08639774016046 0 0 0 0 -413.39239145509055 471.36235115176169 0 471.36235115176169 -424.44607543144957 0 0 0 0 306.09721387496393 479.24125697207637 0 479.24125697207637 -787.81006181881821 0 0 0 0 -108.69844858270415 71.960159765228951 0 71.960159765228951 1.8906929516422792 0 0 0 0 11.258642875468212 19.629173690996666 0 19.629173690996666 -5.8008254986735892 0 0 0 0 -55.025571393372957 175.39721148805984 0 175.39721148805984 -466.82691751542552 0 0 0 0 -846.39858385769912 -71.971003344369819 0 -71.971003344369819 230.17449392314302 0 0 0 0 -850.5471295468451 898.00584202891332 0 898.00584202891332 -263.68175218842225 0 0 0 0 -84.899388474490479 265.4667574758505 0 265.4667574758505 -1417.5595625631977 0 0 0 0 -1198.4272615503869 555.05666707934142 0 555.05666707934142 209.7503970732796 0 0 0 0 -777.29628949900507 350.62546379808919 0 350.62546379808919 281.90676688140957 0 0 0 0 -377.98704367812024 46.855076181520417 0 46.855076181520417 184.2049615278047 0 0 0 0 -178.31030362937599 535.84089257377491 0 535.84089257377491 461.01765722755226 0 0 0 0 -48.525810258797719 515.85457831117674 0 515.85457831117674 297.12281356356107 0 0 0 0 -66.684052420037915 451.79000811322476 0 451.79000811322476 480.70988658521674 0 0 0 0 -22.467332691747288 326.25136994315108 0 326.25136994315108 477.46061634263606 0 0 0 0 -20.712088846968982 325.91457608799465 0 325.91457608799465 401.55941431330575 0 0 0 0 -70.326918836362893 319.67500229278085 0 319.67500229278085 433.66781708157214 0 0 0 0 -15.330261527939001 475.73795181697642 0 475.73795181697642 476.50380731315818 0 0 0 0 120.66456626859144 534.96392627363093 0 534.96392627363093 472.56263581427629 0 0 0 0 112.09812079185212 371.66571348276921 0 371.66571348276921 373.68174682438257 0 0 0 0 475.92746508173877 570.9937777235973 0 570.9937777235973 320.9045560661325 0 0 0 0 -32.993592956590632 48.367767916756335 0 48.367767916756335 -45.584436692264205 0 0 0 0 418.35503573373717 436.24158263471327 0 436.24158263471327 285.71216351547628 0 0 0 0 260.78211573880981 519.10576467569626 0 519.10576467569626 402.23446786898421 0 0 0 0 141.69469479349209 499.78194644904579 0 499.78194644904579 409.63685427321616 0 0 0 0 353.05374143377412 614.27346880847472 0 614.27346880847472 401.51093361421954 0 0 0 0 363.12437744191266 538.62439036011347 0 538.62439036011347 429.32685316732386 0 0 0 0 -1367.4558858662147 2086.8939015208712 0 2086.8939015208712 -1424.744187042932 0 0 0 0 2778.7924898054916 38.943867001762555 0 38.943867001762555 219.22561433494047 0 0 0 0 -1424.3881341345714 -1496.4589319760325 0 -1496.4589319760325 635.7864559716545 0 0 0 0 -18.612986440799887 17.144394886307857 0 17.144394886307857 -11.85001295818472 0 0 0 0 1653.1848465046642 1104.1432869219716 0 1104.1432869219716 66.569953945232555 0 0 0 0 -1772.431757551989 -587.12302862368961 0 -587.12302862368961 -100.67190009113983 0 0 0 0 -22.387509888400118 36.759944809847717 0 36.759944809847717 -33.288275330762417 0 0 0 0 326.35092685397831 905.34710625444131 0 905.34710625444131 315.24982430117961 0 0 0 0 -71.448061256553046 506.80274195126549 0 506.80274195126549 468.38711829067324 0 0 0 0 76.68514410770149 651.62616704686661 0 651.62616704686661 538.96640798670705 0 0 0 0 1046.3386821181994 382.73139133521909 0 382.73139133521909 314.56595497421222 0 0 0 0 258.39021127087301 447.78196679553548 0 447.78196679553548 -377.68318597937468 0 0 0 0 449.27209126765956 522.48031799538876 0 522.48031799538876 -223.41147410814301 0 0 0 0 251.06201251188031 463.17528901233163 0 463.17528901233163 -241.1353167569323 0 0 0 0 409.51872491327231 537.52319246548359 0 537.52319246548359 -756.69748506316682 0 0 0 0 488.13895643431169 585.03494523375412 0 585.03494523375412 -711.29531543745543 0 0 0 0 237.86446778702521 474.28379156559822 0 474.28379156559822 -206.47245028795442 0 0 0 0 516.0421319748566 308.41187581946724 0 308.41187581946724 -169.41531645052601 0 0 0 0 312.91522390281898 361.41663300740765 0 361.41663300740765 244.83637642191024 0 0 0 0 513.13254181770026 505.90765486867167 0 505.90765486867167 259.22503525402863 0 0 0 0 261.8585732728825 523.17356814836967 0 523.17356814836967 665.85893097729422 0 0 0 0 383.70517043312429 380.22990289429436 0 380.22990289429436 296.96195257117506 0 0 0 0 528.20002878911328 519.64545322104823 0 519.64545322104823 95.296730369052966 0 0 0 0 644.34322799985239 525.22080234768509 0 525.22080234768509 473.15979067559238 0 0 0 0 521.94100165844065 614.1970521433941 0 614.1970521433941 423.6124310635787 0 0 0 0 6.8647318530206292 7.3484481761167331 0 7.3484481761167331 -12.012182794223236 0 0 0 0 -4826.9519118366006 2723.4108367111767 0 2723.4108367111767 1284.7581880035141 0 0 0 0 414.9938577077337 772.99308722513524 0 772.99308722513524 771.8435042972269 0 0 0 0 -24.108635323536873 72.975148348839866 0 72.975148348839866 37.291039909410756 0 0 0 0 253.92672294517433 244.01953410088163 0 244.01953410088163 456.44179858698044 0 0 0 0 306.94906298181741 444.23962869128445 0 444.23962869128445 710.23577821135405 0 0 0 0 382.78317678836174 192.00133871781873 0 192.00133871781873 232.01516099518631 0 0 0 0 809.48737198568415 716.26366019627312 0 716.26366019627312 777.94243662315421 0 0 0 0 289.06483727117302 403.08810866263229 0 403.08810866263229 735.36933533296542 0 0 0 0 -12.631225112399676 9.3168868356834835 0 9.3168868356834835 9.3949003547594998 0 0 0 0 427.08659097674536 396.8409983185702 0 396.8409983185702 266.89478922565468 0 0 0 0 298.01754158193944 386.29724169355177 0 386.29724169355177 315.79728931447607 0 0 0 0 104.05513839323248 277.9332197864569 0 277.9332197864569 269.46094832424569 0 0 0 0 -43.41794026218804 35.250055518756682 0 35.250055518756682 -25.05302915571545 0 0 0 0 46.59412332008651 313.32606476997171 0 313.32606476997171 419.78044443219551 0 0 0 0 3.9013583206615294 268.53724155153031 0 268.53724155153031 420.12649826932466 0 0 0 0 -17.189105542367059 11.043899915164161 0 11.043899915164161 -8.8147849731287522 0 0 0 0 -549.70303221369977 161.20696577019407 0 161.20696577019407 411.48972990270704 0 0 0 0 57.285320753915585 564.0212013811979 0 564.0212013811979 -389.11855291261236 0 0 0 0 271.49210311235947 350.0067564367564 0 350.0067564367564 -1009.741456931486 0 0 0 0 12.361614950248622 1350.0796291564038 0 1350.0796291564038 -1855.6609823353792 0 0 0 0 476.70856982396799 573.17473617956421 0 573.17473617956421 -1669.9136991549603 0 0 0 0 294.62476634675841 321.65775792100339 0 321.65775792100339 -3505.7192737306177 0 0 0 0 -884.95073717877676 1590.3341105492 0 1590.3341105492 -1911.9007470107463 0 0 0 0 401.59440066437674 682.69391113728852 0 682.69391113728852 -1320.6385351754143 0 0 0 0 -78.953142131598725 1406.1033465646397 0 1406.1033465646397 -1708.7155159064496 0 0 0 0 374.26446793417199 779.9602601099723 0 779.9602601099723 -1491.7778992830135 0 0 0 0 108.81340349161474 843.66224560464616 0 843.66224560464616 -839.91698344987526 0 0 0 0 338.40920484904564 478.91132036299678 0 478.91132036299678 -772.53203909395961 0 0 0 0 257.36523574386229 1000.1036069062538 0 1000.1036069062538 -1211.3538584664202 0 0 0 0 -416.08277080666448 1867.8663639445876 0 1867.8663639445876 -1940.3730147760725 0 0 0 0 251.06580233243585 1080.5032740522729 0 1080.5032740522729 -1411.7011972923356 0 0 0 0 31.440822971700982 2014.6803433799432 0 2014.6803433799432 -298.46292993720272 0 0 0 0 94.31243696983438 1883.7468298077656 0 1883.7468298077656 -1116.6462835660495 0 0 0 0 413.61983615379722 736.46700409572804 0 736.46700409572804 -3423.4505255382537 0 0 0 0 139.85172507448442 1544.3860884265559 0 1544.3860884265559 1366.1887309482554 0 0 0 0 -4.9658127640511225 9.3138784764938691 0 9.3138784764938691 -5.3158585818377162 0 0 0 0 970.50128037587274 711.26739680474566 0 711.26739680474566 110.81561416131444 0 0 0 0 725.65838656444976 1435.6844912740853 0 1435.6844912740853 -263.4144461461151 0 0 0 0 407.94082560345123 2214.1472515975802 0 2214.1472515975802 -504.17978892478277 0 0 0 0 2388.0579213610763 1528.3568929902249 0 1528.3568929902249 -1139.7422578422411 0 0 0 0 914.69283739937237 1305.9235162776095 0 1305.9235162776095 -1152.4429268922395 0 0 0 0 1320.5723913841939 435.9971604415914 0 435.9971604415914 -1835.5422246510861 0 0 0 0 3427.8073869823775 2746.339280744427 0 2746.339280744427 -638.76009214011719 0 0 0 0 4850.6809963962878 1791.2657889944385 0 1791.2657889944385 2.7196867597231176 0 0 0 0 3521.8393266143248 1369.4451141850805 0 1369.4451141850805 -1589.5882821504783 0 0 0 0 2490.4262515948649 1802.8774874817173 0 1802.8774874817173 1151.7244673917594 0 0 0 0 305.24951259076261 2853.4991204096514 0 2853.4991204096514 130.05006517271977 0 0 0 0 1483.0112614102145 2972.6735574999839 0 2972.6735574999839 -0.046798357245279476 0 0 0 0 1890.3897035289847 1761.0031214535265 0 1761.0031214535265 -1247.2888196054118 0 0 0 0 -81.174800147091446 -73.374695032765885 0 -73.374695032765885 -0.17729015374789014 0 0 0 0 2034.1181074731867 271.16992790144286 0 271.16992790144286 -2054.4957129493851 0 0 0 0 208.47894402235397 304.29200247689732 0 304.29200247689732 404.35434369186987 0 0 0 0 19.788198733884741 11.102494715548914 0 11.102494715548914 3.3448270402778633 0 0 0 0 1045.5872781331964 513.11656014523396 0 513.11656014523396 -831.06315513529989 0 0 0 0 -229.15994586709712 -251.27092689910933 0 -251.27092689910933 -1200.1081634249058 0 0 0 0 -302.27812769232787 1092.9292645545609 0 1092.9292645545609 -1591.8608477292291 0 0 0 0 14.225056271861831 681.86453163191254 0 681.86453163191254 -265.87601860424911 0 0 0 0 745.39592766983696 194.07624285712518 0 194.07624285712518 -888.80170853663185 0 0 0 0 326.40507823044754 209.48097592095655 0 209.48097592095655 -969.95187790400814 0 0 0 0 440.78619033624273 1123.8487976898759 0 1123.8487976898759 -895.75730112337624 0 0 0 0 -94.81273529779719 1250.9545405086101 0 1250.9545405086101 266.81102409574669 0 0 0 0 -13.056025677875937 17.611027954633016 0 17.611027954633016 -8.2498053312570079 0 0 0 0 -482.97112573710183 -12.069794574672414 0 -12.069794574672414 838.62150413998461 0 0 0 0 -380.75062218002131 304.99281319769216 0 304.99281319769216 -634.6120033935149 0 0 0 0 -803.32656045202748 379.447068231515 0 379.447068231515 609.62655026364519 0 0 0 0 -637.99709449698275 1085.0581797599807 0 1085.0581797599807 337.21418039410491 0 0 0 0 -988.04655357659794 1007.0090919940776 0 1007.0090919940776 1828.0659062097257 0 0 0 0 191.17326514753222 663.0433499455321 0 663.0433499455321 -2452.8345805248318 0 0 0 0 -8.2963524839707361 7.8575142496757735 0 7.8575142496757735 -3.5080459625424112 0 0 0 0 131.81189787523908 338.03509409593244 0 338.03509409593244 -1080.5799522574962 0 0 0 0 -1338.5875160498108 459.40751067510428 0 459.40751067510428 -92.076436678296886 0 0 0 0 66.25518630865696 41.187207505370168 0 41.187207505370168 14.732769681379438 0 0 0 0 166.86865874120122 39.703796579146001 0 39.703796579146001 -86.591965768602677 0 0 0 0 31.462547619390534 80.646514331747312 0 80.646514331747312 -0.052755789161892608 0 0 0 0 48.560994043190419 25.947830701843486 0 25.947830701843486 9.6457336978139381 0 0 0 0 9.5704001007834449 24.72071034021792 0 24.72071034021792 -142.05014634380495 0 0 0 0 -25.178388940086734 56.548624039240167 0 56.548624039240167 7.0357213603274431 0 0 0 0 3.0556754490704208 0.087029487316641507 0 0.087029487316641507 0.20074192863256712 0 0 0 0 -27.20947865609196 62.068632592476206 0 62.068632592476206 -0.012254224988282658 0 0 0 0 -35.253528147906763 63.151578443910694 0 63.151578443910694 7.0756010027544107 0 0 0 0 -29.538250792451436 57.204174432707077 0 57.204174432707077 12.142926103493664 0 0 0 0 -27.285470693022944 58.866908064526797 0 58.866908064526797 7.3578771631000564 0 0 0 0 -18.774008913753221 38.384523892151037 0 38.384523892151037 19.323592267640691 0 0 0 0 -27.750050067174016 52.590756954297831 0 52.590756954297831 6.0763786758179776 0 0 0 0 -64.499634393112501 86.728815460199257 0 86.728815460199257 -13.052369021046616 0 0 0 0 49.937984792289839 58.419661746996127 0 58.419661746996127 0.18800461685884784 0 0 0 0 196.71949813846368 345.55284138508432 0 345.55284138508432 -244.99014589746366 0 0 0 0 -191.83510341470537 1051.4533467102592 0 1051.4533467102592 -1201.4339511975413 0 0 0 0 -600.54800608393271 607.34017101612699 0 607.34017101612699 -321.1359810678041 0 0 0 0 -647.83819577848772 518.88892158392264 0 518.88892158392264 -392.5314835125173 0 0 0 0 -5.464508893009338 65.786814482147406 0 65.786814482147406 35.179243584562016 0 0 0 0 -530.63671649231765 664.52213520724035 0 664.52213520724035 -774.23973691437277 0 0 0 0 -79.756174044166983 86.086185956388363 0 86.086185956388363 31.815980583778583 0 0 0 0 -43.249021239654638 54.433035953079141 0 54.433035953079141 -0.0055104780552142074 0 0 0 0 867.83445669805951 223.79161433990885 0 223.79161433990885 -35.600263366184663 0 0 0 0 -45.154734146229089 8.7280504298092865 0 8.7280504298092865 -1.7599692683479589 0 0 0 0 -879.58624062305171 1356.0038595810838 0 1356.0038595810838 -1208.388759120382 0 0 0 0 -122.17969713269741 94.100821204509728 0 94.100821204509728 33.974874692371486 0 0 0 0 -115.98969723031041 1126.6523264611023 0 1126.6523264611023 -1073.8570079681813 0 0 0 0 -279.96011170453858 1316.4118323786824 0 1316.4118323786824 -1267.344762999579 0 0 0 0 -98.785094452454359 673.66829813158256 0 673.66829813158256 -774.99277211059234 0 0 0 0 -128.64513171700128 286.756456975726 0 286.756456975726 -1440.1340432081488 0 0 0 0 -602.68170214068596 678.17826243134004 0 678.17826243134004 -870.02068416291149 0 0 0 0 -1463.0845261524955 418.5812065924838 0 418.5812065924838 -945.97890235468367 0 0 0 0 -774.80575141949521 202.67913860447879 0 202.67913860447879 -444.89142864590576 0 0 0 0 -366.69743000801463 670.46112825048476 0 670.46112825048476 -3005.966718923446 0 0 0 0 -426.25356434749847 -141.79353305872792 0 -141.79353305872792 -2010.9461482790211 0 0 0 0 -38.489887460375385 10.258153021863961 0 10.258153021863961 -18.869270378535589 0 0 0 0 -119.9953069095867 94.580354074720276 0 94.580354074720276 33.655406768034197 0 0 0 0 -2156.6543575530595 2968.4702852265909 0 2968.4702852265909 -2152.8321412080104 0 0 0 0 2291.0932605991184 530.85350345004554 0 530.85350345004554 -3090.8693970799068 0 0 0 0 -550.85710479726811 980.55138032021739 0 980.55138032021739 350.83195978750882 0 0 0 0 -7.122266374703031 267.36306923391385 0 267.36306923391385 441.96513147281075 0 0 0 0 448.69258519636423 947.59670717334302 0 947.59670717334302 351.7780632191716 0 0 0 0 -57.220287724702224 73.930482245289198 0 73.930482245289198 25.317402892048108 0 0 0 0 21.564966294758051 427.81612300776032 0 427.81612300776032 -1625.7557256306172 0 0 0 0 -42.504554096914944 94.093954776399187 0 94.093954776399187 24.818423328368226 0 0 0 0 -51.29650091082982 58.512705143571054 0 58.512705143571054 -15.560780768953293 0 0 0 0 10.590834659854636 14.249925089661531 0 14.249925089661531 1.5794346336623448 0 0 0 0 -705.00598358904244 1439.3513720017072 0 1439.3513720017072 -1122.0341647022542 0 0 0 0 119.9965111048441 1691.4209078878803 0 1691.4209078878803 -732.90031560101488 0 0 0 0 -326.06433607710642 1088.0427802107442 0 1088.0427802107442 -1090.2213708328345 0 0 0 0 161.81082094331214 1445.5603046379547 0 1445.5603046379547 -1174.4290530904254 0 0 0 0 34.883833930143737 1347.7161997002768 0 1347.7161997002768 -1118.0330544357566 0 0 0 0 -422.08437698670605 1262.3385733636314 0 1262.3385733636314 -1020.3776479732769 0 0 0 0 -130.55866047693416 1518.0875859704684 0 1518.0875859704684 -1002.8723242659908 0 0 0 0 -269.37254158468568 1292.7849613585568 0 1292.7849613585568 -566.75823525711894 0 0 0 0 18.139247602201067 1441.884155310996 0 1441.884155310996 -968.73067010974773 0 0 0 0 249.85175369839999 1388.5616439663136 0 1388.5616439663136 -1101.8622917199973 0 0 0 0 19.211245112703182 1411.9708159733273 0 1411.9708159733273 -1049.7303968865745 0 0 0 0 105.10545576221193 1597.7817575445151 0 1597.7817575445151 -1253.2686587023491 0 0 0 0 78.931248715220136 1250.4235879786793 0 1250.4235879786793 -916.18594317142561 0 0 0 0 100.16559019466513 1386.067867431273 0 1386.067867431273 -1038.3446088233031 0 0 0 0 48.783878126589116 1413.5058214106975 0 1413.5058214106975 -1216.9484265370193 0 0 0 0 132.90893342063646 1313.7728904475225 0 1313.7728904475225 -1179.9817026890814 0 0 0 0 -195.07061344788963 1714.6648944543376 0 1714.6648944543376 -1376.6862315655162 0 0 0 0 -362.49894629121991 1635.6547371637425 0 1635.6547371637425 -1294.5521147979744 0 0 0 0 106.23190791370871 1454.0502139650416 0 1454.0502139650416 -1886.1627923325286 0 0 0 0 -554.9192500547797 2126.0837426544749 0 2126.0837426544749 -2228.6746569733223 0 0 0 0 -2337.0314455104235 1963.4141289973559 0 1963.4141289973559 -719.10990742020658 0 0 0 0 -22.132929137322549 17.891157979508094 0 17.891157979508094 -18.593872135855236 0 0 0 0 60.52549076222931 817.14894499941147 0 817.14894499941147 -2103.1959624903247 0 0 0 0 -4258.848169574565 1621.3005856101372 0 1621.3005856101372 -639.29187932159402 0 0 0 0 -1657.0340145872215 335.65558370799408 0 335.65558370799408 -66.484539734839927 0 0 0 0 -311.51554803343606 281.27770288079773 0 281.27770288079773 -362.23346384316392 0 0 0 0 -997.15296591263177 526.22705003218653 0 526.22705003218653 -173.04475684798672 0 0 0 0 -1007.8333987387305 1656.8239491262357 0 1656.8239491262357 -648.52389315888286 0 0 0 0 -843.91386361874174 1169.6956748442608 0 1169.6956748442608 -299.95753382107068 0 0 0 0 -602.09784502143157 1106.272026595223 0 1106.272026595223 -409.77399322604469 0 0 0 0 -661.29891972723999 1107.0727885355664 0 1107.0727885355664 -220.80131343967514 0 0 0 0 -225.76066053150862 955.22704860608064 0 955.22704860608064 -253.37498087526183 0 0 0 0 -42.426989720843267 556.26484288136999 0 556.26484288136999 -178.55241039294015 0 0 0 0 -314.00271339585015 331.37404098771367 0 331.37404098771367 50.123561633241479 0 0 0 0 674.99078852602906 451.25248749149978 0 451.25248749149978 50.109714964506566 0 0 0 0 56.656115657606279 1325.2906939277746 0 1325.2906939277746 909.32886946239159 0 0 0 0 -376.23096268335939 800.97094533368363 0 800.97094533368363 308.57364206491548 0 0 0 0 -429.89363783931185 843.09663325646397 0 843.09663325646397 306.49520101514645 0 0 0 0 -276.98329750445555 490.64262835227419 0 490.64262835227419 847.97951245619333 0 0 0 0 -70.738034792826511 630.66667300328845 0 630.66667300328845 126.76486088612 0 0 0 0 -254.18838528444758 769.51456860540202 0 769.51456860540202 412.7355547890329 0 0 0 0 -163.00654920560919 730.44448096974156 0 730.44448096974156 255.84706782276044 0 0 0 0 -289.3158134209807 1002.0086153666198 0 1002.0086153666198 -20.646770867995656 0 0 0 0 106.02986219403101 1041.7060595843868 0 1041.7060595843868 -563.14695168746402 0 0 0 0 -322.94225806153554 1398.5580217347888 0 1398.5580217347888 -656.1598645367485 0 0 0 0 -82.572441132520908 1273.3827987530785 0 1273.3827987530785 -804.1304849559383 0 0 0 0 -22.646191747073317 1312.5324869848846 0 1312.5324869848846 -778.57136855861972 0 0 0 0 449.64165916302591 716.79661421579658 0 716.79661421579658 -559.33902400390798 0 0 0 0 252.96526412665844 430.9237259819638 0 430.9237259819638 -31.062492619136492 0 0 0 0 -19.32089467451442 197.55026521158288 0 197.55026521158288 306.6013696681257 0 0 0 0 131.14006421751401 420.96135083591071 0 420.96135083591071 359.07243681367254 0 0 0 0 -206.47659458180715 467.17492547779693 0 467.17492547779693 748.15103444000124 0 0 0 0 -22.733572110912064 263.05416274880554 0 263.05416274880554 606.70148119539954 0 0 0 0 -21.107042502029799 556.38583357300377 0 556.38583357300377 257.46903607029378 0 0 0 0 -677.89027844628436 175.76142971251102 0 175.76142971251102 -38.449292761513789 0 0 0 0 -49.257516762392754 1.8586695892114449 0 1.8586695892114449 3.1654109453136527 0 0 0 0 -69.42442675185157 240.37331400593393 0 240.37331400593393 679.51213469276263 0 0 0 0 -15.947965163060871 73.323456956244627 0 73.323456956244627 33.417782571021235 0 0 0 0 -61.700624841063416 34.921666914077534 0 34.921666914077534 22.716598848133401 0 0 0 0 -17.047800977636882 40.40698585281541 0 40.40698585281541 19.135167193829034 0 0 0 0 -23.989650253090076 62.108290599833708 0 62.108290599833708 -13.274456193241349 0 0 0 0 -32.737412684724404 50.946001286356477 0 50.946001286356477 11.67814234769321 0 0 0 0 -547.54295823039865 423.39452209258525 0 423.39452209258525 -76.337748491932871 0 0 0 0 -21.318178561239932 19.049814062798688 0 19.049814062798688 -14.602163509708362 0 0 0 0 -5.597183481581709 4.6783723376746309 0 4.6783723376746309 -9.2756075635321622 0 0 0 0 25.475920712400693 54.470615521851869 0 54.470615521851869 0.034450876162736677 0 0 0 0 -17.300236663184478 58.525982358623878 0 58.525982358623878 0.011012657691026106 0 0 0 0 4.231518477856298 36.1716300285334 0 36.1716300285334 7.6091905131979729 0 0 0 0 -1010.4988549863192 1044.0545767981603 0 1044.0545767981603 228.44206773414044 0 0 0 0 -1069.1522898621188 1206.0994235921535 0 1206.0994235921535 -218.87429205073568 0 0 0 0 -2856.2545210895187 1669.4768602982513 0 1669.4768602982513 -0.38738856924464926 0 0 0 0 -3815.8742138800444 -341.30468065418245 0 -341.30468065418245 423.55752477500209 0 0 0 0 -2344.3515172636689 -26.929741130297771 0 -26.929741130297771 181.55549173912732 0 0 0 0 -2109.8531359458302 1268.1232538943623 0 1268.1232538943623 274.87040865904419 0 0 0 0 -1078.2870405569556 1014.4580735743075 0 1014.4580735743075 124.88540733110858 0 0 0 0 -420.93150787516788 1319.579864497442 0 1319.579864497442 -177.27082646655617 0 0 0 0 -1066.8126562485841 1218.4407949311276 0 1218.4407949311276 87.675573646061821 0 0 0 0 559.06918755482184 1090.3235790396793 0 1090.3235790396793 9.1555976121453568 0 0 0 0 -1361.8769109001878 57.973594041875913 0 57.973594041875913 1140.2509107930528 0 0 0 0 -1647.4942963218928 1525.1788425388077 0 1525.1788425388077 -1163.1042559027555 0 0 0 0 -14.878082951351473 -4.1448982354482382 0 -4.1448982354482382 -1.0787869468866234 0 0 0 0 -2139.409672615875 1342.9489021812187 0 1342.9489021812187 682.11778547803988 0 0 0 0 -497.24392906068533 -146.07881034829188 0 -146.07881034829188 2033.4037902649434 0 0 0 0 -1086.7502524534066 707.27494361111894 0 707.27494361111894 1185.9316679257463 0 0 0 0 2335.5872396859122 803.92333609155685 0 803.92333609155685 -351.06465986554394 0 0 0 0 730.36470345649286 2929.5281742853404 0 2929.5281742853404 271.58929596269809 0 0 0 0 -1447.5886435984794 1461.7178468161401 0 1461.7178468161401 925.7589200969378 0 0 0 0 -2220.7364755308517 1984.7382080457392 0 1984.7382080457392 457.45709724032167 0 0 0 0 -3.6417735202630865 431.28079140362206 0 431.28079140362206 -776.34223281079903 0 0 0 0 11.748144706593848 14.362271538364894 0 14.362271538364894 15.921836731506346 0 0 0 0 -367.09690523706377 400.29073134595092 0 400.29073134595092 -35.270618402981199 0 0 0 0 -654.44237358578539 1224.0666915485563 0 1224.0666915485563 129.20173033587707 0 0 0 0 -250.93494442792144 941.18324522123294 0 941.18324522123294 249.43996390674511 0 0 0 0 -74.300176223769085 2071.8740040534321 0 2071.8740040534321 459.53607693359299 0 0 0 0 -551.53895286323677 1682.1040812690626 0 1682.1040812690626 269.85516771936091 0 0 0 0 -470.475766597232 1480.4909187299727 0 1480.4909187299727 412.54953120934078 0 0 0 0 419.40439000446349 1398.5935960681236 0 1398.5935960681236 71.235513493564213 0 0 0 0 528.64769797528061 847.29888313240554 0 847.29888313240554 425.16295193342376 0 0 0 0 322.53978860836651 1432.0099268456834 0 1432.0099268456834 -120.2209774179355 0 0 0 0 -510.55065016308436 1709.2382037489406 0 1709.2382037489406 0.12216158608498517 0 0 0 0 -41.278488493524492 870.09676646437947 0 870.09676646437947 -1335.6870105798444 0 0 0 0 -3177.3637496356969 4738.567699661151 0 4738.567699661151 7.4939145788162493 0 0 0 0 2.5222584589602377 9.8927148965537981 0 9.8927148965537981 -17.992241452550957 0 0 0 0 1612.5476526731218 1591.7068164386728 0 1591.7068164386728 0.52686605521999164 0 0 0 0 3195.459498282733 334.10067567144142 0 334.10067567144142 -366.49452313117217 0 0 0 0 798.6835655188188 318.25803122317302 0 318.25803122317302 270.62720324202382 0 0 0 0 1101.2327396238397 268.63564714210952 0 268.63564714210952 -146.80477817257633 0 0 0 0 4.8206395816261534 22.036280891274998 0 22.036280891274998 -52.673084418450458 0 0 0 0 931.52494118916366 481.4607789945585 0 481.4607789945585 5.1927965749637224 0 0 0 0 231.42607259028591 810.69842494119075 0 810.69842494119075 -74.549255330191954 0 0 0 0 550.05906153148317 23.076603304234595 0 23.076603304234595 19.725836061872542 0 0 0 0 -622.47558222085354 248.59030265707406 0 248.59030265707406 -137.57290139538236 0 0 0 0 -228.29346297922893 -50.998311844217824 0 -50.998311844217824 90.367949652834795 0 0 0 0 12.347075910800356 -1.3956407614050192 0 -1.3956407614050192 -14.250529097050901 0 0 0 0 1.9847178986601648 764.0566347240092 0 764.0566347240092 53.161521585891023 0 0 0 0 -5.047576754641014 12.753073243520475 0 12.753073243520475 1.2613102435835799 0 0 0 0 -86.626452213076846 196.93011763074537 0 196.93011763074537 -390.05449498340022 0 0 0 0 234.28101860763854 151.95576587006508 0 151.95576587006508 -83.289025147125358 0 0 0 0 -337.93709803822276 924.18852810980752 0 924.18852810980752 -58.936918168266857 0 0 0 0 -433.98415240595932 622.13363394071348 0 622.13363394071348 -680.55617153564526 0 0 0 0 51.654018632761108 820.99612253331361 0 820.99612253331361 -737.44284111444722 0 0 0 0 65.439968097867677 587.49411839785171 0 587.49411839785171 23.321421967200308 0 0 0 0 -31.701705061007942 44.257710832834277 0 44.257710832834277 -58.92715190983273 0 0 0 0 -1584.7796554913948 356.56098930357257 0 356.56098930357257 -234.32571866968647 0 0 0 0 10.851467828057253 51.022540631789752 0 51.022540631789752 32.667571152844857 0 0 0 0 -254.70589137604111 351.40957309013538 0 351.40957309013538 -258.04991688812152 0 0 0 0 -34.023127217258946 57.820490742414329 0 57.820490742414329 -49.906411701875982 0 0 0 0 -1221.8053384980012 1463.3220022505702 0 1463.3220022505702 -812.74419146780929 0 0 0 0 -1041.8949054340192 846.6183082553689 0 846.6183082553689 -135.55364915472455 0 0 0 0 -2.9872753654223914 37.343313679500227 0 37.343313679500227 26.68098713772406 0 0 0 0 -559.90579170952697 937.92246445905403 0 937.92246445905403 -528.70241660326428 0 0 0 0 -555.16292745091778 600.12256762294783 0 600.12256762294783 23.510451607311552 0 0 0 0 -43.383162963400139 59.875987101233001 0 59.875987101233001 -37.110879925063443 0 0 0 0 -284.56303110838053 347.38734656671295 0 347.38734656671295 -258.45044012477229 0 0 0 0 167.27064539078856 140.40802928020275 0 140.40802928020275 -1171.4590109764722 0 0 0 0 -515.66039696184453 139.77162027525992 0 139.77162027525992 -109.7796973574732 0 0 0 0 -100.88301415920432 592.43083608669258 0 592.43083608669258 -352.82737243916199 0 0 0 0 43.037631892648278 960.77446830351255 0 960.77446830351255 -626.40771605071495 0 0 0 0 28.275419777564821 855.18131955331046 0 855.18131955331046 -758.14777071541175 0 0 0 0 74.930553030422743 179.2056229876689 0 179.2056229876689 -659.09141035226639 0 0 0 0 -1816.3773856764783 1992.7552761897023 0 1992.7552761897023 -2385.7408579358016 0 0 0 0 249.43132565014866 1413.0391072112084 0 1413.0391072112084 -1433.6950010048022 0 0 0 0 104.43797428029939 83.612629004470364 0 83.612629004470364 -1227.6613282549806 0 0 0 0 22.472782217799249 -367.39846218962339 0 -367.39846218962339 -3046.2277040600111 0 0 0 0 -13.806604960152939 26.135562544069813 0 26.135562544069813 -15.131827039303062 0 0 0 0 -861.6687356426155 716.78400458872056 0 716.78400458872056 -3149.8572097096476 0 0 0 0 -861.38261470197608 790.50299523809531 0 790.50299523809531 -322.85460031765979 0 0 0 0 -1406.4835665514868 -233.73100213861835 0 -233.73100213861835 -592.99773593012651 0 0 0 0 -2632.6529384508181 -806.27862297981846 0 -806.27862297981846 -1006.8539041960321 0 0 0 0 -1255.2663447490868 189.61897676478111 0 189.61897676478111 -369.08233233937062 0 0 0 0 -1548.9987537882043 -151.44810874839459 0 -151.44810874839459 142.59255052963272 0 0 0 0 -1090.9241727253611 308.44938376069695 0 308.44938376069695 -192.07214780758659 0 0 0 0 -1406.273047349534 300.95974031541846 0 300.95974031541846 303.82859018840827 0 0 0 0 -1315.5944339630387 600.77799932685593 0 600.77799932685593 648.50451126297412 0 0 0 0 -690.60377500688992 150.46600946760736 0 150.46600946760736 951.13936597121892 0 0 0 0 -877.98695939823301 1161.815081892023 0 1161.815081892023 1386.4528769920435 0 0 0 0 -991.59467971888353 1378.4770792939926 0 1378.4770792939926 -261.80849221280369 0 0 0 0 365.65046431752489 294.45972653079662 0 294.45972653079662 603.58854651691217 0 0 0 0 1195.3846654937443 2152.8630000967678 0 2152.8630000967678 1008.7067949037773 0 0 0 0 -36.659870381368478 40.520869540146094 0 40.520869540146094 -32.881548398396035 0 0 0 0 440.76371069807283 249.60620166453009 0 249.60620166453009 1105.9511462202499 0 0 0 0 -3572.4862564765526 1386.8447730996195 0 1386.8447730996195 572.66272858328011 0 0 0 0 -2761.5766647100795 1094.8657269152645 0 1094.8657269152645 1757.1285612876818 0 0 0 0 579.64642667332555 369.03476732838317 0 369.03476732838317 481.89150337356841 0 0 0 0 -2815.1044833812375 1774.0591260322108 0 1774.0591260322108 1374.6979296852151 0 0 0 0 1285.9928549403458 1961.9337259471868 0 1961.9337259471868 699.69486345071346 0 0 0 0 2315.4030167565138 934.13390246516065 0 934.13390246516065 -936.80505387646554 0 0 0 0 -306.58273086327972 -256.75480199305457 0 -256.75480199305457 1083.8618763673876 0 0 0 0 -5125.1391278019682 -292.27637237260933 0 -292.27637237260933 656.63549712473377 0 0 0 0 -7.1985600251171391 15.819664885171601 0 15.819664885171601 -13.089228472297918 0 0 0 0 -1781.7178069452966 1155.0765541855362 0 1155.0765541855362 271.27998974575894 0 0 0 0 -2137.1920463658807 1028.923197979042 0 1028.923197979042 422.80712132444023 0 0 0 0 -2629.0997830720844 1423.579563568881 0 1423.579563568881 482.7580054734135 0 0 0 0 1201.8992920940927 609.37614980938088 0 609.37614980938088 -214.32270884758327 0 0 0 0 -13.183229911766103 37.710595834027799 0 37.710595834027799 -34.874755015028313 0 0 0 0 312.91634766034258 1158.4520882265788 0 1158.4520882265788 -191.24684391166375 0 0 0 0 -1945.8801215955737 675.45014054796047 0 675.45014054796047 -174.51852126565063 0 0 0 0 304.21781185127656 119.2833951653738 0 119.2833951653738 253.26049075185438 0 0 0 0 -335.68717213691707 -455.61963225594081 0 -455.61963225594081 310.43423390512908 0 0 0 0 -1135.8589323570632 -369.4868789279426 0 -369.4868789279426 351.28267963283724 0 0 0 0 -2152.4503538787139 -183.42968684063089 0 -183.42968684063089 1941.9893801947619 0 0 0 0 -640.89430618134429 1324.663905806301 0 1324.663905806301 -1460.0663943337859 0 0 0 0 -1684.3143157956911 1489.5985850492725 0 1489.5985850492725 -597.87236450222554 0 0 0 0 -2824.4382389447601 2920.4164248637826 0 2920.4164248637826 -534.36598326216335 0 0 0 0 -1690.1343529586302 1792.5467921663803 0 1792.5467921663803 534.45698190809162 0 0 0 0 6.7321264258503177 2.5858786624059462 0 2.5858786624059462 0.17444353728413375 0 0 0 0 -533.91878159622865 1050.4926033228767 0 1050.4926033228767 -1005.532638728444 0 0 0 0 109.12949270022 210.6191835415375 0 210.6191835415375 -742.3754702466249 0 0 0 0 -708.1792429397974 457.90244212088874 0 457.90244212088874 -186.64884666538273 0 0 0 0 -477.81112516803842 663.49327197654929 0 663.49327197654929 -253.4868745640124 0 0 0 0 -681.41434095591831 336.156617364657 0 336.156617364657 103.1560699793481 0 0 0 0 -1341.0742927678439 577.48101149217109 0 577.48101149217109 109.58568076969823 0 0 0 0 242.0763710542692 246.45905598293029 0 246.45905598293029 96.175127204187447 0 0 0 0 -320.34214044797409 -141.35027657423052 0 -141.35027657423052 -169.15569638938177 0 0 0 0 -14.134212672610385 44.735477906939607 0 44.735477906939607 -48.9184667864738 0 0 0 0 117.8340826072963 480.12843434243769 0 480.12843434243769 -139.39556843825267 0 0 0 0 152.87346803697073 191.51741612279147 0 191.51741612279147 251.3032063834321 0 0 0 0 1046.4773798261485 226.75682194310502 0 226.75682194310502 -180.2425125969894 0 0 0 0 1487.5348330240372 1488.1424388364867 0 1488.1424388364867 -2184.6033783753082 0 0 0 0 -18.801787498599204 18.080560839270518 0 18.080560839270518 -12.859176269287445 0 0 0 0 -100.45458002193482 2368.8775667117588 0 2368.8775667117588 -1914.5747958894572 0 0 0 0 -2112.9512180943821 -1587.4766470257018 0 -1587.4766470257018 -1441.7802768504444 0 0 0 0 -314.52811864583055 331.3478577707283 0 331.3478577707283 -198.21563109285489 0 0 0 0 22.537327069082338 13.223611325621306 0 13.223611325621306 6.8796321123737414 0 0 0 0 -519.89138994178938 146.25148414965952 0 146.25148414965952 143.56966607816867 0 0 0 0 201.77671761799138 488.66191016771336 0 488.66191016771336 -1985.2455526564809 0 0 0 0 517.49529398668346 1415.972107401496 0 1415.972107401496 -858.5771938393591 0 0 0 0 -48.413575223298722 61.658582815563932 0 61.658582815563932 -81.301233805686934 0 0 0 0 0.36492380109560862 4.324977884615798 0 4.324977884615798 3.5974034314955929 0 0 0 0 -143.02832614795625 28.782570977164141 0 28.782570977164141 -8.3748956920317141 0 0 0 0 -170.01109350026309 177.91453956064652 0 177.91453956064652 -188.27577138651304 0 0 0 0 -236.82817811726636 -13.668797362159239 0 -13.668797362159239 18.11270097848319 0 0 0 0 -137.29405329540441 15.495036602576874 0 15.495036602576874 19.409096573886927 0 0 0 0 9.3937490646094375 102.72824691077403 0 102.72824691077403 -71.08098694777982 0 0 0 0 -503.83360415781863 551.84302857831062 0 551.84302857831062 348.57524961803574 0 0 0 0 -908.02761564874481 313.64227323616979 0 313.64227323616979 303.43200646847254 0 0 0 0 -735.35493867926562 227.7738680869661 0 227.7738680869661 557.23310750576638 0 0 0 0 -735.68559397306672 213.86789095234417 0 213.86789095234417 104.09143203147687 0 0 0 0 -1357.847903623966 403.59947917280078 0 403.59947917280078 -251.54491422686442 0 0 0 0 -518.31357755148929 348.74913949204347 0 348.74913949204347 -248.16884276976634 0 0 0 0 -119.04392705255304 -139.70365159120411 0 -139.70365159120411 300.09071342551761 0 0 0 0 1167.9334730513347 1151.2693114252688 0 1151.2693114252688 -719.45916985807708 0 0 0 0 -12.237886366697234 42.336526301188158 0 42.336526301188158 -53.773765153221973 0 0 0 0 1372.8566471253507 37.426451542683935 0 37.426451542683935 469.00918920722324 0 0 0 0 -1192.4405942608137 543.96638761648501 0 543.96638761648501 -132.66182859753462 0 0 0 0 -1.9122884508942377 8.4266355087933889 0 8.4266355087933889 -5.7843014716364678 0 0 0 0 -1420.4669100196807 531.59792945940535 0 531.59792945940535 225.79493794255541 0 0 0 0 -1605.3533075360428 416.18469824030763 0 416.18469824030763 -60.941741311587975 0 0 0 0 -1456.9198262128884 647.21214637652884 0 647.21214637652884 105.05525760049932 0 0 0 0 -1808.0813560626721 545.60523736510004 0 545.60523736510004 39.799176122207427 0 0 0 0 -2581.8895425925366 -18.189227941533318 0 -18.189227941533318 62.414628037775401 0 0 0 0 -1786.3734751302545 569.83805583759386 0 569.83805583759386 -556.64914736623177 0 0 0 0 -2481.1692063207302 807.3452299470664 0 807.3452299470664 -614.77872347467928 0 0 0 0 -1858.2353805191433 4.7958172223316069 0 4.7958172223316069 -744.12288582278416 0 0 0 0 -1756.072094450009 498.40402972810807 0 498.40402972810807 -93.240523641346954 0 0 0 0 -913.08462680246885 337.7119752093422 0 337.7119752093422 -462.36422513597063 0 0 0 0 -765.81339484279397 -178.16053377034223 0 -178.16053377034223 145.74998272801167 0 0 0 0 -1329.3791213987283 346.59622700134906 0 346.59622700134906 358.94121315938537 0 0 0 0 -1327.3102445316035 494.02622253041773 0 494.02622253041773 -35.418289729743265 0 0 0 0 2095.1013618650741 464.55215827105712 0 464.55215827105712 -349.62106764495547 0 0 0 0 1283.894830913152 185.51154165687876 0 185.51154165687876 408.88038563539158 0 0 0 0 535.63530818576351 548.4080582376082 0 548.4080582376082 216.02020407064992 0 0 0 0 542.55208398022432 496.11465276507715 0 496.11465276507715 205.67805876942293 0 0 0 0 -5.4947519540204262 4.5654519348094738 0 4.5654519348094738 10.210216098872763 0 0 0 0 -1560.2716546829688 295.61490396748195 0 295.61490396748195 32.261841622530483 0 0 0 0 -34.75965610321245 30.948717723770841 0 30.948717723770841 -25.389350386639705 0 0 0 0 -73.638085608352412 64.64937581553022 0 64.64937581553022 40.590942024298784 0 0 0 0 605.60840454990102 455.33559549375786 0 455.33559549375786 279.43748660743586 0 0 0 0 -2605.793674569737 443.79285831030575 0 443.79285831030575 -525.33205764042214 0 0 0 0 -3928.089297531551 148.96432935044868 0 148.96432935044868 56.923003253474235 0 0 0 0 -0.68982839836964871 0.91208896901510172 0 0.91208896901510172 -0.42223458615535492 0 0 0 0 711.83858483925724 296.13209033241583 0 296.13209033241583 253.78397593885893 0 0 0 0 682.72483739791369 415.26962432144501 0 415.26962432144501 84.835533776320517 0 0 0 0 492.14344899154821 610.78247469025519 0 610.78247469025519 99.573656944790855 0 0 0 0 330.61647923336932 519.27792057413171 0 519.27792057413171 205.00922562269261 0 0 0 0 342.49155459358735 564.13046309722995 0 564.13046309722995 8.9193721755781894 0 0 0 0 195.61568977261049 324.9407264322399 0 324.9407264322399 9.9134635798982345 0 0 0 0 -410.34038809982303 243.30437079709372 0 243.30437079709372 56.478407482325565 0 0 0 0 150.80285004879443 403.48815124390694 0 403.48815124390694 -130.41956641421712 0 0 0 0 -373.93369952746798 158.17529982562701 0 158.17529982562701 -52.308454595391595 0 0 0 0 132.61625103208462 587.05665148672961 0 587.05665148672961 299.65743367638788 0 0 0 0 243.54875014226855 458.39660946838558 0 458.39660946838558 443.29340019004349 0 0 0 0 88.55688532802742 536.14248576136742 0 536.14248576136742 448.00204315468136 0 0 0 0 -1948.5494632719638 402.85124396727406 0 402.85124396727406 -91.814297107019229 0 0 0 0 -0.27376836463463405 146.23688224711987 0 146.23688224711987 -41.135393133983598 0 0 0 0 -40.079361934148871 47.589996552215965 0 47.589996552215965 -31.441684452045109 0 0 0 0 273.43595978216399 1196.8402359243846 0 1196.8402359243846 225.55649730472942 0 0 0 0 -2.0505173674650905 316.14097438079716 0 316.14097438079716 1388.8897585110681 0 0 0 0 14.838512679590465 16.683047268540633 0 16.683047268540633 -10.442703049411477 0 0 0 0 39.111488242704439 33.528579389293327 0 33.528579389293327 -4.0232118621832171 0 0 0 0 -38.695741703950489 117.13221458648604 0 117.13221458648604 -27.658309482590994 0 0 0 0 -1273.5793562302952 2471.5986363017619 0 2471.5986363017619 -482.83674044560757 0 0 0 0 -2672.9550155069865 1515.2574290869206 0 1515.2574290869206 1210.5710731991858 0 0 0 0 -2283.7183775770536 2808.0693834322919 0 2808.0693834322919 417.8290744038095 0 0 0 0 -232.72178083898689 -371.0243732237941 0 -371.0243732237941 -1018.0237518017784 0 0 0 0 -1912.952310523131 2328.1010815246445 0 2328.1010815246445 -1772.8221478364576 0 0 0 0 -2400.9209369318578 1346.1781785778767 0 1346.1781785778767 -344.22975520859472 0 0 0 0 -3659.6289696490294 481.77036295129437 0 481.77036295129437 -104.80936834518798 0 0 0 0 -1219.5713988194402 157.94812431033642 0 157.94812431033642 -103.27731861509471 0 0 0 0 -622.94296554793982 427.57904850746127 0 427.57904850746127 -99.371996355854208 0 0 0 0 -857.260234118894 180.57656237378251 0 180.57656237378251 -33.906611845945008 0 0 0 0 -437.21169443375493 327.86849348541182 0 327.86849348541182 -90.258543480449589 0 0 0 0 -1000.2223278644797 745.84976764595922 0 745.84976764595922 -180.37606750817213 0 0 0 0 -1238.5505634495366 518.7630065120793 0 518.7630065120793 40.091359050900792 0 0 0 0 -1092.7253273991118 798.26022981161077 0 798.26022981161077 -120.836697730796 0 0 0 0 -940.44395250683738 682.17079262855987 0 682.17079262855987 -113.74622585704856 0 0 0 0 -865.25223337146326 844.12661458226466 0 844.12661458226466 -309.95530791960482 0 0 0 0 -660.00158375278261 856.90889106777468 0 856.90889106777468 -332.88604109406151 0 0 0 0 -1115.9560637314273 1137.9411245458045 0 1137.9411245458045 -501.62912218784913 0 0 0 0 -386.14270759179635 1060.6667743437356 0 1060.6667743437356 -891.54685468821117 0 0 0 0 -599.43134978635351 1206.5380698807728 0 1206.5380698807728 -990.3190292231011 0 0 0 0 -596.10655693851731 1265.0031766918109 0 1265.0031766918109 -923.5899159360124 0 0 0 0 -273.61580205805512 740.90182373167772 0 740.90182373167772 -640.76302925598793 0 0 0 0 -252.18344320843335 675.94657322257262 0 675.94657322257262 -909.82314594916534 0 0 0 0 -466.64862567316231 709.7098583509578 0 709.7098583509578 -452.2450757844781 0 0 0 0 -620.93292001861118 902.0943155358982 0 902.0943155358982 -689.37089163237033 0 0 0 0 -457.31559716195079 662.35610981478749 0 662.35610981478749 -693.5619451719831 0 0 0 0 -418.25052242244419 569.81836382500478 0 569.81836382500478 -475.84769746029633 0 0 0 0 -735.22329809937582 458.64988053851994 0 458.64988053851994 -380.8976821085198 0 0 0 0 -552.51765556353712 586.53698325265941 0 586.53698325265941 -413.77674679804477 0 0 0 0 -501.44833173388633 413.80239171028188 0 413.80239171028188 -698.71309025211667 0 0 0 0 -416.68818724470157 593.84000145009122 0 593.84000145009122 -707.12931932404172 0 0 0 0 -204.88459074119237 513.64349050965393 0 513.64349050965393 -611.76141915448534 0 0 0 0 -398.87389192610135 498.18849730817601 0 498.18849730817601 -194.3756299521483 0 0 0 0 -545.65335350557871 763.3444109895936 0 763.3444109895936 -318.36365327850945 0 0 0 0 560.24744738195113 227.65279547404134 0 227.65279547404134 -243.35833193437429 0 0 0 0 25.794416621031317 22.102188921414474 0 22.102188921414474 0.15056946963568407 0 0 0 0 -627.0797697169703 568.48012906053259 0 568.48012906053259 -1.4650701106293127 0 0 0 0 -1117.9532464043114 460.49783229578316 0 460.49783229578316 332.46302082143666 0 0 0 0 -629.06627233976542 528.10130439157365 0 528.10130439157365 -178.22231381147685 0 0 0 0 -303.85051851927346 235.92226033993211 0 235.92226033993211 39.260388461800176 0 0 0 0 -54.100446897116576 37.954744010707287 0 37.954744010707287 -28.136405240836723 0 0 0 0 -259.22006546192279 604.72441093698217 0 604.72441093698217 426.34540500257208 0 0 0 0 514.50398379768922 383.33727466414348 0 383.33727466414348 -1551.1288349808892 0 0 0 0 -24.151544175073646 16.263209275794793 0 16.263209275794793 -9.0189368392445601 0 0 0 0 61.640974644244125 1143.5200249937698 0 1143.5200249937698 -2209.0070334441116 0 0 0 0 0.4854905361062265 67.358459767376189 0 67.358459767376189 -148.33298180404381 0 0 0 0 -347.17666486157395 288.53595020532521 0 288.53595020532521 -75.492266058565292 0 0 0 0 -82.805850686085336 82.078177315288144 0 82.078177315288144 0.91860409743100035 0 0 0 0 -286.73420511492441 493.15150994354553 0 493.15150994354553 -61.407327041917597 0 0 0 0 -356.15696631329774 344.29730207045213 0 344.29730207045213 -14.204548204317689 0 0 0 0 -342.91253788626273 333.90036066934954 0 333.90036066934954 -126.13960463038529 0 0 0 0 145.86495241901429 114.87914148236 0 114.87914148236 31.412947089524096 0 0 0 0 -273.10460932143906 373.68233922679065 0 373.68233922679065 -117.62966762592805 0 0 0 0 203.00764366997464 104.27550253365916 0 104.27550253365916 -425.10530960930737 0 0 0 0 -275.5101611531627 762.58262683492831 0 762.58262683492831 -474.4606264637041 0 0 0 0 -312.01475218967607 609.61059257244415 0 609.61059257244415 -354.41771517523739 0 0 0 0 11.642268772577154 393.38700137939668 0 393.38700137939668 -345.54874705972907 0 0 0 0 -712.98383591362654 634.79154985550849 0 634.79154985550849 -324.69637328969657 0 0 0 0 -461.26814960196498 727.96083553041171 0 727.96083553041171 -335.41256247008278 0 0 0 0 -926.88744152464824 140.52892456349218 0 140.52892456349218 125.17585122163291 0 0 0 0 41.39144529045501 27.489804003696769 0 27.489804003696769 6.4501999699771204 0 0 0 0 -221.1919974065986 505.36551934729869 0 505.36551934729869 267.58299094469112 0 0 0 0 93.12739371682656 114.53213994933643 0 114.53213994933643 82.928963363950061 0 0 0 0 79.282912215727265 561.23513426871796 0 561.23513426871796 -385.40447910255097 0 0 0 0 -12.971803941241802 76.473605184032195 0 76.473605184032195 -34.673807074278045 0 0 0 0 -204.95466060511535 736.67526941317192 0 736.67526941317192 -303.48661727087165 0 0 0 0 -198.59887069925026 333.66345659518993 0 333.66345659518993 -383.67201294440019 0 0 0 0 127.70379722170149 125.0465377835902 0 125.0465377835902 40.767208070996674 0 0 0 0 -287.47297366027487 323.439157928653 0 323.439157928653 -268.00366495580238 0 0 0 0 -53.082998753698121 141.59252671783543 0 141.59252671783543 -1184.7950360221439 0 0 0 0 -812.86939710100705 38.3877476317939 0 38.3877476317939 -393.94702729959317 0 0 0 0 -1053.7197493899585 842.93080296802509 0 842.93080296802509 -355.50750903725566 0 0 0 0 -893.15672873887524 613.34528732571198 0 613.34528732571198 -79.523558486485854 0 0 0 0 -43.237091875053125 44.619058818278226 0 44.619058818278226 -33.6741203037285 0 0 0 0 -9.7363753181462158 14.274924025887486 0 14.274924025887486 -11.337323124864554 0 0 0 0 -3091.8608459263451 -461.77046361048997 0 -461.77046361048997 345.10823489695031 0 0 0 0 -57.372792304679422 52.720205887459805 0 52.720205887459805 -45.657588131913826 0 0 0 0 50.546769484521064 1254.6175245879931 0 1254.6175245879931 261.64607272128342 0 0 0 0 -0.08132565749110654 1565.4037751365904 0 1565.4037751365904 -1233.137967678058 0 0 0 0 -94.226341600748128 802.95128162106266 0 802.95128162106266 399.37741485968581 0 0 0 0 562.07857067137229 831.05553475873603 0 831.05553475873603 73.982418689585757 0 0 0 0 -260.8770920832394 1020.5669953507968 0 1020.5669953507968 236.6089669597859 0 0 0 0 -759.22998728309904 687.34866526255792 0 687.34866526255792 177.83973713664454 0 0 0 0 -47.069021741372126 980.76875732944063 0 980.76875732944063 -95.507966694218339 0 0 0 0 -525.98698871467786 684.04615092040331 0 684.04615092040331 -279.176611758121 0 0 0 0 -590.0583972196473 723.21453325172843 0 723.21453325172843 -77.839659355639014 0 0 0 0 84.620474698991828 114.31663203280816 0 114.31663203280816 91.597047603101032 0 0 0 0 -766.31158620082351 707.6087076081385 0 707.6087076081385 122.63396389599075 0 0 0 0 -1012.6940083012159 445.69636557643389 0 445.69636557643389 -73.489312262259773 0 0 0 0 -1147.6931047723192 555.3836399900174 0 555.3836399900174 268.3980136661703 0 0 0 0 -1099.6909900243627 350.97304882695607 0 350.97304882695607 -87.509050615160959 0 0 0 0 -1122.9503083511881 467.92172775525614 0 467.92172775525614 -22.612032617849763 0 0 0 0 -1205.835183923904 377.6434172373265 0 377.6434172373265 116.12719994867803 0 0 0 0 -1696.3107800605321 166.71978109521478 0 166.71978109521478 116.9600626196916 0 0 0 0 -836.62847550252627 1180.2188022075716 0 1180.2188022075716 -132.30744073358073 0 0 0 0 -1166.9931362178395 417.15275662231579 0 417.15275662231579 -358.94134844384098 0 0 0 0 -1484.645909938663 692.21727564219327 0 692.21727564219327 184.29360198424547 0 0 0 0 -823.87460045690386 854.82809082695894 0 854.82809082695894 108.26645919843577 0 0 0 0 -551.04367685167381 590.12291442766582 0 590.12291442766582 199.60904540469528 0 0 0 0 -244.24172762480885 1161.5463187757668 0 1161.5463187757668 401.95252387342043 0 0 0 0 222.68634072800342 662.41624782992585 0 662.41624782992585 -104.70884750092227 0 0 0 0 307.55328702958832 908.49655013112715 0 908.49655013112715 -383.68180882598972 0 0 0 0 1950.0666348696832 1348.9311345466704 0 1348.9311345466704 -1275.3542330157361 0 0 0 0 555.83322209992912 883.16023447747284 0 883.16023447747284 -511.74747168252361 0 0 0 0 -4.1855192755547819 3.8827806189556213 0 3.8827806189556213 -0.62149162650439393 0 0 0 0 359.18506775902642 910.84635052108933 0 910.84635052108933 1386.2448793365911 0 0 0 0 707.11750311114429 1658.7919335199367 0 1658.7919335199367 993.6113600312674 0 0 0 0 440.96506172741647 296.69417335304024 0 296.69417335304024 707.62996000198473 0 0 0 0 219.84158776474305 473.65046892935061 0 473.65046892935061 -297.86446793121286 0 0 0 0 96.710251754483124 365.85601487102394 0 365.85601487102394 -369.45324214608991 0 0 0 0 -426.13556578972748 -218.00173682132299 0 -218.00173682132299 -1048.4508130951363 0 0 0 0 235.54456701589697 560.36826291844045 0 560.36826291844045 -808.54151540159364 0 0 0 0 343.24691977422935 137.01530227198236 0 137.01530227198236 30.615183621375763 0 0 0 0 179.90616886626503 402.13144974625175 0 402.13144974625175 -220.14765969815198 0 0 0 0 286.77817594237729 1321.1429290338424 0 1321.1429290338424 435.92427780519938 0 0 0 0 -52.337728480999694 63.204793452393574 0 63.204793452393574 -17.114931666604349 0 0 0 0 193.0854878165851 685.86476993154065 0 685.86476993154065 -205.11552970700723 0 0 0 0 -775.70823721883426 495.82277846925717 0 495.82277846925717 352.76872050982638 0 0 0 0 -649.89604891590352 300.96030460349721 0 300.96030460349721 -222.82087199969101 0 0 0 0 -15.974594787985254 90.701724548197731 0 90.701724548197731 104.15634503152489 0 0 0 0 -139.88212379332253 285.86203505125741 0 285.86203505125741 -92.942242752826132 0 0 0 0 35.558724775729075 74.49398168934151 0 74.49398168934151 -24.077406518784812 0 0 0 0 -1182.7100645272294 499.89014820400917 0 499.89014820400917 139.2739538399328 0 0 0 0 273.33092192080221 58.787511960297707 0 58.787511960297707 -176.72323272918584 0 0 0 0 221.99087114872236 24.477260053536156 0 24.477260053536156 129.07326172129251 0 0 0 0 12.510091656613398 11.583953981513702 0 11.583953981513702 6.8002337768967891 0 0 0 0 -281.69071572827477 662.75396233290667 0 662.75396233290667 -203.14869243316934 0 0 0 0 85.135585162317767 92.435679207799609 0 92.435679207799609 47.917692327872999 0 0 0 0 92.347628958860454 87.157887618609095 0 87.157887618609095 58.623105101351086 0 0 0 0 -70.10727070550638 -147.48816270350653 0 -147.48816270350653 39.378275216324255 0 0 0 0 253.09662022018892 500.93403886059241 0 500.93403886059241 -126.73878703446826 0 0 0 0 935.47918784795911 213.77924804567738 0 213.77924804567738 -312.81769091209571 0 0 0 0 -1608.1552160894062 173.58856963566359 0 173.58856963566359 -124.00696996776969 0 0 0 0 4.5643631173037562 51.818807482480153 0 51.818807482480153 -41.82752663548581 0 0 0 0 89.283407236565836 448.59394871209224 0 448.59394871209224 233.78259973641252 0 0 0 0 -219.02850704839966 655.29391723612389 0 655.29391723612389 -39.670674484834308 0 0 0 0 -161.93711544686084 103.51520653215994 0 103.51520653215994 -226.40768879823736 0 0 0 0 101.70020401937745 68.627515862284781 0 68.627515862284781 12.928368165186839 0 0 0 0 157.57600048971744 153.93932220196439 0 153.93932220196439 -13.698624231248687 0 0 0 0 51.14997596097237 203.1831261104453 0 203.1831261104453 -331.66351398472034 0 0 0 0 -1303.8038998000311 50.788752756081522 0 50.788752756081522 113.4673994993791 0 0 0 0 287.14507354373382 -8.5738161682820646 0 -8.5738161682820646 -600.6873760044291 0 0 0 0 -5.9114090825677259 4.7875874809075469 0 4.7875874809075469 -1.4825243419223852 0 0 0 0 -418.18395014401722 83.008106499109999 0 83.008106499109999 100.34644690704226 0 0 0 0 -309.98035324041666 325.43984710019868 0 325.43984710019868 -105.67405795352533 0 0 0 0 -301.49561382601928 249.97915234699394 0 249.97915234699394 -119.15322063112399 0 0 0 0 19.463671281893404 22.8236706694113 0 22.8236706694113 0.38216032476253758 0 0 0 0 14.742892155876689 -31.879503935342655 0 -31.879503935342655 120.05612075861427 0 0 0 0 -5.8077035398600856 48.753709635348059 0 48.753709635348059 -10.270720590255223 0 0 0 0 39.403001532894365 63.663266241605129 0 63.663266241605129 23.294147618044803 0 0 0 0 37.942976984078122 56.88954674545991 0 56.88954674545991 20.722187290701697 0 0 0 0 73.93039293723632 159.80493806605955 0 159.80493806605955 58.079817497375188 0 0 0 0 53.006958329462314 46.497515525386746 0 46.497515525386746 30.09808892173595 0 0 0 0 214.45296196108393 85.135559354792349 0 85.135559354792349 -55.522996605490334 0 0 0 0 -1062.2439970343985 9.6026048186176922 0 9.6026048186176922 241.94982510514092 0 0 0 0 24.521603137663597 27.228055937841681 0 27.228055937841681 -23.491337304918034 0 0 0 0 -743.70038909899449 456.89429398948414 0 456.89429398948414 152.30209140657098 0 0 0 0 -589.52749656070046 64.957527072951052 0 64.957527072951052 -58.406239862786606 0 0 0 0 -516.13742762954371 421.89107016928574 0 421.89107016928574 193.11033479002072 0 0 0 0 -464.24732931785547 458.90950309792242 0 458.90950309792242 93.765697602706496 0 0 0 0 -383.64531625370728 257.72133020422189 0 257.72133020422189 -48.577106827426178 0 0 0 0 78.611271914995342 89.7488377068413 0 89.7488377068413 57.891804674728689 0 0 0 0 -449.91608815151267 213.47743789438391 0 213.47743789438391 -25.713812175294152 0 0 0 0 55.363933979493069 91.49235668896317 0 91.49235668896317 33.416010898178968 0 0 0 0 174.12874420882144 28.084935727136326 0 28.084935727136326 142.33516355997199 0 0 0 0 -31.634171056808555 473.41996549864416 0 473.41996549864416 -22.934004331676988 0 0 0 0 -2013.2578216567445 542.42913012564804 0 542.42913012564804 -650.39538620811072 0 0 0 0 7.2570034814358948 45.79152667099288 0 45.79152667099288 -51.935352380594338 0 0 0 0 1626.9412860062048 411.16762558305982 0 411.16762558305982 -381.70006912542158 0 0 0 0 -59.206135702072061 861.50307971831353 0 861.50307971831353 -156.21472851344151 0 0 0 0 -335.4785919279675 188.89578572614118 0 188.89578572614118 140.93395843896724 0 0 0 0 256.36408523425052 1326.4782194743457 0 1326.4782194743457 -793.84717297306634 0 0 0 0 2174.5129130158384 -368.59513896793214 0 -368.59513896793214 -375.95072243896539 0 0 0 0 -2982.5622527552405 717.50329496775521 0 717.50329496775521 -72.2445064837666 0 0 0 0 3.4356994840862143 31.558051564480493 0 31.558051564480493 -42.455913753358459 0 0 0 0 -3603.1978513627182 1037.1826217435764 0 1037.1826217435764 -62.978177800017875 0 0 0 0 -2951.0744355482166 834.23066188614757 0 834.23066188614757 -700.79796353132406 0 0 0 0 -394.79867834207107 -273.0458327692686 0 -273.0458327692686 649.58871358724718 0 0 0 0 -504.52477954977439 816.4873457586873 0 816.4873457586873 -62.531763036124175 0 0 0 0 72.196044426331355 534.44890194013715 0 534.44890194013715 -663.42170045076637 0 0 0 0 -159.49249839021468 292.12573252180664 0 292.12573252180664 -203.76337880807114 0 0 0 0 19.821958808544878 25.882657306203328 0 25.882657306203328 -8.659750862774672 0 0 0 0 -1.5137362526658862 2.6960161593214877 0 2.6960161593214877 -10.167918910865637 0 0 0 0 443.64629400574631 171.55187484451017 0 171.55187484451017 -483.45962598206825 0 0 0 0 -1625.8767058448502 -504.16004378492653 0 -504.16004378492653 248.79721808641989 0 0 0 0 374.43708920489007 386.81088285325677 0 386.81088285325677 -118.90399299123055 0 0 0 0 476.52159160473457 319.93209042301169 0 319.93209042301169 -129.66837197142013 0 0 0 0 498.06733188035287 374.93343635550264 0 374.93343635550264 -542.18139724284993 0 0 0 0 556.96906691195909 962.64062729592843 0 962.64062729592843 591.46581485506613 0 0 0 0 380.16434070602554 345.17593265407049 0 345.17593265407049 199.31354268247378 0 0 0 0 656.32197926652225 334.49503085522883 0 334.49503085522883 167.69261351751629 0 0 0 0 476.12605517816837 931.9160371392602 0 931.9160371392602 -883.18129204623983 0 0 0 0 457.74370761166938 427.17587523979455 0 427.17587523979455 116.76731258789368 0 0 0 0 1815.9155217812149 147.2196177881342 0 147.2196177881342 -445.22919118207938 0 0 0 0 -4280.8914795163728 1423.7143642635056 0 1423.7143642635056 -168.21346914491733 0 0 0 0 -0.039945302874905053 8.6082471500116071 0 8.6082471500116071 -12.49077343521185 0 0 0 0 -2294.9018511899994 397.33435465092043 0 397.33435465092043 -3.9136525360991072 0 0 0 0 -2097.4637625474134 1383.7135858981928 0 1383.7135858981928 -1170.7082468106964 0 0 0 0 -2382.266785284919 861.8593202678021 0 861.8593202678021 -423.23060589290981 0 0 0 0 -2965.4976708615059 781.89030839806219 0 781.89030839806219 -281.10964968643384 0 0 0 0 -2948.8221907616316 888.29136869044305 0 888.29136869044305 184.95152811883599 0 0 0 0 535.32200753055804 263.49714034127828 0 263.49714034127828 -187.16112595923187 0 0 0 0 3.5360887737200102 19.211374461207896 0 19.211374461207896 -32.575528863818079 0 0 0 0 936.98166087732352 401.75629330869378 0 401.75629330869378 -280.27951755924732 0 0 0 0 554.4053930734226 198.58659078729397 0 198.58659078729397 145.02484185044887 0 0 0 0 642.84663037807331 283.58810581506987 0 283.58810581506987 -457.11013034408097 0 0 0 0 194.46381322295565 623.2656275259651 0 623.2656275259651 -86.454848520646919 0 0 0 0 129.89493133222277 1142.3444926570082 0 1142.3444926570082 -470.77807507874968 0 0 0 0 375.15111859395984 694.52828478476295 0 694.52828478476295 -856.58872109922959 0 0 0 0 72.987271527708799 589.77655354237868 0 589.77655354237868 -413.28778564740787 0 0 0 0 -17.249045259053673 1789.6421212303576 0 1789.6421212303576 -184.55942124592548 0 0 0 0 -537.5220192833367 1787.5839128697698 0 1787.5839128697698 -184.43083580261828 0 0 0 0 -253.16652837701986 1440.456228099727 0 1440.456228099727 -683.14447549181932 0 0 0 0 -115.33201758843461 854.06084667485629 0 854.06084667485629 -46.48598975254572 0 0 0 0 -866.6042691693001 1083.669098347018 0 1083.669098347018 -57.585590267306543 0 0 0 0 -726.2325880744329 236.2464343981128 0 236.2464343981128 41.749419942410896 0 0 0 0 0.74936884568887763 432.2349387305585 0 432.2349387305585 -94.103178949284484 0 0 0 0 -338.64250976422045 672.24060622049728 0 672.24060622049728 -167.65901889697261 0 0 0 0 -1001.8048047292395 215.50589814517298 0 215.50589814517298 -76.465648775920272 0 0 0 0 0.61667835218571199 25.337540179212738 0 25.337540179212738 -39.774962077471571 0 0 0 0 -928.40682787125115 331.06345776802482 0 331.06345776802482 -916.62508185039042 0 0 0 0 -2750.71572026183 1121.7921321236663 0 1121.7921321236663 -30.239319822459947 0 0 0 0 -1289.9955627082672 -116.03227172713378 0 -116.03227172713378 369.23442996827362 0 0 0 0 8.7783144331948648 -5.1319887738615293 0 -5.1319887738615293 -4.8538899004768723 0 0 0 0 -40.390259547828464 231.88765613687428 0 231.88765613687428 52.497784466919256 0 0 0 0 -1095.7910628080608 562.37844549009606 0 562.37844549009606 1.2477571968047414 0 0 0 0 -7.7920074326929836 2.6330697744283782 0 2.6330697744283782 6.2453939351336203 0 0 0 0 -95.192535945141572 -150.79678684174723 0 -150.79678684174723 -302.88979985269543 0 0 0 0 -276.04925927066506 69.115472776695242 0 69.115472776695242 96.776188696559984 0 0 0 0 -128.83154405664936 136.5283529543849 0 136.5283529543849 0.83853825280675665 0 0 0 0 -1.1401459660276885 -4.3124970787064569 0 -4.3124970787064569 2.8736035936194639 0 0 0 0 154.27009272605937 127.35144999978365 0 127.35144999978365 -57.623200771035044 0 0 0 0 -9.4564113757347883 7.6640188568149128 0 7.6640188568149128 -11.040534362665596 0 0 0 0 -63.635101691324962 151.05341776212299 0 151.05341776212299 0.003454415054875426 0 0 0 0 -11.297145524647561 24.012106283639739 0 24.012106283639739 -32.911379774310774 0 0 0 0 -1951.6258731140115 335.69727472568047 0 335.69727472568047 96.342238123608695 0 0 0 0 -49.723017502315997 121.47316394791233 0 121.47316394791233 12.240900859556859 0 0 0 0 -89.221115992528212 -88.300046191070578 0 -88.300046191070578 12.240900859585963 0 0 0 0 -1420.1720716580458 917.27515139520983 0 917.27515139520983 318.69939976729802 0 0 0 0 -1418.3198158445084 1053.2267757485533 0 1053.2267757485533 37.283865231052914 0 0 0 0 -5609.2001176744379 444.23762871056169 0 444.23762871056169 348.33549310760282 0 0 0 0 -2020.8027064881098 2839.5654049783043 0 2839.5654049783043 -1.2471992109203711 0 0 0 0 -664.51894451812404 1855.1102708534381 0 1855.1102708534381 -399.27859261184676 0 0 0 0 -1423.9214858137427 2056.6138584975301 0 2056.6138584975301 76.864280713110929 0 0 0 0 -544.42799892187759 2371.4366367873299 0 2371.4366367873299 -273.96921272281907 0 0 0 0 -335.97138894985619 341.60936302816845 0 341.60936302816845 -374.29382032518333 0 0 0 0 -707.58962830097039 105.75363597737783 0 105.75363597737783 170.49702173090191 0 0 0 0 -722.39033242990308 621.21454954634214 0 621.21454954634214 272.11091264536662 0 0 0 0 2843.0599417540143 171.77273081076419 0 171.77273081076419 -485.84194508094515 0 0 0 0 -6131.9508713283503 1364.6754817911278 0 1364.6754817911278 413.15881104412256 0 0 0 0 -0.91443357836115879 10.263012048083041 0 10.263012048083041 -16.043754452068583 0 0 0 0 -2765.5820712449568 2317.869212882008 0 2317.869212882008 -880.17949652118841 0 0 0 0 -1820.1428517362638 1454.5222154219355 0 1454.5222154219355 -1257.4947904490982 0 0 0 0 -446.72322425794118 1189.9169070163625 0 1189.9169070163625 -594.31209204156767 0 0 0 0 -1621.2646369506474 849.99894899919673 0 849.99894899919673 -77.437237500082119 0 0 0 0 -1149.5685191319426 347.35398710155278 0 347.35398710155278 -503.18597748014872 0 0 0 0 -995.24286086174834 648.90236233285395 0 648.90236233285395 0.71828036698570941 0 0 0 0 -999.26767432354609 636.39293987596466 0 636.39293987596466 -32.053753022744786 0 0 0 0 -1004.2399019922923 569.87837260232118 0 569.87837260232118 -260.78702672789223 0 0 0 0 -1006.2373465121418 630.51491332245496 0 630.51491332245496 -0.37591706426264704 0 0 0 0 -1031.6730643454175 491.6271613230856 0 491.6271613230856 -304.49115270900074 0 0 0 0 -1000.5170437883207 456.26298972023505 0 456.26298972023505 0.088675722538027912 0 0 0 0 -458.00447194781373 247.16927626371762 0 247.16927626371762 -66.983935173484497 0 0 0 0 -580.72742248682698 524.95461256870476 0 524.95461256870476 -414.25582954438869 0 0 0 0 -419.0800716904123 185.99982593359891 0 185.99982593359891 -0.47032448324898724 0 0 0 0 -80.611972235397843 -62.036609251314076 0 -62.036609251314076 217.43846920892975 0 0 0 0 -361.34813572949861 322.80608103719715 0 322.80608103719715 -253.47535603330471 0 0 0 0 -19.334001932191597 0.048263391043519732 0 0.048263391043519732 4.345611147794159 0 0 0 0 -960.32132177326139 814.19627808741279 0 814.19627808741279 -604.15223498240812 0 0 0 0 -9.6362506566882757 1.7806057740491497 0 1.7806057740491497 3.2357658147431607 0 0 0 0 -58.300408394221449 14.490794475950679 0 14.490794475950679 -0.077362710377201438 0 0 0 0 20.092175157390969 16.355731294673575 0 16.355731294673575 5.8750749069394033 0 0 0 0 -25.849834390920904 0.075088799149114038 0 0.075088799149114038 4.8155196664308733 0 0 0 0 2271.1252001422308 -343.513382893987 0 -343.513382893987 -260.76408184636966 0 0 0 0 -118.85393186151487 44.724586952608661 0 44.724586952608661 67.375587366885156 0 0 0 0 -2.4005792966281092 3.5298284070577495 0 3.5298284070577495 2.6685388829814087 0 0 0 0 3481.150445608364 -72.96771522401832 0 -72.96771522401832 13.647278871736489 0 0 0 0 -16.27819189608519 4.295462983468866 0 4.295462983468866 3.4042998714552937 0 0 0 0 -122.65821544612118 57.399650873165228 0 57.399650873165228 -11.067342706730415 0 0 0 0 -149.58389314547094 159.17049160279566 0 159.17049160279566 -169.76298983639572 0 0 0 0 52.693006811405212 -8.3771564889320871 0 -8.3771564889320871 -76.459997123951325 0 0 0 0 1673.0482286303431 -360.08546924978145 0 -360.08546924978145 -76.210636806474213 0 0 0 0 717.3487699595953 244.72069543576799 0 244.72069543576799 -291.63186348344607 0 0 0 0 944.17992211020373 -46.789651327409956 0 -46.789651327409956 -231.47735970944632 0 0 0 0 -143.81860381624574 196.46566733099462 0 196.46566733099462 32.516329271173163 0 0 0 0 29.538591402019975 25.867656029458431 0 25.867656029458431 13.894637044896967 0 0 0 0 559.50378747582727 172.96316407946142 0 172.96316407946142 -188.59012665640876 0 0 0 0 90.001598341850354 253.92670944872043 0 253.92670944872043 213.14106358619756 0 0 0 0 670.34320935021697 340.56424923233499 0 340.56424923233499 -484.90108266280731 0 0 0 0 -181.55053948313434 -196.91362009296427 0 -196.91362009296427 338.96169380562787 0 0 0 0 -135.55621480195987 93.02987416414544 0 93.02987416414544 161.49016365007265 0 0 0 0 -17.83000523323426 101.2294352269455 0 101.2294352269455 -51.154833893509931 0 0 0 0 98.112364292381244 196.93471633597801 0 196.93471633597801 -48.30852575256722 0 0 0 0 -165.06366849984624 141.1384375323978 0 141.1384375323978 -41.753887894337822 0 0 0 0 35.385954863397842 33.989020169325414 0 33.989020169325414 22.429345126975875 0 0 0 0 -229.74069021059768 235.29346382389485 0 235.29346382389485 -72.492892798880348 0 0 0 0 36.513688259641803 38.798026722893383 0 38.798026722893383 32.84689844644447 0 0 0 0 -106.85622275780588 198.9843563346767 0 198.9843563346767 -67.53984902954835 0 0 0 0 -126.27385868629062 128.43297119167983 0 128.43297119167983 63.110619421746378 0 0 0 0 53.550698583181656 26.195777478802484 0 26.195777478802484 8.8877733686676947 0 0 0 0 -37.958898509999926 -4.8223418311099522 0 -4.8223418311099522 164.12325806893932 0 0 0 0 7.8285735131019436 16.033045623849489 0 16.033045623849489 8.8689871251985721 0 0 0 0 -32.72717262686092 9.3836789320412208 0 9.3836789320412208 58.216160253970884 0 0 0 0 55.614382186457078 79.989294967170281 0 79.989294967170281 64.244461225542182 0 0 0 0 633.26650665277339 767.80181109701516 0 767.80181109701516 -15.07282908995694 0 0 0 0 132.82245949942308 329.39764328653837 0 329.39764328653837 869.73474790851469 0 0 0 0 983.1800433213848 1279.2323078451227 0 1279.2323078451227 -2725.6616737534277 0 0 0 0 2.0503020420059741 7.625815026269521 0 7.625815026269521 3.4845501146927234 0 0 0 0 46.029766857162031 80.61501548699016 0 80.61501548699016 110.27501920783834 0 0 0 0 -16.188452591871123 15.027440937604013 0 15.027440937604013 -12.233255058918189 0 0 0 0 982.5945581605331 646.10196804699353 0 646.10196804699353 -2268.8162173843593 0 0 0 0 179.85238764132919 1763.9425538193645 0 1763.9425538193645 -2510.5089420246659 0 0 0 0 1580.3683013196951 904.79825936800626 0 904.79825936800626 -2044.3657330263668 0 0 0 0 930.63958368500244 581.81080653996105 0 581.81080653996105 -2194.3158092764206 0 0 0 0 1336.6715020093404 -104.56543424029405 0 -104.56543424029405 -1522.7547527216666 0 0 0 0 1209.1570517773571 1495.0495124599765 0 1495.0495124599765 1057.8865338796168 0 0 0 0 -34.259754997494333 37.749220207713137 0 37.749220207713137 -31.497720218065524 0 0 0 0 1634.1686799136141 838.80560118857102 0 838.80560118857102 -752.37512289229198 0 0 0 0 914.0349371496286 177.26602553280827 0 177.26602553280827 113.10917889920529 0 0 0 0 1343.7072517240922 1508.36298836676 0 1508.36298836676 1037.6209962521316 0 0 0 0 -2597.9917590828954 870.68629105409491 0 870.68629105409491 1123.3757623217898 0 0 0 0 -1056.8957371380257 183.52898512675165 0 183.52898512675165 1215.5273571871512 0 0 0 0 -1884.1614454545925 911.67026408985839 0 911.67026408985839 986.69518824172064 0 0 0 0 -1251.3712608558908 1277.6113167553704 0 1277.6113167553704 732.33753218085621 0 0 0 0 -806.16559180061631 662.45559807676182 0 662.45559807676182 499.39000631137606 0 0 0 0 -835.88962257691674 336.3696792711853 0 336.3696792711853 67.195934123068582 0 0 0 0 -1201.0158706111802 1186.2729062307462 0 1186.2729062307462 -67.048418947844766 0 0 0 0 663.42659577315862 833.29465341857576 0 833.29465341857576 -545.98421039160166 0 0 0 0 19.993847240093707 31.331735634383477 0 31.331735634383477 24.710190715558895 0 0 0 0 -53.040689306584682 53.801556784441345 0 53.801556784441345 46.038626915484201 0 0 0 0 -18.896613333679852 246.63847343755333 0 246.63847343755333 -86.244680920906831 0 0 0 0 -3241.1371535304934 533.58863878453849 0 533.58863878453849 -1613.367482414993 0 0 0 0 -2747.6207088057745 2275.9307658472098 0 2275.9307658472098 147.72834962861089 0 0 0 0 -365.58346168005573 2607.0080205168051 0 2607.0080205168051 -2147.3574118649412 0 0 0 0 -2193.3466725102294 917.03509295361073 0 917.03509295361073 -447.77222208266903 0 0 0 0 -1570.4234106355634 68.190663780042087 0 68.190663780042087 -768.45397753080761 0 0 0 0 -1272.0680214390086 1546.553693457492 0 1546.553693457492 -726.44229526872368 0 0 0 0 262.30745180530084 1691.2744242105437 0 1691.2744242105437 -731.95527872291859 0 0 0 0 -911.52051396130628 106.79533166973852 0 106.79533166973852 -1166.1065341022017 0 0 0 0 -533.14151131115614 1027.6908726408874 0 1027.6908726408874 -1160.8058344685269 0 0 0 0 -498.1724072119689 1283.6261164986809 0 1283.6261164986809 -28.946806028834544 0 0 0 0 4.9514345570233367 2.813521721235162 0 2.813521721235162 -1.9930184872189898 0 0 0 0 259.19075781965421 1245.9976837209761 0 1245.9976837209761 -741.63570949304267 0 0 0 0 -289.68195635668508 337.43652791780187 0 337.43652791780187 -551.12152923899339 0 0 0 0 -983.54712332631789 510.01450340084557 0 510.01450340084557 -609.63721926332801 0 0 0 0 -338.53065635132771 503.49939628533321 0 503.49939628533321 -1048.9107271556568 0 0 0 0 -876.50528848845534 316.29377802003 0 316.29377802003 -583.91720263898605 0 0 0 0 6.2614545611728971 6.3619045128002085 0 6.3619045128002085 0.066817728678074673 0 0 0 0 12.245589477077374 762.31304786240798 0 762.31304786240798 -1329.9148058877872 0 0 0 0 -583.88139480945847 808.55386293377524 0 808.55386293377524 218.47240691602929 0 0 0 0 618.23913639131752 620.03795589329093 0 620.03795589329093 -1109.4818509686738 0 0 0 0 -709.06616274297085 406.5819030500279 0 406.5819030500279 -505.6956271624731 0 0 0 0 -395.98939741559207 1306.9260014951687 0 1306.9260014951687 -1335.6032742124517 0 0 0 0 -935.26585236395204 937.89801908293157 0 937.89801908293157 -591.52590998856431 0 0 0 0 0.56923187697062971 4.127303394934728 0 4.127303394934728 1.6474584213751768 0 0 0 0 -1036.9889189808164 951.1399666398047 0 951.1399666398047 -593.23412780236686 0 0 0 0 -1312.5074630897343 1106.5173823590339 0 1106.5173823590339 -398.85756291291909 0 0 0 0 -1220.5894295963708 918.58083270220959 0 918.58083270220959 -447.9619947995202 0 0 0 0 -1571.9583193008348 1129.7364509188337 0 1129.7364509188337 -69.417505289653491 0 0 0 0 -940.72409578341808 1486.5338383120215 0 1486.5338383120215 -513.60897262147046 0 0 0 0 -1106.6503094957125 1329.6400004371972 0 1329.6400004371972 -344.58103531546658 0 0 0 0 -696.23005867783013 932.5196643180534 0 932.5196643180534 -259.17092476069774 0 0 0 0 -773.68565817649062 1172.49001617658 0 1172.49001617658 -976.07533536860137 0 0 0 0 -426.76374397547397 1126.0756157905707 0 1126.0756157905707 -199.66367874581192 0 0 0 0 -235.7492090116848 774.15853172160132 0 774.15853172160132 -407.10506005396019 0 0 0 0 554.23244293625339 211.90469332499197 0 211.90469332499197 -267.82706327995402 0 0 0 0 752.59360711631962 569.84307284374518 0 569.84307284374518 -488.74230623857147 0 0 0 0 47.395239763926384 507.52627660795042 0 507.52627660795042 -323.72134566161549 0 0 0 0 1830.0295105077421 1175.4872232990019 0 1175.4872232990019 113.95887128874892 0 0 0 0 497.10536873779165 1080.0162441144203 0 1080.0162441144203 330.96421166372602 0 0 0 0 3513.9461031880683 525.27586065670403 0 525.27586065670403 0.19579407502897084 0 0 0 0 4884.2744059562501 -2153.4798925711948 0 -2153.4798925711948 108.60973425224074 0 0 0 0 -1372.049503412783 587.53884180464956 0 587.53884180464956 -358.10088611513493 0 0 0 0 -1704.5485047883092 820.98351363497204 0 820.98351363497204 -229.70988111427141 0 0 0 0 -876.93775118597796 1178.8845673866635 0 1178.8845673866635 0.12036087618616875 0 0 0 0 -2081.0582177534534 964.33224272468942 0 964.33224272468942 0.33390102595149074 0 0 0 0 -3086.9794786357252 1305.0832281679468 0 1305.0832281679468 -283.11639400904278 0 0 0 0 -1776.7024210073027 1078.6003983049668 0 1078.6003983049668 -250.0283530849847 0 0 0 0 -1540.3493047934317 801.29052521257108 0 801.29052521257108 -0.37051284855988342 0 0 0 0 -898.21909692882491 1078.1407198312609 0 1078.1407198312609 -567.50554750980518 0 0 0 0 -324.52089998533484 578.66989245238074 0 578.66989245238074 -794.0283742399115 0 0 0 0 -23.778845154328515 10.228491492566945 0 10.228491492566945 -2.7270335392410772 0 0 0 0 -748.84059661997412 1522.4926828257267 0 1522.4926828257267 -2484.3042217741749 0 0 0 0 -295.46623343829742 361.94468804351345 0 361.94468804351345 -450.59340843584505 0 0 0 0 -342.47847940781503 327.69157362733677 0 327.69157362733677 -474.6773758008494 0 0 0 0 -57.505430229432356 20.242708729215735 0 20.242708729215735 -4.8345994391784473 0 0 0 0 -870.82957031609885 482.89583205511735 0 482.89583205511735 1361.3023627882649 0 0 0 0 146.13786255493687 714.46143187989946 0 714.46143187989946 552.95827191675198 0 0 0 0 -218.62597410807757 -535.29087371745845 0 -535.29087371745845 483.12686216061411 0 0 0 0 493.36817159221187 291.10081831458228 0 291.10081831458228 -249.19293091536383 0 0 0 0 -1821.2199046002302 -297.87589815634419 0 -297.87589815634419 1327.223775780556 0 0 0 0 -1224.794399752559 453.5194906614197 0 453.5194906614197 109.05754497577436 0 0 0 0 -3094.5299089011201 1681.0208329685775 0 1681.0208329685775 74.19034815779014 0 0 0 0 -2936.661207323179 345.71926466513833 0 345.71926466513833 1242.4985653657932 0 0 0 0 -1660.9855288634462 1546.0832084307604 0 1546.0832084307604 -1747.5404947823554 0 0 0 0 -2067.4727586051167 257.53055358334677 0 257.53055358334677 -994.90227025876811 0 0 0 0 1006.4838679376153 495.30320430728898 0 495.30320430728898 -11.025994905343396 0 0 0 0 877.18849760232843 501.58186488042702 0 501.58186488042702 357.14689672848908 0 0 0 0 897.74176493735558 548.73159863330511 0 548.73159863330511 3.6544270020676777 0 0 0 0 856.09130100279299 273.68496759052141 0 273.68496759052141 21.190090475050965 0 0 0 0 634.80038788676393 452.42890301172156 0 452.42890301172156 -0.024654007036588155 0 0 0 0 1024.7270504263852 699.27290034961698 0 699.27290034961698 95.334836494352203 0 0 0 0 610.67719664256038 613.0057609575415 0 613.0057609575415 628.34430229288409 0 0 0 0 11.296130974963596 4.74415995020982 0 4.74415995020982 -1.121717239154691 0 0 0 0 -483.55099657926621 86.094699625740759 0 86.094699625740759 45.656302571049309 0 0 0 0 1227.5424744719421 808.44935457684915 0 808.44935457684915 361.28864224453355 0 0 0 0 -234.22722161168349 -2.0059476702590473 0 -2.0059476702590473 76.723311432637274 0 0 0 0 5.3878136684540365 3.5112255355438577 0 3.5112255355438577 -1.8035083319971363 0 0 0 0 964.51625090693415 344.32780960535456 0 344.32780960535456 234.9028450595215 0 0 0 0 1455.1039274926588 595.23601867130492 0 595.23601867130492 412.4887614066829 0 0 0 0 1094.8958460474678 685.8860616623424 0 685.8860616623424 413.7072532986931 0 0 0 0 46.596120682421315 -17.017637552024098 0 -17.017637552024098 -52.699215974455001 0 0 0 0 11.486699481438542 24.102116465209086 0 24.102116465209086 31.336958936770202 0 0 0 0 -138.09899084621975 -62.533207587483048 0 -62.533207587483048 43.730264395184349 0 0 0 0 -213.65790451506473 145.85112714116985 0 145.85112714116985 0.87751268807915039 0 0 0 0 -368.37272853092873 193.83357676217565 0 193.83357676217565 -1.324597015096515 0 0 0 0 -116.97580988954451 115.8854104108741 0 115.8854104108741 -15.01183670485625 0 0 0 0 -115.5467099314701 204.06573377922177 0 204.06573377922177 -181.29553570396638 0 0 0 0 -182.63868575318702 384.55736245289154 0 384.55736245289154 -155.54615481743531 0 0 0 0 -257.86786604052941 348.69304539792574 0 348.69304539792574 -168.97016550946864 0 0 0 0 -490.86475560715189 355.26661626336863 0 355.26661626336863 -67.575430379569298 0 0 0 0 -214.3920040691155 261.4388579329534 0 261.4388579329534 -35.83147946826648 0 0 0 0 -177.72842804793618 564.49891862695222 0 564.49891862695222 138.97089265792602 0 0 0 0 -308.56745974173828 401.40399752889061 0 401.40399752889061 -128.40013110762811 0 0 0 0 -133.69723139100097 598.41246030404727 0 598.41246030404727 -120.08108897335478 0 0 0 0 -380.51791210061856 442.1538574105507 0 442.1538574105507 -0.26401098231144715 0 0 0 0 -681.09765739203067 634.06481549099044 0 634.06481549099044 -122.3301593340002 0 0 0 0 -170.90139450987044 403.96667471490218 0 403.96667471490218 -384.19617453486717 0 0 0 0 -426.63649165618062 348.93850366187689 0 348.93850366187689 -275.01781225498416 0 0 0 0 -88.123242567264242 325.50950009511143 0 325.50950009511143 -404.96997763766558 0 0 0 0 -194.15609970467631 187.87153657290764 0 187.87153657290764 -99.546316739986651 0 0 0 0 -90.518782095210554 -11.065901496716833 0 -11.065901496716833 -9.769276269886177 0 0 0 0 -11.886199001870409 92.389576168876374 0 92.389576168876374 -294.44446025048819 0 0 0 0 546.7248223723127 170.91281665099086 0 170.91281665099086 -317.29736103120376 0 0 0 0 6.0232235436057131 20.299963805335892 0 20.299963805335892 -0.78140458041769989 0 0 0 0 -66.083007543994071 35.983828329071599 0 35.983828329071599 1.8856079243690829 0 0 0 0 -111.00798486453186 85.132884959719377 0 85.132884959719377 97.97557047475857 0 0 0 0 -117.93670542584732 65.860452756111044 0 65.860452756111044 88.423492812755285 0 0 0 0 18.877220588859927 47.015462879673578 0 47.015462879673578 87.957754564704373 0 0 0 0 22.059984769480536 60.226519234277688 0 60.226519234277688 10.073896264667155 0 0 0 0 28.404164236490033 26.78252799223992 0 26.78252799223992 10.147634495602688 0 0 0 0 -66.724314667982981 143.56856570091622 0 143.56856570091622 -152.98154900410736 0 0 0 0 -131.92805714068163 73.817882263014326 0 73.817882263014326 50.562122346891556 0 0 0 0 -32.998992470187659 141.94209625120857 0 141.94209625120857 -29.69511131910258 0 0 0 0 25.654308808559833 -3.558626857101757 0 -3.558626857101757 -24.492453331728768 0 0 0 0 6.6586492499591259 60.231504426203173 0 60.231504426203173 28.9282187706267 0 0 0 0 72.366900416254794 70.810302732199489 0 70.810302732199489 21.292525288823526 0 0 0 0 -4.3220827377830204 30.45295281066236 0 30.45295281066236 37.659282285381835 0 0 0 0 -8.181403451206279 75.457078309911594 0 75.457078309911594 45.909978791401954 0 0 0 0 62.439211412754958 125.39099152520066 0 125.39099152520066 -115.21315351163503 0 0 0 0 7.1153056297169428 26.887400869831595 0 26.887400869831595 1.7028754038354208 0 0 0 0 50.271029505198385 194.43349875133572 0 194.43349875133572 108.19982803388848 0 0 0 0 135.93804097619432 105.47295071225381 0 105.47295071225381 -49.609228186083783 0 0 0 0 1469.7482493137868 1044.4666696943314 0 1044.4666696943314 399.88754187151335 0 0 0 0 17.22269246922987 -1.2097741929034953 0 -1.2097741929034953 -25.601060243384723 0 0 0 0 138.67439856680085 17.598096102473392 0 17.598096102473392 -26.046118526370265 0 0 0 0 249.8773711073809 85.981329735121108 0 85.981329735121108 -46.275470867469267 0 0 0 0 999.7175875065841 401.37492895591276 0 401.37492895591276 337.05931631257408 0 0 0 0 1315.1913777334921 664.46077523610438 0 664.46077523610438 183.43236151519523 0 0 0 0 6.633769457534072 -117.60382842151739 0 -117.60382842151739 -11.507576359857921 0 0 0 0 322.30381851096899 166.55809226175188 0 166.55809226175188 242.26568615567521 0 0 0 0 473.43277506144659 -233.86886722181225 0 -233.86886722181225 -288.73465694725746 0 0 0 0 -252.00536839281267 350.86009695209214 0 350.86009695209214 524.5428335972756 0 0 0 0 5.0824958602127026 -4.0001955494494723 0 -4.0001955494494723 0.81394137456372562 0 0 0 0 222.52659562558983 -3.4725275086511829 0 -3.4725275086511829 -21.104032455768902 0 0 0 0 148.13504150756489 88.851718954305397 0 88.851718954305397 -205.77597634872654 0 0 0 0 28.693475974213214 17.4950878586871 0 17.4950878586871 0.34070649398971398 0 0 0 0 -18.970987358094135 165.49364142249397 0 165.49364142249397 180.64032466898789 0 0 0 0 106.00827544427739 222.68849066113762 0 222.68849066113762 -61.96885913152073 0 0 0 0 50.921480136952596 105.13353186743916 0 105.13353186743916 -119.31585129101586 0 0 0 0 -13.963511234440972 34.75444689449472 0 34.75444689449472 -13.600883353151829 0 0 0 0 47.138441625742416 216.98587225124356 0 216.98587225124356 121.66191328863351 0 0 0 0 235.18334230944311 24.121549118193798 0 24.121549118193798 -53.590903701006027 0 0 0 0 16.679480051810856 11.84428982507303 0 11.84428982507303 -6.2835026220454324 0 0 0 0 139.40919206489161 24.064105891883628 0 24.064105891883628 -29.592844937859809 0 0 0 0 223.16982648051598 31.989393577037845 0 31.989393577037845 11.806256598618347 0 0 0 0 78.799225306873268 60.003188637478161 0 60.003188637478161 -12.561439395271009 0 0 0 0 217.85581350928737 20.456644271500409 0 20.456644271500409 79.407638041884638 0 0 0 0 55.314125897277883 77.181906440779443 0 77.181906440779443 8.7081618173916127 0 0 0 0 188.74401147404637 23.263095835514832 0 23.263095835514832 132.11153669049963 0 0 0 0 9.6499107678985752 19.755130440681171 0 19.755130440681171 8.4357588740056713 0 0 0 0 167.4599378099183 112.49549455189845 0 112.49549455189845 69.781117560050916 0 0 0 0 118.13163926794141 58.352623867947841 0 58.352623867947841 189.95376646195655 0 0 0 0 94.893844750141852 178.48023553199164 0 178.48023553199164 -548.66340787085937 0 0 0 0 18.953361918388396 124.65012642851798 0 124.65012642851798 168.29630145977717 0 0 0 0 -195.62983292202898 111.98281901339942 0 111.98281901339942 132.12124630279141 0 0 0 0 -101.51314961316643 493.63917440205114 0 493.63917440205114 333.66268475870311 0 0 0 0 18.573727567039384 16.002770577079758 0 16.002770577079758 -2.6503015066672333 0 0 0 0 18.70920512595044 70.402664308038638 0 70.402664308038638 48.086106992548594 0 0 0 0 -23.715522704038449 -7.9171135665092152 0 -7.9171135665092152 28.180649422400165 0 0 0 0 44.136775479438938 42.918981007489492 0 42.918981007489492 7.2412417416344397 0 0 0 0 110.18898553649433 179.31329987913159 0 179.31329987913159 151.71830424282234 0 0 0 0 1.1329290937799215 88.229383548678015 0 88.229383548678015 55.400553784100339 0 0 0 0 -13.200619344269398 87.101411760580959 0 87.101411760580959 70.422288039088016 0 0 0 0 -98.64270547653723 94.345863566733897 0 94.345863566733897 94.268879803566961 0 0 0 0 33.201272530395499 81.271558636202826 0 81.271558636202826 52.723112797582871 0 0 0 0 8.9091715383051966 72.694540151929658 0 72.694540151929658 40.473473271801197 0 0 0 0 -45.414599342853762 71.11236692777311 0 71.11236692777311 -18.018928906873043 0 0 0 0 32.723701001985319 181.11798645316594 0 181.11798645316594 106.2955042180547 0 0 0 0 18.146935416865745 214.44842376159067 0 214.44842376159067 30.850798771949485 0 0 0 0 -14.530695409597683 111.38588404589973 0 111.38588404589973 113.37947455540416 0 0 0 0 45.902847913734149 233.5195204923366 0 233.5195204923366 13.788326949783368 0 0 0 0 112.76038727902778 264.78718689988455 0 264.78718689988455 14.050076210056432 0 0 0 0 219.11033332025545 117.13834990668693 0 117.13834990668693 -72.421997418190585 0 0 0 0 52.879512686733506 206.12258750877663 0 206.12258750877663 -10.58819252406829 0 0 0 0 27.287882539705606 206.70251508170622 0 206.70251508170622 -3.284022610692773 0 0 0 0 199.96582077727726 496.73465943062911 0 496.73465943062911 402.11651440052083 0 0 0 0 28.991690927432501 273.21890994772548 0 273.21890994772548 170.83222199309967 0 0 0 0 62.596708196477266 265.56464600018808 0 265.56464600018808 16.209613760365755 0 0 0 0 346.20969596916257 58.617987377889222 0 58.617987377889222 -121.4713418467727 0 0 0 0 161.09995089005679 257.21488138718996 0 257.21488138718996 -273.8906159199687 0 0 0 0 81.385175981900829 425.90147228274145 0 425.90147228274145 651.6807617006707 0 0 0 0 108.86866142375447 -105.22505082389216 0 -105.22505082389216 -463.52602228507749 0 0 0 0 523.79838261351688 732.81477700956748 0 732.81477700956748 448.71177537366748 0 0 0 0 -17.500068311068077 18.301611620114755 0 18.301611620114755 -14.408218725232587 0 0 0 0 -248.53982495010678 476.03929972558399 0 476.03929972558399 -1061.6085438330774 0 0 0 0 -1826.0576690563212 519.74900866790267 0 519.74900866790267 -166.88276022652281 0 0 0 0 -1549.401359402957 944.8861377075591 0 944.8861377075591 -374.18356249548378 0 0 0 0 -9.1992272096582344 -1.6141865480029196 0 -1.6141865480029196 -4.8550342083844384 0 0 0 0 -1447.7217659499156 908.95693927413959 0 908.95693927413959 -680.74668835679768 0 0 0 0 -1391.4496872911168 937.76416488987161 0 937.76416488987161 -777.6498591147174 0 0 0 0 -1422.7908943005077 844.6569091812562 0 844.6569091812562 -809.63968185496924 0 0 0 0 -1794.2895079641996 1042.147309003185 0 1042.147309003185 294.76580483556609 0 0 0 0 -1804.8588412774925 1127.648001372334 0 1127.648001372334 -396.83882786984032 0 0 0 0 -1804.156206512313 819.60994520412351 0 819.60994520412351 -119.74957942092442 0 0 0 0 -1562.6068967053361 411.8046893409628 0 411.8046893409628 137.07285900085117 0 0 0 0 84.129482802040457 124.88241298867797 0 124.88241298867797 -296.75456924029277 0 0 0 0 -212.70654255387308 259.18331276990648 0 259.18331276990648 -270.67341591411969 0 0 0 0 -209.91188985720873 639.27084939100314 0 639.27084939100314 -355.53939986429759 0 0 0 0 -362.94980853837683 102.90525176334995 0 102.90525176334995 12.846071788808331 0 0 0 0 -41.348107927097317 784.3137427757174 0 784.3137427757174 -325.44073725127964 0 0 0 0 91.203055587991457 377.88619244702568 0 377.88619244702568 -728.09895804501139 0 0 0 0 -358.92718974651962 403.85925682497327 0 403.85925682497327 -165.75775202651857 0 0 0 0 -55.456098592307171 124.18079589042463 0 124.18079589042463 21.670002260187175 0 0 0 0 -56.369099835596899 140.0390949184075 0 140.0390949184075 -32.111635381021188 0 0 0 0 -108.53999487643205 87.91061792318942 0 87.91061792318942 41.30580411356641 0 0 0 0 54.865760153413703 283.94040976495307 0 283.94040976495307 -269.84778947392988 0 0 0 0 250.85812507172932 26.32936486802646 0 26.32936486802646 -8.3270909607235808 0 0 0 0 -10.527893359426198 2.5191545575622456 0 2.5191545575622456 3.8759843620259176 0 0 0 0 -36.833540396956202 19.077307885907828 0 19.077307885907828 13.322618709725475 0 0 0 0 53.423854320637361 113.32311735661824 0 113.32311735661824 2.8099196464172564 0 0 0 0 -48.099077824372216 -44.859914159940672 0 -44.859914159940672 34.148052967610056 0 0 0 0 42.972670225251932 91.009158653527265 0 91.009158653527265 48.125655430878396 0 0 0 0 -22.885767717425551 78.066473851096816 0 78.066473851096816 61.993938409897964 0 0 0 0 -3.2303502266693158 77.416555312847777 0 77.416555312847777 38.789519531244878 0 0 0 0 -11.326352994173249 131.41209032454935 0 131.41209032454935 22.645346607198007 0 0 0 0 7.0047586404293725 87.019306146772578 0 87.019306146772578 62.567128382783267 0 0 0 0 -45.047363606582032 34.464584357576484 0 34.464584357576484 3.4855040724748392 0 0 0 0 4.3448508879197334 90.236854180338923 0 90.236854180338923 61.105479601101251 0 0 0 0 8.3893531757084929 78.030498657215503 0 78.030498657215503 70.683848553034295 0 0 0 0 -174.96433565301413 -39.37286584560934 0 -39.37286584560934 43.766583798147622 0 0 0 0 -87.607840801931161 -24.918789496645331 0 -24.918789496645331 30.567322205752134 0 0 0 0 -78.360458260788846 -66.952792507763661 0 -66.952792507763661 63.720997237949632 0 0 0 0 -49.575323032030042 -74.959119802068926 0 -74.959119802068926 46.228178570338059 0 0 0 0 -2181.5847908319001 779.03572416192765 0 779.03572416192765 -135.8771572302503 0 0 0 0 -17.71995616369551 -16.535979496514045 0 -16.535979496514045 -19.598533225052563 0 0 0 0 -1339.6291828965968 517.91072518187866 0 517.91072518187866 -307.04731887939488 0 0 0 0 -952.02028163299519 838.40957191233974 0 838.40957191233974 -569.59189477286418 0 0 0 0 -1406.9957939872129 1007.9904981681611 0 1007.9904981681611 -632.02911467638478 0 0 0 0 -1369.1737880668516 658.60791968954436 0 658.60791968954436 -530.94397337992268 0 0 0 0 -409.5055755305948 339.10490903204482 0 339.10490903204482 -541.70781723878463 0 0 0 0 -799.42499630844782 1165.5139596041754 0 1165.5139596041754 59.526765106566017 0 0 0 0 35.974744492263198 -79.508025780683965 0 -79.508025780683965 482.55563565992634 0 0 0 0 -2.2326214557465818 -3.4232454039304798 0 -3.4232454039304798 -8.2152897647217173 0 0 0 0 43.136471980700662 -78.311983280698769 0 -78.311983280698769 195.15687046514358 0 0 0 0 8.4972696729073505 12.670559048565337 0 12.670559048565337 -15.239947262060014 0 0 0 0 -69.028850382195742 -62.730217683354567 0 -62.730217683354567 -61.553099019889487 0 0 0 0 -51.934183081255469 -1.6214433877466945 0 -1.6214433877466945 59.775769543389288 0 0 0 0 -90.44089429007181 -42.933560842415318 0 -42.933560842415318 195.79020215253695 0 0 0 0 -101.56889198046156 93.018867511385906 0 93.018867511385906 231.4101588340709 0 0 0 0 -146.55100238753948 119.2801631611801 0 119.2801631611801 230.32491374755045 0 0 0 0 -72.601813317880442 167.85311517161608 0 167.85311517161608 401.0504075785866 0 0 0 0 118.74981384910416 157.12949323067187 0 157.12949323067187 264.69952587105217 0 0 0 0 210.7432711133406 255.80971512795077 0 255.80971512795077 254.83606111892732 0 0 0 0 74.76297067811538 221.0368214922637 0 221.0368214922637 338.90379090752685 0 0 0 0 88.345146522522555 179.52584348594246 0 179.52584348594246 232.85782800003653 0 0 0 0 10.64571271297973 226.38745669304626 0 226.38745669304626 282.72747633350082 0 0 0 0 60.549917649034796 176.53856055995129 0 176.53856055995129 253.67338730435586 0 0 0 0 -90.212536161190656 192.12395042080607 0 192.12395042080607 273.61327130433347 0 0 0 0 -133.16227615204843 121.22289416129206 0 121.22289416129206 161.24444324075012 0 0 0 0 -7.9725239832787338 181.11808466850198 0 181.11808466850198 177.40322710463079 0 0 0 0 -66.280997394465885 197.33867149081379 0 197.33867149081379 197.66392179124523 0 0 0 0 -70.55932742180039 217.07187899421297 0 217.07187899421297 147.43587314389879 0 0 0 0 -60.82321199834405 248.38642482235446 0 248.38642482235446 66.882912122069683 0 0 0 0 18.302123858389677 249.66961424546025 0 249.66961424546025 109.53052314370871 0 0 0 0 -46.902807051206764 204.09032085209037 0 204.09032085209037 79.142489678983111 0 0 0 0 35.236365874052353 205.10378203238361 0 205.10378203238361 145.80937398757669 0 0 0 0 111.22931444104506 241.87753994984087 0 241.87753994984087 64.512553829234093 0 0 0 0 136.24584543779292 258.17865036470357 0 258.17865036470357 172.23646150424611 0 0 0 0 -358.58483511723534 147.02534721180564 0 147.02534721180564 78.006239941314561 0 0 0 0 214.45437359344942 154.80052153786528 0 154.80052153786528 -114.17659342884144 0 0 0 0 -194.88611016966752 74.636102823380497 0 74.636102823380497 -17.986604384812381 0 0 0 0 50.325963206555009 31.79415862730815 0 31.79415862730815 4.6147085236383987 0 0 0 0 -151.85038364590582 246.44891723021283 0 246.44891723021283 -42.5649131523096 0 0 0 0 -135.69007261217484 204.22535756495199 0 204.22535756495199 64.375298853949062 0 0 0 0 -108.03287592806009 182.76590466462949 0 182.76590466462949 116.03128620591451 0 0 0 0 -108.03139917942462 183.00825819637976 0 183.00825819637976 8.8154850227874704 0 0 0 0 -163.64075029306696 102.60047516305349 0 102.60047516305349 116.30916460062872 0 0 0 0 -176.01910253260939 138.60556364592048 0 138.60556364592048 139.69501747981121 0 0 0 0 -157.61341311138676 128.05161596432299 0 128.05161596432299 204.934190637141 0 0 0 0 -26.638250615200377 160.15014075273939 0 160.15014075273939 78.184703508464736 0 0 0 0 -149.05002622025086 79.447805888316282 0 79.447805888316282 148.43754270087811 0 0 0 0 -239.46571082787614 196.31489683427208 0 196.31489683427208 87.649346904741833 0 0 0 0 -149.21236980012537 113.26831161778549 0 113.26831161778549 69.587731177482056 0 0 0 0 -63.593793931282562 91.256381780912307 0 91.256381780912307 74.994626369443722 0 0 0 0 -78.791438435338932 6.670342670797254 0 6.670342670797254 48.888943253899924 0 0 0 0 -35.762777731300659 51.227438820049187 0 51.227438820049187 21.216379044627161 0 0 0 0 -174.57962750294246 36.514690703421365 0 36.514690703421365 113.02390518464381 0 0 0 0 -196.03037549123837 54.835777292086277 0 54.835777292086277 175.24813475125848 0 0 0 0 -172.90736146543895 46.074800095600949 0 46.074800095600949 165.57722712363466 0 0 0 0 -134.17086188047688 -49.948542979676859 0 -49.948542979676859 -8.3600627519190311 0 0 0 0 -110.84053143259371 120.58141818624426 0 120.58141818624426 -21.108511943311896 0 0 0 0 -0.023059255553505409 10.968748800531898 0 10.968748800531898 2.9281081516018119 0 0 0 0 -193.17062483427071 109.25929228727182 0 109.25929228727182 -29.68118955695536 0 0 0 0 -258.66199789407256 -35.976817690767348 0 -35.976817690767348 114.24902924720664 0 0 0 0 15.513419954138044 98.081887275882764 0 98.081887275882764 41.404217039234936 0 0 0 0 12.442330948627594 55.876426037523743 0 55.876426037523743 8.4114344891269539 0 0 0 0 -50.205379905973643 36.43207732385099 0 36.43207732385099 8.4403009242802867 0 0 0 0 -24.337658327902318 72.598745505878469 0 72.598745505878469 55.47215651246006 0 0 0 0 -64.336197072396317 100.78761380180367 0 100.78761380180367 48.091776088840561 0 0 0 0 -73.382826894878235 82.066831101998105 0 82.066831101998105 113.61062106721693 0 0 0 0 -55.569468960893573 45.037924427801045 0 45.037924427801045 36.527380750718294 0 0 0 0 -9.2062421810114756 63.824026168178534 0 63.824026168178534 10.732253845737432 0 0 0 0 -4.2136074236259446 83.421495526810759 0 83.421495526810759 42.695960591474432 0 0 0 0 -5.5639370852150023 85.856027598390938 0 85.856027598390938 38.957526864774991 0 0 0 0 1.1916302097160951 74.518436288504745 0 74.518436288504745 30.554905636847252 0 0 0 0 2.5856572085398852 76.708573677569802 0 76.708573677569802 28.067723871099588 0 0 0 0 -21.555150774378887 50.487478813330007 0 50.487478813330007 40.635080596038051 0 0 0 0 2.5787541553800111 70.499808684500749 0 70.499808684500749 42.140914362156764 0 0 0 0 -14.739913764351513 92.243429331632797 0 92.243429331632797 61.900732952402905 0 0 0 0 28.33597120025496 5.1465673406426333 0 5.1465673406426333 -5.7313630358482897 0 0 0 0 -13.328520448263248 21.227570976268282 0 21.227570976268282 -3.7953137270323296 0 0 0 0 -11.260303233249768 13.289346067509328 0 13.289346067509328 -0.049207896470022661 0 0 0 0 423.96831875944645 467.0002964274754 0 467.0002964274754 632.35167678631842 0 0 0 0 -61.064312014257368 25.895302313944654 0 25.895302313944654 0.34748943336499849 0 0 0 0 -36.721138575099758 61.132475398728275 0 61.132475398728275 155.02323332164269 0 0 0 0 -99.251972690350158 -63.022476952521174 0 -63.022476952521174 475.59289212204749 0 0 0 0 -76.217408078735843 121.67678646644799 0 121.67678646644799 320.12433954727021 0 0 0 0 -97.33970761695673 50.205657209917263 0 50.205657209917263 25.407524436886888 0 0 0 0 -55.042554822139209 49.46700772694021 0 49.46700772694021 -6.047042278061781 0 0 0 0 -0.5060880169616766 34.667236510139176 0 34.667236510139176 3.0194974469345084 0 0 0 0 -28.223466116629425 78.506281608366407 0 78.506281608366407 -89.786410283762962 0 0 0 0 -108.59610723133665 116.33553193106491 0 116.33553193106491 -48.154872996979975 0 0 0 0 -215.78870034439387 108.55349434618256 0 108.55349434618256 29.204791319367359 0 0 0 0 -40.863156885938224 41.54498302272259 0 41.54498302272259 -4.502799487876473 0 0 0 0 -52.889938389635063 61.886420509050367 0 61.886420509050367 28.056782704545185 0 0 0 0 7.0475469161274464 30.710656214282679 0 30.710656214282679 12.802755664650419 0 0 0 0 -3.815067404313595 77.646591129698209 0 77.646591129698209 3.4742910681634385 0 0 0 0 -224.27437944771327 119.78475621209418 0 119.78475621209418 16.765926187945297 0 0 0 0 5.8953613512528946 96.926062188844071 0 96.926062188844071 36.511493085634356 0 0 0 0 67.891236755902355 111.75863257451419 0 111.75863257451419 29.452624342404306 0 0 0 0 59.387950706106494 91.610958155826665 0 91.610958155826665 16.934500899122213 0 0 0 0 30.110222054987389 105.09961696834944 0 105.09961696834944 33.144459270813968 0 0 0 0 -11.85679569950662 81.643727584130829 0 81.643727584130829 26.419407947352738 0 0 0 0 31.655358167859958 97.74441400449723 0 97.74441400449723 11.793584329308942 0 0 0 0 2.7444161853709375 75.348362318378349 0 75.348362318378349 18.012425512482878 0 0 0 0 -2.3589976300463604 74.710861365907476 0 74.710861365907476 8.6643304018070921 0 0 0 0 34.518398294185317 107.85141480892344 0 107.85141480892344 11.335380568154505 0 0 0 0 26.323695848552703 103.55394359382016 0 103.55394359382016 19.535564357870498 0 0 0 0 30.66108214259657 99.034411483880831 0 99.034411483880831 26.483587826609437 0 0 0 0 43.332783803108242 36.550752078223184 0 36.550752078223184 -40.738586429548604 0 0 0 0 12.765165805681081 113.76815673349849 0 113.76815673349849 67.205908121511641 0 0 0 0 170.19140018167673 159.05604904994834 0 159.05604904994834 90.559721140001784 0 0 0 0 59.695129417361386 124.11425784650055 0 124.11425784650055 21.122620787573396 0 0 0 0 76.43623428729552 89.007447095311363 0 89.007447095311363 -1.2368379911786178 0 0 0 0 155.97110993466777 115.06870148590679 0 115.06870148590679 -46.528398294918588 0 0 0 0 171.86016136920807 176.95893841872748 0 176.95893841872748 102.78641801908088 0 0 0 0 -600.02806647279431 99.574127336178208 0 99.574127336178208 103.58522737437306 0 0 0 0 31.682659426915052 40.665743265308265 0 40.665743265308265 7.7167916411563056 0 0 0 0 43.959734730322452 79.186863278817327 0 79.186863278817327 41.242608765445766 0 0 0 0 25.118733997225505 13.553185169344175 0 13.553185169344175 -43.171353969894142 0 0 0 0 6.2524644153902269 36.901488205557051 0 36.901488205557051 21.297989424653679 0 0 0 0 -834.53830440453839 -185.58487041065428 0 -185.58487041065428 21.283191914058989 0 0 0 0 -189.23409584457477 12.000715095891792 0 12.000715095891792 -20.281874394087936 0 0 0 0 -1.4520595585052263 9.0372715676222697 0 9.0372715676222697 -2.7890100258269968 0 0 0 0 -144.90836538051735 353.54430366129964 0 353.54430366129964 -752.16947257370339 0 0 0 0 -1418.1171623904011 66.108094988070661 0 66.108094988070661 -21.138722722422244 0 0 0 0 161.64609011448374 105.35125382490969 0 105.35125382490969 96.646935367694823 0 0 0 0 5.3289118794766921 6.2397266147862211 0 6.2397266147862211 -16.739801156606177 0 0 0 0 188.58078727244992 -68.260308259596059 0 -68.260308259596059 -540.37027850892628 0 0 0 0 -1962.1192271596228 687.34504110060516 0 687.34504110060516 73.238661818468245 0 0 0 0 -746.7533774252588 477.42381654625933 0 477.42381654625933 -23.610799891692295 0 0 0 0 -1374.7839594061516 1141.9896485983918 0 1141.9896485983918 -583.04917379505423 0 0 0 0 -128.69765607360387 258.68400482153083 0 258.68400482153083 86.280890817564796 0 0 0 0 35.264452679064561 212.63437155757128 0 212.63437155757128 -304.16217238592799 0 0 0 0 260.59225438952853 345.94475962159049 0 345.94475962159049 43.643319764029002 0 0 0 0 467.94839756599686 116.72287164253066 0 116.72287164253066 -50.014916097832611 0 0 0 0 555.84203534290282 -20.489297164043819 0 -20.489297164043819 3.0998847665032372 0 0 0 0 979.75408079204135 345.45289611192129 0 345.45289611192129 -80.374127525959921 0 0 0 0 -0.86232945101984626 2.110288479437628 0 2.110288479437628 -2.0601153032791899 0 0 0 0 -315.30094367537822 63.484720311746059 0 63.484720311746059 -43.244084713107441 0 0 0 0 -892.24078516964073 31.334193674338167 0 31.334193674338167 296.37602381999022 0 0 0 0 -36.962182069244591 177.18794455640455 0 177.18794455640455 45.998225848157745 0 0 0 0 237.84672087989748 168.65268768102396 0 168.65268768102396 -59.124054255029478 0 0 0 0 16.512805489528311 103.32515323640548 0 103.32515323640548 -0.094369417901475572 0 0 0 0 17.12430665487426 104.91462684180256 0 104.91462684180256 32.08995246905954 0 0 0 0 71.828186066099533 158.4078292741433 0 158.4078292741433 8.6116286583419424 0 0 0 0 7.2914832740498241 206.77244625319145 0 206.77244625319145 31.840338572481414 0 0 0 0 -39.258043333342357 171.90029239443538 0 171.90029239443538 43.511650274140266 0 0 0 0 -119.72879360742445 202.38301095394127 0 202.38301095394127 44.416055015521124 0 0 0 0 -60.895809759687836 216.06911538654822 0 216.06911538654822 7.8540105089487042 0 0 0 0 -39.912383218503237 167.8237097852325 0 167.8237097852325 16.275364749391883 0 0 0 0 -124.85346916695562 240.10661047023314 0 240.10661047023314 4.7237100614001974 0 0 0 0 -249.39775138182813 184.86597333067039 0 184.86597333067039 31.315921441484534 0 0 0 0 -299.10946847146988 157.88104041128827 0 157.88104041128827 22.584600038055214 0 0 0 0 -196.76920543041251 130.96619795505831 0 130.96619795505831 -0.76875595256569795 0 0 0 0 -9.1408519476072563 34.301549733054173 0 34.301549733054173 -46.191390272736101 0 0 0 0 -256.28011992556458 91.560838636803965 0 91.560838636803965 3.8948802681261441 0 0 0 0 -287.74406311236089 44.380859247874469 0 44.380859247874469 -52.655871297523845 0 0 0 0 -188.72863619568125 77.368552854575682 0 77.368552854575682 -46.568847593953251 0 0 0 0 -290.41962687861633 21.679577218423219 0 21.679577218423219 -8.256290115241427 0 0 0 0 -151.19796316910833 126.00724172459741 0 126.00724172459741 11.546185577462893 0 0 0 0 -119.6713725598529 31.751943331750226 0 31.751943331750226 -86.895832418595091 0 0 0 0 -181.76989338524436 179.732389093253 0 179.732389093253 34.270189579823636 0 0 0 0 -119.18672757585591 167.09789989780984 0 167.09789989780984 4.3023726421088213 0 0 0 0 -87.830741528698127 203.15800984208181 0 203.15800984208181 18.57346266094828 0 0 0 0 -94.616204847219706 201.41041085200413 0 201.41041085200413 27.73805304794223 0 0 0 0 -47.055553648235218 125.18980788104818 0 125.18980788104818 -22.867434466053965 0 0 0 0 -55.639644103332103 97.333877975808718 0 97.333877975808718 -20.71096483891597 0 0 0 0 -73.86806622669792 106.92990224609093 0 106.92990224609093 -11.235672226757742 0 0 0 0 81.505158722899068 115.33459624068928 0 115.33459624068928 -40.682776832516538 0 0 0 0 181.57162784432148 155.54065588117373 0 155.54065588117373 -25.117807942559011 0 0 0 0 -33.933051777876244 182.93031762735336 0 182.93031762735336 41.102571414550766 0 0 0 0 -63.062390191753366 207.95551610669645 0 207.95551610669645 25.256156676601677 0 0 0 0 -16.029378815997006 241.2136686319227 0 241.2136686319227 48.663825749885291 0 0 0 0 -106.23395570684443 229.54543427604949 0 229.54543427604949 68.893218839977635 0 0 0 0 -102.93011870579721 228.54553850727098 0 228.54553850727098 43.969075361907016 0 0 0 0 -73.247342371402738 247.3243046969983 0 247.3243046969983 53.362791030493099 0 0 0 0 -101.13364774926595 220.30154381075408 0 220.30154381075408 71.281906229960441 0 0 0 0 -177.54653880892874 227.58203549742757 0 227.58203549742757 71.257981469185324 0 0 0 0 -109.85948434695456 244.73010944107955 0 244.73010944107955 43.816817489176174 0 0 0 0 -94.479107047736761 152.8294843546737 0 152.8294843546737 61.19828512557433 0 0 0 0 -155.10496783443523 142.36390417123039 0 142.36390417123039 78.095516844040503 0 0 0 0 -98.908656700186839 156.36226267257007 0 156.36226267257007 58.575704943883466 0 0 0 0 -15.139967705181334 136.81950830828282 0 136.81950830828282 57.408933466911549 0 0 0 0 -54.85199537662993 203.85693166621786 0 203.85693166621786 32.980612926286994 0 0 0 0 -78.70228674064856 199.22603201607126 0 199.22603201607126 56.963508044340415 0 0 0 0 -85.310060054216592 217.65053795387212 0 217.65053795387212 30.224430545000359 0 0 0 0 -97.240328617221166 219.13453034451959 0 219.13453034451959 48.373623127146857 0 0 0 0 -98.6546819959852 210.80125304243154 0 210.80125304243154 50.547918190335622 0 0 0 0 -169.29274562000137 674.22002921581588 0 674.22002921581588 2343.9293808459843 0 0 0 0 540.67406466806278 -183.5791998360437 0 -183.5791998360437 -123.87273303373149 0 0 0 0 19.427778227055398 4.4218331939911479 0 4.4218331939911479 3.4632716079128727 0 0 0 0 76.867091953365161 938.5996222634858 0 938.5996222634858 1307.1076092071744 0 0 0 0 443.04856264677892 311.15375411036257 0 311.15375411036257 -154.01398817262088 0 0 0 0 1126.5161800540482 723.34521899762331 0 723.34521899762331 90.934954308155284 0 0 0 0 112.94299419619074 151.51346012459908 0 151.51346012459908 28.478926373834838 0 0 0 0 98.874514151395488 116.4120439623548 0 116.4120439623548 -52.965876167480019 0 0 0 0 26.836136413810891 25.795795189340424 0 25.795795189340424 1.6289930548555276 0 0 0 0 -39.423203681752689 56.015598117890548 0 56.015598117890548 -0.95986244595201242 0 0 0 0 48.078404854416107 29.814607920534883 0 29.814607920534883 2.4080755997513563 0 0 0 0 145.54701472529632 357.67884836923622 0 357.67884836923622 533.98751309643558 0 0 0 0 179.01555451985041 674.52954734275409 0 674.52954734275409 498.16787278224365 0 0 0 0 98.087070343524829 434.7838012078937 0 434.7838012078937 412.42817722001928 0 0 0 0 550.22284177060646 423.16287964033108 0 423.16287964033108 -72.420298767243366 0 0 0 0 258.849343775335 616.94891680448563 0 616.94891680448563 -38.685976908847806 0 0 0 0 701.45797124532328 1096.2812623711579 0 1096.2812623711579 -585.63032324941014 0 0 0 0 -601.63660105688177 -187.71582346518699 0 -187.71582346518699 -323.59113170828641 0 0 0 0 1466.8767661018592 641.97269755455636 0 641.97269755455636 -15.110162690449215 0 0 0 0 -215.9548122053493 -315.66017536474465 0 -315.66017536474465 1128.5789004037797 0 0 0 0 175.54680373171777 459.13032826751623 0 459.13032826751623 -1620.5657627521578 0 0 0 0 303.3996595921235 -24.31467535768752 0 -24.31467535768752 -1122.3849454965966 0 0 0 0 -109.96451519996481 -193.46263151284074 0 -193.46263151284074 -409.02355225765496 0 0 0 0 -177.81207143456777 -43.204288688415545 0 -43.204288688415545 -259.88781186501001 0 0 0 0 -124.21124230596615 -5.2927877614783938 0 -5.2927877614783938 -474.85372377044405 0 0 0 0 -157.18342080329603 -108.38390779508336 0 -108.38390779508336 -351.05896572893835 0 0 0 0 -223.38071643086732 -2.4448166066795238 0 -2.4448166066795238 -320.03608018641535 0 0 0 0 -124.96534645838983 -2.6563200518430676 0 -2.6563200518430676 -339.88140243416274 0 0 0 0 -348.84145930889645 115.94359986737254 0 115.94359986737254 -176.13536391844582 0 0 0 0 -215.5452915332753 -80.702426970296074 0 -80.702426970296074 -174.08901606475411 0 0 0 0 -421.39463378757478 234.26722142128574 0 234.26722142128574 131.7584410070267 0 0 0 0 -356.62313280054514 1.1953149003384169 0 1.1953149003384169 537.43217596938484 0 0 0 0 -162.61687798242565 -225.0018407290554 0 -225.0018407290554 -97.933381274902786 0 0 0 0 51.311135516625654 -59.485434008201992 0 -59.485434008201992 -355.81046924494149 0 0 0 0 -0.032339785385971709 3.3669480737155411 0 3.3669480737155411 -5.5102519080669481 0 0 0 0 -1740.4630257625213 491.20625102987833 0 491.20625102987833 -981.20665923926572 0 0 0 0 -225.63756770939654 43.340730533258466 0 43.340730533258466 -319.33876549639535 0 0 0 0 -49.227554068806057 92.706817266895087 0 92.706817266895087 -586.1889701999462 0 0 0 0 -160.89954105078505 54.904171538568335 0 54.904171538568335 -323.46955035086285 0 0 0 0 -728.5016296004178 627.11154542191071 0 627.11154542191071 -503.87418351035922 0 0 0 0 -425.0414648384758 299.4410232409864 0 299.4410232409864 -160.56874859014351 0 0 0 0 -1365.8661944581809 803.25911632260431 0 803.25911632260431 -721.52733701554826 0 0 0 0 -959.11483475601563 273.71894881380285 0 273.71894881380285 -128.73940207097621 0 0 0 0 -805.01892222647439 301.5051460556133 0 301.5051460556133 127.44547146950208 0 0 0 0 -934.47712997378039 431.80570662447099 0 431.80570662447099 11.859005018050084 0 0 0 0 -526.59293705594246 413.22781228063104 0 413.22781228063104 150.45647961218492 0 0 0 0 -661.26281746863242 560.87343018193496 0 560.87343018193496 -4.0733819474480697 0 0 0 0 -570.14217483246466 414.04340845981642 0 414.04340845981642 34.405346931118402 0 0 0 0 -469.42761640431854 532.63123212796199 0 532.63123212796199 149.50105947141458 0 0 0 0 -499.28507756513864 335.18666913974448 0 335.18666913974448 115.010298578527 0 0 0 0 -241.83463886425307 411.79410793617717 0 411.79410793617717 439.39991580967035 0 0 0 0 -318.73904920830682 486.5886905487132 0 486.5886905487132 466.05583808891606 0 0 0 0 -425.15108997194693 367.63802395111634 0 367.63802395111634 334.95128043020668 0 0 0 0 -445.30797383356548 449.31332067595213 0 449.31332067595213 71.433854107508523 0 0 0 0 -440.18177172292417 516.90980234690505 0 516.90980234690505 95.161005002533784 0 0 0 0 -347.26160933604842 657.91225956873677 0 657.91225956873677 308.66704120222312 0 0 0 0 -47.828220592353318 826.98749622605101 0 826.98749622605101 521.85794002423791 0 0 0 0 -182.50558734847073 575.41943124508543 0 575.41943124508543 64.858135873568244 0 0 0 0 -320.59194079968438 543.64979333530937 0 543.64979333530937 59.51800405576796 0 0 0 0 -363.20639648294127 645.04338651216676 0 645.04338651216676 60.431531891183113 0 0 0 0 -199.2357579309537 391.8061404673208 0 391.8061404673208 -649.59168551866605 0 0 0 0 -213.3986591089415 412.67546841591684 0 412.67546841591684 -210.72034587597227 0 0 0 0 -317.58782322262414 779.50372746515495 0 779.50372746515495 -181.86749293658795 0 0 0 0 -350.07942959231877 499.86249676335137 0 499.86249676335137 -256.1919481545774 0 0 0 0 -303.92085027845678 379.32345917671046 0 379.32345917671046 38.908060969539292 0 0 0 0 -271.15904901070462 310.86348048214859 0 310.86348048214859 -165.97341259602399 0 0 0 0 -52.770651497739891 141.66045160249632 0 141.66045160249632 -76.069564327633998 0 0 0 0 -19.019087017347786 11.110810811304219 0 11.110810811304219 0.26829252841735496 0 0 0 0 -135.93305283888731 335.83645942425574 0 335.83645942425574 -512.99641768274887 0 0 0 0 -724.26708859694554 532.63593079103885 0 532.63593079103885 2107.2096610099688 0 0 0 0 -35.369086760001665 -20.137602397677256 0 -20.137602397677256 716.41162732227531 0 0 0 0 -486.58042653392476 75.568965572980233 0 75.568965572980233 562.88380066704121 0 0 0 0 239.36188803540063 633.30591691366135 0 633.30591691366135 347.76011532133271 0 0 0 0 -27.334949515381595 495.52548781271616 0 495.52548781271616 863.50770441559507 0 0 0 0 -174.4026085972946 921.11316014346085 0 921.11316014346085 -1656.5019966378168 0 0 0 0 -9.3334930135345076 2.3517200586884144 0 2.3517200586884144 0.27545977293608459 0 0 0 0 354.28078058873143 -56.773107293043722 0 -56.773107293043722 597.98501228936948 0 0 0 0 -24.758016892614251 703.74040241526382 0 703.74040241526382 1064.6004678570607 0 0 0 0 89.38253280491881 -367.80598684005599 0 -367.80598684005599 1051.2168519662227 0 0 0 0 -518.47850427025696 196.16533820942277 0 196.16533820942277 2055.2175620572707 0 0 0 0 -652.43544420946728 607.76723250923897 0 607.76723250923897 796.96741028460383 0 0 0 0 483.64744839148443 850.7816349172208 0 850.7816349172208 -189.81992250907933 0 0 0 0 -102.18340857693563 54.705150810848949 0 54.705150810848949 16.276426592195889 0 0 0 0 388.08825915702619 368.75133080423257 0 368.75133080423257 149.21962618624639 0 0 0 0 -455.97252870852753 565.21894026344489 0 565.21894026344489 -246.42131457498181 0 0 0 0 28.041376480749022 180.79617037361459 0 180.79617037361459 -124.36662693402377 0 0 0 0 -66.493322098991484 224.81144540836794 0 224.81144540836794 -144.93825133242353 0 0 0 0 432.35118696670907 353.40990606456035 0 353.40990606456035 -264.60928244309616 0 0 0 0 353.3818302755426 183.44251299579628 0 183.44251299579628 -252.90378667938649 0 0 0 0 108.57351731356175 324.21258887571821 0 324.21258887571821 -150.70859811912669 0 0 0 0 -32.664168619182618 34.074140524174368 0 34.074140524174368 -12.120265518512895 0 0 0 0 -14.287416946586745 109.8392386194173 0 109.8392386194173 47.770021146672661 0 0 0 0 -74.674155649932061 41.21806078042934 0 41.21806078042934 8.827002800157743 0 0 0 0 75.761621620866208 141.99786057791061 0 141.99786057791061 27.498600209933102 0 0 0 0 435.8295698446459 415.89996505202589 0 415.89996505202589 -117.99110934347846 0 0 0 0 360.26093832597212 245.03546353375395 0 245.03546353375395 -128.23449801679817 0 0 0 0 -35.749779527602954 -2.248424205030517 0 -2.248424205030517 2.8997342650893643 0 0 0 0 234.61230301699106 573.07730698406522 0 573.07730698406522 -173.07336684915936 0 0 0 0 -48.678650247382393 -74.312259209860713 0 -74.312259209860713 58.740118299465394 0 0 0 0 -24.436638571947697 104.1440247800856 0 104.1440247800856 88.717737220285926 0 0 0 0 -620.88202630689557 -27.84006094617871 0 -27.84006094617871 99.046193934249459 0 0 0 0 629.11350500335539 1442.8845689496193 0 1442.8845689496193 1123.7362883213209 0 0 0 0 -2.5511718606999807 0.83726481339681413 0 0.83726481339681413 3.8600541763291289 0 0 0 0 -3.0893688867945457 547.71878243203537 0 547.71878243203537 -98.272897677641595 0 0 0 0 -430.41728420485742 782.06460606461042 0 782.06460606461042 -116.2048904998228 0 0 0 0 -97.163602410746677 65.54491088776706 0 65.54491088776706 8.0955546472682158 0 0 0 0 -21.476344172289828 1102.6720890685247 0 1102.6720890685247 294.53292871676967 0 0 0 0 -303.35237387620145 307.27665225083183 0 307.27665225083183 423.31688783611753 0 0 0 0 385.03352861533745 501.85602843756874 0 501.85602843756874 347.69181154141552 0 0 0 0 528.42757620221528 560.61127063362801 0 560.61127063362801 177.59771029118565 0 0 0 0 571.67496094705712 1044.7649366049809 0 1044.7649366049809 375.64318808871758 0 0 0 0 338.77720169616805 918.34057739332638 0 918.34057739332638 317.44008884817595 0 0 0 0 1004.463871325599 1118.7753172703669 0 1118.7753172703669 -48.872080797096714 0 0 0 0 1286.1330574889544 925.6437966688045 0 925.6437966688045 -164.2594830707676 0 0 0 0 1087.9956263724307 446.67200168778072 0 446.67200168778072 67.483754329776275 0 0 0 0 550.90231345503707 553.844039398733 0 553.844039398733 156.22742500407185 0 0 0 0 607.14723128193873 459.31690000336675 0 459.31690000336675 131.14742558786565 0 0 0 0 -95.482396979251973 44.038708876089402 0 44.038708876089402 28.908742356635798 0 0 0 0 -127.47387267358499 328.48091942003521 0 328.48091942003521 720.73877039670333 0 0 0 0 290.87637639525565 121.84614556976157 0 121.84614556976157 127.2429230473499 0 0 0 0 347.01759535873862 377.65734434751357 0 377.65734434751357 153.03872066095937 0 0 0 0 762.05262997764657 151.57859365383774 0 151.57859365383774 144.19788695158786 0 0 0 0 672.5571431490971 483.40877547905984 0 483.40877547905984 228.64322017012819 0 0 0 0 444.09558384693264 -19.165622983489811 0 -19.165622983489811 53.581252568154014 0 0 0 0 1309.7250558421583 337.19701368912501 0 337.19701368912501 -12.876683487629634 0 0 0 0 1239.8084418158905 731.96027726426109 0 731.96027726426109 524.79250045056688 0 0 0 0 1513.4072063870626 699.06586697510647 0 699.06586697510647 386.51372710227224 0 0 0 0 1989.4870152129588 1242.3026444485731 0 1242.3026444485731 438.4807072681142 0 0 0 0 891.19942594416716 593.80095158739095 0 593.80095158739095 312.12862884813512 0 0 0 0 1543.9491984193883 697.42460810544435 0 697.42460810544435 106.68281859686249 0 0 0 0 1181.9257390376879 91.449891983575071 0 91.449891983575071 -380.15081198085682 0 0 0 0 156.82151091038577 148.87638850278199 0 148.87638850278199 -277.16802945011295 0 0 0 0 -444.40235091020077 -208.82893759573926 0 -208.82893759573926 -250.82120215884061 0 0 0 0 -8.1822146058404144 7.2431357489045638 0 7.2431357489045638 -4.2691138466475422 0 0 0 0 294.60818438700517 -321.60445753621752 0 -321.60445753621752 -1765.0165943079046 0 0 0 0 -188.51707337280095 1196.7500583096116 0 1196.7500583096116 -1321.1212292551354 0 0 0 0 -82.793514194272575 659.0324629071547 0 659.0324629071547 -937.51848061039345 0 0 0 0 -1305.7516677102394 1095.939226335031 0 1095.939226335031 -166.70584899735695 0 0 0 0 63.495183963321324 -582.94675975200516 0 -582.94675975200516 -284.95354320603656 0 0 0 0 -1003.5639859213188 1837.8077733521932 0 1837.8077733521932 1020.6511681515622 0 0 0 0 -988.47284573436627 1106.7303337081976 0 1106.7303337081976 131.05144441488665 0 0 0 0 -69.9005232956697 -83.164256043935893 0 -83.164256043935893 343.071843302052 0 0 0 0 -11.247267611020412 3.2595051088248113 0 3.2595051088248113 7.4696488193204686 0 0 0 0 -976.19045445933443 1256.2152372435812 0 1256.2152372435812 -47.099728394998237 0 0 0 0 -384.85604778738343 324.48721509071765 0 324.48721509071765 177.08389324066229 0 0 0 0 -85.927428698312724 387.94354305349407 0 387.94354305349407 817.59885965299327 0 0 0 0 634.18194777220197 13.417265196243534 0 13.417265196243534 -727.2886219615466 0 0 0 0 -276.84637555303925 285.28818113022135 0 285.28818113022135 534.49271592334844 0 0 0 0 -943.59170775859093 -292.60220813168416 0 -292.60220813168416 322.79476542072371 0 0 0 0 61.795519306666392 154.23970396496588 0 154.23970396496588 331.37372289207997 0 0 0 0 -79.823381417532801 96.006718291027937 0 96.006718291027937 710.24547738250112 0 0 0 0 -39.598067892176914 114.86273849158897 0 114.86273849158897 601.5784486940247 0 0 0 0 -28.577221264444233 304.26595576315594 0 304.26595576315594 447.67812677501934 0 0 0 0 -138.43720798196591 278.7352209841265 0 278.7352209841265 516.52500209989375 0 0 0 0 -129.6401585457279 107.52639442161308 0 107.52639442161308 926.1272442163463 0 0 0 0 -76.506488026136282 42.473846595426267 0 42.473846595426267 45.345656269321751 0 0 0 0 -62.965181179861247 -164.81712596134457 0 -164.81712596134457 195.05960483499803 0 0 0 0 -3.810212186618628 18.552564085102858 0 18.552564085102858 112.32696750437026 0 0 0 0 -2287.3246917886427 1393.5750811262114 0 1393.5750811262114 -715.70849840750452 0 0 0 0 -21.480571480395156 235.76990238660801 0 235.76990238660801 195.40450204076478 0 0 0 0 94.39504091460185 -28.211253429730277 0 -28.211253429730277 126.18732622626703 0 0 0 0 21.222879954333536 65.921690206750156 0 65.921690206750156 68.950316291186027 0 0 0 0 -3025.1453696622048 1047.8459197612392 0 1047.8459197612392 262.70418918383075 0 0 0 0 -1322.3024333335852 1095.9055235054984 0 1095.9055235054984 -230.24459378323809 0 0 0 0 -913.28577871302969 476.89808362087024 0 476.89808362087024 -1063.077162873873 0 0 0 0 -901.71541179585984 375.9954747173233 0 375.9954747173233 -790.59777303022565 0 0 0 0 -1438.4277549971885 1969.6868359032669 0 1969.6868359032669 -1544.231854098558 0 0 0 0 -2055.3357422181289 567.19283613399602 0 567.19283613399602 -479.93865835829638 0 0 0 0 -6246.5896608775947 803.4272259901627 0 803.4272259901627 -479.45303241466172 0 0 0 0 1.7878240849791638 8.6325264738950409 0 8.6325264738950409 7.5473856339438612 0 0 0 0 -510.36599455451267 1449.0414165888324 0 1449.0414165888324 -1724.1869980565971 0 0 0 0 581.87987019277352 1417.7036935800716 0 1417.7036935800716 -797.55966087890556 0 0 0 0 -508.5043396983005 1966.3523202621463 0 1966.3523202621463 148.22588579880539 0 0 0 0 747.43148268878576 2328.0607408452197 0 2328.0607408452197 458.96174515207531 0 0 0 0 -491.59241008821118 -717.47866728258668 0 -717.47866728258668 -67.640632545546396 0 0 0 0 0.65634074229548389 2.8567847943340894 0 2.8567847943340894 -4.8130882235269041 0 0 0 0 774.51075478734856 2353.6365925092905 0 2353.6365925092905 -82.033706944144797 0 0 0 0 274.06306468920957 1016.713621339848 0 1016.713621339848 1888.169949996518 0 0 0 0 275.11981452691543 842.18510937612155 0 842.18510937612155 -205.52580995042808 0 0 0 0 -297.3872015084271 1200.5709593344509 0 1200.5709593344509 172.18513542061555 0 0 0 0 -656.86348720850583 -144.81809675064869 0 -144.81809675064869 274.09338801342528 0 0 0 0 294.24536286036164 745.2039981619746 0 745.2039981619746 417.95765283569926 0 0 0 0 1403.6748293991332 -141.29450282847392 0 -141.29450282847392 463.89527459282544 0 0 0 0 941.27957330067875 -630.4527305084921 0 -630.4527305084921 297.3061134312884 0 0 0 0 10.427870718346028 2.2998460959331908 0 2.2998460959331908 -19.171815542304898 0 0 0 0 2205.6426397644263 1311.3214303837922 0 1311.3214303837922 324.25127619699924 0 0 0 0 662.87216779550363 41.673266832309309 0 41.673266832309309 -641.82964171557978 0 0 0 0 716.78553545853356 -346.93101650287281 0 -346.93101650287281 -424.00294660843792 0 0 0 0 980.39482254398172 61.111411119127297 0 61.111411119127297 -1061.8913375842385 0 0 0 0 136.45954434557643 -76.712194270949112 0 -76.712194270949112 -210.96581734044594 0 0 0 0 -637.13560505282567 506.76828493132416 0 506.76828493132416 -473.90958038211102 0 0 0 0 546.99854361590042 97.642835053760791 0 97.642835053760791 -1.8135222648998024 0 0 0 0 1149.7478745682238 337.35748748234982 0 337.35748748234982 183.33879528567195 0 0 0 0 775.15180356283236 868.62707804703678 0 868.62707804703678 748.70307174091431 0 0 0 0 -674.48412281050332 584.53809284057206 0 584.53809284057206 265.09622128530464 0 0 0 0 624.14455056528823 49.031887065953924 0 49.031887065953924 62.393592953107145 0 0 0 0 128.21834004447555 145.92786759032606 0 145.92786759032606 -107.61113890251727 0 0 0 0 342.46732588922168 630.42848060656979 0 630.42848060656979 257.47703074979654 0 0 0 0 -913.77108173618035 194.30130595060473 0 194.30130595060473 253.97598947110237 0 0 0 0 -1007.7436077605671 135.6430450908374 0 135.6430450908374 -79.049510950182594 0 0 0 0 32.386618269589263 53.906357236850354 0 53.906357236850354 56.761438324141125 0 0 0 0 -2352.7834689129668 956.57877574424492 0 956.57877574424492 39.710222235982656 0 0 0 0 -908.6471348639825 321.34101616234693 0 321.34101616234693 -162.02940898065208 0 0 0 0 -1854.6727770137877 628.15797735906381 0 628.15797735906381 26.665985606086906 0 0 0 0 -977.84340203883039 177.86831816967242 0 177.86831816967242 -36.454112492734566 0 0 0 0 -706.98082562412128 507.3106534328399 0 507.3106534328399 0.1693168838537531 0 0 0 0 96.796819571703963 445.38797407851962 0 445.38797407851962 -92.853963091009064 0 0 0 0 16.095021177672606 40.329634786474344 0 40.329634786474344 62.320546641480178 0 0 0 0 456.61690720859769 466.43004407387343 0 466.43004407387343 -0.25615155296316439 0 0 0 0 711.7330026796044 597.85419419329992 0 597.85419419329992 270.45124353379651 0 0 0 0 1629.1706473599334 961.09447299494059 0 961.09447299494059 636.83782203767623 0 0 0 0 1243.9656968908894 144.01879829152313 0 144.01879829152313 251.76989327228512 0 0 0 0 2759.102413978133 1285.1448446471331 0 1285.1448446471331 -81.223785580019467 0 0 0 0 2015.2298794025046 1267.3904899907429 0 1267.3904899907429 596.03327019797871 0 0 0 0 -7.4369169085326803 27.222970864894705 0 27.222970864894705 -48.576165914902163 0 0 0 0 1818.7493260473766 724.7370326136006 0 724.7370326136006 144.09054923456279 0 0 0 0 711.20422813182086 307.61916018262491 0 307.61916018262491 271.15406605739554 0 0 0 0 693.9261176872169 380.48744274931232 0 380.48744274931232 33.935853730582949 0 0 0 0 2553.2790271795384 773.79480138092185 0 773.79480138092185 101.96973568551039 0 0 0 0 22.173572209187213 35.534079103195566 0 35.534079103195566 35.498019036714595 0 0 0 0 1657.1340734546684 443.36691953476839 0 443.36691953476839 -15.084543320605007 0 0 0 0 1879.1946911507257 1157.8047729493846 0 1157.8047729493846 -111.62314133155451 0 0 0 0 11.439002812486876 11.624088570358047 0 11.624088570358047 11.342226966561611 0 0 0 0 -1599.413689129211 482.38444093768339 0 482.38444093768339 -0.010546983627136797 0 0 0 0 7199.1714312048171 538.99829191643221 0 538.99829191643221 -1546.8172577842342 0 0 0 0 767.95311427455454 1703.0086944509239 0 1703.0086944509239 3.1636831713334246 0 0 0 0 1100.3082708006259 1440.0733427143568 0 1440.0733427143568 -0.58478285858291201 0 0 0 0 1383.2455965242698 1489.1631569715682 0 1489.1631569715682 -890.33604449352424 0 0 0 0 847.71435926992854 1806.9971178463747 0 1806.9971178463747 -517.68894624104723 0 0 0 0 1937.5989596430154 1343.9793729260855 0 1343.9793729260855 454.86800011756714 0 0 0 0 1943.5813219975826 846.58931054342247 0 846.58931054342247 -639.21404889426776 0 0 0 0 -0.58550280176116587 10.688922100245492 0 10.688922100245492 -19.758871626183577 0 0 0 0 1847.084087833201 335.58542153529652 0 335.58542153529652 36.90970612943056 0 0 0 0 1288.3698017512033 848.83212380187615 0 848.83212380187615 -267.11660056715482 0 0 0 0 5.52694837045415 -1.1945298416150081 0 -1.1945298416150081 -4.166539087137437 0 0 0 0 1599.4838059388276 1184.2307675269185 0 1184.2307675269185 -481.66751238825964 0 0 0 0 578.3239476998242 136.120655880708 0 136.120655880708 30.168690111808246 0 0 0 0 1192.1816427261438 582.63398549050908 0 582.63398549050908 0.20237869569714234 0 0 0 0 392.30582171899187 595.66238408512618 0 595.66238408512618 -0.21380951594619546 0 0 0 0 -586.6624321730269 337.75582317591761 0 337.75582317591761 309.55898644646368 0 0 0 0 669.65820235311548 296.65607494263531 0 296.65607494263531 -150.9628104751464 0 0 0 0 3.9477393128126295 -0.95060027684033344 0 -0.95060027684033344 -3.6475776067975403 0 0 0 0 956.92781574961555 785.71313162774459 0 785.71313162774459 273.8256304062852 0 0 0 0 -578.34252440798446 172.93005162850022 0 172.93005162850022 126.44450557098389 0 0 0 0 -35.678498368266446 961.98021852201055 0 961.98021852201055 -207.55092601198703 0 0 0 0 1235.0471539233295 -36.683559092638461 0 -36.683559092638461 151.969765077185 0 0 0 0 150.60829541762359 792.46733664424391 0 792.46733664424391 -1142.4003754740443 0 0 0 0 -911.67060260452854 1611.2806589145184 0 1611.2806589145184 -1208.5748655151401 0 0 0 0 -2371.3727937381482 1466.6284299965191 0 1466.6284299965191 -330.19035021288437 0 0 0 0 -551.94745592896652 230.36804842881975 0 230.36804842881975 -1215.8522678831578 0 0 0 0 -2440.9114349354932 1977.4260428782291 0 1977.4260428782291 -827.69103142965832 0 0 0 0 -2071.2176221697391 223.71440696533864 0 223.71440696533864 -282.79852033255156 0 0 0 0 -1412.9160474823293 961.26396749455307 0 961.26396749455307 129.31438253166561 0 0 0 0 -505.42663655818615 419.49677178831189 0 419.49677178831189 -268.54147321885102 0 0 0 0 -966.02219570476154 958.20380425674375 0 958.20380425674375 -148.06713140124339 0 0 0 0 -1067.038982185426 1038.4900726383676 0 1038.4900726383676 -364.66886769351549 0 0 0 0 -947.31301311768402 720.98008511123589 0 720.98008511123589 233.1161964838393 0 0 0 0 -518.92795389131788 560.30809537688037 0 560.30809537688037 -165.82311427626701 0 0 0 0 -926.14682131662266 500.81169965641311 0 500.81169965641311 -292.21761418154347 0 0 0 0 -832.30636598969431 666.59506261153729 0 666.59506261153729 0.51490414261934347 0 0 0 0 -1013.8409682136116 504.21841771966137 0 504.21841771966137 -0.87925695900384659 0 0 0 0 -5.5896393202135641 1.3195098865213026 0 1.3195098865213026 4.9398632767285449 0 0 0 0 -669.32302899996694 821.79975470419231 0 821.79975470419231 -630.35474643670022 0 0 0 0 -668.14860949885542 801.98322740802359 0 801.98322740802359 -431.324566585914 0 0 0 0 -592.50137262228236 608.05272359885566 0 608.05272359885566 -454.25261262505774 0 0 0 0 -860.4769235272106 647.42251411636971 0 647.42251411636971 -477.97528943156067 0 0 0 0 -4.8328714496548741 1.2393555778095759 0 1.2393555778095759 4.5659090766812369 0 0 0 0 -927.92812797137594 885.13723579931684 0 885.13723579931684 -62.129551110323519 0 0 0 0 -690.21738483235094 528.56236683953466 0 528.56236683953466 0.28567673970246688 0 0 0 0 -742.42260056893429 660.23425620628404 0 660.23425620628404 -305.20596079083043 0 0 0 0 -769.80183848494198 656.16495853775268 0 656.16495853775268 -1.4738630843733069 0 0 0 0 -929.97006350794982 470.43627650392591 0 470.43627650392591 -305.1975645090871 0 0 0 0 -717.1589771037834 872.86926270579715 0 872.86926270579715 -647.62270326170255 0 0 0 0 -851.34347718599383 575.52222997354329 0 575.52222997354329 9.320725992671214 0 0 0 0 -704.81978535561939 996.55420449931989 0 996.55420449931989 -680.84833571104537 0 0 0 0 -552.89193082112206 600.42431216636214 0 600.42431216636214 -523.43766386157949 0 0 0 0 -560.90360200815485 439.92317171482136 0 439.92317171482136 -821.49315137453959 0 0 0 0 -452.14142383816943 721.03294131331495 0 721.03294131331495 -569.1855973842321 0 0 0 0 -490.59797071652429 656.87011567925219 0 656.87011567925219 -48.371352831542026 0 0 0 0 -362.31643474241719 594.04423561847943 0 594.04423561847943 -233.82267888406204 0 0 0 0 -486.76780379779666 580.91791626381746 0 580.91791626381746 -229.46489064471098 0 0 0 0 -567.30179773118289 723.17100623203442 0 723.17100623203442 -269.2491835175606 0 0 0 0 -507.10448098789493 500.58097500912845 0 500.58097500912845 38.952000019839033 0 0 0 0 -548.66657398332609 632.05257614763104 0 632.05257614763104 -132.05292962117528 0 0 0 0 -353.36756078238977 137.03557155107774 0 137.03557155107774 227.50418910977896 0 0 0 0 -1047.4531952338239 1316.0425466584657 0 1316.0425466584657 -275.02363711304497 0 0 0 0 -686.87284203337913 772.89742032686627 0 772.89742032686627 -453.12722679850413 0 0 0 0 -468.67197304021101 804.12964141527482 0 804.12964141527482 -451.68973749705401 0 0 0 0 -460.6886845981353 656.59012663453177 0 656.59012663453177 -125.864427276887 0 0 0 0 -532.85414739453699 766.38043456796731 0 766.38043456796731 -357.26254228784819 0 0 0 0 -414.24611134911538 668.99765807720541 0 668.99765807720541 -346.5962627844383 0 0 0 0 -394.15478312317282 668.62824753191671 0 668.62824753191671 -557.44079894929018 0 0 0 0 -348.48196790731163 1102.3716642109939 0 1102.3716642109939 -774.20435969998653 0 0 0 0 -526.14733835614607 828.02794096412981 0 828.02794096412981 -397.97491225996055 0 0 0 0 -468.10331049941306 547.63198328574072 0 547.63198328574072 -107.03459492931142 0 0 0 0 -402.55160978485947 608.36881974742573 0 608.36881974742573 -97.901571242633509 0 0 0 0 -326.81144627448521 534.81402156261902 0 534.81402156261902 -26.716278130683349 0 0 0 0 -494.29191241356602 535.29674039014208 0 535.29674039014208 24.438851366896415 0 0 0 0 -455.58847869332385 560.55004664109947 0 560.55004664109947 106.26363463007146 0 0 0 0 -419.05154448017129 590.05444590758998 0 590.05444590758998 -156.77569061586109 0 0 0 0 -397.89667807854858 518.01170518837171 0 518.01170518837171 19.883561744558392 0 0 0 0 -438.03080972275347 497.50064854329685 0 497.50064854329685 108.12844983197283 0 0 0 0 -429.66905263238004 533.96216391786584 0 533.96216391786584 21.191158893547254 0 0 0 0 -391.08923347930249 560.28307688439963 0 560.28307688439963 -21.073852713365341 0 0 0 0 -111.74909338148427 430.41139509811183 0 430.41139509811183 15.581966584170004 0 0 0 0 -186.22781402723194 384.20461690874799 0 384.20461690874799 96.029926894669188 0 0 0 0 169.82693083662889 367.71505197766237 0 367.71505197766237 96.776769225944008 0 0 0 0 -414.44273895517108 517.79434774462425 0 517.79434774462425 159.72810372465756 0 0 0 0 -349.91418450928177 575.83912730282464 0 575.83912730282464 -62.241656638965651 0 0 0 0 -211.25503989802382 341.96326972646057 0 341.96326972646057 209.52386009157635 0 0 0 0 -348.76249856069626 458.78301132679917 0 458.78301132679917 64.124261998556904 0 0 0 0 -376.85392429624335 410.02246104022197 0 410.02246104022197 341.98885265144054 0 0 0 0 -209.37101434741635 435.75708939309698 0 435.75708939309698 140.84292909282885 0 0 0 0 404.96101545899 622.22228565474506 0 622.22228565474506 360.56512638743152 0 0 0 0 -159.6961786889151 563.2980940250709 0 563.2980940250709 453.18977589037968 0 0 0 0 -156.31790379682207 222.80550901884271 0 222.80550901884271 445.41005447709813 0 0 0 0 -98.675114289624617 418.36164056003327 0 418.36164056003327 1011.7987733446935 0 0 0 0 -106.0991126333538 -31.615435894244001 0 -31.615435894244001 34.604938517339178 0 0 0 0 374.6198430811346 -246.27297602119506 0 -246.27297602119506 473.76469523359265 0 0 0 0 -54.111420523346169 165.41043362475466 0 165.41043362475466 172.82843382059946 0 0 0 0 -230.5176961280813 192.26790874189464 0 192.26790874189464 316.15810094091285 0 0 0 0 -86.420560968763311 31.679913200016017 0 31.679913200016017 77.783980770967901 0 0 0 0 -107.4822748726292 198.39501560364442 0 198.39501560364442 -48.009016495678225 0 0 0 0 -293.43248726305319 325.37365118290472 0 325.37365118290472 35.373657692107372 0 0 0 0 -103.49177280893491 222.07129787033773 0 222.07129787033773 66.304662020440446 0 0 0 0 -145.44873629085487 -54.970204397584894 0 -54.970204397584894 -30.228713772172341 0 0 0 0 46.675389366919717 113.04313717623791 0 113.04313717623791 -2.9686080678868718 0 0 0 0 6.5383366263291123 63.35692976852576 0 63.35692976852576 6.5822975968375488 0 0 0 0 17.87669040489709 56.163274084959994 0 56.163274084959994 -13.170159720961237 0 0 0 0 29.596042394288816 67.764740393846296 0 67.764740393846296 -292.99565734708449 0 0 0 0 40.317893459093284 68.690109694297178 0 68.690109694297178 -12.301295684789324 0 0 0 0 112.83622788196953 194.55165152875998 0 194.55165152875998 86.594613051245688 0 0 0 0 -358.11062643780315 467.67718276930827 0 467.67718276930827 -73.800159973528935 0 0 0 0 -539.29019562008034 391.12388175512751 0 391.12388175512751 303.83124234783463 0 0 0 0 -392.51989255388617 477.4578949334682 0 477.4578949334682 31.013584356929641 0 0 0 0 -391.1414935456778 472.32048122870765 0 472.32048122870765 9.3910850838001352 0 0 0 0 28.880413914226722 120.66180837704866 0 120.66180837704866 -111.19107299059755 0 0 0 0 -209.8491186410829 343.7429026994505 0 343.7429026994505 -25.680269702657824 0 0 0 0 -286.05507945932914 361.45566740439972 0 361.45566740439972 124.4300435013356 0 0 0 0 -134.61914397832879 1034.5572685850202 0 1034.5572685850202 249.1031349470577 0 0 0 0 149.0039970461512 668.02796710717666 0 668.02796710717666 -330.59143320497242 0 0 0 0 806.72057982624392 603.11743063936592 0 603.11743063936592 295.55496685238904 0 0 0 0 1.0656762875748313 3.1739635980012224 0 3.1739635980012224 -48.749587388183393 0 0 0 0 -750.0092537793098 551.6235619582003 0 551.6235619582003 189.14329304654166 0 0 0 0 -10.985218510577397 746.48134843411026 0 746.48134843411026 112.74213123731897 0 0 0 0 -650.97053939414036 378.33610475683963 0 378.33610475683963 -88.211455759343153 0 0 0 0 -969.67471719827154 773.9460594777629 0 773.9460594777629 -5.176873485030228 0 0 0 0 -9.8165970787575816 47.583410194803378 0 47.583410194803378 166.0141948019093 0 0 0 0 -1299.5973220715459 782.69956602370075 0 782.69956602370075 376.25383889056684 0 0 0 0 -1117.6330147323897 632.46461535889102 0 632.46461535889102 423.24821391340083 0 0 0 0 28.55632706273758 118.65942813299444 0 118.65942813299444 -117.67921675845872 0 0 0 0 1328.7021186747588 982.47640157810383 0 982.47640157810383 90.859925230266526 0 0 0 0 -283.15045232189004 2161.9146023977446 0 2161.9146023977446 -291.04691739472037 0 0 0 0 945.59663862086018 -221.21864399649348 0 -221.21864399649348 -428.59408398890037 0 0 0 0 756.80826090995106 2332.1645884622267 0 2332.1645884622267 -1106.7772815139615 0 0 0 0 1501.81534161132 569.26933783674031 0 569.26933783674031 382.42551755199383 0 0 0 0 2085.2846273592368 1139.4200618054456 0 1139.4200618054456 -743.83560730912905 0 0 0 0 -1149.9351719198821 1970.0592428689633 0 1970.0592428689633 1022.0512280068069 0 0 0 0 -9.241782784285391 18.133192735343982 0 18.133192735343982 -20.51923286016978 0 0 0 0 -1133.1807809234424 2202.5935197617878 0 2202.5935197617878 982.16688630013959 0 0 0 0 -82.98669033346232 424.23489476127725 0 424.23489476127725 1701.5774078775794 0 0 0 0 -644.3678394341332 1802.6240708131445 0 1802.6240708131445 -1058.2872333201522 0 0 0 0 -12.892628126759476 33.662210530855759 0 33.662210530855759 -51.28910745599353 0 0 0 0 521.94491087165079 1516.2381729544286 0 1516.2381729544286 719.26608712504458 0 0 0 0 3380.3694216068106 1957.3387043540788 0 1957.3387043540788 -568.21615042648045 0 0 0 0 302.32606423102879 514.02340278028896 0 514.02340278028896 -568.39217479850049 0 0 0 0 -4776.1235201536474 1165.710797376043 0 1165.710797376043 475.0338671100908 0 0 0 0 -2758.4598819898092 890.01494195974374 0 890.01494195974374 386.70199949633388 0 0 0 0 -2813.925947826021 1299.2116265352815 0 1299.2116265352815 288.02719959149545 0 0 0 0 844.05374304736324 92.212169693986652 0 92.212169693986652 -439.12153683538781 0 0 0 0 -1.6956960862103241 -0.85939719801729098 0 -0.85939719801729098 -16.101388824041919 0 0 0 0 -286.44761082399054 628.85246507532429 0 628.85246507532429 -57.540217459725682 0 0 0 0 -245.58571771801508 514.01851843870827 0 514.01851843870827 -68.246766845899401 0 0 0 0 -52.289122502683313 576.78560188866686 0 576.78560188866686 -107.3530235432554 0 0 0 0 6.877716448606126 37.802344948207349 0 37.802344948207349 -39.929277061386983 0 0 0 0 -2008.5371637315984 85.02520525183354 0 85.02520525183354 871.66961923740746 0 0 0 0 -1.2092245630034313 21.277157068370684 0 21.277157068370684 21.69715297567177 0 0 0 0 -2242.1333492491103 2165.4053873887897 0 2165.4053873887897 1175.6505570788577 0 0 0 0 -1016.5839650729795 1238.9912371402243 0 1238.9912371402243 -1255.4177709625801 0 0 0 0 1233.8127221161303 604.82654232927598 0 604.82654232927598 -157.74413223754527 0 0 0 0 3.7079115834712866 2210.2956046932813 0 2210.2956046932813 1031.0192074846127 0 0 0 0 7586.1569627730496 -739.19347726855631 0 -739.19347726855631 -656.30820139567368 0 0 0 0 4350.3342603291676 4576.0772771591801 0 4576.0772771591801 -6.0081245966519514 0 0 0 0 12.63201525271155 -3.796334126592626 0 -3.796334126592626 -14.711388423564983 0 0 0 0 54.718310040824974 40.671681551507078 0 40.671681551507078 29.826862990817858 0 0 0 0 5242.6364081967622 850.13743749327114 0 850.13743749327114 -309.5621175524866 0 0 0 0 151.79148786807491 79.644019405066501 0 79.644019405066501 -45.393712852557655 0 0 0 0 -118.62748991854824 124.66849754654959 0 124.66849754654959 -0.10470606992021203 0 0 0 0 34.127568747435816 4.7592449682308882 0 4.7592449682308882 -0.36477604604755243 0 0 0 0 55.692566910001915 37.654723898856901 0 37.654723898856901 -0.12782598256873692 0 0 0 0 20.453598292722404 2.929304817606436 0 2.929304817606436 -0.65619379807196765 0 0 0 0 -34.874964595292113 177.86788912401244 0 177.86788912401244 -31.700660451959266 0 0 0 0 33.650014123286383 200.18318719071249 0 200.18318719071249 10.81632294060546 0 0 0 0 93.903152609876997 9.7430857965373434 0 9.7430857965373434 16.106915544020012 0 0 0 0 387.19305988654378 95.545709603939031 0 95.545709603939031 -13.576408473141782 0 0 0 0 1708.4257978991227 1089.9967705510062 0 1089.9967705510062 32.419120084654423 0 0 0 0 1.6322377272757898 2.6937423013078785 0 2.6937423013078785 -13.151964734364299 0 0 0 0 138.54782174580032 148.63665686394961 0 148.63665686394961 118.29570075507218 0 0 0 0 103.292183029851 84.993153531435382 0 84.993153531435382 5.785195549891796 0 0 0 0 162.43219810261508 63.707596029868 0 63.707596029868 122.18736192371534 0 0 0 0 -11.673611896898365 136.49599632559693 0 136.49599632559693 112.52153342580377 0 0 0 0 5.5495949841861147 69.970281108246127 0 69.970281108246127 109.87169571519189 0 0 0 0 35.756028361880453 96.455114454351133 0 96.455114454351133 122.31562590566318 0 0 0 0 99.128965210198714 92.30090240422966 0 92.30090240422966 75.544921727307781 0 0 0 0 29.512282941112062 194.79451390025497 0 194.79451390025497 101.72034273561076 0 0 0 0 98.726976951249526 27.973397341374948 0 27.973397341374948 -6.7315604422910837 0 0 0 0 43.348713583880453 151.58364539590548 0 151.58364539590548 -23.910579827555921 0 0 0 0 77.795076924424563 65.851334475491825 0 65.851334475491825 54.512613127112047 0 0 0 0 71.358274573474773 137.90198372302257 0 137.90198372302257 -70.587929046727368 0 0 0 0 -36.338936427222507 188.73630883752776 0 188.73630883752776 -92.227380305528641 0 0 0 0 -26.081855129399628 226.74836100966058 0 226.74836100966058 -0.094503559230361134 0 0 0 0 -60.077864609425887 285.5422731940198 0 285.5422731940198 -97.939765686474857 0 0 0 0 70.65813245448237 211.28103506991397 0 211.28103506991397 -170.73141952024889 0 0 0 0 -163.81005327253661 484.18151250491792 0 484.18151250491792 -314.46303296470433 0 0 0 0 43.331402256968431 265.65217805067368 0 265.65217805067368 -306.00764342578805 0 0 0 0 -328.47844003098726 425.70900678916951 0 425.70900678916951 -59.121321185622946 0 0 0 0 -39.016306488971168 339.68996831407276 0 339.68996831407276 -159.07414507985231 0 0 0 0 -248.3560779402178 356.56103292576154 0 356.56103292576154 -0.32552652430604212 0 0 0 0 -378.83408683496964 640.45435913751862 0 640.45435913751862 -365.31946707268071 0 0 0 0 -339.45292160796816 484.6601395218313 0 484.6601395218313 -296.70854595566925 0 0 0 0 -5.0654672319496967 3.0263289845708528 0 3.0263289845708528 -7.4263818597728459 0 0 0 0 -551.13559448717569 274.84326583756774 0 274.84326583756774 208.62654373864643 0 0 0 0 16.131167138722958 345.27666166907875 0 345.27666166907875 -946.10526621595636 0 0 0 0 167.05442773060349 52.126856475311797 0 52.126856475311797 -525.08980678817534 0 0 0 0 -138.56556064246979 520.38463661386049 0 520.38463661386049 -568.66702550876653 0 0 0 0 14.439911747249425 11.887426377928932 0 11.887426377928932 -34.045664109100471 0 0 0 0 70.791603381741879 255.77201396460077 0 255.77201396460077 -337.82811255249544 0 0 0 0 11.323569325727817 37.36593803024914 0 37.36593803024914 14.55495291979264 0 0 0 0 82.184707210378292 180.40779991731279 0 180.40779991731279 102.66076498155599 0 0 0 0 57.633953106385889 192.35187179085915 0 192.35187179085915 192.23453886900097 0 0 0 0 -168.97579052975925 220.16645510577655 0 220.16645510577655 -17.688288134610048 0 0 0 0 258.89773661401705 29.114658910562866 0 29.114658910562866 155.29037034817156 0 0 0 0 13.904552674042691 12.261924426719304 0 12.261924426719304 10.175665030672917 0 0 0 0 28.079363387398189 8.8156625840638299 0 8.8156625840638299 69.870117572092568 0 0 0 0 -63.828829837417288 53.104166713492305 0 53.104166713492305 60.882844677340472 0 0 0 0 -22.181979455330293 61.822108018124709 0 61.822108018124709 68.30429373800871 0 0 0 0 75.059070037561469 101.31651635078742 0 101.31651635078742 39.630916541966144 0 0 0 0 86.842061760754916 116.93352407478601 0 116.93352407478601 102.91939004993878 0 0 0 0 67.170860851474572 285.9748477802932 0 285.9748477802932 213.90107986936346 0 0 0 0 -78.425921653876344 29.899067801441618 0 29.899067801441618 101.19867257528199 0 0 0 0 -73.02245080190005 -116.71669014973486 0 -116.71669014973486 490.02572036942001 0 0 0 0 -8.6814819253683595 12.738553556907874 0 12.738553556907874 34.248232936410261 0 0 0 0 -361.99314872879768 185.05252108460991 0 185.05252108460991 373.41415754969785 0 0 0 0 79.051245843817014 304.52656539130112 0 304.52656539130112 -117.09901487694151 0 0 0 0 -215.35244284311921 331.67854980444827 0 331.67854980444827 158.49482130716206 0 0 0 0 51.758143337670333 124.87586817430034 0 124.87586817430034 143.88608152181243 0 0 0 0 -44.018297502874702 96.022578976995646 0 96.022578976995646 131.81817358281114 0 0 0 0 -140.13154108301387 -393.71358017098828 0 -393.71358017098828 948.82627401720674 0 0 0 0 550.28472945521935 32.709462690807413 0 32.709462690807413 -6.8318612981529441 0 0 0 0 1.6460944340681181 3.9827012853816086 0 3.9827012853816086 7.2726328677356946 0 0 0 0 84.127202525757696 134.20010428279573 0 134.20010428279573 132.71533094490974 0 0 0 0 1032.0905343785853 563.54509622902333 0 563.54509622902333 -295.88816245112685 0 0 0 0 255.19148943683103 718.29993840595489 0 718.29993840595489 -216.12296154355863 0 0 0 0 262.80135244046687 17.917609018597432 0 17.917609018597432 -77.177276561909821 0 0 0 0 -611.34039958368521 384.84609579184325 0 384.84609579184325 -193.47908987760343 0 0 0 0 -6.6818797499047378 25.39721643534503 0 25.39721643534503 35.800496152936404 0 0 0 0 -51.96817217534408 314.74584588827565 0 314.74584588827565 323.59580228726816 0 0 0 0 153.93769043005886 1036.9707952901153 0 1036.9707952901153 -2233.8430257591422 0 0 0 0 -66.733786615543067 665.03815480387129 0 665.03815480387129 -474.2202073692315 0 0 0 0 -3.3527192425922294 3.7950959537859887 0 3.7950959537859887 -4.3762898689542897 0 0 0 0 -234.33635525323916 251.25392666141124 0 251.25392666141124 1274.9409356532851 0 0 0 0 276.01607470127055 294.91681605683698 0 294.91681605683698 -125.50356122148514 0 0 0 0 66.805725400576193 -62.586930396362732 0 -62.586930396362732 313.22334762246464 0 0 0 0 150.77285949222278 107.12661462335382 0 107.12661462335382 -45.333736570421024 0 0 0 0 146.10517018119572 130.05656113295117 0 130.05656113295117 -76.4370354340208 0 0 0 0 -53.991954111726955 -55.050099644606235 0 -55.050099644606235 -83.922612336435122 0 0 0 0 160.95436952938326 704.11289309158019 0 704.11289309158019 -439.64917131086258 0 0 0 0 54.966291746241041 680.83990395837463 0 680.83990395837463 545.85366110921314 0 0 0 0 325.22326377307763 610.97489074166515 0 610.97489074166515 -1080.1284229191006 0 0 0 0 -239.6337564009591 1000.4605393144302 0 1000.4605393144302 -1258.9163986224594 0 0 0 0 -677.26504522375762 1653.6631089435032 0 1653.6631089435032 -2184.0785708118783 0 0 0 0 2.605024749864242 194.96396270133391 0 194.96396270133391 -2345.857232144539 0 0 0 0 662.61530647792824 1197.9758481981262 0 1197.9758481981262 3753.8050641212467 0 0 0 0 273.39602360290883 728.96603984016838 0 728.96603984016838 -1775.8636019021505 0 0 0 0 47.607059414993273 -101.63715868553845 0 -101.63715868553845 -512.2015226882213 0 0 0 0 -185.51582211766799 25.448161514686944 0 25.448161514686944 91.490156337036751 0 0 0 0 -17.414475709479689 17.136369481984048 0 17.136369481984048 -16.37663400870133 0 0 0 0 62.999986639537383 799.9899404214957 0 799.9899404214957 -1241.5566177865549 0 0 0 0 -726.72543157928158 1219.4029953215068 0 1219.4029953215068 -954.54062544571934 0 0 0 0 -385.20497806853382 -32.668471189768752 0 -32.668471189768752 -198.55361103979521 0 0 0 0 -1351.3652483179467 845.30566476061358 0 845.30566476061358 -156.51575105416123 0 0 0 0 9.7267714132321998 685.71339919755701 0 685.71339919755701 -661.54258418202517 0 0 0 0 -731.97017110968591 741.88508995992015 0 741.88508995992015 -271.23007707032957 0 0 0 0 -541.54827243293403 664.89054913975997 0 664.89054913975997 -315.14902874879772 0 0 0 0 -519.96225669473642 343.13205022548209 0 343.13205022548209 314.97734392760321 0 0 0 0 290.77381078596227 166.19530756650784 0 166.19530756650784 723.11407238512766 0 0 0 0 107.96028867270797 530.493812717119 0 530.493812717119 170.92377077476704 0 0 0 0 1220.5950232106843 1584.144759185845 0 1584.144759185845 -1941.2817929129815 0 0 0 0 780.06820657436037 1676.9773852859798 0 1676.9773852859798 -381.01779211813118 0 0 0 0 1420.9330530951847 84.135121203376912 0 84.135121203376912 -5618.4682888729731 0 0 0 0 -32.737621968843712 59.899231675928718 0 59.899231675928718 -11.731882689819884 0 0 0 0 -68.451671680784784 119.94224701319763 0 119.94224701319763 79.021104086476043 0 0 0 0 895.23581869108602 1274.9489730575879 0 1274.9489730575879 470.68278254067991 0 0 0 0 -70.409005070687272 140.80182370743569 0 140.80182370743569 -20.681677570253669 0 0 0 0 -31.721188573084589 11.507921950201236 0 11.507921950201236 31.08407060659755 0 0 0 0 1732.0809897533618 -145.12062801379943 0 -145.12062801379943 1094.2377750273008 0 0 0 0 -24.339504565810785 333.95518411244848 0 333.95518411244848 847.22750579076819 0 0 0 0 965.8294389830553 784.62201227585319 0 784.62201227585319 782.1335988532519 0 0 0 0 1399.4279942081193 671.26402414841868 0 671.26402414841868 145.93409471873019 0 0 0 0 763.0759370510641 236.69049362355145 0 236.69049362355145 -123.57289094102453 0 0 0 0 18.622446861270305 31.690886999549434 0 31.690886999549434 25.311324282510896 0 0 0 0 -236.21955446823267 126.65539672796149 0 126.65539672796149 1303.0278654896247 0 0 0 0 234.23890816269704 19.311166773793957 0 19.311166773793957 -128.44166736729676 0 0 0 0 100.70982947357697 188.11380880513752 0 188.11380880513752 99.083856615427067 0 0 0 0 -2.8310389295220375 213.47266820311779 0 213.47266820311779 247.91774065373465 0 0 0 0 -52.838205734384246 193.4670894612791 0 193.4670894612791 663.43142633256502 0 0 0 0 -6.2005231141007471 -2.6697579043059818 0 -2.6697579043059818 3.4883385691846058 0 0 0 0 136.07055432794732 121.98391532707319 0 121.98391532707319 112.46644723695931 0 0 0 0 -41.27932154390146 236.63148439249198 0 236.63148439249198 274.87009009558824 0 0 0 0 68.732107023592107 54.75696362726012 0 54.75696362726012 173.66199979689554 0 0 0 0 -315.04188844177406 -349.70406164112501 0 -349.70406164112501 744.15923902217764 0 0 0 0 -112.9232748527138 414.99654570390703 0 414.99654570390703 -69.186356900441751 0 0 0 0 93.621213245744002 153.73612661043444 0 153.73612661043444 73.017229041928658 0 0 0 0 773.62278357276227 114.84189688989863 0 114.84189688989863 -407.38821332305088 0 0 0 0 1.4904594088428595 4.3733861206236497 0 4.3733861206236497 -5.3206117259170469 0 0 0 0 290.4952345549973 536.10505076133995 0 536.10505076133995 -154.79587907755922 0 0 0 0 421.07078909015399 621.55150218038762 0 621.55150218038762 -753.30417775364185 0 0 0 0 367.75561956953607 538.11440805160964 0 538.11440805160964 -812.34021776597365 0 0 0 0 358.14003439227236 446.96419254381181 0 446.96419254381181 -435.3536726780585 0 0 0 0 332.31019063523854 547.69497699632484 0 547.69497699632484 -825.37936007219832 0 0 0 0 375.8734959250578 466.4029942998668 0 466.4029942998668 -613.98785925735137 0 0 0 0 19.136722479539458 760.35545366932638 0 760.35545366932638 -849.37411944143241 0 0 0 0 292.39102811150951 504.8599738588382 0 504.8599738588382 -864.1130454631093 0 0 0 0 296.15469911647961 372.92186019706423 0 372.92186019706423 -988.15778418195259 0 0 0 0 -16.479186635095175 13.020171787979507 0 13.020171787979507 -6.1430501673522997 0 0 0 0 -1915.8152578899753 3637.5027155113348 0 3637.5027155113348 1589.9786714725487 0 0 0 0 438.63062293094117 168.82762713046395 0 168.82762713046395 -695.8721086516889 0 0 0 0 450.40664839404781 119.25768231241091 0 119.25768231241091 -544.62449630000629 0 0 0 0 -3088.2370441828389 -80.056893576722359 0 -80.056893576722359 137.09201088329428 0 0 0 0 -428.04823814018164 -3168.2762763106875 0 -3168.2762763106875 1127.9925502584047 0 0 0 0 637.29743751668138 -344.70625067314541 0 -344.70625067314541 -539.71178460000374 0 0 0 0 2171.39943217572 -220.25977463797608 0 -220.25977463797608 -1064.3101031411061 0 0 0 0 -16.867977308123216 20.440487877907287 0 20.440487877907287 -19.332833432346206 0 0 0 0 350.19130991233396 628.97618219397555 0 628.97618219397555 494.37378231034745 0 0 0 0 612.53884791684686 -240.89509575857664 0 -240.89509575857664 -951.71996047058201 0 0 0 0 254.64967467849783 75.982111703906412 0 75.982111703906412 206.1142110589717 0 0 0 0 360.98853460459532 504.91950088137378 0 504.91950088137378 7.8431137238512747 0 0 0 0 33.69323506589717 558.92550194830255 0 558.92550194830255 562.44708497510874 0 0 0 0 419.21512528600579 403.28316369490494 0 403.28316369490494 -63.605280393727298 0 0 0 0 723.86269004759924 945.15827537539064 0 945.15827537539064 -351.56939633261936 0 0 0 0 -1.0867454586595371 309.16077960054076 0 309.16077960054076 -998.08499007625505 0 0 0 0 259.03748091752641 1470.0251274334041 0 1470.0251274334041 1263.3097205786071 0 0 0 0 -220.17063097216305 1702.7917618060892 0 1702.7917618060892 1914.5885003728763 0 0 0 0 -173.38476443336094 1225.3393347417646 0 1225.3393347417646 1359.5299048626912 0 0 0 0 -194.4852159650568 753.90782687753642 0 753.90782687753642 302.50534298889397 0 0 0 0 295.26022462194669 945.88932949002992 0 945.88932949002992 -1284.7456650221357 0 0 0 0 -453.44546127946523 1115.7305151605615 0 1115.7305151605615 250.0332547384869 0 0 0 0 -93.029948433919344 -822.26636555547884 0 -822.26636555547884 -1699.7819819782599 0 0 0 0 -6.4448438484253643 5.8907922291031127 0 5.8907922291031127 -6.1818552740604389 0 0 0 0 121.18503874228918 247.6033776181539 0 247.6033776181539 111.69633903057547 0 0 0 0 554.86001419779495 53.076169389292772 0 53.076169389292772 -789.30991078143416 0 0 0 0 497.51644491034676 -122.20820627869398 0 -122.20820627869398 -289.04160922585288 0 0 0 0 146.51219363542623 -173.50849070314143 0 -173.50849070314143 -579.00703673326643 0 0 0 0 584.65550096080551 4.265597811085172 0 4.265597811085172 -506.89461920817848 0 0 0 0 746.44354994260357 -127.69712237002386 0 -127.69712237002386 -428.35740023804101 0 0 0 0 835.51339032672695 268.12291213146091 0 268.12291213146091 -52.211107939092471 0 0 0 0 553.37343687104294 -196.49281071595033 0 -196.49281071595033 -245.25248628194095 0 0 0 0 639.25287473173012 589.66831407359314 0 589.66831407359314 1398.5367263049848 0 0 0 0 277.49199146620231 598.79229968003347 0 598.79229968003347 1354.5656612799503 0 0 0 0 147.41145807933935 487.48195759899681 0 487.48195759899681 1428.0646934042015 0 0 0 0 -268.50611262558959 1133.244503433496 0 1133.244503433496 1503.7864246546087 0 0 0 0 -261.60204786405302 1034.834753774081 0 1034.834753774081 2757.9433428466727 0 0 0 0 329.30241631829995 2833.0956059404198 0 2833.0956059404198 4332.3964186407975 0 0 0 0 446.62287037115311 -187.21241575951535 0 -187.21241575951535 4021.0803482924384 0 0 0 0 1763.3340519758931 2352.3721604930906 0 2352.3721604930906 2852.6991229366249 0 0 0 0 -1086.3677591756132 -358.10944675682549 0 -358.10944675682549 5840.2907458371374 0 0 0 0 506.7476953059595 1270.4493493390182 0 1270.4493493390182 1933.0625090539979 0 0 0 0 113.00324988043576 1938.1116382429918 0 1938.1116382429918 3662.064730615617 0 0 0 0 2487.4422836969898 202.73377492979489 0 202.73377492979489 1474.0655420956027 0 0 0 0 1101.8342486941547 216.38372529086337 0 216.38372529086337 278.24602917290758 0 0 0 0 1152.3149234270259 1085.052371787071 0 1085.052371787071 433.78734573781549 0 0 0 0 308.81412868497864 822.31958469540041 0 822.31958469540041 412.20169443856867 0 0 0 0 436.91149079826573 385.96263828551491 0 385.96263828551491 264.60545001046557 0 0 0 0 632.45804102346301 211.68590771320305 0 211.68590771320305 -473.02111702882394 0 0 0 0 -108.44823141228699 619.78170548041089 0 619.78170548041089 -511.78474800757249 0 0 0 0 -264.63215001887875 1331.7437312812945 0 1331.7437312812945 -1002.4519281432003 0 0 0 0 685.51565028977348 570.46485695863885 0 570.46485695863885 -871.07329695631051 0 0 0 0 262.48531781835482 720.87473864067579 0 720.87473864067579 2018.2366274751748 0 0 0 0 515.01709530068911 846.22173134962577 0 846.22173134962577 424.95190526412625 0 0 0 0 -41.357673427002737 728.08431315227062 0 728.08431315227062 404.76026871697468 0 0 0 0 -1767.9950953771913 683.85052554951835 0 683.85052554951835 1233.5377619718638 0 0 0 0 -59.025717208773131 1491.5839912485681 0 1491.5839912485681 1592.601577571797 0 0 0 0 164.80659307359747 883.15915882787522 0 883.15915882787522 -1848.9741787069506 0 0 0 0 -1431.3043903308571 1669.3089650359325 0 1669.3089650359325 -973.24715502691106 0 0 0 0 -892.73645293922164 429.67874019015289 0 429.67874019015289 353.13219311124703 0 0 0 0 87.894416589726461 177.02171217340947 0 177.02171217340947 -2001.8028004787047 0 0 0 0 -7.431435966930394 10.435503356611946 0 10.435503356611946 -8.8169911086860111 0 0 0 0 -527.91375012595381 2058.5501762777094 0 2058.5501762777094 -635.13063557457644 0 0 0 0 -216.41910384093353 1225.5147447470226 0 1225.5147447470226 2331.9346152887447 0 0 0 0 136.18940272586769 -234.54353177051962 0 -234.54353177051962 3287.4764153611613 0 0 0 0 -320.3463247626205 119.33257593648159 0 119.33257593648159 2618.7356870678923 0 0 0 0 490.13882571655267 509.94636457800516 0 509.94636457800516 -950.25931080075679 0 0 0 0 -1167.9034597260033 302.65130580182449 0 302.65130580182449 6781.8924309230788 0 0 0 0 -11.752818705191373 16.271349938245208 0 16.271349938245208 10.140334507781034 0 0 0 0 -118.7043985003038 977.23906131859621 0 977.23906131859621 1338.2176398761512 0 0 0 0 896.41444037223118 10.898647371184779 0 10.898647371184779 -538.0269934107273 0 0 0 0 -34.565033337305067 -381.67206438389258 0 -381.67206438389258 1367.9187463799899 0 0 0 0 66.575040681423616 72.49832679489063 0 72.49832679489063 73.532940822504656 0 0 0 0 -332.15169512561988 707.45148829359096 0 707.45148829359096 -1059.633103018321 0 0 0 0 -918.72505487213493 1086.8353665025643 0 1086.8353665025643 -789.82772434079379 0 0 0 0 737.05838177764963 1219.5979547902352 0 1219.5979547902352 1407.9761321153492 0 0 0 0 -171.05386148054095 11.094636905674633 0 11.094636905674633 285.9234258357028 0 0 0 0 -670.08339322760003 -712.16243446986482 0 -712.16243446986482 467.01997850232874 0 0 0 0 -177.88703724318475 -25.964074974282994 0 -25.964074974282994 1655.7515374767245 0 0 0 0 -1.2902700909100986 7.9373500345521109 0 7.9373500345521109 18.458645993410755 0 0 0 0 -175.17186013760511 137.14299380422744 0 137.14299380422744 875.48552415088125 0 0 0 0 -436.22258529887768 771.88867298550394 0 771.88867298550394 305.15786309265241 0 0 0 0 711.56228501049918 173.14630490859417 0 173.14630490859417 -567.84255370098253 0 0 0 0 90.214249008536342 101.8884429339643 0 101.8884429339643 87.113793189226755 0 0 0 0 -215.21999207450426 -74.477521158085437 0 -74.477521158085437 -375.54977021360537 0 0 0 0 -676.70172158633068 675.228717534108 0 675.228717534108 735.60160462229396 0 0 0 0 -500.01423623590381 558.73414495604447 0 558.73414495604447 -240.98749476898229 0 0 0 0 -647.36680317763239 457.39044793677385 0 457.39044793677385 -286.58396117594384 0 0 0 0 -2.3903853632614869 12.800268737884863 0 12.800268737884863 1.4717931042323755 0 0 0 0 -443.98214375850512 687.24838092928985 0 687.24838092928985 -174.30649412015919 0 0 0 0 -280.4179522539489 731.78894902246248 0 731.78894902246248 -205.36868233054702 0 0 0 0 -659.89012973380159 572.77654935741157 0 572.77654935741157 -214.41641541513309 0 0 0 0 -774.33560086134821 392.55065731292416 0 392.55065731292416 -287.4404382776338 0 0 0 0 -603.30869170825463 536.94118762511425 0 536.94118762511425 -248.55862799138413 0 0 0 0 -543.58455804394907 803.86684838602378 0 803.86684838602378 -194.91146529250545 0 0 0 0 -548.85652117471909 743.66717782954947 0 743.66717782954947 -128.94747462485975 0 0 0 0 -727.12611335131805 353.06462624060805 0 353.06462624060805 592.29955586325377 0 0 0 0 -443.77830926279421 956.22203276978325 0 956.22203276978325 215.72808727622032 0 0 0 0 -117.6635879012174 215.52111739697284 0 215.52111739697284 -932.57852201070637 0 0 0 0 -661.29706415583496 612.3644440392236 0 612.3644440392236 -85.94000165478792 0 0 0 0 -925.24551953043556 682.91527853634034 0 682.91527853634034 -317.06517541572975 0 0 0 0 -664.75892649242587 453.50740804942382 0 453.50740804942382 -245.59131903106754 0 0 0 0 -534.53434148512315 596.63039314918569 0 596.63039314918569 -105.33383190140012 0 0 0 0 -304.89116575624212 521.44414175229031 0 521.44414175229031 -322.8276907206855 0 0 0 0 -379.97712753355154 413.86651904652535 0 413.86651904652535 -285.19905212894082 0 0 0 0 -520.47775289454148 700.6860035343343 0 700.6860035343343 -174.68111571492045 0 0 0 0 -275.94644754164619 714.76385038301669 0 714.76385038301669 -261.0035813319555 0 0 0 0 -240.11097145552048 637.19379511683655 0 637.19379511683655 -376.17025317536172 0 0 0 0 -65.497170100396033 539.59037610728774 0 539.59037610728774 -343.41724269890983 0 0 0 0 -96.994842765125213 575.15678939536883 0 575.15678939536883 -355.74613375538684 0 0 0 0 348.26397406146862 727.93959519128111 0 727.93959519128111 -382.50815288798185 0 0 0 0 655.37235514222994 865.80958501875284 0 865.80958501875284 -457.56688026376332 0 0 0 0 -27.380360416093026 304.8991664708883 0 304.8991664708883 -478.84262943473004 0 0 0 0 -221.22887598647503 83.316467195683799 0 83.316467195683799 -929.05288323257992 0 0 0 0 -502.97241031842714 340.95844007097912 0 340.95844007097912 -377.58644280322187 0 0 0 0 -1283.2355106816976 468.6542901137218 0 468.6542901137218 -316.50139176660741 0 0 0 0 24.742878796967204 26.999094257640337 0 26.999094257640337 29.050665531955104 0 0 0 0 -595.26349454927549 477.71926629821974 0 477.71926629821974 56.558872703855741 0 0 0 0 1521.6605134142446 2485.3539147456868 0 2485.3539147456868 591.65592972340528 0 0 0 0 983.53460871122661 1417.6621891220348 0 1417.6621891220348 -890.85527284986165 0 0 0 0 570.66897690918995 894.64855056340457 0 894.64855056340457 -292.54737828795623 0 0 0 0 0.44493802498076546 901.62699545117323 0 901.62699545117323 1280.2522915493464 0 0 0 0 94.39023070895928 1760.0172670069442 0 1760.0172670069442 1469.7988761313973 0 0 0 0 170.60682866245043 1752.4160466111753 0 1752.4160466111753 1470.0744579296152 0 0 0 0 -245.0898385537439 1990.4409636397177 0 1990.4409636397177 2375.7313110891373 0 0 0 0 -203.33337267553725 1781.1297458467816 0 1781.1297458467816 1650.7668064359168 0 0 0 0 -618.23297733491927 1770.0640733321852 0 1770.0640733321852 1653.121774948464 0 0 0 0 -30.265323526677093 1417.3596740599241 0 1417.3596740599241 657.03121433255728 0 0 0 0 -273.13863386650337 1257.3839932593546 0 1257.3839932593546 686.76898249786063 0 0 0 0 1043.3421295387234 1475.5533163345026 0 1475.5533163345026 -19.960864177453914 0 0 0 0 113.44274005386978 819.27372806720086 0 819.27372806720086 -30.099661305391237 0 0 0 0 -257.70444650150603 673.49991451433743 0 673.49991451433743 -174.23041301858029 0 0 0 0 298.17262574478809 1042.0222268542202 0 1042.0222268542202 -10.693849053612212 0 0 0 0 75.443165884338669 616.77993320024325 0 616.77993320024325 -499.24833859124919 0 0 0 0 -2.9319977473060135 658.14036715668044 0 658.14036715668044 -501.40403721848406 0 0 0 0 -910.69414877875533 331.46864212239598 0 331.46864212239598 -370.33328103953681 0 0 0 0 -220.18511428663624 919.39335446524638 0 919.39335446524638 123.72710567575996 0 0 0 0 -601.68577338069736 872.82825029086234 0 872.82825029086234 237.79359457443934 0 0 0 0 2049.7284195512184 1446.9759686456091 0 1446.9759686456091 716.5926891862764 0 0 0 0 -1665.8632740957546 1052.8221539690276 0 1052.8221539690276 741.05016937126493 0 0 0 0 6.1066954756372809 9.5409772299309452 0 9.5409772299309452 2.4693607707069987 0 0 0 0 -977.3605990798751 1479.9349820668831 0 1479.9349820668831 997.50959018318099 0 0 0 0 -513.56336822290905 551.0847803154029 0 551.0847803154029 223.18318934852687 0 0 0 0 2127.3432687790482 1414.0525301230009 0 1414.0525301230009 336.80282191674087 0 0 0 0 71.150514387489551 802.37101429649351 0 802.37101429649351 234.39460112527013 0 0 0 0 -3.7757833137516741 5.1595676582041392 0 5.1595676582041392 7.3779785932630944 0 0 0 0 47.000496004649904 2059.8744632491744 0 2059.8744632491744 1879.753397875902 0 0 0 0 236.6473885577434 422.79402175547875 0 422.79402175547875 571.6417756087194 0 0 0 0 -777.28476726668305 1434.3995211107467 0 1434.3995211107467 1002.8448630383718 0 0 0 0 -4.0176815667264805 4.1039314927961641 0 4.1039314927961641 6.1635315268702016 0 0 0 0 361.74166092106316 1354.9564060997727 0 1354.9564060997727 3408.8228476639888 0 0 0 0 2319.4012166814427 2435.3627082769563 0 2435.3627082769563 1026.1122918974434 0 0 0 0 3306.1777008240169 1408.5044552375839 0 1408.5044552375839 596.09982077698805 0 0 0 0 1230.0094265288353 2373.6630617924238 0 2373.6630617924238 1101.4540488616403 0 0 0 0 1753.1906167039851 1226.8797279862629 0 1226.8797279862629 642.49758457416465 0 0 0 0 -6.7095130930851496 6.7934208787059731 0 6.7934208787059731 5.5029988843422188 0 0 0 0 -424.0890982853598 -452.71185350051383 0 -452.71185350051383 721.23965291759123 0 0 0 0 1388.9242913084236 720.43870526015962 0 720.43870526015962 476.77521556304418 0 0 0 0 1589.7822596590413 -431.78295618663833 0 -431.78295618663833 2524.7794346399241 0 0 0 0 -17.017393122252543 21.489141880447278 0 21.489141880447278 34.884668027505541 0 0 0 0 -70.310915658992599 32.365188272764499 0 32.365188272764499 40.343632935018832 0 0 0 0 -7.7786144728571003 0.11703259133560096 0 0.11703259133560096 8.528515928969 0 0 0 0 435.93844130163779 1628.7999695931067 0 1628.7999695931067 2064.5856346841465 0 0 0 0 32.327133008744568 531.83260101130145 0 531.83260101130145 1426.5899939188967 0 0 0 0 412.78721252937976 1776.4922249569645 0 1776.4922249569645 1439.4181870336251 0 0 0 0 558.9677339464688 1609.1567419431231 0 1609.1567419431231 1112.4259255729849 0 0 0 0 605.27847768043284 1160.0126344979071 0 1160.0126344979071 1826.0373379224984 0 0 0 0 795.27635303382704 1576.4639853566696 0 1576.4639853566696 207.48009302861465 0 0 0 0 1266.365004645806 1504.288036512371 0 1504.288036512371 218.46352126328566 0 0 0 0 -802.21354308609443 1594.9705431475813 0 1594.9705431475813 934.74676138283394 0 0 0 0 1161.8979091271103 1300.5724772623726 0 1300.5724772623726 924.58532098967407 0 0 0 0 2964.4962731955893 1149.0382456888619 0 1149.0382456888619 156.92931798292557 0 0 0 0 4739.4392663074177 2327.8017168587394 0 2327.8017168587394 1438.5322716871451 0 0 0 0 847.51631538026777 705.24324753263318 0 705.24324753263318 859.92405179126945 0 0 0 0 0.51641820898329271 5.9886063048421079 0 5.9886063048421079 38.458589450873149 0 0 0 0 -3105.9233550505596 -789.33030755685741 0 -789.33030755685741 1847.361108813333 0 0 0 0 -0.86425538254748169 18.543937108077301 0 18.543937108077301 104.64830451648334 0 0 0 0 -2711.7479946408143 479.89420083193636 0 479.89420083193636 751.77362346574955 0 0 0 0 -936.66125015944999 212.12789218436956 0 212.12789218436956 1876.8840114742416 0 0 0 0 901.77626026728831 1172.7047811416996 0 1172.7047811416996 254.7788228408026 0 0 0 0 248.71795609573019 1266.6867179207838 0 1266.6867179207838 1185.6844317341165 0 0 0 0 276.00175234416383 -47.755214699493081 0 -47.755214699493081 1004.818977438299 0 0 0 0 -941.66254708396445 106.2522104366144 0 106.2522104366144 -364.4581115492183 0 0 0 0 -66.425075203951565 106.54407246247865 0 106.54407246247865 31.633082262211246 0 0 0 0 119.47387561097275 452.73191969539039 0 452.73191969539039 -17.793075752226287 0 0 0 0 -19.585060869279175 35.737624096504476 0 35.737624096504476 -7.3820296012648612 0 0 0 0 140.52621332224226 59.716940809928929 0 59.716940809928929 -446.66151381706004 0 0 0 0 -129.12357034804882 377.88244972354732 0 377.88244972354732 582.62171824825055 0 0 0 0 0.86304578749161465 18.692112851133281 0 18.692112851133281 8.386820637922284 0 0 0 0 839.0681919757335 180.0401641499775 0 180.0401641499775 5.4065755158499087 0 0 0 0 -57.715583781493478 221.57896075004828 0 221.57896075004828 1518.5635633867932 0 0 0 0 28.771957807126455 1301.6751577806644 0 1301.6751577806644 1354.6493582637195 0 0 0 0 -557.24347827013116 1325.4141620015507 0 1325.4141620015507 1608.3457551222084 0 0 0 0 -45.552053803039598 1400.87685647951 0 1400.87685647951 385.38987153026392 0 0 0 0 -63.029154915100662 1207.5054535531381 0 1207.5054535531381 1296.2167125352426 0 0 0 0 -72.695389007451013 984.85887933740742 0 984.85887933740742 1600.4102496743164 0 0 0 0 -253.1801841869601 1272.7750719651012 0 1272.7750719651012 1735.7340715794417 0 0 0 0 79.344044324061542 1141.1490948161045 0 1141.1490948161045 1097.3744187191332 0 0 0 0 -6.0488227082241792 1215.4617823067238 0 1215.4617823067238 1292.8230391244688 0 0 0 0 -119.23022306383245 461.62948730691051 0 461.62948730691051 1149.6934018222091 0 0 0 0 -115.33567501121433 393.39644264879462 0 393.39644264879462 2150.0078205105128 0 0 0 0 -24.958683073562668 31.735360496463869 0 31.735360496463869 15.324146298235696 0 0 0 0 -242.28752412662288 752.20105780264203 0 752.20105780264203 941.47206187187112 0 0 0 0 -562.46222489544016 617.9954054115442 0 617.9954054115442 3274.6344963876181 0 0 0 0 -1339.6178250087542 635.81053827016876 0 635.81053827016876 2997.2280145324476 0 0 0 0 -1291.2091462459357 182.08590558162541 0 182.08590558162541 1345.319407233299 0 0 0 0 -525.99417728136177 1028.7326945625246 0 1028.7326945625246 421.91984924633289 0 0 0 0 -18.665234436445701 31.816654130048448 0 31.816654130048448 13.574158939984102 0 0 0 0 -1289.1724134240794 282.40335646325548 0 282.40335646325548 1421.7176360237718 0 0 0 0 189.42621366033563 332.34541558029014 0 332.34541558029014 -2741.38266244634 0 0 0 0 -5.2727925224872365 16.018299546478517 0 16.018299546478517 5.7554052077415889 0 0 0 0 -278.12795814289711 554.79007698126952 0 554.79007698126952 4031.0110728384825 0 0 0 0 3325.8611380920629 3452.7305816982407 0 3452.7305816982407 -2808.8338784492662 0 0 0 0 211.87790012019832 -366.89616644801572 0 -366.89616644801572 2382.8796293662745 0 0 0 0 261.34294688301452 426.88595645727037 0 426.88595645727037 1259.311203271267 0 0 0 0 628.23986653597967 -174.4400810888219 0 -174.4400810888219 1230.9161737295799 0 0 0 0 231.34087116138835 317.32472860225971 0 317.32472860225971 183.18659915658645 0 0 0 0 -371.78020640079922 164.80828095286415 0 164.80828095286415 1175.3688740229263 0 0 0 0 594.03065831907588 160.94500896018508 0 160.94500896018508 303.92140493608895 0 0 0 0 678.48687096776848 728.25304334849352 0 728.25304334849352 1229.7819598784845 0 0 0 0 103.36146864280454 528.23016553660273 0 528.23016553660273 1338.4308175411479 0 0 0 0 -654.04873215850967 904.4023319020198 0 904.4023319020198 938.49936566440738 0 0 0 0 -538.98412175409612 -299.11386865226086 0 -299.11386865226086 2389.1281947907228 0 0 0 0 -201.09385078912237 -658.28480342435796 0 -658.28480342435796 1001.7696519919264 0 0 0 0 -1525.2346172586549 343.89230123575544 0 343.89230123575544 424.02437911278685 0 0 0 0 -409.32070551397919 844.50147892499808 0 844.50147892499808 158.47066915732285 0 0 0 0 279.93734288078849 267.23790234966145 0 267.23790234966145 135.62262334264233 0 0 0 0 -34.650847349781543 203.19502087631554 0 203.19502087631554 527.39626493879769 0 0 0 0 18.331578647463637 4.9851299041825996 0 4.9851299041825996 -11.726235636234264 0 0 0 0 -9.7267316587385722 344.34979003175977 0 344.34979003175977 -246.26081380198593 0 0 0 0 231.81063120660838 184.80147267365101 0 184.80147267365101 58.069269382744096 0 0 0 0 22.248789552458106 28.132860292328999 0 28.132860292328999 22.496234428541584 0 0 0 0 98.896624378127669 69.294928577306962 0 69.294928577306962 -68.306502450460414 0 0 0 0 -393.80494513121084 540.77559564790863 0 540.77559564790863 -393.97246317419922 0 0 0 0 -378.93429655880027 453.45159016997786 0 453.45159016997786 -157.96226526977262 0 0 0 0 30.353934706752113 69.288486011532243 0 69.288486011532243 76.548636897848411 0 0 0 0 -482.3903802184941 762.51355655696534 0 762.51355655696534 -327.38787148774645 0 0 0 0 54.598806336754933 184.79827592079528 0 184.79827592079528 54.816061229095794 0 0 0 0 1.2358847767463885 179.38184766174527 0 179.38184766174527 64.760256452864269 0 0 0 0 -7.2366272057988681 72.474955173966009 0 72.474955173966009 -1.8914031224849168 0 0 0 0 45.253613143623056 72.455647792432728 0 72.455647792432728 73.653171000518512 0 0 0 0 -177.75659823528258 208.15736122048111 0 208.15736122048111 -389.60933701510658 0 0 0 0 -11.224236338928108 8.0124872127729532 0 8.0124872127729532 -4.3073091765179186 0 0 0 0 43.901079102584276 112.60497009405017 0 112.60497009405017 119.07254980022475 0 0 0 0 -774.33560086158104 392.55065731273498 0 392.55065731273498 -287.44043827767609 0 0 0 0 -774.33560086111538 392.55065731293871 0 392.55065731293871 -287.44043827787391 0 0 0 0 342.38505626601545 434.46506006710115 0 434.46506006710115 -253.0838567042083 0 0 0 0 80.944408700765052 323.44665459985845 0 323.44665459985845 277.58746066255844 0 0 0 0 -261.43604314776894 668.12394953164039 0 668.12394953164039 225.06383173008362 0 0 0 0 -133.11359055385401 454.78359987781005 0 454.78359987781005 -584.73214085932705 0 0 0 0 -513.4799934687253 710.35339788358397 0 710.35339788358397 -124.44545911523164 0 0 0 0 -104.05478912006947 599.03801673918497 0 599.03801673918497 -191.23223383232835 0 0 0 0 23.634037818483193 667.20170303532359 0 667.20170303532359 -620.23308177453873 0 0 0 0 3.1004396599235235 2.8144878046647364 0 2.8144878046647364 -11.023453200182018 0 0 0 0 -231.13905216587591 276.95149043590209 0 276.95149043590209 -47.8178358745281 0 0 0 0 97.691714965185383 141.69514171446644 0 141.69514171446644 -36.316011251390591 0 0 0 0 -2.4253455350413446 9.6654960958911147 0 9.6654960958911147 -21.066558049193759 0 0 0 0 69.77293716344866 28.682265174902568 0 28.682265174902568 -89.29033966564748 0 0 0 0 105.88209420462044 -54.06785258380296 0 -54.06785258380296 15.187908024236094 0 0 0 0 390.87714485517063 112.86091083208885 0 112.86091083208885 -93.820352183251089 0 0 0 0 100.04092918056267 -25.467122512993228 0 -25.467122512993228 252.50165670228307 0 0 0 0 418.52573691261932 48.888346965206438 0 48.888346965206438 817.66503808583366 0 0 0 0 320.85921598400455 334.92141039406852 0 334.92141039406852 199.52027449593879 0 0 0 0 35.703071468240523 166.25073273484304 0 166.25073273484304 105.95871238218388 0 0 0 0 -21.212701711090631 77.775532058702083 0 77.775532058702083 -31.253356775319844 0 0 0 0 215.23309071124095 117.82020542481041 0 117.82020542481041 -123.95373171646497 0 0 0 0 6.6732268997331801 4.2079817829681758 0 4.2079817829681758 0.25098797016494245 0 0 0 0 860.61147314972186 1053.5696921199851 0 1053.5696921199851 -1643.8239993514435 0 0 0 0 47.722074468110804 -35.163226070129895 0 -35.163226070129895 -220.32670922474063 0 0 0 0 61.582719035313858 78.233428043256026 0 78.233428043256026 -39.530581630213419 0 0 0 0 -3014.5323067667196 2584.7892113847192 0 2584.7892113847192 -1563.9995929319211 0 0 0 0 1556.8747890984887 1345.7263816347113 0 1345.7263816347113 570.82615151591017 0 0 0 0 1.0940069820537133 9.4901565292509247 0 9.4901565292509247 2.8925240182461636 0 0 0 0 1085.2834945635113 1852.0916260812774 0 1852.0916260812774 1170.1282480899536 0 0 0 0 -0.6919489239298855 90.927341193135362 0 90.927341193135362 14.94922651865636 0 0 0 0 -37.696790287214043 34.39590133501531 0 34.39590133501531 -8.5500271400860584 0 0 0 0 15.491026636513823 56.463613512786509 0 56.463613512786509 -3.1395537299079876 0 0 0 0 5.2293327781881089 45.324881204527628 0 45.324881204527628 5.4939757561369333 0 0 0 0 14.814670191271546 17.657736110553458 0 17.657736110553458 -0.59191494395358291 0 0 0 0 16.120519872900331 55.438602300127968 0 55.438602300127968 -39.334268864142359 0 0 0 0 -5.6744585596932211 20.60668339253192 0 20.60668339253192 -25.468131417545521 0 0 0 0 -14.298582758448902 46.468253252853174 0 46.468253252853174 -31.522327008948196 0 0 0 0 55.437426053042145 66.973765975773858 0 66.973765975773858 -13.265187951925327 0 0 0 0 150.80230925184878 281.1693715688707 0 281.1693715688707 186.8868737982848 0 0 0 0 56.971479859363171 91.218768648483092 0 91.218768648483092 9.8315345397713827 0 0 0 0 -14.649321872716968 40.745040913624024 0 40.745040913624024 -20.04426830070372 0 0 0 0 409.88534220217116 418.68543378898903 0 418.68543378898903 220.87179982663292 0 0 0 0 -30.195906584099262 39.573581687831108 0 39.573581687831108 -39.648593291326051 0 0 0 0 94.607049488899065 86.236082799965516 0 86.236082799965516 -6.1391327834680851 0 0 0 0 504.01149426612392 289.3348328037755 0 289.3348328037755 87.786236877902411 0 0 0 0 444.63795155046319 418.34088803852137 0 418.34088803852137 63.906493025817326 0 0 0 0 583.07221746574942 388.25695891624491 0 388.25695891624491 -92.333686358483533 0 0 0 0 507.46544868094497 345.6116986813322 0 345.6116986813322 -92.811679955164436 0 0 0 0 560.91826854408646 287.54183320929224 0 287.54183320929224 -176.52913262449147 0 0 0 0 -32.068745156303308 45.014828150490587 0 45.014828150490587 -54.08956485305805 0 0 0 0 512.79976269998951 431.01712907671754 0 431.01712907671754 -246.80009928980144 0 0 0 0 295.79311598090135 366.51059149704815 0 366.51059149704815 -200.99653490281344 0 0 0 0 568.05490267559435 342.20993024860218 0 342.20993024860218 -210.51102397040813 0 0 0 0 520.16991795640206 429.45322029104864 0 429.45322029104864 -142.38465420680586 0 0 0 0 536.37795685065976 389.90563023512368 0 389.90563023512368 -264.44119225622853 0 0 0 0 754.02667380699495 261.44069354503881 0 261.44069354503881 -206.28451188723557 0 0 0 0 534.61357971589314 416.5605724001216 0 416.5605724001216 -209.0852453168236 0 0 0 0 385.01188251818894 183.63042977886289 0 183.63042977886289 -218.26402732951101 0 0 0 0 271.07861456049432 291.46656062151305 0 291.46656062151305 41.768563725388958 0 0 0 0 -254.8682438780088 351.84027199604316 0 351.84027199604316 440.21887407510076 0 0 0 0 378.40525055181934 497.96620052632352 0 497.96620052632352 421.61942939728033 0 0 0 0 506.47669641856919 389.38075013958587 0 389.38075013958587 -77.274779426516034 0 0 0 0 462.22359337484522 432.9610665802611 0 432.9610665802611 -25.387900213499961 0 0 0 0 549.60831332756788 481.38277841353556 0 481.38277841353556 -126.29978049457713 0 0 0 0 466.80169162607854 454.88369922324273 0 454.88369922324273 -7.5329784923233092 0 0 0 0 522.46896187550738 468.96332151292881 0 468.96332151292881 -59.303688128478825 0 0 0 0 500.25837794590916 468.25531761909951 0 468.25531761909951 -202.12014003559307 0 0 0 0 561.48917789277039 460.23952897537674 0 460.23952897537674 -205.50825420435285 0 0 0 0 524.76263336448756 541.18389227899024 0 541.18389227899024 -62.786782311828574 0 0 0 0 522.63927273768422 487.84851288903155 0 487.84851288903155 8.8514256870839745 0 0 0 0 544.71824712542002 538.84575985939591 0 538.84575985939591 -47.219795196157065 0 0 0 0 460.17864131537499 557.54480243398575 0 557.54480243398575 322.90751459845342 0 0 0 0 509.18646227124555 611.02656967258372 0 611.02656967258372 62.956649850180838 0 0 0 0 516.7974718415644 534.750768964499 0 534.750768964499 62.637239168252563 0 0 0 0 496.03819917708461 488.48073078817106 0 488.48073078817106 120.88172656839015 0 0 0 0 535.39098350374843 540.33241264801472 0 540.33241264801472 134.47674943605671 0 0 0 0 468.57400877369219 462.0325998008484 0 462.0325998008484 146.20676713221474 0 0 0 0 466.61148171624518 539.58032454521162 0 539.58032454521162 346.54005707602482 0 0 0 0 481.39528740177047 692.35049289088056 0 692.35049289088056 460.33667441055877 0 0 0 0 122.93267375685537 210.13708892231807 0 210.13708892231807 376.66027487371684 0 0 0 0 414.04762890431448 547.44183163915295 0 547.44183163915295 472.28402927576099 0 0 0 0 585.88910986774135 608.95155064310529 0 608.95155064310529 320.37029032294959 0 0 0 0 542.11524658780036 507.71241010765516 0 507.71241010765516 322.29706328711472 0 0 0 0 475.77591834357372 228.93900738512457 0 228.93900738512457 -369.1074251877435 0 0 0 0 120.19143535375215 75.917897168952209 0 75.917897168952209 -99.106942650755798 0 0 0 0 87.14612362902335 -185.19899542387429 0 -185.19899542387429 -202.90579577017343 0 0 0 0 30.070793410224724 -98.62719846823893 0 -98.62719846823893 -328.91189668490551 0 0 0 0 62.857577330367349 47.228684818233887 0 47.228684818233887 -57.953350556344958 0 0 0 0 158.7958513792837 111.05116949811054 0 111.05116949811054 -44.671857242239639 0 0 0 0 151.87176158716466 121.80533316002766 0 121.80533316002766 -14.480607152945595 0 0 0 0 24.62759538342101 -29.221185479723985 0 -29.221185479723985 -115.65487492358932 0 0 0 0 6.2631842350246245 -0.18870942864009521 0 -0.18870942864009521 -21.341027850468578 0 0 0 0 462.76028920814861 581.01180449471576 0 581.01180449471576 648.63759944983758 0 0 0 0 6.5662850278780809 1.0774046067078302 0 1.0774046067078302 -13.042933218252472 0 0 0 0 -61.620185633320943 749.57262781592544 0 749.57262781592544 -364.96862628089002 0 0 0 0 26.949285265671477 49.054452947966979 0 49.054452947966979 41.700951005611103 0 0 0 0 -251.08057037623621 652.34140321254745 0 652.34140321254745 66.657203108305112 0 0 0 0 147.09967061135103 652.03827837514837 0 652.03827837514837 -472.42066539307416 0 0 0 0 -246.05769283556219 601.86273150442139 0 601.86273150442139 26.035986252114526 0 0 0 0 244.8884671481502 224.74249025305721 0 224.74249025305721 163.3543159632988 0 0 0 0 495.15556861715595 673.67076026427094 0 673.67076026427094 280.30119513107275 0 0 0 0 -111.9526223258581 443.21181354558939 0 443.21181354558939 9.2257807890564436 0 0 0 0 475.60144161092467 677.71332995014382 0 677.71332995014382 369.97614533704473 0 0 0 0 -191.30601269783801 -76.066011709539453 0 -76.066011709539453 119.87722282477625 0 0 0 0 -264.05680950274837 168.06156157632358 0 168.06156157632358 26.357495477132034 0 0 0 0 -49.945108449411393 14.477597714808965 0 14.477597714808965 33.713443824990691 0 0 0 0 561.77977557467239 136.08767823258495 0 136.08767823258495 27.407117944327183 0 0 0 0 670.74034784533796 661.64858448323321 0 661.64858448323321 -23.51215332315769 0 0 0 0 419.61789659882197 455.77012095012469 0 455.77012095012469 -50.40322384668616 0 0 0 0 467.04934388308902 337.05095093115233 0 337.05095093115233 -449.57302135141799 0 0 0 0 566.97823077351495 488.84478789485001 0 488.84478789485001 -256.12965596001595 0 0 0 0 376.40674633662275 597.8543958072114 0 597.8543958072114 -327.68593939967104 0 0 0 0 415.13178478670307 391.89730260119541 0 391.89730260119541 -183.05682537260873 0 0 0 0 -79.094188421586296 598.27894972939976 0 598.27894972939976 -564.05547202697198 0 0 0 0 -25.46965610584742 74.792517274213964 0 74.792517274213964 31.745401342183641 0 0 0 0 -122.81027344238828 75.814913647904177 0 75.814913647904177 50.16591757160495 0 0 0 0 -21.640710324344354 14.525073059564704 0 14.525073059564704 12.190566432054425 0 0 0 0 -50.355559620329586 113.07807803273681 0 113.07807803273681 -3.4333029648696538 0 0 0 0 11.415780202114547 135.33293263318774 0 135.33293263318774 59.036372704096721 0 0 0 0 36.274270522997767 136.62273280624785 0 136.62273280624785 113.84079531443609 0 0 0 0 18.657519668500754 71.37024658763697 0 71.37024658763697 80.262776979103393 0 0 0 0 -52.00772898393916 137.53725496298284 0 137.53725496298284 11.817363944195677 0 0 0 0 1.9480809710540257 60.337890855805327 0 60.337890855805327 47.769402159546956 0 0 0 0 -129.89235968282446 444.06241770157067 0 444.06241770157067 -287.69682820071466 0 0 0 0 -23.769323517096282 60.304056429895184 0 60.304056429895184 -58.726037960553128 0 0 0 0 -73.236834527895553 551.18698989993572 0 551.18698989993572 -331.89869977105991 0 0 0 0 268.66699299524043 223.79188452930248 0 223.79188452930248 -307.14841578135383 0 0 0 0 72.161083159720874 40.702082184456231 0 40.702082184456231 -346.82786364632193 0 0 0 0 -319.67100027044944 588.30090833640861 0 588.30090833640861 -379.08723916624149 0 0 0 0 52.957861496552141 155.35501868780921 0 155.35501868780921 -909.16851252040942 0 0 0 0 7.8482152831566054 464.29332444470492 0 464.29332444470492 -852.62632831571682 0 0 0 0 -36.030880202073604 135.50706840021303 0 135.50706840021303 -1.8964382558551733 0 0 0 0 27.996358399627127 62.639136172466351 0 62.639136172466351 76.314272514766941 0 0 0 0 -30.242168357595801 172.46256705353153 0 172.46256705353153 -19.848962767515332 0 0 0 0 22.467140893742908 549.75985858860076 0 549.75985858860076 -578.28950621092281 0 0 0 0 53.332241335500555 64.727692814111805 0 64.727692814111805 57.914598265418988 0 0 0 0 62.635867570656387 75.070806684064081 0 75.070806684064081 88.886945589461931 0 0 0 0 -153.04814242249995 36.014202950949766 0 36.014202950949766 -52.526200086729659 0 0 0 0 33.214870939889806 145.69271637143265 0 145.69271637143265 -0.63812376096029766 0 0 0 0 -47.088307133242779 172.81463597147376 0 172.81463597147376 -148.74554645064927 0 0 0 0 53.811091999028577 210.09230272773857 0 210.09230272773857 7.0028697215166176 0 0 0 0 -467.06308287303182 60.568700059553521 0 60.568700059553521 -137.20176018902566 0 0 0 0 14.645946653762167 66.323161476273839 0 66.323161476273839 85.175274487027167 0 0 0 0 53.353812199583444 59.098483195211159 0 59.098483195211159 39.269198794276292 0 0 0 0 -921.94578433776041 404.7533582723072 0 404.7533582723072 -183.56696409458527 0 0 0 0 161.82073265661893 278.81778601108454 0 278.81778601108454 -27.760015413685323 0 0 0 0 10.318966486211373 29.042164374559491 0 29.042164374559491 -60.760554558704513 0 0 0 0 32.777607308859388 58.71810761413137 0 58.71810761413137 52.567834870719565 0 0 0 0 -23.728163963474799 168.55184791436477 0 168.55184791436477 -83.723419701913372 0 0 0 0 -186.919714022486 233.62965150750824 0 233.62965150750824 29.467016687940486 0 0 0 0 673.32717030934327 207.62516647073016 0 207.62516647073016 -1002.9473954936329 0 0 0 0 -4.7779714913867082 5.3936322104870555 0 5.3936322104870555 -22.262744490551199 0 0 0 0 -595.21443781150447 1362.7728162453022 0 1362.7728162453022 -250.11932633157994 0 0 0 0 -1935.5631479546282 369.78899115991408 0 369.78899115991408 51.164447256815038 0 0 0 0 -262.5095576866006 1575.1858610584713 0 1575.1858610584713 -1355.4834326465389 0 0 0 0 69.737388609498566 104.38574490854768 0 104.38574490854768 126.29507161928052 0 0 0 0 -38.054119116583024 81.149320844724571 0 81.149320844724571 61.52333156944951 0 0 0 0 55.187100624083541 265.34867731087434 0 265.34867731087434 -295.60519661354192 0 0 0 0 55.485989423061255 291.08056178356492 0 291.08056178356492 -333.73075866512954 0 0 0 0 874.69565174595664 -250.39649674155078 0 -250.39649674155078 -995.56536468041304 0 0 0 0 -1183.9360425708728 119.58737583845868 0 119.58737583845868 -264.57706174044142 0 0 0 0 454.32260842231335 767.47390648970031 0 767.47390648970031 -369.07888519504195 0 0 0 0 813.30209308388294 1025.5842076774825 0 1025.5842076774825 -227.76038173533743 0 0 0 0 178.91163655553828 1066.150265892531 0 1066.150265892531 404.54557047964045 0 0 0 0 -622.20909305161331 721.82152168425819 0 721.82152168425819 406.63216516845642 0 0 0 0 -356.43635999335675 2841.4933287053718 0 2841.4933287053718 581.1890915028489 0 0 0 0 -2535.7813626303687 1240.3997280586118 0 1240.3997280586118 1101.6738921298529 0 0 0 0 1136.6120781336358 124.47390571561664 0 124.47390571561664 355.67972295099753 0 0 0 0 690.50538611738011 1018.3479060356331 0 1018.3479060356331 635.60257862541766 0 0 0 0 -1174.6563877606823 128.1974803001649 0 128.1974803001649 738.00270705879666 0 0 0 0 -654.93727403174853 872.77904151475377 0 872.77904151475377 883.91355482457584 0 0 0 0 355.28834324149648 -9.9623352304697619 0 -9.9623352304697619 766.60322000020824 0 0 0 0 -1145.083486591946 556.52896569951554 0 556.52896569951554 425.55011599138379 0 0 0 0 2559.8458476632513 1836.6124387310847 0 1836.6124387310847 -550.24419258972921 0 0 0 0 -1576.4043512918142 67.710359280161356 0 67.710359280161356 655.85317417126498 0 0 0 0 3.0050913850084839 3.5083432163937118 0 3.5083432163937118 22.115902205007103 0 0 0 0 -827.8625797489367 -194.14265329951377 0 -194.14265329951377 454.90400947755552 0 0 0 0 325.12269618673599 -135.04000069822371 0 -135.04000069822371 1006.6662343277058 0 0 0 0 -27.625159403793418 12.716563286562149 0 12.716563286562149 -2.9886030466898319 0 0 0 0 214.676426856342 2037.0271120120779 0 2037.0271120120779 -29.500580553289183 0 0 0 0 -2194.7746765696647 -898.56904100673046 0 -898.56904100673046 235.12668547638896 0 0 0 0 -713.92841240676353 8.4316368938998494 0 8.4316368938998494 449.39834994209377 0 0 0 0 -333.14527650046512 142.16772608042447 0 142.16772608042447 382.69671867417492 0 0 0 0 -308.72029667371908 481.78531008869118 0 481.78531008869118 261.93507481720007 0 0 0 0 -68.098526582287263 31.873379146837323 0 31.873379146837323 -8.103024916780015 0 0 0 0 -340.41771009468357 327.87299956112474 0 327.87299956112474 218.51706942656892 0 0 0 0 -442.66068828711286 448.32005195332022 0 448.32005195332022 50.786187798483297 0 0 0 0 -453.10215008701198 543.93088570504915 0 543.93088570504915 -16.471145490133495 0 0 0 0 -743.35738317287178 464.54834147045767 0 464.54834147045767 381.33619171498867 0 0 0 0 -752.72116557575646 309.14119959458912 0 309.14119959458912 339.02140858020721 0 0 0 0 -758.99047446122859 425.75805946003675 0 425.75805946003675 847.35582898836583 0 0 0 0 -577.1291600234108 566.99232833433052 0 566.99232833433052 125.26178631541552 0 0 0 0 -768.92836326830729 479.98180095035514 0 479.98180095035514 89.908789313034504 0 0 0 0 -900.51928074844182 803.23867670674372 0 803.23867670674372 -263.36080170140121 0 0 0 0 -820.74736185377697 593.13413498139198 0 593.13413498139198 -443.09106336423793 0 0 0 0 -612.38423727880581 935.9779069074466 0 935.9779069074466 -1013.8058861429963 0 0 0 0 -372.92489206476603 522.28919066428716 0 522.28919066428716 -483.42123729120067 0 0 0 0 -671.91041250606213 754.23453043626159 0 754.23453043626159 -185.20570058130397 0 0 0 0 -358.33186534573906 580.28354476247114 0 580.28354476247114 -433.53973776405473 0 0 0 0 -243.75477236346342 378.27589215684202 0 378.27589215684202 -190.71545771517049 0 0 0 0 -294.94722665305017 456.53418709066318 0 456.53418709066318 -811.90954083914403 0 0 0 0 -28.513391274116771 19.023941735255335 0 19.023941735255335 74.60114942289411 0 0 0 0 -453.87106615689117 149.78578266821569 0 149.78578266821569 510.79607833079353 0 0 0 0 128.16142673516879 308.2292436542557 0 308.2292436542557 97.011156304790347 0 0 0 0 -323.42811921841349 486.40102494000894 0 486.40102494000894 836.82546365687767 0 0 0 0 -763.4132878521923 335.33058887733205 0 335.33058887733205 396.18465953629129 0 0 0 0 -296.60872636479326 422.15184959542967 0 422.15184959542967 384.10649167358497 0 0 0 0 -68.273625955887837 -54.537822187408892 0 -54.537822187408892 -24.465491081326036 0 0 0 0 -1069.7754333007615 455.50800423219334 0 455.50800423219334 286.90024300062214 0 0 0 0 -404.85736961559451 502.54567697996026 0 502.54567697996026 160.20962285765563 0 0 0 0 -760.92635823451565 520.91749603213066 0 520.91749603213066 -329.64571326742589 0 0 0 0 -1194.104513326427 620.85005913383793 0 620.85005913383793 -340.14939020629208 0 0 0 0 -10.847058247876475 31.982178487042383 0 31.982178487042383 5.4805035901439823 0 0 0 0 -626.40857677413442 -222.68122975228471 0 -222.68122975228471 197.91847236047761 0 0 0 0 -1158.0941045007203 640.9432748841391 0 640.9432748841391 -303.67346850748254 0 0 0 0 -127.31097975343425 82.034595867745594 0 82.034595867745594 30.925960068142846 0 0 0 0 -3741.3991096082609 590.0438756654039 0 590.0438756654039 58.316371047862049 0 0 0 0 -830.09364135353826 877.27541166874289 0 877.27541166874289 82.535326768134837 0 0 0 0 -663.38255571684567 1030.5392047992245 0 1030.5392047992245 -213.50459671588033 0 0 0 0 -652.07403022663493 1003.2549789417899 0 1003.2549789417899 -391.63057465956081 0 0 0 0 -901.30499633395812 634.00335222826106 0 634.00335222826106 -325.48589221572911 0 0 0 0 -6.5825911578929208 3.557904782284993 0 3.557904782284993 -2.5609037711556084 0 0 0 0 -821.61140550358687 -133.16113635267538 0 -133.16113635267538 -1459.3729538968437 0 0 0 0 4254.1302628756966 189.21438232854416 0 189.21438232854416 -2097.3523828269899 0 0 0 0 -824.14722118421923 373.49589441045828 0 373.49589441045828 416.95141647447053 0 0 0 0 -52.81560165193514 -113.18014797917567 0 -113.18014797917567 -274.26812848146074 0 0 0 0 -325.80744516142295 609.28148245633929 0 609.28148245633929 -1066.6544980859762 0 0 0 0 -572.45907030111994 -94.20707877994937 0 -94.20707877994937 917.798824863974 0 0 0 0 -5.4490704342393883 1.2242114586364039 0 1.2242114586364039 1.1575811990184235 0 0 0 0 141.55532466585282 -81.153131826438766 0 -81.153131826438766 387.39963827749307 0 0 0 0 -63.553540417022305 217.30053968749417 0 217.30053968749417 413.8277642378016 0 0 0 0 -16.509741512214873 16.272495986119438 0 16.272495986119438 -5.5443910974446169 0 0 0 0 -33.895538721320918 280.04373584461428 0 280.04373584461428 240.45182749956439 0 0 0 0 47.606486599368509 237.46417418731289 0 237.46417418731289 49.300450865921448 0 0 0 0 1.0028784549795091 221.56526467924414 0 221.56526467924414 213.83436671123127 0 0 0 0 54.534127112794522 299.86327293487011 0 299.86327293487011 295.82071939874731 0 0 0 0 -24.467209304188145 153.74444307386148 0 153.74444307386148 324.68577800804633 0 0 0 0 67.39672274125769 191.88546639405558 0 191.88546639405558 -50.319221623110934 0 0 0 0 20.405621260462794 90.482379212444357 0 90.482379212444357 -166.74603451373696 0 0 0 0 -18.690306994768889 24.088858141259209 0 24.088858141259209 -34.484533644913725 0 0 0 0 197.50236436515115 286.11902182988706 0 286.11902182988706 -1319.2164934035427 0 0 0 0 -61.622693047778284 96.194733648602636 0 96.194733648602636 1.76063653848135 0 0 0 0 -210.87597662792541 226.62525366115005 0 226.62525366115005 -260.81052249902314 0 0 0 0 26.649421970064395 96.222462577069976 0 96.222462577069976 -84.170413172537096 0 0 0 0 -66.235191048748447 88.494611582640829 0 88.494611582640829 -116.94114950589591 0 0 0 0 6.2666247051561186 70.068573694006091 0 70.068573694006091 -42.565305095869036 0 0 0 0 -35.798728265832494 42.961860653732344 0 42.961860653732344 1.046114967978184 0 0 0 0 -45.144523036751707 99.299244960685883 0 99.299244960685883 -8.3807948896719608 0 0 0 0 -52.004401655983088 60.42587812138197 0 60.42587812138197 -40.162473874533191 0 0 0 0 -47.385220467986073 88.480645123359864 0 88.480645123359864 -4.0536799339643039 0 0 0 0 28.051053195871646 53.533486199321487 0 53.533486199321487 84.992588803790568 0 0 0 0 -649.16624723054701 479.93164460001935 0 479.93164460001935 265.41998729479656 0 0 0 0 -103.13570389300003 47.844336388898228 0 47.844336388898228 132.75782689710468 0 0 0 0 -1.0804762158501262 10.564449552030817 0 10.564449552030817 -19.075056714003292 0 0 0 0 12.481650101383707 81.761449377074399 0 81.761449377074399 -42.560385574519302 0 0 0 0 8.1827440394530981 64.331007238029542 0 64.331007238029542 -44.42103531037327 0 0 0 0 27.316900887689371 79.877357621167505 0 79.877357621167505 -39.405486227115034 0 0 0 0 59.414046082115732 51.802966377820013 0 51.802966377820013 -14.210230885262348 0 0 0 0 23.616703337233048 145.83345252822619 0 145.83345252822619 -77.598991321385256 0 0 0 0 33.832921977736987 173.31270339729963 0 173.31270339729963 200.06743391319469 0 0 0 0 32.506337658790471 210.54397203732583 0 210.54397203732583 16.330031636272906 0 0 0 0 26.736105408868752 100.66272752709847 0 100.66272752709847 -29.501898512685329 0 0 0 0 -29.083489718000465 72.364541210629113 0 72.364541210629113 -38.63426485589153 0 0 0 0 66.819172424002318 316.33153847087669 0 316.33153847087669 -87.361167078001017 0 0 0 0 164.77941532851236 103.67864374350816 0 103.67864374350816 8.2742929642354852 0 0 0 0 179.1620459400001 244.29517976240459 0 244.29517976240459 -116.49581746402691 0 0 0 0 68.036408982559806 157.75256453493785 0 157.75256453493785 -76.04369571033385 0 0 0 0 108.13552029222774 134.62520503345877 0 134.62520503345877 -68.034645751646167 0 0 0 0 36.525779708689328 59.271330021888843 0 59.271330021888843 -67.100706107268252 0 0 0 0 135.56862659020771 128.34020911570769 0 128.34020911570769 -11.248974265530705 0 0 0 0 167.18460983093246 125.13857099940651 0 125.13857099940651 -41.288200967057492 0 0 0 0 168.02070501444177 135.65768842087891 0 135.65768842087891 -29.915628568880493 0 0 0 0 132.38856803103408 115.91764918690751 0 115.91764918690751 -54.110558642816613 0 0 0 0 155.7610267485704 121.10640081387211 0 121.10640081387211 -59.965019330849827 0 0 0 0 -244.10322035037098 501.44688435873832 0 501.44688435873832 71.989960682913079 0 0 0 0 165.44486298391712 372.83108403669758 0 372.83108403669758 -445.18907771071827 0 0 0 0 60.013147936374367 68.180629132808548 0 68.180629132808548 23.499995629684122 0 0 0 0 -198.2352723418735 503.18898078909478 0 503.18898078909478 -167.90441767027369 0 0 0 0 -272.87583001889288 578.70883850574319 0 578.70883850574319 18.461474357845873 0 0 0 0 -304.97173400316387 621.83712589144852 0 621.83712589144852 58.19321196007877 0 0 0 0 -248.4825039136922 399.2913910679199 0 399.2913910679199 28.688688775437186 0 0 0 0 -205.14027788961539 465.74573255649739 0 465.74573255649739 129.22483836449101 0 0 0 0 -227.71219318063231 258.03771384198626 0 258.03771384198626 82.442712779666181 0 0 0 0 -513.95442978240317 168.55083233034748 0 168.55083233034748 244.59165724803461 0 0 0 0 -307.69319107133197 342.73444296986418 0 342.73444296986418 34.188542785570462 0 0 0 0 -453.35258088375849 217.15580833388958 0 217.15580833388958 255.50249495735625 0 0 0 0 -379.62650106026558 126.48536503978539 0 126.48536503978539 357.00805867357303 0 0 0 0 -3.3506837635068223 185.53084751777351 0 185.53084751777351 100.82532032926974 0 0 0 0 -127.2286597948987 330.24108195995359 0 330.24108195995359 179.50739062820867 0 0 0 0 23.779740593163297 322.11090968222561 0 322.11090968222561 40.741401108543869 0 0 0 0 36.657835814956343 322.15184675372802 0 322.15184675372802 -7.8948750475392444 0 0 0 0 -204.06585912051378 455.9347271191873 0 455.9347271191873 -47.861501788676833 0 0 0 0 -105.23946658935165 282.27453878693632 0 282.27453878693632 -36.242020056750334 0 0 0 0 -273.75355235295137 408.84328078073304 0 408.84328078073304 594.55099423940919 0 0 0 0 0.11062027410662267 304.7409151887623 0 304.7409151887623 256.40641011993648 0 0 0 0 -398.93366784241516 216.19737656270445 0 216.19737656270445 378.36477298986574 0 0 0 0 3.1707763541655254 4.2714950655760617 0 4.2714950655760617 -2.6757300957805796 0 0 0 0 643.06590630798019 23.98199940053928 0 23.98199940053928 -266.57165905554575 0 0 0 0 41.409321444953093 512.17227973823174 0 512.17227973823174 401.22658862579556 0 0 0 0 -187.04285071295453 154.32375023551867 0 154.32375023551867 103.11944862543169 0 0 0 0 -0.22881477464397904 164.71853613909843 0 164.71853613909843 -184.33778441919276 0 0 0 0 -251.27900240189047 15.962092290055807 0 15.962092290055807 -31.787734316749265 0 0 0 0 4.2227492674982159 6.5324488468287427 0 6.5324488468287427 -3.1628946809676961 0 0 0 0 -163.58397474267986 107.43042487089406 0 107.43042487089406 -58.331217728424235 0 0 0 0 -752.66549412584573 520.32845405982516 0 520.32845405982516 219.31881100777537 0 0 0 0 2.8657797292354417 5.3582209451706717 0 5.3582209451706717 -2.7699075158834603 0 0 0 0 -0.015859047381453436 27.201285567571329 0 27.201285567571329 -20.744194118567975 0 0 0 0 -626.51064715742541 270.67013936975309 0 270.67013936975309 -66.183111196383834 0 0 0 0 -112.17794900361332 584.89642091312271 0 584.89642091312271 101.66783907831996 0 0 0 0 101.56667693781492 322.49761252957251 0 322.49761252957251 -226.9643013572786 0 0 0 0 -184.55681781887688 262.50029032878956 0 262.50029032878956 -211.64346096516238 0 0 0 0 -56.895479125465499 287.12465781749597 0 287.12465781749597 -318.49962130842323 0 0 0 0 -155.9894223275769 317.37342120211179 0 317.37342120211179 -239.36377864066162 0 0 0 0 -755.03305194288259 567.11640843909663 0 567.11640843909663 -185.51059214439738 0 0 0 0 246.00668565859087 430.79182198079798 0 430.79182198079798 -320.5708818589228 0 0 0 0 10.869013516614075 16.511098357858003 0 16.511098357858003 5.9396863345997986 0 0 0 0 -538.89881607495772 805.6540174130896 0 805.6540174130896 -491.54555991476354 0 0 0 0 11.025410525979055 17.091331444844371 0 17.091331444844371 6.8538929614471158 0 0 0 0 -312.97185885396175 510.08673078588254 0 510.08673078588254 -383.003921527481 0 0 0 0 148.67457078269217 379.90259238032013 0 379.90259238032013 -346.94939987225007 0 0 0 0 189.7650650327414 355.91411976991003 0 355.91411976991003 -94.658522231526149 0 0 0 0 -17.865129085825174 470.78836252355904 0 470.78836252355904 -607.03678741145268 0 0 0 0 -1346.3261442320727 940.01901440814618 0 940.01901440814618 736.35903513448284 0 0 0 0 -447.40194976312341 -26.361506499866664 0 -26.361506499866664 -96.025043944555364 0 0 0 0 5.6984017442690913 8.2857622444902859 0 8.2857622444902859 2.1311708810577272 0 0 0 0 1709.6052522099781 360.58797799251624 0 360.58797799251624 -148.6499670739795 0 0 0 0 286.34058956849913 894.2659744298644 0 894.2659744298644 968.90677314405184 0 0 0 0 208.8134903050377 561.0615806961323 0 561.0615806961323 32.15379784709512 0 0 0 0 -194.56889866329948 687.31962145925445 0 687.31962145925445 -531.11457289464306 0 0 0 0 -140.47621101265395 474.45906734929576 0 474.45906734929576 61.425059020068147 0 0 0 0 453.82802855917544 474.365310497873 0 474.365310497873 -379.6936170645713 0 0 0 0 188.349885757023 917.97617364104372 0 917.97617364104372 -389.32857315268484 0 0 0 0 34.794548292513355 700.58726565133747 0 700.58726565133747 -461.61554242706916 0 0 0 0 -25.475927267354564 689.08497589344734 0 689.08497589344734 -488.77204067879939 0 0 0 0 8.5908250045613386 676.19517719930445 0 676.19517719930445 -484.25231956101197 0 0 0 0 -483.39316035003867 837.4736067206868 0 837.4736067206868 -332.28190395090496 0 0 0 0 -92.478969433090242 880.14301286260161 0 880.14301286260161 -523.91251067476696 0 0 0 0 -228.09885094016499 739.10756370266608 0 739.10756370266608 -386.78361334960937 0 0 0 0 -1015.0511660244083 977.62999245652827 0 977.62999245652827 -304.45314741939001 0 0 0 0 -322.5872926103475 986.17337997178493 0 986.17337997178493 -750.12846542624902 0 0 0 0 -470.93285215971991 771.29697672911243 0 771.29697672911243 -262.36271969418158 0 0 0 0 -845.17327793149161 500.46463613573724 0 500.46463613573724 -204.80462940054713 0 0 0 0 -2923.1887886629611 1017.5733286647574 0 1017.5733286647574 -243.52151981327188 0 0 0 0 -966.40442942571826 496.16954929584244 0 496.16954929584244 -148.96913593732461 0 0 0 0 -891.57342168026662 1278.2882852045841 0 1278.2882852045841 -1491.9399355189598 0 0 0 0 -592.88040940853534 593.50731649847512 0 593.50731649847512 -422.5347677626487 0 0 0 0 -590.41145537243574 73.012641174314922 0 73.012641174314922 103.1938207284802 0 0 0 0 -658.68405645400344 342.77522230581235 0 342.77522230581235 -242.24688201379468 0 0 0 0 -608.20990568929119 -118.0260233627705 0 -118.0260233627705 -1204.1303554866354 0 0 0 0 -607.87938305872376 -289.25789021189848 0 -289.25789021189848 273.47209766068772 0 0 0 0 -449.33968073048163 724.20579441715381 0 724.20579441715381 92.869438957298371 0 0 0 0 -790.14545899666791 80.807797099397362 0 80.807797099397362 582.92843967443332 0 0 0 0 -793.06462224416828 45.178272735316796 0 45.178272735316796 787.93459950752731 0 0 0 0 -298.14837293373421 1219.6629536806249 0 1219.6629536806249 1483.3726606469427 0 0 0 0 40.515004963381216 495.2111666998353 0 495.2111666998353 343.10912284929509 0 0 0 0 -69.282773380065919 317.51527978755621 0 317.51527978755621 -129.19131664919041 0 0 0 0 -168.73595913605095 475.457748669387 0 475.457748669387 -356.19005701141577 0 0 0 0 -113.82349949755007 307.86819374511833 0 307.86819374511833 -382.82411467992324 0 0 0 0 -148.11958252855402 256.24592610381842 0 256.24592610381842 -221.17692150824587 0 0 0 0 -110.31317119472078 263.9518152016899 0 263.9518152016899 -249.63151152259525 0 0 0 0 -99.599237852700753 256.7177424200454 0 256.7177424200454 -245.93245358241256 0 0 0 0 -16.258505032681597 7.010137616576344 0 7.010137616576344 0.18229994864523746 0 0 0 0 -1261.8808876908151 82.80110842537033 0 82.80110842537033 778.12972059679669 0 0 0 0 -51.301256613359328 489.69980184129349 0 489.69980184129349 -140.03006654834462 0 0 0 0 -76.715645052712773 44.92610201983598 0 44.92610201983598 -19.748890501280798 0 0 0 0 81.315828322971356 283.89437316288968 0 283.89437316288968 378.27078622658155 0 0 0 0 -22.65112809742277 105.33770896961141 0 105.33770896961141 72.995214560374734 0 0 0 0 -26.399209029768826 151.5476321753813 0 151.5476321753813 -153.64327394488282 0 0 0 0 12.35077671925211 6.414263372049561 0 6.414263372049561 -10.679364143618756 0 0 0 0 -222.20284359683865 -35.39687754044644 0 -35.39687754044644 21.315597997156146 0 0 0 0 -13.959884698153473 172.15540831131511 0 172.15540831131511 -170.0974198851909 0 0 0 0 -12.903621042074519 120.65534057207697 0 120.65534057207697 29.632862138794735 0 0 0 0 21.959865939774318 76.594453043713656 0 76.594453043713656 51.070363919519878 0 0 0 0 -133.00949461129494 55.57966489316459 0 55.57966489316459 467.46311509624138 0 0 0 0 -85.803486709861318 -27.478203657858103 0 -27.478203657858103 557.09643265035265 0 0 0 0 -218.58540254971012 85.643445969759341 0 85.643445969759341 470.42478619111398 0 0 0 0 -200.48858105443651 186.38953373992626 0 186.38953373992626 581.94452594229369 0 0 0 0 -287.58267985402927 141.54969453193917 0 141.54969453193917 660.41600452721468 0 0 0 0 -324.58728914732637 278.27286282393106 0 278.27286282393106 260.9775687358233 0 0 0 0 5.8055606279522181 122.02564384112884 0 122.02564384112884 920.80288691197347 0 0 0 0 -25.611483061191393 244.72340454953519 0 244.72340454953519 540.14636764625675 0 0 0 0 258.90907083002094 166.36304932352323 0 166.36304932352323 611.69910565181635 0 0 0 0 220.62757905376202 1218.4452518528051 0 1218.4452518528051 768.69849577594869 0 0 0 0 582.40371685358696 212.93273258178669 0 212.93273258178669 499.14136152857463 0 0 0 0 60.160660692505189 732.21133667634058 0 732.21133667634058 1626.4827546231318 0 0 0 0 984.88545248359878 834.49395920247389 0 834.49395920247389 527.4848773801059 0 0 0 0 -309.89761196129257 -141.04552596221765 0 -141.04552596221765 763.02427464482389 0 0 0 0 2.2376964222641504 5.9686345112652361 0 5.9686345112652361 12.470535097308129 0 0 0 0 -29.569241261247953 221.03800580125926 0 221.03800580125926 698.27572142366262 0 0 0 0 26.420022674225038 -175.08594667994475 0 -175.08594667994475 438.60961234096612 0 0 0 0 -13.796700371720362 98.742145009589876 0 98.742145009589876 167.22741246511578 0 0 0 0 75.68088658454144 -3.231530302538431 0 -3.231530302538431 -46.81920387482387 0 0 0 0 44.698538806260331 65.786139963023743 0 65.786139963023743 -33.700579620199278 0 0 0 0 -16.790460641786922 147.21268325728306 0 147.21268325728306 -48.074552580282216 0 0 0 0 -93.012759427307174 91.409026081004413 0 91.409026081004413 -61.585326726184576 0 0 0 0 23.465834351314697 100.74609231195063 0 100.74609231195063 -106.34454827156151 0 0 0 0 -221.03954345503007 188.64838194285403 0 188.64838194285403 6.2730029981539701 0 0 0 0 -30.255093233608932 23.807042288666707 0 23.807042288666707 40.818571836454794 0 0 0 0 0.33427525014505477 13.064375423150977 0 13.064375423150977 31.863832113155127 0 0 0 0 0.89674839429233089 -1.2626824131141916 0 -1.2626824131141916 -0.41038887464902274 0 0 0 0 -9.5159544955434399 -3.1554459453941064 0 -3.1554459453941064 12.554288699372719 0 0 0 0 -33.492195600985724 227.60883707732046 0 227.60883707732046 -84.119411083687737 0 0 0 0 767.27982815797441 516.77715957339387 0 516.77715957339387 153.43879487689537 0 0 0 0 181.00789507937407 572.77567816797728 0 572.77567816797728 794.17564586248773 0 0 0 0 327.90025815523319 104.40331789478515 0 104.40331789478515 -64.819302628035075 0 0 0 0 5.5542932549487887 0.61065344122384602 0 0.61065344122384602 -2.904400891585297 0 0 0 0 -21.036129149637418 -29.695651178772778 0 -29.695651178772778 248.30801252359379 0 0 0 0 36.215302621712908 -19.511220339511055 0 -19.511220339511055 20.523784320044797 0 0 0 0 -56.240204596455442 74.854045095929905 0 74.854045095929905 -38.764669424628664 0 0 0 0 -39.726998724130681 -6.7169619353189773 0 -6.7169619353189773 40.005625911289826 0 0 0 0 327.67267214475601 347.45292301082083 0 347.45292301082083 135.25522671584622 0 0 0 0 181.84425477955665 541.89577671430743 0 541.89577671430743 853.1859403462513 0 0 0 0 0.35851499844284263 295.45786441803284 0 295.45786441803284 647.1449326649381 0 0 0 0 -0.41017360075784381 406.03312635860493 0 406.03312635860493 1136.1497024714154 0 0 0 0 525.68877457111375 1001.4825172807978 0 1001.4825172807978 1260.8916065087033 0 0 0 0 8.9464674518385436 181.51240644275094 0 181.51240644275094 1816.8475757625274 0 0 0 0 92.627667702334293 200.91372531627985 0 200.91372531627985 700.56557076785975 0 0 0 0 0.031645171635318547 115.01286363138752 0 115.01286363138752 -172.15947616498488 0 0 0 0 -121.47142963242368 219.26407640924117 0 219.26407640924117 -207.64028492340731 0 0 0 0 -3.0855927800002974 63.349582992999785 0 63.349582992999785 -125.67249872535922 0 0 0 0 -19.188141924736556 116.14160747607457 0 116.14160747607457 -104.08992519386447 0 0 0 0 -19.123099551419728 117.22357218459365 0 117.22357218459365 -161.09233825603769 0 0 0 0 -0.059262492854031734 102.59475398183713 0 102.59475398183713 -150.2236603102283 0 0 0 0 2.5276362748409156 80.223293323952021 0 80.223293323952021 -197.4137270788342 0 0 0 0 -0.35544991833631912 -4.8614816684512832 0 -4.8614816684512832 0.2401848575633867 0 0 0 0 51.182840213587042 48.043422781851405 0 48.043422781851405 73.634135375094047 0 0 0 0 0.1730022136007387 69.891942549902225 0 69.891942549902225 72.0516294265326 0 0 0 0 98.146540965943132 144.0177481601022 0 144.0177481601022 126.99290867036723 0 0 0 0 110.88804481475563 12.27313466781743 0 12.27313466781743 1.3791275587500422 0 0 0 0 -12.701667315210216 18.645140816510775 0 18.645140816510775 -3.1751505128850113 0 0 0 0 -13.997454466763884 11.133623898833321 0 11.133623898833321 29.282824887060997 0 0 0 0 1.9221906118327752 -10.390127959144593 0 -10.390127959144593 13.680593845921976 0 0 0 0 -33.913469993683975 6.8589815048399032 0 6.8589815048399032 5.8613755899641546 0 0 0 0 -0.6898095710173493 -2.2686409546687472 0 -2.2686409546687472 -3.2582660538226573 0 0 0 0 -54.119579009879089 28.646848046173545 0 28.646848046173545 -22.29146717785261 0 0 0 0 -14.976441902006627 6.8145333418233349 0 6.8145333418233349 2.0255447382405691 0 0 0 0 6.8752274845028296 16.382810851428076 0 16.382810851428076 -24.530026436172193 0 0 0 0 4.8218295050936177 12.513725521187837 0 12.513725521187837 -12.400870019834841 0 0 0 0 -22.718363147578202 14.213979303160158 0 14.213979303160158 4.1462551398994947 0 0 0 0 -0.18282911690857873 2.436060121970506 0 2.436060121970506 -2.0080454692233349 0 0 0 0 -2.6379387716733618 18.383050166862631 0 18.383050166862631 -14.005782714608358 0 0 0 0 6.5787536965244584 16.193113838933925 0 16.193113838933925 -5.1362911263167916 0 0 0 0 -8.5821099423847045 24.829048876698835 0 24.829048876698835 -20.431017676353804 0 0 0 0 4.4572560688160934 8.9722579109003391 0 8.9722579109003391 2.681965192104883 0 0 0 0 -15.686743020312861 27.215261040022597 0 27.215261040022597 -14.473710204649251 0 0 0 0 11.131972992963028 27.698416570215471 0 27.698416570215471 -18.697601461377076 0 0 0 0 -49.639544386358466 44.567569946011645 0 44.567569946011645 -0.87968276170431636 0 0 0 0 -42.411792311700992 27.457847162535472 0 27.457847162535472 4.0153870841459138 0 0 0 0 -44.228036917455029 21.11113434672734 0 21.11113434672734 19.500079137520515 0 0 0 0 -48.682432260015048 36.132954433414852 0 36.132954433414852 19.201774221088272 0 0 0 0 -34.441904607694596 67.496996801241039 0 67.496996801241039 -53.081417422856248 0 0 0 0 -2.2537880996717377 19.857308959339747 0 19.857308959339747 12.054328264839143 0 0 0 0 -6.9762505662802141 24.752066350283712 0 24.752066350283712 -22.61816360764351 0 0 0 0 -34.746917554846732 54.727303728195693 0 54.727303728195693 -112.28810597652591 0 0 0 0 -1.8396652158768347 12.271421478285866 0 12.271421478285866 -0.95090872059099985 0 0 0 0 1.3266015184436242 10.661803537291746 0 10.661803537291746 -4.3862091548672311 0 0 0 0 -9.2278679833663091 16.737504098364894 0 16.737504098364894 12.975188034342519 0 0 0 0 12.677000592841068 20.721499509068508 0 20.721499509068508 -22.037696125153161 0 0 0 0 5.6188041702192777 8.7055297274400516 0 8.7055297274400516 -12.918447485040723 0 0 0 0 1.6975015000440408 14.830117141394588 0 14.830117141394588 -5.7032539202345562 0 0 0 0 -0.16787040916096885 18.946849787145766 0 18.946849787145766 -20.780264688182797 0 0 0 0 -14.619768537348136 23.833029064375296 0 23.833029064375296 -40.329115215718048 0 0 0 0 2.8059962068873574 15.578187803835135 0 15.578187803835135 -17.62530704272649 0 0 0 0 72.407249048788799 15.26166319665117 0 15.26166319665117 -30.266389083064041 0 0 0 0 8.1823817555850837 22.550811188113585 0 22.550811188113585 -15.726208508091077 0 0 0 0 16.436264689402776 11.233560715185462 0 11.233560715185462 -23.726245058339469 0 0 0 0 4.6036854609885296 11.866753775021891 0 11.866753775021891 -15.960558823878912 0 0 0 0 22.470286871553981 -8.4762415280938512 0 -8.4762415280938512 -42.48475664462967 0 0 0 0 0.82802176552650053 24.526475547911105 0 24.526475547911105 -267.54201266164273 0 0 0 0 -135.59092455226346 55.275336860069729 0 55.275336860069729 -4.3411986488654293 0 0 0 0 -4.1352078150860052 0.082197455675697029 0 0.082197455675697029 -1.5299989729224279 0 0 0 0 2.2274402916146414 1.3357680082777961 0 1.3357680082777961 -25.510524770746926 0 0 0 0 68.577302567282459 35.652916405761971 0 35.652916405761971 -28.619834410372789 0 0 0 0 77.350318031312781 25.910343486055808 0 25.910343486055808 -19.546117056499497 0 0 0 0 11.172690219362266 66.077713087722117 0 66.077713087722117 -27.13525533122387 0 0 0 0 3.2650684065883979 82.768974859470518 0 82.768974859470518 -1.2406572938452882 0 0 0 0 7.9027606382442173 45.50310696935594 0 45.50310696935594 -11.895006058396575 0 0 0 0 -2.3823816769580617 41.002207930477567 0 41.002207930477567 -37.961869219757439 0 0 0 0 8.0450652616855223 46.606496600571063 0 46.606496600571063 -39.9467680576997 0 0 0 0 16.980035118405567 30.930377140066312 0 30.930377140066312 -4.3575609618242162 0 0 0 0 10.453701092192205 43.264320201659757 0 43.264320201659757 -31.020610660500097 0 0 0 0 11.203735386239714 64.621144399755167 0 64.621144399755167 -38.593715201254781 0 0 0 0 47.01666860433761 54.130200069831517 0 54.130200069831517 -13.311708558043392 0 0 0 0 115.55720061672037 44.269323738616094 0 44.269323738616094 -33.849957542577613 0 0 0 0 -3.0146211279680699 38.210981541889026 0 38.210981541889026 -34.971014696190821 0 0 0 0 22.971076927442709 47.95578840980761 0 47.95578840980761 -13.053662555946943 0 0 0 0 -9.115637151960982 47.60211016100402 0 47.60211016100402 -44.291377645251487 0 0 0 0 16.676959105447168 27.03253233626674 0 27.03253233626674 -19.286154179160803 0 0 0 0 9.583106250363187 16.702668687096093 0 16.702668687096093 -17.408908351363891 0 0 0 0 26.236021907709073 60.336909577894403 0 60.336909577894403 -19.540213120690169 0 0 0 0 6.6958209274669116 36.662237513226046 0 36.662237513226046 -6.8589664978105134 0 0 0 0 15.796505673381034 54.331210564268986 0 54.331210564268986 -17.533995991812844 0 0 0 0 16.651286526423064 69.327217177192551 0 69.327217177192551 0.51835636563191656 0 0 0 0 -5.2984837880190412 22.833439246032071 0 22.833439246032071 -17.560869794524976 0 0 0 0 -11.854548871633597 51.388700575946132 0 51.388700575946132 -50.858232029888654 0 0 0 0 -0.28196072491778068 25.393830956091456 0 25.393830956091456 -7.2966829332702288 0 0 0 0 -44.956338070366655 45.248944274444462 0 45.248944274444462 -4.262084288670458 0 0 0 0 -123.50465604703641 -23.451760136733355 0 -23.451760136733355 -109.10038546906981 0 0 0 0 -46.270261309247871 57.486281689876705 0 57.486281689876705 -27.617908559528587 0 0 0 0 -158.77852450712817 131.91660799759848 0 131.91660799759848 -75.957208313331648 0 0 0 0 -48.424283436996632 70.666499598393074 0 70.666499598393074 -54.729516252550411 0 0 0 0 -82.696096322345483 40.471445555211432 0 40.471445555211432 27.178425411061909 0 0 0 0 20.760817427304573 94.826324597437633 0 94.826324597437633 46.611875244817838 0 0 0 0 22.819784558203537 16.39487955878576 0 16.39487955878576 -2.6903766784373602 0 0 0 0 -34.4424344140171 68.486155092543584 0 68.486155092543584 -14.560971704518678 0 0 0 0 33.914546442521953 85.526527037629037 0 85.526527037629037 -81.412337156746261 0 0 0 0 -1.5775654442676341 -0.27916612334192337 0 -0.27916612334192337 2.3681070279545864 0 0 0 0 85.108977995914756 96.039439260954168 0 96.039439260954168 -171.23805485699995 0 0 0 0 103.21599075547419 173.92469886191793 0 173.92469886191793 -83.067984248798894 0 0 0 0 23.204804200155195 61.73655957332187 0 61.73655957332187 -39.86910595469908 0 0 0 0 0.14487666538224175 22.846655280718977 0 22.846655280718977 -5.8726444521078136 0 0 0 0 -17.389361319132149 41.782692120177671 0 41.782692120177671 -22.04256903269561 0 0 0 0 2.0096176167119779 39.405683441602605 0 39.405683441602605 -22.932401170380928 0 0 0 0 -54.837948582530828 57.935967070353485 0 57.935967070353485 -7.3651971404919152 0 0 0 0 19.50143646687502 73.30902552833868 0 73.30902552833868 10.161959188029869 0 0 0 0 12.661573330289684 73.424100817836006 0 73.424100817836006 22.564274754884536 0 0 0 0 27.778123412794855 65.854832922632596 0 65.854832922632596 -50.95384718490957 0 0 0 0 26.339917675718823 56.517949166730801 0 56.517949166730801 -51.940122668468788 0 0 0 0 27.060566498956177 64.302049692079436 0 64.302049692079436 -15.371243448047608 0 0 0 0 21.272081692661004 39.071066254554523 0 39.071066254554523 -30.318684808079333 0 0 0 0 33.141402634093538 56.683309492698754 0 56.683309492698754 -6.4466763872187585 0 0 0 0 37.183912477051422 28.739445088448917 0 28.739445088448917 -4.4544083253499345 0 0 0 0 -45.641924870316871 223.99511747005181 0 223.99511747005181 -73.934255726259977 0 0 0 0 -109.81568135617999 96.564806937387402 0 96.564806937387402 -142.52306840161236 0 0 0 0 28.180527181335492 423.28068157365669 0 423.28068157365669 63.279913165672951 0 0 0 0 -174.88713934225962 139.89009510081041 0 139.89009510081041 342.22594072117863 0 0 0 0 -73.821197380515514 174.85655138123548 0 174.85655138123548 -275.97252178920826 0 0 0 0 -77.673607156146318 36.148336112644756 0 36.148336112644756 -181.49958624093415 0 0 0 0 -46.128539035058225 15.564140318452559 0 15.564140318452559 -7.9729457711736895 0 0 0 0 -114.82310724549461 223.53807858389791 0 223.53807858389791 -190.45712228348566 0 0 0 0 -50.987932165124221 217.17102442165378 0 217.17102442165378 -223.81407356067575 0 0 0 0 -41.308558154731145 220.33442115288017 0 220.33442115288017 -695.90487694083276 0 0 0 0 254.83478990005824 287.1779884253931 0 287.1779884253931 -404.56952849529716 0 0 0 0 -628.32153458688117 -129.21748128701256 0 -129.21748128701256 553.73638432267398 0 0 0 0 -61.782795986218844 27.330746059735702 0 27.330746059735702 -8.3220851570654304 0 0 0 0 3.8336858250549994 -56.780142942191105 0 -56.780142942191105 -564.22222976761941 0 0 0 0 -8.0145524258214209 2.5428383212225185 0 2.5428383212225185 4.3404126409425245 0 0 0 0 8.46598382780968 1.5104622347193981 0 1.5104622347193981 -8.4823501650675688 0 0 0 0 -14.659520252229413 128.70696042491818 0 128.70696042491818 585.28268093030056 0 0 0 0 27.408939498392101 8.6082864901834313 0 8.6082864901834313 -6.8423209716385385 0 0 0 0 -17.850382570267698 27.952468425792219 0 27.952468425792219 -9.8293497742487261 0 0 0 0 125.8096621932782 184.77210650967663 0 184.77210650967663 -278.80009461424379 0 0 0 0 9.832108539660112 48.511049125330828 0 48.511049125330828 -25.652029863976168 0 0 0 0 11.742726000578841 145.07764881109097 0 145.07764881109097 -19.226938764897568 0 0 0 0 247.80577714339597 55.921183172547899 0 55.921183172547899 -30.044618574086826 0 0 0 0 25.201446475491252 28.745075970029461 0 28.745075970029461 5.0088654742201228 0 0 0 0 252.77794104701752 79.578062997126381 0 79.578062997126381 -806.10462827169249 0 0 0 0 -1.474601641530171 737.22615261946521 0 737.22615261946521 -117.42333412487369 0 0 0 0 -107.65568415343296 -125.96379067402449 0 -125.96379067402449 259.49357751282514 0 0 0 0 -8.3831862150965435 5.6531162835565567 0 5.6531162835565567 -19.838860594581092 0 0 0 0 -39.212515163701028 58.102281001032679 0 58.102281001032679 -115.05685192984674 0 0 0 0 -451.17805816512555 -428.69934877930427 0 -428.69934877930427 65.0181809954247 0 0 0 0 -20.940761454286985 56.278506766696864 0 56.278506766696864 -64.556250838006235 0 0 0 0 11.451361996791093 53.023884126077064 0 53.023884126077064 -65.009754671527844 0 0 0 0 16.005446072726045 40.863881294126259 0 40.863881294126259 -141.03351722635136 0 0 0 0 -5.1373415989540376 50.19884409840634 0 50.19884409840634 -4.2803735549469888 0 0 0 0 165.76008897701649 83.557711226106449 0 83.557711226106449 -5.8258019234272069 0 0 0 0 -19.067514549831685 63.882550621846349 0 63.882550621846349 -130.52589274128604 0 0 0 0 0.24956300269082021 59.031156130239168 0 59.031156130239168 -25.615428106594084 0 0 0 0 -47.493541733484875 51.539941622019484 0 51.539941622019484 -38.027268560872557 0 0 0 0 -54.901057386276079 143.43488317068113 0 143.43488317068113 40.760243549582469 0 0 0 0 -19.33325039727788 137.67519019999963 0 137.67519019999963 35.840504344989313 0 0 0 0 -114.09950062843564 304.69655139180759 0 304.69655139180759 37.217615128640318 0 0 0 0 33.402364172972739 409.40182809269754 0 409.40182809269754 49.308619365476261 0 0 0 0 -46.545583708197853 50.762615947376048 0 50.762615947376048 -53.022909474371261 0 0 0 0 312.97389158657461 721.54716447681858 0 721.54716447681858 -230.59705058632971 0 0 0 0 144.01620076832114 -48.24973312463294 0 -48.24973312463294 -337.64221098939015 0 0 0 0 211.04885499899683 -39.534883363630797 0 -39.534883363630797 -1271.5612129707406 0 0 0 0 -827.16966923428117 1066.8308220823565 0 1066.8308220823565 -973.35611097117362 0 0 0 0 287.47415215466481 371.21329709431029 0 371.21329709431029 -752.29492817983555 0 0 0 0 -0.47351186564392833 5.6752345042368688 0 5.6752345042368688 -26.268166651519479 0 0 0 0 2736.7878588143503 -597.67012372060708 0 -597.67012372060708 -1814.1138607530884 0 0 0 0 -1858.5480928693723 425.81122709937335 0 425.81122709937335 5.4030216992323403 0 0 0 0 -183.81871943852457 1452.3807619650815 0 1452.3807619650815 1009.5905554132623 0 0 0 0 24.94693170170649 73.359831411102277 0 73.359831411102277 -113.37288986124349 0 0 0 0 -1215.5151091934931 -365.62616189672099 0 -365.62616189672099 941.85383694743359 0 0 0 0 31.763564723543823 23.4553814180872 0 23.4553814180872 -24.436067274895322 0 0 0 0 -7.3471695642365376 65.865838523905495 0 65.865838523905495 -114.92478313076845 0 0 0 0 -5.1591050966583794 56.289289541839452 0 56.289289541839452 -24.645264622315008 0 0 0 0 1.4309595858551916 3.1235554547121751 0 3.1235554547121751 4.6971377642880618 0 0 0 0 37.694435423708796 48.220598013479304 0 48.220598013479304 -93.074515036396477 0 0 0 0 -10.227626199702144 51.04999242390582 0 51.04999242390582 -69.475107832409563 0 0 0 0 33.968388693785528 94.582361620416577 0 94.582361620416577 -100.96679017149108 0 0 0 0 5.9868787829473149 52.604233190914783 0 52.604233190914783 -62.842753074872235 0 0 0 0 110.90035506220011 -227.05549323940431 0 -227.05549323940431 130.78133457325021 0 0 0 0 -14.188719263285748 53.96986305802784 0 53.96986305802784 -70.837074077766374 0 0 0 0 40.288908327114768 46.464975396484078 0 46.464975396484078 -71.056043960374154 0 0 0 0 5.7477263161364363 32.389739096422062 0 32.389739096422062 -55.551312925965078 0 0 0 0 -21.885861803377111 35.93019909919758 0 35.93019909919758 -23.055497034278382 0 0 0 0 60.421853574633133 63.083213114543923 0 63.083213114543923 -23.044375476167261 0 0 0 0 203.28136719283793 66.66843980162821 0 66.66843980162821 -82.202045007958077 0 0 0 0 28.053363689710011 7.2570234614569245 0 7.2570234614569245 -27.098665241443832 0 0 0 0 25.461985858884873 94.809084165924105 0 94.809084165924105 -50.968763953949747 0 0 0 0 -389.99896980109042 328.7805426703535 0 328.7805426703535 -32.273311165359701 0 0 0 0 -20.432935471297242 -152.30627859111155 0 -152.30627859111155 357.93202492012642 0 0 0 0 0.05394983966466782 0.25372926456833511 0 0.25372926456833511 -8.3346252514179398 0 0 0 0 336.73553293896839 147.79555643038293 0 147.79555643038293 -38.176318288045877 0 0 0 0 -143.11407142267853 237.55854784632447 0 237.55854784632447 -87.503364194399182 0 0 0 0 -91.288749372208258 234.31519765427402 0 234.31519765427402 -191.98472205352073 0 0 0 0 26.122085275059362 343.87861432154205 0 343.87861432154205 -140.76945220278503 0 0 0 0 122.80539307040453 -52.050946420513583 0 -52.050946420513583 127.9760559021779 0 0 0 0 62.031367563060485 -5.6921889630302758 0 -5.6921889630302758 -195.26489099512287 0 0 0 0 2.4463537241849735 7.0902564407336683 0 7.0902564407336683 -21.194900467349516 0 0 0 0 -584.26073768961942 -55.129471406340599 0 -55.129471406340599 424.240910120423 0 0 0 0 872.51807006070158 221.46204201630826 0 221.46204201630826 -1265.0427822934653 0 0 0 0 797.95483761045034 24.041373048023161 0 24.041373048023161 -133.04991572060135 0 0 0 0 34.467526306747459 71.334379282006921 0 71.334379282006921 8.5742939260819639 0 0 0 0 -28.964890177895654 52.825238707305601 0 52.825238707305601 -37.285946491554036 0 0 0 0 2.8131059238558009 57.4974492031225 0 57.4974492031225 -68.807854910352773 0 0 0 0 -18.854307346523569 35.724855407910979 0 35.724855407910979 -57.541226986721718 0 0 0 0 -0.63325843704660656 78.72123919256137 0 78.72123919256137 -18.734343590091157 0 0 0 0 -11.432549548852592 26.963843694944813 0 26.963843694944813 -42.426019170702212 0 0 0 0 1768.1337330597016 1135.6955426349596 0 1135.6955426349596 -1618.2386451722668 0 0 0 0 1435.9387099288288 -271.50166967521727 0 -271.50166967521727 -614.29130391549552 0 0 0 0 3.2748499260285371 -1.9097470102416025 0 -1.9097470102416025 -23.032966370507879 0 0 0 0 -232.69847730554466 -1681.3058240045784 0 -1681.3058240045784 -992.03031182789709 0 0 0 0 -271.920987622354 131.3653066345496 0 131.3653066345496 -27.003717417894222 0 0 0 0 1796.2198919221555 -1911.1096819230156 0 -1911.1096819230156 -1929.0218955637829 0 0 0 0 -18.266451577306725 -413.85479430018495 0 -413.85479430018495 -1619.110914728506 0 0 0 0 64.717077289923509 -28.393533734468861 0 -28.393533734468861 -204.73605147101262 0 0 0 0 53.581251759373117 151.09281876653722 0 151.09281876653722 -128.65449931784246 0 0 0 0 115.48704470491793 40.500299112312405 0 40.500299112312405 -416.2664254517731 0 0 0 0 -26.726820317649981 18.298821125094946 0 18.298821125094946 31.051323661465176 0 0 0 0 21.686445310624549 104.11424893919548 0 104.11424893919548 -179.26485836316897 0 0 0 0 -13.075663406251067 21.810168128014055 0 21.810168128014055 -32.05514670358972 0 0 0 0 75.794513153654407 188.11257234465029 0 188.11257234465029 52.451363400655737 0 0 0 0 54.372650647155751 -8.9730427286811931 0 -8.9730427286811931 1.1008457699882683 0 0 0 0 33.419478927142336 -30.187825115635405 0 -30.187825115635405 -402.22427241429341 0 0 0 0 -0.39325208941590972 106.78775837151125 0 106.78775837151125 -98.874499751275835 0 0 0 0 -0.56565731628785443 -3.6250964449639724 0 -3.6250964449639724 0.3667244328178052 0 0 0 0 0.14723248851078097 106.78307029662938 0 106.78307029662938 34.895669974239354 0 0 0 0 -33.826616044243565 -20.884942712952579 0 -20.884942712952579 350.93089440608753 0 0 0 0 -0.66065723987424008 -3.3939553772048185 0 -3.3939553772048185 1.5425455329621793 0 0 0 0 1.4409805179893738 123.37247463643052 0 123.37247463643052 143.43359524382686 0 0 0 0 -112.68165112828137 42.513370618418776 0 42.513370618418776 452.54140925041042 0 0 0 0 42.513163991679903 50.838827801238949 0 50.838827801238949 -298.75292392878237 0 0 0 0 -101.94842310535387 -25.30127983939974 0 -25.30127983939974 -13.521583899175312 0 0 0 0 13.962217414336919 16.103397156871324 0 16.103397156871324 0.36872182546176191 0 0 0 0 -594.59014853759436 794.50074244023381 0 794.50074244023381 -539.50949335137739 0 0 0 0 -644.51941649566834 365.27993437908458 0 365.27993437908458 -670.70508449540284 0 0 0 0 -494.09034631415852 706.87863847185145 0 706.87863847185145 -424.60045091691791 0 0 0 0 -593.63962634891504 570.08937289659661 0 570.08937289659661 -104.79843530691141 0 0 0 0 -502.04783439936 813.23289784952794 0 813.23289784952794 8.0207561801798875 0 0 0 0 -303.26932596624829 515.07463294022455 0 515.07463294022455 176.18093456265342 0 0 0 0 -357.71166672906838 723.22357777239449 0 723.22357777239449 58.973870378700667 0 0 0 0 -241.7264031538507 939.59384476768173 0 939.59384476768173 268.73024381912455 0 0 0 0 481.55939108406892 552.27881809032988 0 552.27881809032988 317.17628585027705 0 0 0 0 65.015997332884581 547.07476805227907 0 547.07476805227907 334.1446643227755 0 0 0 0 19.040278036729433 1107.0853156809208 0 1107.0853156809208 1063.6326890585042 0 0 0 0 85.929916592067457 639.72748588294871 0 639.72748588294871 -399.28588942244824 0 0 0 0 -147.05752461668453 340.97268461080603 0 340.97268461080603 -465.34278543429627 0 0 0 0 -275.91287237629876 540.6536108871187 0 540.6536108871187 -410.78866971321258 0 0 0 0 -30.470173939116648 465.2809565722273 0 465.2809565722273 -1255.060879565699 0 0 0 0 338.76037663612806 292.42064292447049 0 292.42064292447049 -2626.0902878411125 0 0 0 0 122.16288096857897 771.13581724678806 0 771.13581724678806 -645.71605384655413 0 0 0 0 -583.68480203632498 973.2428484783195 0 973.2428484783195 -1370.7226247539534 0 0 0 0 -515.57091324552312 735.08977773214247 0 735.08977773214247 -1089.8600092777488 0 0 0 0 -751.21568219678011 204.17772523007625 0 204.17772523007625 -1630.1246841499797 0 0 0 0 -534.58701494785782 716.9535257661646 0 716.9535257661646 -1445.2961294322449 0 0 0 0 -628.7926537412277 538.91468103031548 0 538.91468103031548 -714.39790755625654 0 0 0 0 -2.7254919647263876 2.5725299558385899 0 2.5725299558385899 -2.8619609751747745 0 0 0 0 -1073.8765812392085 274.91280128527592 0 274.91280128527592 60.260543500658969 0 0 0 0 -926.72963253440685 853.65627118132943 0 853.65627118132943 -741.76162667135941 0 0 0 0 -420.04777275683227 -147.77166325166581 0 -147.77166325166581 46.680788179051888 0 0 0 0 -616.31029990068055 422.6001728512274 0 422.6001728512274 11.068110380052531 0 0 0 0 -716.26274592301343 347.43652660391672 0 347.43652660391672 -44.988345438552642 0 0 0 0 -561.69570934856893 651.72186739248718 0 651.72186739248718 -660.603309723856 0 0 0 0 -655.66298346249823 543.66937714610049 0 543.66937714610049 -100.55825655107765 0 0 0 0 -330.66000391080161 534.26984189148698 0 534.26984189148698 -20.484538018135936 0 0 0 0 -399.9362458929827 461.89244011677147 0 461.89244011677147 -89.899601776412055 0 0 0 0 -478.18182868375152 352.16552860403499 0 352.16552860403499 258.67925753069721 0 0 0 0 -164.67796061537229 176.81451786887192 0 176.81451786887192 263.64808929571927 0 0 0 0 -151.1662792218558 383.81708583365253 0 383.81708583365253 147.40882827534369 0 0 0 0 -377.60211015024106 441.99167301242778 0 441.99167301242778 208.3432265903175 0 0 0 0 -383.40532071265807 24.529906332499877 0 24.529906332499877 162.5111097915069 0 0 0 0 -341.86415823412244 138.7563110646679 0 138.7563110646679 137.54876311658882 0 0 0 0 -418.84117815014906 222.22834610446989 0 222.22834610446989 382.46020307821163 0 0 0 0 -379.10091351465235 112.70782644752262 0 112.70782644752262 1104.4098686143989 0 0 0 0 -4.9599842599773183 0.99943270729288258 0 0.99943270729288258 -0.23575895056383089 0 0 0 0 72.427284627687186 512.56426854672827 0 512.56426854672827 -1537.8463275490321 0 0 0 0 -482.24459002091317 454.17970746598439 0 454.17970746598439 5.6276674620348786 0 0 0 0 -85.762869619429694 -76.161168699341943 0 -76.161168699341943 448.58549249119824 0 0 0 0 -81.906747984519825 -237.18652647313888 0 -237.18652647313888 47.253115058658295 0 0 0 0 -163.10666096341902 967.14199864901605 0 967.14199864901605 -672.0272185707363 0 0 0 0 319.98702703595336 391.63550537462561 0 391.63550537462561 -762.82699294614577 0 0 0 0 -231.60597143205814 214.18240120505288 0 214.18240120505288 610.13230304817444 0 0 0 0 -21.237707194652046 25.489839932206067 0 25.489839932206067 -55.83785335511962 0 0 0 0 -160.09467483707704 364.74950741733301 0 364.74950741733301 537.22416299915858 0 0 0 0 -170.40011520010739 260.34872300016787 0 260.34872300016787 345.6355519340359 0 0 0 0 -230.35370558509021 406.07222815115529 0 406.07222815115529 353.95752064125554 0 0 0 0 37.369099818606628 289.1729994523339 0 289.1729994523339 303.78784023958724 0 0 0 0 -342.94712645356776 -169.5645237022909 0 -169.5645237022909 -365.17024232389667 0 0 0 0 -71.468635762434303 52.826429706856658 0 52.826429706856658 -3.4028485765618317 0 0 0 0 -387.728116475977 451.2460561475782 0 451.2460561475782 262.88792955390818 0 0 0 0 -85.056098356115399 192.18983682050748 0 192.18983682050748 398.8497828191903 0 0 0 0 -115.71121164539363 151.38468775966612 0 151.38468775966612 440.96222175017465 0 0 0 0 -157.92931514122756 413.93075828012115 0 413.93075828012115 39.485059453276335 0 0 0 0 -96.541106783668511 299.04189587146175 0 299.04189587146175 243.34632392061758 0 0 0 0 -166.12816835433478 221.97144766627025 0 221.97144766627025 478.25450798617385 0 0 0 0 -180.61874179336883 319.89084148720303 0 319.89084148720303 322.41249768990383 0 0 0 0 -105.74340167240007 251.21093308275886 0 251.21093308275886 239.415147177584 0 0 0 0 -145.17939637508243 437.08008978037833 0 437.08008978037833 16.627167158512748 0 0 0 0 -204.20256450102897 357.68632583776343 0 357.68632583776343 289.47750986100982 0 0 0 0 -172.55025428254157 300.45736096982728 0 300.45736096982728 291.57001176191989 0 0 0 0 -225.29129032960918 560.50150705173837 0 560.50150705173837 -41.398938619669934 0 0 0 0 -253.98767250985838 558.72070294556397 0 558.72070294556397 84.98514457685269 0 0 0 0 -178.60545097239083 617.22334961270826 0 617.22334961270826 -216.66043821147468 0 0 0 0 -116.14123312479933 489.14419340601671 0 489.14419340601671 34.644072922048508 0 0 0 0 -404.19693945161998 824.54653373401925 0 824.54653373401925 -139.38963954033534 0 0 0 0 -311.86212853057077 1010.1036596299273 0 1010.1036596299273 216.1855224415558 0 0 0 0 -492.8774356583308 642.22536881387714 0 642.22536881387714 9.0171685618188349 0 0 0 0 -366.56661798444111 755.06619412510554 0 755.06619412510554 -12.005251125998257 0 0 0 0 -0.83486423530536058 4.1685024155483319 0 4.1685024155483319 -3.7148548732066011 0 0 0 0 -54.493538309194264 1702.5409142809895 0 1702.5409142809895 1705.9613193097102 0 0 0 0 -93.573539477809391 782.82825557352589 0 782.82825557352589 433.03581808671879 0 0 0 0 28.619242782093352 1169.8112111980809 0 1169.8112111980809 -725.83803651086055 0 0 0 0 274.08028350811219 1763.1895828164015 0 1763.1895828164015 690.66359466038648 0 0 0 0 -644.4462763124975 -178.79644658636334 0 -178.79644658636334 173.05559138469835 0 0 0 0 -132.0292629483738 352.7607989705466 0 352.7607989705466 -1052.2058134653489 0 0 0 0 -423.33785331930994 -199.94705912429754 0 -199.94705912429754 -3537.6370248403 0 0 0 0 -58.193713030999504 105.08950138650201 0 105.08950138650201 -10.691787475411003 0 0 0 0 63.77723850129405 592.57297247178985 0 592.57297247178985 -267.20370088286734 0 0 0 0 -21.457576397981029 585.98868156232243 0 585.98868156232243 -261.0881859972676 0 0 0 0 329.09788525477052 101.66662444353989 0 101.66662444353989 -148.14538005194163 0 0 0 0 -403.18781882873736 55.379575658163049 0 55.379575658163049 501.66156365457391 0 0 0 0 -600.56669622212939 232.03390366536627 0 232.03390366536627 -163.19874180320608 0 0 0 0 96.280381696968107 426.41794679203895 0 426.41794679203895 -1150.3778362056532 0 0 0 0 -155.67807031946722 -151.85982608677438 0 -151.85982608677438 -535.33707360912103 0 0 0 0 -147.5371831360244 646.06128553605186 0 646.06128553605186 -314.42850050855031 0 0 0 0 -331.46279254014371 447.4260685861932 0 447.4260685861932 -237.86231677079533 0 0 0 0 -364.0481183123411 453.04112044265912 0 453.04112044265912 339.51154159036014 0 0 0 0 -31.587145867868514 114.35437215359735 0 114.35437215359735 -76.517740093668465 0 0 0 0 -35.421107234171359 131.91033188957408 0 131.91033188957408 -1555.1082087986251 0 0 0 0 -1158.7444562031305 574.62191379950673 0 574.62191379950673 -898.29873110232438 0 0 0 0 -1088.2891681399778 705.82640898354111 0 705.82640898354111 -787.60102911407012 0 0 0 0 -1901.4882005028194 1118.4666753248675 0 1118.4666753248675 -1194.7969988522527 0 0 0 0 -2892.5267208705191 1203.4751902765929 0 1203.4751902765929 -1013.5429810244714 0 0 0 0 -680.91871299179911 -1096.0102664101278 0 -1096.0102664101278 -1973.544540587638 0 0 0 0 -3908.6103168397822 -3064.3998578292531 0 -3064.3998578292531 -1672.5663801266055 0 0 0 0 -32.803525769981484 99.071066230090679 0 99.071066230090679 -67.120177785082348 0 0 0 0 -986.6567069638113 1373.8949101536609 0 1373.8949101536609 -458.93500012761615 0 0 0 0 1641.2216991220776 718.60461017623038 0 718.60461017623038 -2305.9097228661485 0 0 0 0 -1343.4740922432684 1147.2052753070939 0 1147.2052753070939 1149.2895852625311 0 0 0 0 -2877.6072033047967 1527.580156852187 0 1527.580156852187 194.60277173638042 0 0 0 0 -1429.6531380860906 1522.5710387978118 0 1522.5710387978118 -192.60110260544752 0 0 0 0 -24.019213516994455 16.090847830523032 0 16.090847830523032 -15.918735606334181 0 0 0 0 2485.2233278538333 -1619.3721912551046 0 -1619.3721912551046 -3921.52129513201 0 0 0 0 -4119.3668985210388 2266.8413875091028 0 2266.8413875091028 1369.9909827415995 0 0 0 0 -463.99598771438468 435.27964764572971 0 435.27964764572971 530.32148224624598 0 0 0 0 -32.429164697008673 760.46207830117783 0 760.46207830117783 1913.8775642211258 0 0 0 0 -388.9579501558328 373.17998303511922 0 373.17998303511922 374.86690977945545 0 0 0 0 -42.948937176134507 3.3578894127779648 0 3.3578894127779648 1.351747112849877 0 0 0 0 -69.660124993009958 260.04555489740778 0 260.04555489740778 -734.70487498278271 0 0 0 0 -114.79950150992227 353.47531734627819 0 353.47531734627819 -858.10157629960304 0 0 0 0 -170.55578519529081 217.61043088630868 0 217.61043088630868 -740.75668704768395 0 0 0 0 -691.36832169021363 1332.6070101070491 0 1332.6070101070491 -2610.4928125373262 0 0 0 0 -19.562039573869981 -4.3332088610787416 0 -4.3332088610787416 -0.81366393541282545 0 0 0 0 -273.24840898008551 709.65427704093599 0 709.65427704093599 -2226.5505529938637 0 0 0 0 -170.70052550592209 207.2842129103 0 207.2842129103 -1289.0115159246634 0 0 0 0 -862.75006058765575 795.7309339291678 0 795.7309339291678 -905.30923556087509 0 0 0 0 -1353.4870366457762 1020.7838033047155 0 1020.7838033047155 -950.52702677633351 0 0 0 0 -3541.6749954627012 10.273552986207505 0 10.273552986207505 1876.9070978359277 0 0 0 0 422.83059328782838 -988.1059588499138 0 -988.1059588499138 -92.712448903779659 0 0 0 0 1064.5721153232735 -1087.2895627286871 0 -1087.2895627286871 -78.364349095530997 0 0 0 0 199.2352152869571 629.3144390491143 0 629.3144390491143 1123.3417216367195 0 0 0 0 946.55725328161498 229.81715139850576 0 229.81715139850576 -652.61807729654174 0 0 0 0 1620.3319282665761 -179.40785427986066 0 -179.40785427986066 -306.46441420224801 0 0 0 0 278.38406019558897 -3.605009071456152 0 -3.605009071456152 -329.28323992169953 0 0 0 0 -135.48427366706892 208.8994971564548 0 208.8994971564548 135.66894614665807 0 0 0 0 92.593971842492465 349.60831271784355 0 349.60831271784355 -608.8830609741608 0 0 0 0 -37.994096166342388 495.45275002368788 0 495.45275002368788 -188.33170409465703 0 0 0 0 -185.65546290151542 -303.37366796404694 0 -303.37366796404694 -129.7095552402219 0 0 0 0 -30.864345145111429 9.1592009956198126 0 9.1592009956198126 -10.031608572795275 0 0 0 0 -581.42847655696096 -520.82611336954346 0 -520.82611336954346 -50.513419035873085 0 0 0 0 -827.39639336596883 -79.907977820953221 0 -79.907977820953221 -112.06047777423032 0 0 0 0 -10.251802177572202 15.079633313588118 0 15.079633313588118 -25.071448803899376 0 0 0 0 -397.54605649103178 -99.615700889224172 0 -99.615700889224172 -227.44346670885068 0 0 0 0 389.62440684036119 9.4530433575764619 0 9.4530433575764619 -235.85305376940778 0 0 0 0 -4.4338835898524849 13.313972988116802 0 13.313972988116802 -86.12117082540226 0 0 0 0 -132.31323515396798 66.160629678573059 0 66.160629678573059 73.23007395712375 0 0 0 0 -14.553467118402864 0.10787908613721697 0 0.10787908613721697 3.2136239406503044 0 0 0 0 130.83798275489244 -49.766673116397669 0 -49.766673116397669 -674.78018438421532 0 0 0 0 -441.03964020984131 -689.17900516245572 0 -689.17900516245572 -170.9907189082619 0 0 0 0 16.893609804450534 420.48093785697893 0 420.48093785697893 -523.54841129539818 0 0 0 0 744.37517682008911 655.86709944375252 0 655.86709944375252 -604.18476900828819 0 0 0 0 546.36003981778049 462.16407626003274 0 462.16407626003274 497.92591428571177 0 0 0 0 441.6404467238026 662.05842075134206 0 662.05842075134206 234.96900784730678 0 0 0 0 617.6648046488408 502.5292195417278 0 502.5292195417278 -515.06160023650591 0 0 0 0 988.38297822421009 542.93037299668867 0 542.93037299668867 257.4259743149014 0 0 0 0 456.13718859554501 271.39403089487678 0 271.39403089487678 1323.1853563657605 0 0 0 0 27.212677330381098 9.1330700419379838 0 9.1330700419379838 -19.625797747756305 0 0 0 0 628.73039340109972 959.70181120074085 0 959.70181120074085 682.67657628167217 0 0 0 0 -1904.0333767812845 87.254406508565353 0 87.254406508565353 -213.48405340223326 0 0 0 0 -4016.0595550341823 435.1975605895459 0 435.1975605895459 1383.7406174495754 0 0 0 0 -62.577805133195 53.405293710509767 0 53.405293710509767 -30.810189809718189 0 0 0 0 -10.733133288919149 11.55737050148656 0 11.55737050148656 -4.9722375669749539 0 0 0 0 1107.7615397326008 389.91596563234452 0 389.91596563234452 -690.63977969526604 0 0 0 0 -14.366506306351738 28.403159714576958 0 28.403159714576958 -26.224053834203339 0 0 0 0 -47.67302431067219 42.578869622281672 0 42.578869622281672 -52.78534044114167 0 0 0 0 -988.56875357971876 1155.1497023854763 0 1155.1497023854763 -836.31505608482894 0 0 0 0 -946.41640907088004 789.91262622808335 0 789.91262622808335 -1667.0082637629439 0 0 0 0 583.40244852742762 467.37134650290318 0 467.37134650290318 -1194.1693124714075 0 0 0 0 -25.117518496263074 374.49508841953138 0 374.49508841953138 -1161.5809243643871 0 0 0 0 800.33531629285426 1072.2284628442121 0 1072.2284628442121 -1296.5786122076115 0 0 0 0 287.48240222097957 595.24596405637567 0 595.24596405637567 -609.42475227703358 0 0 0 0 -57.396024820900493 24.896815885671685 0 24.896815885671685 11.641248160962277 0 0 0 0 -73.335441282470128 585.30220900610402 0 585.30220900610402 -639.83551944254577 0 0 0 0 -30.457191766124424 14.936447546253321 0 14.936447546253321 -2.889812904472528 0 0 0 0 -25.85243580918177 10.849590041138072 0 10.849590041138072 15.002072822951732 0 0 0 0 -72.656356222043541 37.772311542855732 0 37.772311542855732 8.3982634424282878 0 0 0 0 -43.586984681765017 23.633070779125944 0 23.633070779125944 5.2529535297462644 0 0 0 0 -18.483668159956054 14.489965893056819 0 14.489965893056819 20.944448686673795 0 0 0 0 -69.746119840516258 29.642917787575616 0 29.642917787575616 2.497228003703496 0 0 0 0 -157.15490515253623 44.809941327115666 0 44.809941327115666 153.00369004205641 0 0 0 0 14.164957850589417 -61.021712175150242 0 -61.021712175150242 -9.3734833446505945 0 0 0 0 -58.502627472804818 14.225085833983048 0 14.225085833983048 3.1386115292695891 0 0 0 0 -162.0379120058933 42.589422706540063 0 42.589422706540063 101.44089549289856 0 0 0 0 28.438248542719521 62.943868757960445 0 62.943868757960445 35.329076864210947 0 0 0 0 1.7543661483103961 4.2175119039130493 0 4.2175119039130493 -4.5262146049204972 0 0 0 0 72.205120620899834 74.521063318848974 0 74.521063318848974 -60.868618466642147 0 0 0 0 -381.32689981994918 121.57932002467351 0 121.57932002467351 803.81995514610753 0 0 0 0 -489.3089411023193 410.35251452979702 0 410.35251452979702 280.6310216949496 0 0 0 0 215.77950599192991 26.189349456177297 0 26.189349456177297 48.264226112551114 0 0 0 0 -50.339768663503548 30.260048980520338 0 30.260048980520338 -6.061600222311796 0 0 0 0 -71.692154759280299 27.613698782938542 0 27.613698782938542 -4.5735125387605144 0 0 0 0 -161.10152200811717 39.386103812260444 0 39.386103812260444 30.663299540357912 0 0 0 0 -64.778377500915667 36.612036221486051 0 36.612036221486051 3.3596322230282567 0 0 0 0 -11.631413907703518 0.57152622701428868 0 0.57152622701428868 9.2747110086295272 0 0 0 0 228.74372952687554 353.11972123527084 0 353.11972123527084 -167.25361849625642 0 0 0 0 5.7465475248204143 38.829710831786116 0 38.829710831786116 21.006266829795862 0 0 0 0 -140.7034145281068 175.3537336762347 0 175.3537336762347 -14.621623334604465 0 0 0 0 -169.90804525857675 -35.913542445774965 0 -35.913542445774965 9.9230905885706306 0 0 0 0 -71.151624557533069 43.471725998620968 0 43.471725998620968 22.908096796461905 0 0 0 0 -70.787349656348795 35.40206719699593 0 35.40206719699593 2.2419746713839377 0 0 0 0 -47.778335409850115 66.60053871920536 0 66.60053871920536 -62.087774367203565 0 0 0 0 -49.741757969575701 22.961197064203589 0 22.961197064203589 10.279482283338439 0 0 0 0 -33.46688549683256 64.066923117516197 0 64.066923117516197 -6.6532564441599362 0 0 0 0 -43.556367894543541 59.148696374673904 0 59.148696374673904 1.3782600360976787 0 0 0 0 -26.701727115898393 41.921680753279361 0 41.921680753279361 24.496923425496789 0 0 0 0 -63.273890037945762 77.749294345001189 0 77.749294345001189 -35.272550919365926 0 0 0 0 -66.001950322684934 111.01286517377139 0 111.01286517377139 66.523638116828806 0 0 0 0 -54.819895889264558 130.52499658415582 0 130.52499658415582 76.327387752840878 0 0 0 0 -131.480621411436 104.18101139688952 0 104.18101139688952 98.284803039685357 0 0 0 0 -51.185220586634387 -49.53128809390455 0 -49.53128809390455 362.94423078039836 0 0 0 0 -101.87624198598496 -71.719124108869437 0 -71.719124108869437 605.18401373902452 0 0 0 0 -194.13621665854589 89.005855687610165 0 89.005855687610165 325.30345132376533 0 0 0 0 -120.03246625891188 214.97977873265336 0 214.97977873265336 345.86279762072081 0 0 0 0 175.2803897732374 218.36093749179781 0 218.36093749179781 105.4217424920862 0 0 0 0 1.0008981213835852 2.3474702169324644 0 2.3474702169324644 7.675375610264993 0 0 0 0 342.51764052757062 273.84459670015349 0 273.84459670015349 70.311240969764185 0 0 0 0 95.970141329496983 164.88402605285046 0 164.88402605285046 162.87845429660956 0 0 0 0 122.37473213923658 83.433592100764145 0 83.433592100764145 -78.014910883233824 0 0 0 0 -541.9925539502874 591.59489312145161 0 591.59489312145161 -39.52395035167865 0 0 0 0 -267.03910351562081 62.221070682157006 0 62.221070682157006 182.33488696657878 0 0 0 0 329.32714377413504 -176.20575753359844 0 -176.20575753359844 -36.78663026067079 0 0 0 0 -111.0345001523674 152.74970684799337 0 152.74970684799337 -320.30494597431607 0 0 0 0 -1529.1781687302282 -706.77023148699664 0 -706.77023148699664 979.85317615071835 0 0 0 0 16.191656588846399 21.717748015805682 0 21.717748015805682 30.37896990832138 0 0 0 0 -49.571046773442504 -44.079368857414011 0 -44.079368857414011 374.57088453870529 0 0 0 0 74.884613580754376 -116.2279411280324 0 -116.2279411280324 342.42428464222758 0 0 0 0 448.91164821799612 -464.27272097005334 0 -464.27272097005334 582.60720934086567 0 0 0 0 788.82660218252568 525.05082466162639 0 525.05082466162639 67.729563893197337 0 0 0 0 197.82840873250825 204.3759467435957 0 204.3759467435957 58.194054520063219 0 0 0 0 1306.0428393907205 559.91943844914204 0 559.91943844914204 -913.70411227984005 0 0 0 0 620.63025671434116 1036.9637365199173 0 1036.9637365199173 626.39296230213586 0 0 0 0 28.112179057032336 541.89713003410725 0 541.89713003410725 545.9881687509187 0 0 0 0 83.748585766894394 620.79353013805667 0 620.79353013805667 428.61989489939333 0 0 0 0 126.66422892600531 413.15657656823896 0 413.15657656823896 326.71106476421846 0 0 0 0 127.97190958068313 398.89366136291142 0 398.89366136291142 475.69880587793159 0 0 0 0 443.81923150371586 555.36882154924388 0 555.36882154924388 272.53735345821042 0 0 0 0 96.035256687464425 360.08958985376012 0 360.08958985376012 256.69391372663404 0 0 0 0 249.42957578394271 281.18652269315317 0 281.18652269315317 181.32881200370321 0 0 0 0 -24.270499985679635 47.018871598709666 0 47.018871598709666 119.48021725819672 0 0 0 0 22.58410227396962 221.0003724193848 0 221.0003724193848 416.54790228709317 0 0 0 0 69.466980504323146 315.71613342461933 0 315.71613342461933 539.22473007548979 0 0 0 0 -42.803590427290885 10.765576916639198 0 10.765576916639198 -1.4847796278741505 0 0 0 0 143.59377968223998 310.45456920906145 0 310.45456920906145 469.10679716114828 0 0 0 0 220.97150344950205 390.48948988899065 0 390.48948988899065 -1881.1401937792343 0 0 0 0 -580.14738440558722 279.94377507439094 0 279.94377507439094 -102.27732965689574 0 0 0 0 -40.56363220406638 -12.243709511329143 0 -12.243709511329143 -12.696842942466901 0 0 0 0 -9.9015987555067113 4.2140836770012378 0 4.2140836770012378 -2.4575768761673089 0 0 0 0 -1352.4790204716192 1298.3124887996228 0 1298.3124887996228 -1891.3157985756116 0 0 0 0 -1606.8005526214074 705.8894985244865 0 705.8894985244865 -795.51505838884623 0 0 0 0 -17.424576652868211 4.6430629229226952 0 4.6430629229226952 -1.220640982870429 0 0 0 0 -803.68819584872108 804.219009296492 0 804.219009296492 -1448.4449867059348 0 0 0 0 50.254872383680777 796.83270328538129 0 796.83270328538129 -2302.9657032347059 0 0 0 0 -371.24586444119632 1110.4597909285058 0 1110.4597909285058 -2536.2906090307442 0 0 0 0 -658.39881811841042 64.805379446250299 0 64.805379446250299 1162.8342745228542 0 0 0 0 102.31679572204121 70.317305713251471 0 70.317305713251471 718.46275812887325 0 0 0 0 -1365.0993921516201 496.02192763008497 0 496.02192763008497 963.21748757182286 0 0 0 0 -1044.6242714110704 428.34733121346289 0 428.34733121346289 972.56809221059666 0 0 0 0 -431.52749305251928 273.98408194644435 0 273.98408194644435 827.37497096348125 0 0 0 0 -623.71133497740084 755.33993245936927 0 755.33993245936927 696.93403776276136 0 0 0 0 -23.965844417180051 419.76907583256434 0 419.76907583256434 541.95928923689644 0 0 0 0 -413.08161288507108 228.35854141270465 0 228.35854141270465 670.81043577244418 0 0 0 0 -492.37102287217567 732.70755622998877 0 732.70755622998877 665.29489126889166 0 0 0 0 -525.44703666864643 553.01545895788649 0 553.01545895788649 972.27847024584844 0 0 0 0 -455.28769233841012 631.47428545187176 0 631.47428545187176 -138.13253421813261 0 0 0 0 0.50483263914043164 5.087615501727214 0 5.087615501727214 7.9251347656801272 0 0 0 0 -915.86064450404228 121.05349264905908 0 121.05349264905908 648.26662888001738 0 0 0 0 -317.77988191481563 -14.912252722759149 0 -14.912252722759149 -27.578103299200848 0 0 0 0 -461.86191415211943 541.25279821517506 0 541.25279821517506 894.98022997646149 0 0 0 0 -19.91384771958716 2.7365749509596924 0 2.7365749509596924 2.6813453355272685 0 0 0 0 237.09989312442849 220.12482488299293 0 220.12482488299293 57.49976109432464 0 0 0 0 -499.24889067118602 -30.621331041484723 0 -30.621331041484723 -28.30807503539836 0 0 0 0 235.75647185657726 211.31542089988034 0 211.31542089988034 45.481838329931634 0 0 0 0 -50.879599073560335 120.05183254079924 0 120.05183254079924 21.917708591817814 0 0 0 0 -554.321808884662 37.550244951866546 0 37.550244951866546 59.246486199757783 0 0 0 0 462.46806413562445 317.02644587407849 0 317.02644587407849 81.836935398430796 0 0 0 0 360.62709678951069 190.09463055563901 0 190.09463055563901 157.05941090884153 0 0 0 0 -105.46364966317196 291.26049100149976 0 291.26049100149976 264.72884222655921 0 0 0 0 51.287171200965531 -25.204140807029034 0 -25.204140807029034 55.21683801884808 0 0 0 0 -174.07495381969784 233.67776519771905 0 233.67776519771905 371.05526311127323 0 0 0 0 -109.25962235263432 280.38774866482345 0 280.38774866482345 392.08163120247809 0 0 0 0 -410.25949309281714 403.17217541633181 0 403.17217541633181 414.90067496284246 0 0 0 0 -83.992174774190062 564.77557741693818 0 564.77557741693818 162.90772919326264 0 0 0 0 25.068023733176233 391.42191852398355 0 391.42191852398355 341.85922811282217 0 0 0 0 211.57317084632814 500.43069122426459 0 500.43069122426459 280.13162829834619 0 0 0 0 224.39564692832209 432.19949107980483 0 432.19949107980483 199.94156585331621 0 0 0 0 299.62806266103507 431.04267395562056 0 431.04267395562056 43.840680268094729 0 0 0 0 -65.409016039886581 116.0413468270945 0 116.0413468270945 27.036540708748404 0 0 0 0 230.66352113419271 307.09691744501106 0 307.09691744501106 160.82946037941292 0 0 0 0 68.09200479023275 482.26860849295917 0 482.26860849295917 47.521024120027505 0 0 0 0 152.34967666119337 419.49770240241924 0 419.49770240241924 93.4730691153527 0 0 0 0 315.87425615605025 387.80938438564772 0 387.80938438564772 -291.05303903008826 0 0 0 0 363.66933201848587 244.02997594555063 0 244.02997594555063 89.138938878695626 0 0 0 0 -171.17747358650377 604.14275869936682 0 604.14275869936682 329.85352427964972 0 0 0 0 -1339.1595077661902 1556.5308441517966 0 1556.5308441517966 -273.62253804391366 0 0 0 0 67.530847477377392 468.53279694036792 0 468.53279694036792 -284.98028792650803 0 0 0 0 -462.62251496613317 1087.2208642067599 0 1087.2208642067599 362.96583454070606 0 0 0 0 -133.35375854292943 656.43645126092633 0 656.43645126092633 -460.4732764291366 0 0 0 0 -195.14573919767281 374.24680515809632 0 374.24680515809632 -1411.7090458134244 0 0 0 0 -10.619610268971883 195.07263464368043 0 195.07263464368043 -1075.5955850635137 0 0 0 0 -147.72560769898337 -159.71877426338824 0 -159.71877426338824 -201.78250108538487 0 0 0 0 -4.7450429200371786 4.7394867982455224 0 4.7394867982455224 -6.2784991612516379 0 0 0 0 19.950097064051079 29.608893428203373 0 29.608893428203373 43.167351138621598 0 0 0 0 -2.8012666002177866 10.421326032697834 0 10.421326032697834 -9.3348929135709113 0 0 0 0 -70.306279906930286 25.372570800549511 0 25.372570800549511 -12.41470285757714 0 0 0 0 12.771577368643193 -77.620156571730149 0 -77.620156571730149 -126.31290402297964 0 0 0 0 163.79586776928045 10.561675308585109 0 10.561675308585109 -813.72401474257731 0 0 0 0 184.84866220055119 151.54526379910112 0 151.54526379910112 -274.48039125316063 0 0 0 0 204.04570510929625 93.035037638357608 0 93.035037638357608 -100.58172043592458 0 0 0 0 334.29633837763322 146.70004855042407 0 146.70004855042407 107.84754073613658 0 0 0 0 339.8606762794152 169.55240506151176 0 169.55240506151176 -119.48462448894497 0 0 0 0 167.71333709621103 24.125728227767468 0 24.125728227767468 -0.80232649043318816 0 0 0 0 337.53591234587657 67.69316756612352 0 67.69316756612352 -21.584369857046113 0 0 0 0 159.83178725204198 40.761225980890231 0 40.761225980890231 -35.804563078658248 0 0 0 0 44.889716864883667 -13.357316910813097 0 -13.357316910813097 -3.8431261277382873 0 0 0 0 17.769224049609875 -7.1154172112496781 0 -7.1154172112496781 1.9707950626652746 0 0 0 0 23.908301381132333 49.832374177962265 0 49.832374177962265 -16.198385874539781 0 0 0 0 195.71919434927986 45.292349262152129 0 45.292349262152129 -23.708820374562492 0 0 0 0 200.93577698851732 28.742512113919474 0 28.742512113919474 27.862969758138206 0 0 0 0 237.86667284506257 13.823980123685942 0 13.823980123685942 -132.58393034314577 0 0 0 0 165.65416274400195 7.7439906811487162 0 7.7439906811487162 16.223330317934597 0 0 0 0 109.30044090878539 32.144140013167558 0 32.144140013167558 -5.3546618889943636 0 0 0 0 84.241363449138589 -69.271103221250087 0 -69.271103221250087 6.3023970231588464 0 0 0 0 6.3922350846765994 1.1102200068824288 0 1.1102200068824288 -8.6515889711497636 0 0 0 0 96.058422822795251 43.517286363247848 0 43.517286363247848 -58.884632275051658 0 0 0 0 -22.37966870731907 69.027397155441577 0 69.027397155441577 79.566904899198562 0 0 0 0 50.821092834230512 -7.206468155462062 0 -7.206468155462062 -80.803291696065571 0 0 0 0 83.796299886091958 65.033708798966316 0 65.033708798966316 17.878294079281723 0 0 0 0 33.947707876056654 48.067238780883791 0 48.067238780883791 26.390515796834027 0 0 0 0 30.502839702360177 28.060624046768027 0 28.060624046768027 -0.85448494369130756 0 0 0 0 17.531830919062486 33.075699402887039 0 33.075699402887039 -6.3165124186380126 0 0 0 0 220.96234023789293 71.785209810932429 0 71.785209810932429 -17.477880853330134 0 0 0 0 70.02870972600067 60.525485828020464 0 60.525485828020464 21.371508621568864 0 0 0 0 20.316012478595425 23.516396924872708 0 23.516396924872708 14.329064265881676 0 0 0 0 1.3522897752872609 9.8699868674681852 0 9.8699868674681852 -2.3009859585940973 0 0 0 0 295.71837247267831 209.29223716871638 0 209.29223716871638 30.661805546202231 0 0 0 0 251.9624663535069 41.638155417999769 0 41.638155417999769 78.594556998483313 0 0 0 0 101.40936633042293 119.59123978132993 0 119.59123978132993 90.933937547029927 0 0 0 0 161.7268935906468 24.194779469355126 0 24.194779469355126 -55.04211652712911 0 0 0 0 -1.8571129468536469 15.858995570412517 0 15.858995570412517 16.430335058670551 0 0 0 0 4.7360524434947706 7.9216200475297001 0 7.9216200475297001 3.4812839632954251 0 0 0 0 230.98939933788733 319.6167997090422 0 319.6167997090422 -111.329997374909 0 0 0 0 172.19497595408757 74.563246755576984 0 74.563246755576984 102.69617855036631 0 0 0 0 92.139059229928534 39.96204604102968 0 39.96204604102968 93.653303641571256 0 0 0 0 234.53662668945617 11.070061124235508 0 11.070061124235508 33.759686399323982 0 0 0 0 79.079656503512524 -57.128636905281382 0 -57.128636905281382 -327.57712472378626 0 0 0 0 198.10958981188014 -2.5175976770406123 0 -2.5175976770406123 37.899554095245549 0 0 0 0 84.257026059996861 162.80193949181194 0 162.80193949181194 72.209304987925861 0 0 0 0 36.142391403147485 305.78759242413435 0 305.78759242413435 189.7692714986506 0 0 0 0 95.399445129121887 146.23626938962298 0 146.23626938962298 10.403105456767662 0 0 0 0 -67.163351103728928 127.52269034600613 0 127.52269034600613 88.811984002466488 0 0 0 0 -105.19729870220181 154.32582194576389 0 154.32582194576389 216.56936142686754 0 0 0 0 4.3940129243419506 18.758068243989328 0 18.758068243989328 -1.5072555599144835 0 0 0 0 108.3600085634389 -88.815684044000591 0 -88.815684044000591 432.79210102547586 0 0 0 0 318.14444254639966 179.62993128917878 0 179.62993128917878 14.047652883120463 0 0 0 0 11.144781398204259 8.5684154868936488 0 8.5684154868936488 6.9738296089365903 0 0 0 0 1392.4432900069369 -355.43650980263192 0 -355.43650980263192 -64.809740704513388 0 0 0 0 -209.75715885790851 363.51370327857103 0 363.51370327857103 475.67387790232078 0 0 0 0 -104.9317799254477 262.04927010702863 0 262.04927010702863 -280.55626379489331 0 0 0 0 21.337772410686739 859.59949959772621 0 859.59949959772621 -198.49531338862289 0 0 0 0 307.90568015790996 598.37435812147169 0 598.37435812147169 -249.07161707504019 0 0 0 0 -10.361742335245395 25.705110104137184 0 25.705110104137184 16.399868276601413 0 0 0 0 -78.271705142062274 976.18356380340174 0 976.18356380340174 477.28314095906251 0 0 0 0 1570.8186867027543 887.88634761985031 0 887.88634761985031 -440.55087625662236 0 0 0 0 789.81396529776976 51.129497972595345 0 51.129497972595345 -1981.8540699821492 0 0 0 0 48.958800592954503 -1555.977596558685 0 -1555.977596558685 -570.79848611090711 0 0 0 0 -608.4256006670912 -1635.1250493284115 0 -1635.1250493284115 968.66488183528418 0 0 0 0 -277.40242919552838 -1796.1916660589704 0 -1796.1916660589704 195.84620522236946 0 0 0 0 -413.28423193629715 1843.7448138652671 0 1843.7448138652671 1023.4487624938629 0 0 0 0 285.34692491902388 176.7240849762602 0 176.7240849762602 -55.15946551580646 0 0 0 0 177.10669537232025 148.46313741889389 0 148.46313741889389 14.240082562195312 0 0 0 0 177.189907459544 54.436660529493381 0 54.436660529493381 0.28813884046718563 0 0 0 0 357.71015911365976 742.60488672849715 0 742.60488672849715 -965.53183455630506 0 0 0 0 284.17122882432886 73.911181321822369 0 73.911181321822369 54.354649546698056 0 0 0 0 1352.48719997648 399.49720202767548 0 399.49720202767548 -312.11211774706135 0 0 0 0 347.32604243865353 144.37018529710076 0 144.37018529710076 -45.146452212371514 0 0 0 0 -44.513266266734149 106.28706310407449 0 106.28706310407449 48.493267025494504 0 0 0 0 -917.77615505146969 77.0567299003269 0 77.0567299003269 1506.4573935090521 0 0 0 0 623.21153780628083 606.29894858163425 0 606.29894858163425 -257.5434160360237 0 0 0 0 148.12130150213306 405.93437811330887 0 405.93437811330887 -28.905998302423541 0 0 0 0 -63.02191760881049 110.89924683678203 0 110.89924683678203 43.567577585258093 0 0 0 0 270.72642391488625 148.82590833228687 0 148.82590833228687 104.28553306465255 0 0 0 0 534.49639764091989 203.43748352479633 0 203.43748352479633 -19.13386579652979 0 0 0 0 369.52438667367824 236.18769755483754 0 236.18769755483754 55.251093505669814 0 0 0 0 403.53728015776505 219.76708178104218 0 219.76708178104218 -24.079783621082242 0 0 0 0 292.02719616962713 86.011164284070219 0 86.011164284070219 -71.743975952950223 0 0 0 0 268.3112189356907 103.75779134876029 0 103.75779134876029 -63.02588049663791 0 0 0 0 726.7952221090236 -103.37083345694282 0 -103.37083345694282 -77.050239670261362 0 0 0 0 269.66681156137577 46.736035532145067 0 46.736035532145067 -64.381579614417205 0 0 0 0 32.774963493114413 23.575716920131129 0 23.575716920131129 18.889305969067966 0 0 0 0 64.783284914628894 46.960226237643838 0 46.960226237643838 -30.007743592780571 0 0 0 0 236.64327503454842 124.93334054366551 0 124.93334054366551 -17.776178535244981 0 0 0 0 114.1525377078724 91.888324799369457 0 91.888324799369457 10.56659683768703 0 0 0 0 240.21922242578148 119.33408755323399 0 119.33408755323399 1.8842192533575144 0 0 0 0 223.29723427681893 160.51125069363115 0 160.51125069363115 25.853937195330218 0 0 0 0 258.26656453771375 182.33409738156274 0 182.33409738156274 13.129782773019542 0 0 0 0 225.0805881447086 155.33665029936492 0 155.33665029936492 25.736127656358804 0 0 0 0 42.926851998039638 115.42714996620634 0 115.42714996620634 45.388680049643881 0 0 0 0 111.806683224484 117.42168248026974 0 117.42168248026974 23.260838607966434 0 0 0 0 109.74737961923529 121.10960295659606 0 121.10960295659606 24.532713466816858 0 0 0 0 372.76707065919254 220.14360321532604 0 220.14360321532604 11.752474265520505 0 0 0 0 -61.334173614516772 114.16013827637549 0 114.16013827637549 33.427044619558998 0 0 0 0 594.16347054687503 347.52910529413202 0 347.52910529413202 -71.128562213829355 0 0 0 0 345.84293776044797 155.46372458724909 0 155.46372458724909 -22.065428687365966 0 0 0 0 307.50865806269576 175.10218741395511 0 175.10218741395511 30.189001345937868 0 0 0 0 347.03058883206711 200.64183805394248 0 200.64183805394248 44.715175001914758 0 0 0 0 317.7471243168693 156.79069279262694 0 156.79069279262694 51.650506563310046 0 0 0 0 303.88826966650959 172.86635280879727 0 172.86635280879727 60.769628879803349 0 0 0 0 266.38696727178467 200.45302875544439 0 200.45302875544439 40.965435342757701 0 0 0 0 282.04436102846375 156.26818679446296 0 156.26818679446296 124.76240894372313 0 0 0 0 345.74918448044991 112.8081900447105 0 112.8081900447105 102.64168165436786 0 0 0 0 391.18685778469444 176.13424642642076 0 176.13424642642076 18.809315446200344 0 0 0 0 292.62904941004672 272.63533013696542 0 272.63533013696542 49.205651312724513 0 0 0 0 261.68989693719777 185.12780849606133 0 185.12780849606133 156.17857017803544 0 0 0 0 392.09681046852347 158.8691037830431 0 158.8691037830431 -69.74455304712319 0 0 0 0 246.84711614426851 224.7710344360321 0 224.7710344360321 70.484417400395614 0 0 0 0 251.50853318850568 217.57887017455869 0 217.57887017455869 33.316210630315254 0 0 0 0 251.003057738184 216.31612737686373 0 216.31612737686373 31.316910636283581 0 0 0 0 238.67043925332837 226.53069009272986 0 226.53069009272986 79.05318819963577 0 0 0 0 252.67605266031751 225.34746740937408 0 225.34746740937408 40.714405656053714 0 0 0 0 -40.22938737800937 24.628087993368734 0 24.628087993368734 19.778503314742622 0 0 0 0 -21.167163934309428 52.765320663649163 0 52.765320663649163 76.758346553466254 0 0 0 0 10.222112186456798 152.83816001681043 0 152.83816001681043 143.98070274576094 0 0 0 0 93.996709404416833 104.2053747822597 0 104.2053747822597 16.614846616379509 0 0 0 0 77.860568999090901 135.62219025312561 0 135.62219025312561 74.060702377359121 0 0 0 0 136.17298778233817 131.43968724923798 0 131.43968724923798 54.032465298507304 0 0 0 0 183.88544487721083 268.66707014710119 0 268.66707014710119 161.28801949809349 0 0 0 0 3.9359440102178098 2.2832445949559954 0 2.2832445949559954 -20.852535547609026 0 0 0 0 44.022083153904532 133.57790810533515 0 133.57790810533515 253.98687815550875 0 0 0 0 332.3214676260086 26.083568747563277 0 26.083568747563277 -133.0777582045921 0 0 0 0 87.801061291513179 198.8856131481225 0 198.8856131481225 119.1167837273224 0 0 0 0 147.17948591381793 119.86256992318839 0 119.86256992318839 33.292285877652894 0 0 0 0 147.16255412752071 201.87768478720682 0 201.87768478720682 1.0388654790458531 0 0 0 0 173.7438449014553 102.70859196856145 0 102.70859196856145 33.521011046512285 0 0 0 0 -20.497302874367975 70.502149752898049 0 70.502149752898049 32.264538146026929 0 0 0 0 -15.815700651619409 -0.47076287291656627 0 -0.47076287291656627 -11.375127560429974 0 0 0 0 99.07251697927768 101.4793016326239 0 101.4793016326239 -5.4341599426952598 0 0 0 0 188.71332924033777 156.08299680722848 0 156.08299680722848 -72.686842363002143 0 0 0 0 151.12400074369361 130.32026547884925 0 130.32026547884925 59.19011635267816 0 0 0 0 217.73894382412254 178.96954255345554 0 178.96954255345554 26.876696222150713 0 0 0 0 272.09693537173735 112.24089326288595 0 112.24089326288595 100.90316314138181 0 0 0 0 117.10815907077631 170.16884788722564 0 170.16884788722564 45.776549453155894 0 0 0 0 234.33619080330027 236.76004995235053 0 236.76004995235053 92.887114858930545 0 0 0 0 -4.2906250297634472 22.464688983753323 0 22.464688983753323 -19.736242928935809 0 0 0 0 209.38597666506394 160.6118757132208 0 160.6118757132208 64.439637935924111 0 0 0 0 152.91590506980174 54.733455320078065 0 54.733455320078065 48.104937335989234 0 0 0 0 247.23962344690881 114.57882192921534 0 114.57882192921534 15.279943132212793 0 0 0 0 16.343807395828655 26.357943436938157 0 26.357943436938157 12.092673392280126 0 0 0 0 -36.331291889711792 76.825998069009074 0 76.825998069009074 139.22093513634172 0 0 0 0 133.48847364468475 113.95015615874127 0 113.95015615874127 -1.400313071673736 0 0 0 0 197.21500163691235 86.221348462674541 0 86.221348462674541 9.5661136606941 0 0 0 0 77.899178814697734 122.55282354458723 0 122.55282354458723 63.21104312422176 0 0 0 0 81.272212945486899 87.366061263319352 0 87.366061263319352 120.23543296982098 0 0 0 0 41.797862304073988 181.20679388961616 0 181.20679388961616 339.95308521967672 0 0 0 0 -9.3517447708198347 21.871383599516598 0 21.871383599516598 -19.897348680956725 0 0 0 0 102.54283787361055 123.88528405545367 0 123.88528405545367 222.19659662832782 0 0 0 0 -114.96349090985495 17.771978481507176 0 17.771978481507176 255.76766118804153 0 0 0 0 50.118039761633554 -9.0828280169162099 0 -9.0828280169162099 60.851491386689304 0 0 0 0 17.661921842925949 -56.727378174016849 0 -56.727378174016849 51.37852249491948 0 0 0 0 -2.4487865902062538 0.51000595476241628 0 0.51000595476241628 -7.0860617584651635 0 0 0 0 151.25535940990449 142.90011306428141 0 142.90011306428141 67.057029971387237 0 0 0 0 -3.0148641314299525 4.6943985064956095 0 4.6943985064956095 -4.6161061761868041 0 0 0 0 365.86498731773827 289.93756534269414 0 289.93756534269414 -28.276634211593773 0 0 0 0 -106.81140244739072 -138.9559596878953 0 -138.9559596878953 -28.753873386349369 0 0 0 0 299.88702159418244 7.2059008063715737 0 7.2059008063715737 -130.37485531268612 0 0 0 0 -178.52761182812901 -404.28219212629119 0 -404.28219212629119 -65.847372819611337 0 0 0 0 -1305.9656671846133 -104.75786371678259 0 -104.75786371678259 308.90571204576554 0 0 0 0 122.09169603667397 -194.06666422563649 0 -194.06666422563649 211.76174583294051 0 0 0 0 1009.3003627091894 -234.09751020310068 0 -234.09751020310068 196.15972495059032 0 0 0 0 322.08281992410048 74.511052057827328 0 74.511052057827328 -21.770269061806175 0 0 0 0 340.92582486899619 -57.66506292944041 0 -57.66506292944041 652.63685149763478 0 0 0 0 717.02910348925434 277.70459958386709 0 277.70459958386709 136.12648262778021 0 0 0 0 -8.1995490878818345 17.645593122147233 0 17.645593122147233 -6.6781805947620256 0 0 0 0 -734.32565051773781 47.188469012404312 0 47.188469012404312 915.62378722406356 0 0 0 0 69.458784571914293 121.06132150339545 0 121.06132150339545 12.605436551119055 0 0 0 0 359.8202228262162 351.66742944525231 0 351.66742944525231 66.082288027420873 0 0 0 0 1247.1190563737164 1472.5256065856784 0 1472.5256065856784 -498.17070856475038 0 0 0 0 90.137706360077573 118.49783550407938 0 118.49783550407938 13.182513644642313 0 0 0 0 -34.65654769702499 52.256288145209979 0 52.256288145209979 -17.554856776549016 0 0 0 0 37.472998972538335 78.779830296871751 0 78.779830296871751 0.6895009117142763 0 0 0 0 101.19328051414777 35.875352696793925 0 35.875352696793925 152.76907000240317 0 0 0 0 64.325100149166246 82.614016462989639 0 82.614016462989639 15.362751374290383 0 0 0 0 -38.192319092820739 33.806280711261465 0 33.806280711261465 -3.2970408645045808 0 0 0 0 29.718189046803673 75.448354848964073 0 75.448354848964073 38.500853538440424 0 0 0 0 202.28564429783 196.4933743377278 0 196.4933743377278 242.37327303552956 0 0 0 0 325.70918426350545 378.31977003973952 0 378.31977003973952 131.68502861006709 0 0 0 0 92.047870050057099 136.84138822589739 0 136.84138822589739 -2.9372372887792153 0 0 0 0 298.53189725380071 360.10294134707146 0 360.10294134707146 166.74477751814993 0 0 0 0 -4.7941729681859044 5.5602633526871887 0 5.5602633526871887 -8.5455105500803512 0 0 0 0 306.06676826576586 146.91609602667086 0 146.91609602667086 -80.143993312012753 0 0 0 0 278.26839307999035 321.73773300104949 0 321.73773300104949 114.69380887162697 0 0 0 0 283.08146153687085 1051.1157202844115 0 1051.1157202844115 -3320.7537003604848 0 0 0 0 1118.72058845629 -36.107407633400726 0 -36.107407633400726 -1918.7468372484582 0 0 0 0 -3244.9993472960532 1027.2035377229931 0 1027.2035377229931 -2729.2067103459231 0 0 0 0 -5192.9622316180657 1003.3856242229322 0 1003.3856242229322 216.24071542327874 0 0 0 0 -4509.1123471883766 3077.7367867199937 0 3077.7367867199937 -728.27291914004309 0 0 0 0 -3099.6785607934507 2542.7332591691229 0 2542.7332591691229 -530.14499187421097 0 0 0 0 -3103.7402911844056 265.68996785300504 0 265.68996785300504 476.28124662044866 0 0 0 0 -1947.9487368145928 850.45736378329821 0 850.45736378329821 1835.7058016789779 0 0 0 0 -54.159323015290703 51.179482244899432 0 51.179482244899432 -43.336770011003154 0 0 0 0 308.90510846322559 1039.8498187900186 0 1039.8498187900186 -392.04597480103257 0 0 0 0 517.75097377582824 877.96806936713983 0 877.96806936713983 -683.56431564257582 0 0 0 0 -1919.3704451038175 2351.6369707350896 0 2351.6369707350896 1469.1499195208462 0 0 0 0 199.99936091411837 115.58560701808528 0 115.58560701808528 110.98531215893308 0 0 0 0 -169.61935250466377 735.64902403265478 0 735.64902403265478 531.17199691382848 0 0 0 0 -2.0631674296720295 0.7267094084336545 0 0.7267094084336545 3.5545637056504518 0 0 0 0 -580.59844892889555 -192.87478180825019 0 -192.87478180825019 202.58415520143171 0 0 0 0 208.75567260959542 52.00710771789818 0 52.00710771789818 185.16705394871678 0 0 0 0 -17.572082781334238 6.4638036361407885 0 6.4638036361407885 -3.993070864087521 0 0 0 0 -59.728033363748182 -599.22439861670136 0 -599.22439861670136 -441.15264897687302 0 0 0 0 -626.24621514576575 1011.6062687545818 0 1011.6062687545818 -2073.2510238886152 0 0 0 0 -2650.0873475885173 -644.06619785217663 0 -644.06619785217663 -428.59379208637984 0 0 0 0 -3272.4688990248542 360.41187674213143 0 360.41187674213143 652.56717647826736 0 0 0 0 -2039.8555864516238 1491.8455904182119 0 1491.8455904182119 -2102.3676702174052 0 0 0 0 -5909.0632115857516 -644.9185962612537 0 -644.9185962612537 -3124.4626894026733 0 0 0 0 -304.84463077026157 1256.0345072332129 0 1256.0345072332129 -1430.8960030556282 0 0 0 0 447.39523144795385 138.35405152329622 0 138.35405152329622 -1559.5506653041234 0 0 0 0 -247.81156042985822 1283.960842907778 0 1283.960842907778 -2559.8450803104279 0 0 0 0 -52.012931041004776 -47.51101783294871 0 -47.51101783294871 597.7085259032192 0 0 0 0 -41.325515904126171 24.443580320795796 0 24.443580320795796 -1.9315740623390596 0 0 0 0 -143.58261940349621 671.41738988333964 0 671.41738988333964 -405.90356128369604 0 0 0 0 469.82896970039292 581.40088946711694 0 581.40088946711694 -477.66493185325635 0 0 0 0 -10.609880931602284 6.274343730280286 0 6.274343730280286 11.820546579551362 0 0 0 0 75.491794635436236 -244.45994058553333 0 -244.45994058553333 506.22108512671184 0 0 0 0 208.54318809286633 78.964138955878298 0 78.964138955878298 102.08267134911148 0 0 0 0 159.15012509679741 127.3358102289294 0 127.3358102289294 79.771185098172282 0 0 0 0 138.54761680927277 91.241154513558286 0 91.241154513558286 65.25623810205434 0 0 0 0 193.59295986307188 144.87658192123126 0 144.87658192123126 63.349709800484561 0 0 0 0 32.380995514287633 158.93206442524752 0 158.93206442524752 100.31552285570069 0 0 0 0 3.139571819837478 23.48068872962196 0 23.48068872962196 -15.67672007486766 0 0 0 0 20.32283318422742 61.104974431165829 0 61.104974431165829 49.19999058542453 0 0 0 0 -30.153384876808559 256.24652989957394 0 256.24652989957394 350.23145389449564 0 0 0 0 -37.282347758930655 29.2631747411052 0 29.2631747411052 22.893567292850861 0 0 0 0 -19.307204447238519 67.112671717648482 0 67.112671717648482 79.158166526325658 0 0 0 0 297.3291865648298 374.52847021760135 0 374.52847021760135 390.96533910321887 0 0 0 0 -203.39335490172016 149.97567975728089 0 149.97567975728089 618.70486652740874 0 0 0 0 285.93402489369328 -118.48703460041861 0 -118.48703460041861 -2.2830816756977583 0 0 0 0 8.5923167308028496 37.78403567748137 0 37.78403567748137 112.7995871825442 0 0 0 0 -159.60281173602061 89.132381753337995 0 89.132381753337995 99.581723824900109 0 0 0 0 -332.76568021556159 -38.893387430667644 0 -38.893387430667644 7.9857236162133631 0 0 0 0 -113.25581681878975 283.24157085141269 0 283.24157085141269 -71.18487589662891 0 0 0 0 -299.89482079915683 531.05465746627863 0 531.05465746627863 -383.64606600599654 0 0 0 0 -413.52624043475953 575.52550803682971 0 575.52550803682971 -279.07041422428301 0 0 0 0 -782.35702135529573 303.40097963920198 0 303.40097963920198 -128.04648600145811 0 0 0 0 -870.11065684792629 290.54462426949613 0 290.54462426949613 -54.151786116468429 0 0 0 0 -1500.6261158715924 874.11197446832739 0 874.11197446832739 -337.40399331056688 0 0 0 0 -1310.0179624467855 821.87911546699615 0 821.87911546699615 -697.64434758722723 0 0 0 0 -1609.1709679819287 1447.4325864330931 0 1447.4325864330931 -750.15869631646638 0 0 0 0 -1008.5083522261184 960.98071839911108 0 960.98071839911108 -487.11719015736162 0 0 0 0 -841.33374115998595 984.29063213888367 0 984.29063213888367 -556.76834623311152 0 0 0 0 -933.62672386465874 1400.6264614920233 0 1400.6264614920233 -737.11567692968674 0 0 0 0 -957.75926540212822 1466.9056190290539 0 1466.9056190290539 -1059.5410070144317 0 0 0 0 -921.02071404409799 1282.634938681098 0 1282.634938681098 -1347.9133186871222 0 0 0 0 -726.90341565701965 1336.9024746965079 0 1336.9024746965079 -987.40199061019302 0 0 0 0 -727.12979420453894 1325.9912158359557 0 1325.9912158359557 -716.45795714668202 0 0 0 0 -719.70018110610363 1502.9665072995813 0 1502.9665072995813 -887.28471850551432 0 0 0 0 -550.16421285230172 1203.7680925613131 0 1203.7680925613131 -664.68806970588048 0 0 0 0 -516.95427528260188 1351.3732325872807 0 1351.3732325872807 -842.89171653347148 0 0 0 0 -545.07220957767277 1147.6317302327188 0 1147.6317302327188 -759.8563824070734 0 0 0 0 -219.24337521949201 866.00454678038295 0 866.00454678038295 -577.94715759167229 0 0 0 0 30.286081344167542 839.76652487078718 0 839.76652487078718 -660.43721160457062 0 0 0 0 200.80255742282679 763.94362681005441 0 763.94362681005441 -859.02724322686117 0 0 0 0 -275.08618192867107 1308.0853622214868 0 1308.0853622214868 -1119.9999654412095 0 0 0 0 -34.436358185457721 1345.8918332162521 0 1345.8918332162521 -1665.1762798666459 0 0 0 0 -713.49552706727263 1737.9887383217938 0 1737.9887383217938 -1584.142736120979 0 0 0 0 -706.12023612730263 1624.1834751363058 0 1624.1834751363058 -1038.9927827136271 0 0 0 0 -1924.9651293558018 1917.1542971223935 0 1917.1542971223935 -670.98122806737956 0 0 0 0 -2268.2451157013238 2379.8829429368016 0 2379.8829429368016 -1222.2718946769019 0 0 0 0 -1237.0920456154054 1984.9594380463896 0 1984.9594380463896 -1699.44600787331 0 0 0 0 -1302.400837819092 2357.1456644759746 0 2357.1456644759746 -2624.1127869406819 0 0 0 0 -1118.7840166013266 1422.1184401244827 0 1422.1184401244827 -429.21198834117968 0 0 0 0 -805.46656633260136 1478.9710300447332 0 1478.9710300447332 -700.88398858040091 0 0 0 0 -561.34484798768972 1634.2061539682109 0 1634.2061539682109 -1101.4931864701866 0 0 0 0 -1169.8569193675448 1681.611526616869 0 1681.611526616869 -797.6770876046503 0 0 0 0 -864.05079780913366 1390.9586967102987 0 1390.9586967102987 -741.92931827137181 0 0 0 0 -633.66694176215606 1096.6756235251742 0 1096.6756235251742 -1260.7917080874104 0 0 0 0 -396.12403977804024 636.77497696679711 0 636.77497696679711 -408.0852028729787 0 0 0 0 -1394.8042592509773 1356.9185041002893 0 1356.9185041002893 -427.63489202694109 0 0 0 0 -1020.1948024823259 1141.968499795501 0 1141.968499795501 -318.24412325444428 0 0 0 0 -1421.935896072667 269.16735890909422 0 269.16735890909422 408.22917325681556 0 0 0 0 111.40332588351885 -176.54189558597136 0 -176.54189558597136 -124.16813489960441 0 0 0 0 -686.56438512488967 452.8692488954639 0 452.8692488954639 -418.9375122621168 0 0 0 0 58.072462048980015 -620.7864255877721 0 -620.7864255877721 -2145.6895586657265 0 0 0 0 -2381.3346054337167 955.79765784030155 0 955.79765784030155 62.51210441281728 0 0 0 0 -6.6591254616344457 10.538136268391307 0 10.538136268391307 -18.018077318301522 0 0 0 0 -83.768466079569976 -30.794077876025199 0 -30.794077876025199 -239.47169342814232 0 0 0 0 -380.54970704536026 -38.808912874115777 0 -38.808912874115777 -179.94383633729012 0 0 0 0 -20.081970775383525 244.83143349917191 0 244.83143349917191 -1017.884065260032 0 0 0 0 -25.336646043870495 25.6832438924218 0 25.6832438924218 -11.663116960603787 0 0 0 0 836.61500886095928 554.31490361572241 0 554.31490361572241 -452.51898271921891 0 0 0 0 -3.1967941043476458 960.90422998730173 0 960.90422998730173 1596.4145504446378 0 0 0 0 -1542.6569221352038 832.1611421638645 0 832.1611421638645 2396.8205726816495 0 0 0 0 196.30461917141656 -522.17160725423128 0 -522.17160725423128 513.66121369471693 0 0 0 0 -430.24901034691356 166.20883130317816 0 166.20883130317816 -547.67037012073706 0 0 0 0 -565.93404153628217 352.21999875677466 0 352.21999875677466 -388.32260379219224 0 0 0 0 -14.561542708174116 10.596652789242754 0 10.596652789242754 -4.6027138394375413 0 0 0 0 -126.56664390152037 623.47830684922701 0 623.47830684922701 -2134.1104733732573 0 0 0 0 -235.56216232088263 1147.5505246869398 0 1147.5505246869398 -3160.0476092475146 0 0 0 0 -1635.2604141943411 2154.4075449084776 0 2154.4075449084776 -1966.0820590412459 0 0 0 0 -1412.6599456584936 564.12780321650007 0 564.12780321650007 -2108.8569406392744 0 0 0 0 -2664.634758284672 1431.7252554472943 0 1431.7252554472943 -652.05819877111503 0 0 0 0 -1564.4408363859038 1568.8550344235971 0 1568.8550344235971 -782.71071266281069 0 0 0 0 -1748.8078730645138 1260.5253928731945 0 1260.5253928731945 -37.823775085242232 0 0 0 0 -1577.5456023170445 1496.8422682868077 0 1496.8422682868077 382.30233794949891 0 0 0 0 -1464.8622529632848 475.73279361067398 0 475.73279361067398 801.28258074036057 0 0 0 0 -968.17426951888046 506.18590160546955 0 506.18590160546955 -575.46965817026285 0 0 0 0 -711.92553055012831 -52.756558985151059 0 -52.756558985151059 238.86802522365906 0 0 0 0 -1598.1433111788429 1156.4649793608733 0 1156.4649793608733 -42.976460102297096 0 0 0 0 -1562.9718652032436 995.98015224851156 0 995.98015224851156 -421.65596766217641 0 0 0 0 -1553.0251264240433 802.29608966737942 0 802.29608966737942 259.0597464849161 0 0 0 0 -166.59564652047993 779.3592177073424 0 779.3592177073424 -3032.4799144354984 0 0 0 0 -1268.2927241193756 821.79290607767871 0 821.79290607767871 -417.06744421335316 0 0 0 0 -984.85588968624597 719.06856139437377 0 719.06856139437377 -1145.95971062436 0 0 0 0 -947.27670393422886 991.27787556403928 0 991.27787556403928 -1616.0700562268394 0 0 0 0 -959.09369066646468 865.05284828983611 0 865.05284828983611 -1459.519235163847 0 0 0 0 -977.79276361519169 674.24237033234158 0 674.24237033234158 -1234.2407747921534 0 0 0 0 -789.32562915171729 223.96435131629914 0 223.96435131629914 -596.01081340741757 0 0 0 0 -445.04064663239114 224.29618146409484 0 224.29618146409484 -1590.2474161968821 0 0 0 0 -103.47278167578042 160.67286244232309 0 160.67286244232309 -2612.0435420900249 0 0 0 0 -620.57566318346653 777.01871458104142 0 777.01871458104142 -2173.6492293635238 0 0 0 0 -133.17061632050172 -66.724600271718373 0 -66.724600271718373 -2051.7911254602659 0 0 0 0 -368.84641995009952 310.99121926278895 0 310.99121926278895 -2007.0242046985877 0 0 0 0 -692.41270563970465 1293.3285734385317 0 1293.3285734385317 -2503.5563672793869 0 0 0 0 -618.68758047478377 733.04033790936046 0 733.04033790936046 -1876.2387325224117 0 0 0 0 -730.82758171434398 845.1083305641223 0 845.1083305641223 710.23704890002364 0 0 0 0 0.91053832802163015 4.3589585101361301 0 4.3589585101361301 -2.3225937313267888 0 0 0 0 90.981022665189812 -6.890489770899876 0 -6.890489770899876 -3066.4060602281061 0 0 0 0 -201.01607120607241 427.80050581066598 0 427.80050581066598 -243.87925300052302 0 0 0 0 -145.22153227868421 699.78411851549095 0 699.78411851549095 736.9670158007375 0 0 0 0 -1.4570252047009404 0.14313460085293572 0 0.14313460085293572 -0.014683378861127139 0 0 0 0 -146.01460496849904 228.66043895786243 0 228.66043895786243 1216.9980865178622 0 0 0 0 108.36268236478645 -3.7858477332210896 0 -3.7858477332210896 476.28112739748656 0 0 0 0 -359.18572175865484 584.3881418845267 0 584.3881418845267 1247.2991966888248 0 0 0 0 -721.98981675499817 -694.00617942325334 0 -694.00617942325334 523.24079769413174 0 0 0 0 1474.9836515539409 96.177271792169904 0 96.177271792169904 -919.40347963424028 0 0 0 0 -479.24280379097399 135.11234928976955 0 135.11234928976955 -1597.377431611676 0 0 0 0 -342.76685624252423 -86.026296824824385 0 -86.026296824824385 -1260.9003931497864 0 0 0 0 -217.79839091161557 -23.354001517374854 0 -23.354001517374854 -1583.3436006764532 0 0 0 0 -519.53242423142365 -450.83546771163492 0 -450.83546771163492 -1715.2702726081916 0 0 0 0 -252.23685054533416 8.7344785960376612 0 8.7344785960376612 -1381.6028512041739 0 0 0 0 -602.95001744388719 -832.89958025294982 0 -832.89958025294982 -2274.4769172778906 0 0 0 0 -944.62842657834699 -445.69536800014248 0 -445.69536800014248 -1707.298510732362 0 0 0 0 -115.06717258959543 -666.974739101468 0 -666.974739101468 -2713.3893791685987 0 0 0 0 -273.96794190553192 -476.27690857713606 0 -476.27690857713606 -2206.2518824838771 0 0 0 0 -246.22203156157047 -330.89355737317965 0 -330.89355737317965 -1945.574204647135 0 0 0 0 -27.047608802589821 -292.44787619855197 0 -292.44787619855197 -2626.3914664195745 0 0 0 0 -142.64292287541321 -141.86849326952506 0 -141.86849326952506 -2363.0972396945435 0 0 0 0 -347.51049918189528 -284.41442518223266 0 -284.41442518223266 -1753.7641884084733 0 0 0 0 -282.66653309485991 -151.69733927849302 0 -151.69733927849302 -1836.1571536825795 0 0 0 0 -471.58162149549025 -132.6118403350938 0 -132.6118403350938 -518.89063877431181 0 0 0 0 -417.00744376362127 78.156200729867123 0 78.156200729867123 -1254.3397907870421 0 0 0 0 -458.23980502481572 0.52438250782688556 0 0.52438250782688556 -1310.8771096498167 0 0 0 0 -640.26833272800468 509.28347998821118 0 509.28347998821118 -938.81397857760749 0 0 0 0 158.89695080188903 284.22716473225046 0 284.22716473225046 -1093.9261266573303 0 0 0 0 -73.191737570516125 -264.39314210961675 0 -264.39314210961675 -1111.141517426171 0 0 0 0 265.87454346049344 248.67382367188839 0 248.67382367188839 -1758.2051522271395 0 0 0 0 -104.65207729437316 284.19331950843389 0 284.19331950843389 -387.42904709098366 0 0 0 0 236.24387958766602 -120.80941111846914 0 -120.80941111846914 -856.43503060159492 0 0 0 0 589.442091867204 -111.4356330881119 0 -111.4356330881119 -1679.7554022855038 0 0 0 0 146.62343411910115 238.40543231137053 0 238.40543231137053 -1597.0779242258286 0 0 0 0 6.410358735429142 14.92600032577691 0 14.92600032577691 -5.8960962209564212 0 0 0 0 -57.360630693190615 214.29276488250616 0 214.29276488250616 208.68254066356894 0 0 0 0 596.52049254220765 -244.48848342761266 0 -244.48848342761266 -2030.1270308683625 0 0 0 0 -127.50802931852377 101.39692239395208 0 101.39692239395208 204.05626507284524 0 0 0 0 -2.2649993061042863 8.4189893556499289 0 8.4189893556499289 8.0153171147846578 0 0 0 0 209.67380039922136 31.326243878696914 0 31.326243878696914 -57.765157582600295 0 0 0 0 12.410681964113486 37.04822182783073 0 37.04822182783073 14.720138061246193 0 0 0 0 555.06373840347442 667.26074451414388 0 667.26074451414388 -302.64669078929364 0 0 0 0 356.95283183792708 -287.26188975847435 0 -287.26188975847435 -84.428469512893571 0 0 0 0 -146.04433283283652 653.66699519577924 0 653.66699519577924 -951.89995014927445 0 0 0 0 -516.15912419620145 -602.84211513840819 0 -602.84211513840819 -1078.7844224662585 0 0 0 0 203.1315230524815 292.03511204541746 0 292.03511204541746 -339.6016993077501 0 0 0 0 15.250753036001697 138.43737025092946 0 138.43737025092946 -173.14728623030805 0 0 0 0 -12.770592229731847 176.31276008203599 0 176.31276008203599 -368.79888536209285 0 0 0 0 -24.472586073965431 105.17378839190877 0 105.17378839190877 -114.83779571466744 0 0 0 0 37.333333479299483 50.19100948223992 0 50.19100948223992 18.712289694944012 0 0 0 0 23.994736941731389 67.615833850932859 0 67.615833850932859 -108.29905192977481 0 0 0 0 27.815047364863858 126.00111034054589 0 126.00111034054589 -15.000313531958454 0 0 0 0 -6.6169280792997505 36.093510858368589 0 36.093510858368589 -51.754066591066376 0 0 0 0 40.112402006093362 106.93128206715539 0 106.93128206715539 -152.99018757811518 0 0 0 0 691.11737453675778 212.62517699838554 0 212.62517699838554 -107.03422051708912 0 0 0 0 866.98674441284311 -96.061944566672537 0 -96.061944566672537 7.0976613096645451 0 0 0 0 697.39687241926185 242.12209564468776 0 242.12209564468776 -413.5546188521057 0 0 0 0 -7.1672170395395369 233.34731892060336 0 233.34731892060336 214.17349829539853 0 0 0 0 303.91501290403903 -83.373386353347087 0 -83.373386353347087 -124.05319180680817 0 0 0 0 -1292.7984492199503 994.3083727556932 0 994.3083727556932 -568.33073644237629 0 0 0 0 -3.2435121636613857 3.4965966147147007 0 3.4965966147147007 -1.7487632255591308 0 0 0 0 -1007.3444513108261 1306.5323061125509 0 1306.5323061125509 -949.97586901166505 0 0 0 0 30.652100741640425 181.66668373736229 0 181.66668373736229 -375.58336058287387 0 0 0 0 -1747.4617857853966 1406.691129199121 0 1406.691129199121 -144.23141427918017 0 0 0 0 -1312.1460688257139 1497.6576227936857 0 1497.6576227936857 -691.34564987320482 0 0 0 0 -1616.162507162735 1305.3468056192214 0 1305.3468056192214 -147.56779924325099 0 0 0 0 -1429.0467781674852 914.63703298007204 0 914.63703298007204 131.91614661990207 0 0 0 0 131.43306001871315 37.492181762871951 0 37.492181762871951 -45.94768672290229 0 0 0 0 -1704.2828361872489 1561.8647395382231 0 1561.8647395382231 -486.41596573280549 0 0 0 0 55.129034568175484 -317.15353076416932 0 -317.15353076416932 -1781.0272725161803 0 0 0 0 -7.5123871106593469 10.892096853916033 0 10.892096853916033 -22.18742439020922 0 0 0 0 -1181.3587372738612 1174.332288133066 0 1174.332288133066 -927.42854982813878 0 0 0 0 -916.06285196099634 1473.035998829122 0 1473.035998829122 -1309.2816535626516 0 0 0 0 -1201.7787653970954 1101.612540823302 0 1101.612540823302 -1092.6995416361497 0 0 0 0 -1046.7905205501847 1799.5240152028537 0 1799.5240152028537 -2118.7939390453321 0 0 0 0 -586.89893273201596 772.34314445532618 0 772.34314445532618 -2752.996953380888 0 0 0 0 -611.84125235200918 516.36926211353966 0 516.36926211353966 -1040.0176268995347 0 0 0 0 -909.66735850772238 1220.6265772220158 0 1220.6265772220158 -1702.8427355290005 0 0 0 0 -950.59456895391486 1303.2042661010582 0 1303.2042661010582 -1730.5506560918056 0 0 0 0 -1229.557589187265 -322.4813200662029 0 -322.4813200662029 -1265.8663637408226 0 0 0 0 -336.45027395249053 155.2632727545697 0 155.2632727545697 -1541.2814217011201 0 0 0 0 -68.95042557814304 865.82452704187108 0 865.82452704187108 320.42014213366565 0 0 0 0 -1158.644447365783 13.761795889156929 0 13.761795889156929 308.97279455761782 0 0 0 0 -964.31725410366926 217.18951019098131 0 217.18951019098131 518.87442403303976 0 0 0 0 -283.32730850902954 1350.7345952596665 0 1350.7345952596665 -1977.3581730848746 0 0 0 0 -826.54451791240172 377.79751128721671 0 377.79751128721671 243.87063106893766 0 0 0 0 -2523.2172596269302 1276.1801576489156 0 1276.1801576489156 -227.73786281834236 0 0 0 0 -1130.780146862875 1257.2787493569003 0 1257.2787493569003 -17.367561194202608 0 0 0 0 93.658555424950123 694.97477274683251 0 694.97477274683251 -376.01731003789428 0 0 0 0 95.616590433852252 745.94802091116071 0 745.94802091116071 -1127.7519843856417 0 0 0 0 -7.8253327751517645 -79.454055662729843 0 -79.454055662729843 -313.74968369192857 0 0 0 0 137.37586496254153 62.760153360164622 0 62.760153360164622 -807.56018914226661 0 0 0 0 171.49567617185676 214.46348572527768 0 214.46348572527768 -367.22406601709906 0 0 0 0 275.81799186529679 599.89238616476905 0 599.89238616476905 -762.82122892272105 0 0 0 0 228.70612655617879 490.00059557518989 0 490.00059557518989 -271.59898947813417 0 0 0 0 191.8275078526276 856.64017832051286 0 856.64017832051286 -42.037294446511623 0 0 0 0 402.60940187850065 595.98064835004607 0 595.98064835004607 245.57703103444146 0 0 0 0 316.78231076236807 909.2935489349295 0 909.2935489349295 562.48560097696827 0 0 0 0 -187.92509393880027 862.05800247382103 0 862.05800247382103 1008.0588431904007 0 0 0 0 137.01101165532054 471.55421167486384 0 471.55421167486384 790.9647852973103 0 0 0 0 529.48038665326749 867.3414134006689 0 867.3414134006689 446.3145779892202 0 0 0 0 14.795150478088885 29.977461689404336 0 29.977461689404336 -63.783862991050889 0 0 0 0 -173.07653851362556 264.5494588130714 0 264.5494588130714 1087.5928326624799 0 0 0 0 -72.026607657782733 412.24447602093642 0 412.24447602093642 880.7287744466139 0 0 0 0 -221.25571933216997 513.94804856079281 0 513.94804856079281 978.17178700472323 0 0 0 0 -222.36507622406998 511.16828032059539 0 511.16828032059539 1053.4201492896718 0 0 0 0 -335.40689191258571 647.30488603905542 0 647.30488603905542 994.51759396736634 0 0 0 0 207.82721462364862 718.33971791331624 0 718.33971791331624 -410.02127739974185 0 0 0 0 -342.24357422352659 768.16877959783233 0 768.16877959783233 553.21356620502047 0 0 0 0 -52.018136767233955 733.34177117777017 0 733.34177117777017 432.37148014920604 0 0 0 0 -324.06264803460363 864.23300508297143 0 864.23300508297143 416.89024946887184 0 0 0 0 -324.33410952266178 618.6986202071547 0 618.6986202071547 428.74807738560594 0 0 0 0 -786.02619665930069 384.36670226052729 0 384.36670226052729 1228.6894431874407 0 0 0 0 -605.90086146380054 747.71093342038603 0 747.71093342038603 486.35516761956842 0 0 0 0 -571.43790923449706 58.896992254573888 0 58.896992254573888 487.60987603647004 0 0 0 0 -896.16934379075792 -231.9890136987741 0 -231.9890136987741 1188.244038139901 0 0 0 0 -14.209478676894932 5.8682865887554598 0 5.8682865887554598 12.594171953668175 0 0 0 0 -929.45815264102566 369.57266127602088 0 369.57266127602088 1839.0639588743788 0 0 0 0 -596.82115850542868 -789.0424526790523 0 -789.0424526790523 2795.8163350079667 0 0 0 0 11.155760795190872 337.50703837216042 0 337.50703837216042 1108.155945705078 0 0 0 0 -334.52212005254114 214.91793724999388 0 214.91793724999388 1402.1395700765916 0 0 0 0 -497.48245961771636 995.51462622403278 0 995.51462622403278 -711.96848715875785 0 0 0 0 -34.74843786646079 19.798998629648132 0 19.798998629648132 -54.060241837904464 0 0 0 0 33.885789109768879 200.56570488138996 0 200.56570488138996 -103.07875375829954 0 0 0 0 -516.33398714847499 1865.3744763314367 0 1865.3744763314367 -2601.1880547462047 0 0 0 0 -329.55071408452204 43.022592853768401 0 43.022592853768401 -881.60851676884249 0 0 0 0 -1269.5096598092932 909.40982729807411 0 909.40982729807411 668.32574825137817 0 0 0 0 -397.71938425536428 630.88076045161142 0 630.88076045161142 -379.53336189159018 0 0 0 0 34.726182466690446 195.27013336551454 0 195.27013336551454 -142.47431231108325 0 0 0 0 -728.69329719715461 477.37222640932305 0 477.37222640932305 -171.40953715710202 0 0 0 0 -317.99980557185881 685.2333777146705 0 685.2333777146705 -717.5956079592288 0 0 0 0 -578.27816281729974 96.393521612335462 0 96.393521612335462 524.16048046926153 0 0 0 0 -573.90512151900475 847.50843584467657 0 847.50843584467657 130.67334169231617 0 0 0 0 -401.04008416368742 633.34798190704169 0 633.34798190704169 -236.90054989898636 0 0 0 0 -18.160965005145954 125.11363123261822 0 125.11363123261822 -127.66394784434669 0 0 0 0 -21.348670169491655 107.10959859846598 0 107.10959859846598 -46.764941096758811 0 0 0 0 14.110160319323768 115.49823767509153 0 115.49823767509153 -16.572142106896074 0 0 0 0 152.57081832002586 287.01795500391745 0 287.01795500391745 191.31652183626647 0 0 0 0 257.42855081779271 324.58108370865966 0 324.58108370865966 441.60543436792477 0 0 0 0 219.04723329515582 278.62180442970293 0 278.62180442970293 569.15197229702972 0 0 0 0 -24.395307363977111 -7.7021326408368651 0 -7.7021326408368651 26.864363563247103 0 0 0 0 8.0304731813703256 37.814538842980483 0 37.814538842980483 90.707350065190212 0 0 0 0 103.50514853711502 89.651809434613824 0 89.651809434613824 213.72308092244054 0 0 0 0 5.611506372816109 8.3820255778694843 0 8.3820255778694843 6.2323239059230549 0 0 0 0 215.88908529211767 601.40818905049764 0 601.40818905049764 861.19918958954986 0 0 0 0 156.65864635181788 486.0812896561556 0 486.0812896561556 847.75588535212717 0 0 0 0 228.12695039345545 296.04726036341299 0 296.04726036341299 521.39066299794104 0 0 0 0 276.7243028296034 335.60000550753284 0 335.60000550753284 110.24210153836611 0 0 0 0 258.27357925652177 384.48960616941713 0 384.48960616941713 438.22469366167024 0 0 0 0 36.24751043552169 287.42539243857891 0 287.42539243857891 15.992907473545984 0 0 0 0 28.422274093547458 419.76393239377103 0 419.76393239377103 450.04951264554666 0 0 0 0 467.39027794255162 494.7872147821281 0 494.7872147821281 595.17279720460101 0 0 0 0 59.132970804559591 98.966840182914893 0 98.966840182914893 1035.330422453444 0 0 0 0 -353.16514409725642 445.65496228577285 0 445.65496228577285 1018.7437869482128 0 0 0 0 -6.707051491146558 215.68247816273015 0 215.68247816273015 840.64678445770915 0 0 0 0 -763.57639724119508 331.50107843171963 0 331.50107843171963 1078.9400797889243 0 0 0 0 -498.44837001718406 586.13180310781854 0 586.13180310781854 583.77088232609549 0 0 0 0 -443.87164851783018 213.27290965421707 0 213.27290965421707 706.19030453059975 0 0 0 0 -608.32836048900026 85.245814046075566 0 85.245814046075566 946.24288447251638 0 0 0 0 -684.35727573341683 248.30166929160578 0 248.30166929160578 154.58161233301689 0 0 0 0 -1365.2300460497245 1703.6608816419457 0 1703.6608816419457 -442.45670439881906 0 0 0 0 -1347.1274823187232 818.47194994732263 0 818.47194994732263 179.76317657535583 0 0 0 0 -192.95699920755942 107.74801117374409 0 107.74801117374409 571.37275301334739 0 0 0 0 125.60013305012399 402.1377116068179 0 402.1377116068179 -320.21913592608598 0 0 0 0 -225.41241846870253 932.03660763844709 0 932.03660763844709 -261.62199611932897 0 0 0 0 -646.05255047559331 587.18632306391555 0 587.18632306391555 713.72062553966043 0 0 0 0 -361.55797842861284 309.64407505049894 0 309.64407505049894 -587.89972203502111 0 0 0 0 55.206651467693028 103.1776113430119 0 103.1776113430119 -117.51179782374805 0 0 0 0 121.52065758517719 67.127543873332115 0 67.127543873332115 -116.91394898535357 0 0 0 0 28.891392079118305 119.1338456338126 0 119.1338456338126 -358.20464882196393 0 0 0 0 54.980959161411732 149.8236384370436 0 149.8236384370436 -105.31673784738589 0 0 0 0 226.99125798478781 318.6898312016574 0 318.6898312016574 106.91978828946321 0 0 0 0 21.855604449665407 434.9172854885619 0 434.9172854885619 683.14385765753377 0 0 0 0 19.526285791599378 115.41546905778088 0 115.41546905778088 -16.50521038976353 0 0 0 0 431.95695815992076 682.43606011047905 0 682.43606011047905 321.55152139650454 0 0 0 0 429.77452251333307 250.73967073963513 0 250.73967073963513 -272.23139935467316 0 0 0 0 14.89494571317482 321.36671355430281 0 321.36671355430281 441.68946350726765 0 0 0 0 37.008521926781626 -23.466950399685096 0 -23.466950399685096 -115.51520857907587 0 0 0 0 14.717444235420089 289.3561263246483 0 289.3561263246483 629.5364232922384 0 0 0 0 353.74266382598216 280.06730631763321 0 280.06730631763321 246.24307110660448 0 0 0 0 155.20955363775101 203.91340081514272 0 203.91340081514272 228.12455238293842 0 0 0 0 158.7603728352733 170.24671262071161 0 170.24671262071161 -76.405181118687324 0 0 0 0 233.03856222368631 156.42706919825559 0 156.42706919825559 158.69432643301752 0 0 0 0 237.99549125234626 183.13309619721895 0 183.13309619721895 220.62818067603803 0 0 0 0 269.97670097045557 125.20167913872547 0 125.20167913872547 178.35917857059394 0 0 0 0 106.11096758552594 123.03328166961182 0 123.03328166961182 182.54884733752283 0 0 0 0 74.664053121487086 254.2256187447374 0 254.2256187447374 172.68803228387571 0 0 0 0 162.27264887328784 177.18816186746972 0 177.18816186746972 221.89138404894538 0 0 0 0 203.97316194905216 210.34354300989889 0 210.34354300989889 177.15997905319273 0 0 0 0 188.14709956185106 272.06067701902975 0 272.06067701902975 85.668275080645799 0 0 0 0 174.40811231842235 200.42159666743191 0 200.42159666743191 235.92214556337058 0 0 0 0 133.52380107101635 238.53247313561951 0 238.53247313561951 164.27787945410364 0 0 0 0 207.34586702912202 254.98477787589309 0 254.98477787589309 161.74439148750196 0 0 0 0 206.46493300157636 247.36967402721757 0 247.36967402721757 269.95943451063613 0 0 0 0 247.08926116020302 257.2753054486443 0 257.2753054486443 250.74558982214876 0 0 0 0 197.39777725046224 317.42774587056147 0 317.42774587056147 449.85510828322504 0 0 0 0 2383.0219132167113 305.48191935669456 0 305.48191935669456 -433.24660619755741 0 0 0 0 2148.7647391198043 575.96012004622025 0 575.96012004622025 595.23293058387935 0 0 0 0 -2.7324077464526422 9.7197050362847346 0 9.7197050362847346 -8.8000343976887052 0 0 0 0 -1923.1014599964419 222.77743477112745 0 222.77743477112745 249.08175074515748 0 0 0 0 1881.1963405548886 -529.28727556986996 0 -529.28727556986996 -163.2500041272433 0 0 0 0 5.6313754121431856 1.7248537854884205 0 1.7248537854884205 -9.07812920359126 0 0 0 0 507.25306144854403 -219.92865645755955 0 -219.92865645755955 204.58383577663335 0 0 0 0 165.0760099293002 225.53081856995135 0 225.53081856995135 61.003205643107322 0 0 0 0 1400.4970652312513 522.79737165976985 0 522.79737165976985 26.221200699146721 0 0 0 0 140.47078425812185 138.49319989155103 0 138.49319989155103 -114.5027097645186 0 0 0 0 -562.08228808736749 1079.4858110157365 0 1079.4858110157365 66.000079121212366 0 0 0 0 151.58494921297643 235.71454511303739 0 235.71454511303739 58.058925043241288 0 0 0 0 4.7776133293514356 82.56712935371425 0 82.56712935371425 25.370766779958764 0 0 0 0 620.97233866865463 38.64620358315733 0 38.64620358315733 -635.48880947445286 0 0 0 0 153.42999102521884 141.58823988050298 0 141.58823988050298 -106.91677595727499 0 0 0 0 456.57265110337903 1045.8895230202907 0 1045.8895230202907 -1161.8547032282077 0 0 0 0 90.229865831113784 -231.54158966113027 0 -231.54158966113027 359.45357987085299 0 0 0 0 -608.2934232757616 362.18111110913742 0 362.18111110913742 -193.38982759408827 0 0 0 0 -203.35084142011328 170.90713779257931 0 170.90713779257931 -239.11609563676757 0 0 0 0 -1313.5427978856678 1381.0105086635449 0 1381.0105086635449 -356.8467281247722 0 0 0 0 -1046.7281440710212 640.0073770461604 0 640.0073770461604 -254.13510799423238 0 0 0 0 -122.68217168064984 245.10729765865835 0 245.10729765865835 -202.2473998190253 0 0 0 0 225.34581684381192 -65.874184866486758 0 -65.874184866486758 -81.929554260321311 0 0 0 0 84.686421781727404 154.44834330116282 0 154.44834330116282 536.33286729998508 0 0 0 0 285.33758922491688 -64.120458286328358 0 -64.120458286328358 -149.07628352902248 0 0 0 0 265.62865228438022 117.7206253453478 0 117.7206253453478 111.2564549591043 0 0 0 0 240.3187464385901 60.4733808463061 0 60.4733808463061 25.729420202711481 0 0 0 0 177.77942388939846 36.910385386931011 0 36.910385386931011 156.87538624891749 0 0 0 0 24.797323950951011 94.700906707347158 0 94.700906707347158 -52.372863410577224 0 0 0 0 -152.54185421246393 75.553498616811794 0 75.553498616811794 -17.502663616454811 0 0 0 0 371.82100441672446 -10.25609872946734 0 -10.25609872946734 -96.67136188234872 0 0 0 0 189.38627027047914 -7.4817936423951323 0 -7.4817936423951323 62.842334392102202 0 0 0 0 396.72059142057196 77.872426783528226 0 77.872426783528226 -149.61619996995432 0 0 0 0 15.225734361846833 99.207338573892002 0 99.207338573892002 -27.46228191891413 0 0 0 0 -246.72822188080772 102.91885042631202 0 102.91885042631202 4.1047575706325006 0 0 0 0 -49.680129543314706 174.86779783439852 0 174.86779783439852 -80.624486248882022 0 0 0 0 -38.672996196204622 220.77234572543966 0 220.77234572543966 19.429121153771121 0 0 0 0 3.6049953198562434 225.88438556663459 0 225.88438556663459 -90.578427658914734 0 0 0 0 -33.209989345844406 135.3876706444571 0 135.3876706444571 -247.04038197538466 0 0 0 0 -1071.5952786687303 18.704118305031443 0 18.704118305031443 -104.56893114105333 0 0 0 0 -704.72098401741096 185.23212949119625 0 185.23212949119625 -60.495305878750514 0 0 0 0 -427.89474362094916 141.93350728970836 0 141.93350728970836 -135.18805225651886 0 0 0 0 -601.86791910927423 135.27646145969629 0 135.27646145969629 -25.962483916402562 0 0 0 0 -427.79379514011816 215.70175658681546 0 215.70175658681546 -41.276743551832624 0 0 0 0 -274.52691593678901 277.79313931852812 0 277.79313931852812 -62.790766447007627 0 0 0 0 -248.89415258044903 120.98390246706447 0 120.98390246706447 -40.012610427365871 0 0 0 0 -408.90184517860325 153.7642677409749 0 153.7642677409749 11.584380194384721 0 0 0 0 -400.51422045191612 103.14679615521163 0 103.14679615521163 -36.774468385410728 0 0 0 0 1969.0349397710106 396.74423765090251 0 396.74423765090251 -327.713562823963 0 0 0 0 -6.1150210981136226 23.365395579792871 0 23.365395579792871 -28.834823728866354 0 0 0 0 -572.08530720067756 22.067233166191727 0 22.067233166191727 -19.693792264573858 0 0 0 0 -481.46391393647718 -31.663147967497935 0 -31.663147967497935 -27.433829949834035 0 0 0 0 938.75805608859991 428.30641111786099 0 428.30641111786099 256.72089093967224 0 0 0 0 -542.17378430181543 6.1309728009327955 0 6.1309728009327955 -172.34936199319782 0 0 0 0 -776.19329713266097 -179.00874239630321 0 -179.00874239630321 -271.94030856475001 0 0 0 0 -1047.2626917338023 -257.93810203712565 0 -257.93810203712565 -188.18174014578108 0 0 0 0 2308.6813656267404 1156.0902436694014 0 1156.0902436694014 270.93807782969088 0 0 0 0 -1338.0033901776296 1610.4442301140989 0 1610.4442301140989 -1699.4150218750001 0 0 0 0 -1121.5998088881752 1705.7998552582285 0 1705.7998552582285 -2027.4898231810803 0 0 0 0 -9.897624984930772 2.0701990319214758 0 2.0701990319214758 2.7144288820582858 0 0 0 0 -396.61269324194291 -327.59898156276904 0 -327.59898156276904 621.41983822885959 0 0 0 0 -2.6844036800310818 3.6947179402360888 0 3.6947179402360888 0.47699484504818201 0 0 0 0 227.78191698069713 -55.739017708154279 0 -55.739017708154279 200.18501961266156 0 0 0 0 -1443.4190429409937 27.583198738211649 0 27.583198738211649 716.62001852766844 0 0 0 0 -628.63198724147514 -199.78871528885793 0 -199.78871528885793 -614.98494798654428 0 0 0 0 0.27137996807944731 2.3258775512351022 0 2.3258775512351022 -5.8647511442792393 0 0 0 0 -1396.4596499084728 852.82444502545695 0 852.82444502545695 267.52126878905256 0 0 0 0 884.99524147992088 396.6692705359801 0 396.6692705359801 -1344.9113828782574 0 0 0 0 -785.97701628047071 362.56353497187956 0 362.56353497187956 -397.19085141611868 0 0 0 0 -554.44035647004057 489.04851974938356 0 489.04851974938356 -984.34476694301702 0 0 0 0 -1060.0113020203062 582.1059217111615 0 582.1059217111615 -699.41608799128153 0 0 0 0 -859.54880301278899 910.74780251664924 0 910.74780251664924 -2293.6057075779536 0 0 0 0 -1781.2659223098599 1810.8740604085615 0 1810.8740604085615 -1980.254303209309 0 0 0 0 -1075.32930507936 745.57269966000968 0 745.57269966000968 -737.92481177614536 0 0 0 0 -811.15581062321871 1053.3982825762359 0 1053.3982825762359 -544.08907043474028 0 0 0 0 -57.380858795423592 270.27219131100901 0 270.27219131100901 -1651.3404904382041 0 0 0 0 -11.065947924987881 6.7611082866547179 0 6.7611082866547179 4.4186093299535401 0 0 0 0 -435.60118434990181 954.23094505931658 0 954.23094505931658 -1427.9144692295667 0 0 0 0 -40.885478686671902 18.596372930331341 0 18.596372930331341 -5.4032169965172159 0 0 0 0 -259.41376734550431 539.33538974706607 0 539.33538974706607 -748.62501385750511 0 0 0 0 -299.2912302597324 484.68254395415715 0 484.68254395415715 -785.41469967339799 0 0 0 0 -62.923972030537698 46.358610863055219 0 46.358610863055219 -41.851466610911302 0 0 0 0 -180.17461526933766 107.5777629280492 0 107.5777629280492 -42.503281075995801 0 0 0 0 406.54583664849633 593.33199368913483 0 593.33199368913483 18.123247716051992 0 0 0 0 -21.331591178659437 33.596883517413517 0 33.596883517413517 -24.715695024358865 0 0 0 0 -8.0242745008148475 8.7387901095373763 0 8.7387901095373763 2.066392077715534 0 0 0 0 -71.945858564988157 7.1242656282047392 0 7.1242656282047392 14.386477973632282 0 0 0 0 977.51173279077193 49.752735892521741 0 49.752735892521741 -141.14044959179591 0 0 0 0 -76.571491512575449 3.8291245011860156 0 3.8291245011860156 -3.3301983703131555 0 0 0 0 -213.42444367053395 100.84071738241619 0 100.84071738241619 -34.977277093297744 0 0 0 0 -3.2669989411308151 7.0793987627326089 0 7.0793987627326089 -3.5076661977971071 0 0 0 0 1132.9369707833321 350.47770457436127 0 350.47770457436127 -70.898454181442503 0 0 0 0 -250.87266114206977 56.174589700807701 0 56.174589700807701 9.6088605356926564 0 0 0 0 802.72300426199945 362.08210860256804 0 362.08210860256804 126.41145233710267 0 0 0 0 -995.50837346862954 739.72273611457422 0 739.72273611457422 -3.6427393227641005 0 0 0 0 -0.54238737715095553 0.63445328235420106 0 0.63445328235420106 -5.8418443626825365 0 0 0 0 562.1267966239393 216.42792822285264 0 216.42792822285264 140.62309613754041 0 0 0 0 -979.64095311214624 659.30820904381835 0 659.30820904381835 -85.374197050507064 0 0 0 0 -699.65629475654714 405.76469758908206 0 405.76469758908206 310.76949548037373 0 0 0 0 -562.24591760276235 290.78361439563741 0 290.78361439563741 233.61297215134255 0 0 0 0 -421.187970117433 795.33461795514449 0 795.33461795514449 315.16787642092095 0 0 0 0 -795.58056773032149 726.15471565742337 0 726.15471565742337 285.71366505772312 0 0 0 0 -595.72050140233659 570.27188009486417 0 570.27188009486417 57.418281984282658 0 0 0 0 -1046.9932547622011 607.66683719439607 0 607.66683719439607 239.8931351161882 0 0 0 0 -728.74108009253177 484.14260117205413 0 484.14260117205413 36.821941417307244 0 0 0 0 -1333.5286637518911 490.78728301667434 0 490.78728301667434 90.281661954679294 0 0 0 0 -933.27851562302749 752.4402520884687 0 752.4402520884687 -187.05832470944733 0 0 0 0 -246.9068165756762 273.05920756547857 0 273.05920756547857 -87.149380731892506 0 0 0 0 -147.19849146832712 -4.2588845024947659 0 -4.2588845024947659 -68.271078422127175 0 0 0 0 -160.7747878592163 37.778813313874707 0 37.778813313874707 -385.50778504795744 0 0 0 0 -107.72396513078638 262.87545613192924 0 262.87545613192924 -332.07880087046942 0 0 0 0 -187.00723740665126 325.01252295418817 0 325.01252295418817 -337.54569589791936 0 0 0 0 -105.5578329531163 413.33384529288742 0 413.33384529288742 -278.12846737532527 0 0 0 0 -109.53075839364828 396.27388386055827 0 396.27388386055827 -332.93470940322732 0 0 0 0 -340.11233641717081 391.56356223530929 0 391.56356223530929 -203.36963630552054 0 0 0 0 0.9635210223274342 5.4162200172335098 0 5.4162200172335098 -11.29826776068461 0 0 0 0 -1394.7537958676985 634.98683384709511 0 634.98683384709511 -98.920157429427491 0 0 0 0 -258.74683131773054 395.2563119004044 0 395.2563119004044 -215.51379773632652 0 0 0 0 -259.46559862743015 429.75903821881366 0 429.75903821881366 -267.49843165803031 0 0 0 0 -119.96045006271743 501.64004114347335 0 501.64004114347335 -297.11309848731617 0 0 0 0 4.3565256448127911 391.70651526052097 0 391.70651526052097 -332.82900970324408 0 0 0 0 -45.579131353017146 324.65512869395752 0 324.65512869395752 18.082264692959143 0 0 0 0 57.515685500824475 351.27151838730788 0 351.27151838730788 -359.67443638827535 0 0 0 0 -214.1908926595861 214.38207026697637 0 214.38207026697637 -88.35255678682006 0 0 0 0 258.17748466898047 112.00000090240064 0 112.00000090240064 -84.679305288736941 0 0 0 0 -7.638315225536644 349.90312395596993 0 349.90312395596993 -11.158530633256305 0 0 0 0 -269.32894463070261 821.92949208954087 0 821.92949208954087 -590.05615624460916 0 0 0 0 62.720910497784644 19.656375679085613 0 19.656375679085613 -3.9583992417901754 0 0 0 0 150.80900482266225 58.427248936026444 0 58.427248936026444 -22.44527807697159 0 0 0 0 24.106418319701334 166.14916957954847 0 166.14916957954847 -65.767659873858065 0 0 0 0 70.067773677779769 60.448026900165132 0 60.448026900165132 170.17225163729745 0 0 0 0 35.226373890371178 381.5144487123107 0 381.5144487123107 231.53190428145899 0 0 0 0 -52.568788365591899 -260.36183450398676 0 -260.36183450398676 549.38955959296072 0 0 0 0 131.61792222531221 79.717423702270025 0 79.717423702270025 208.78791331761749 0 0 0 0 13.710949901264854 84.30962926567264 0 84.30962926567264 134.93290168771071 0 0 0 0 -13.589122349094737 7.1900627137100628 0 7.1900627137100628 46.266373282953282 0 0 0 0 46.070288967181114 186.65722655144054 0 186.65722655144054 -154.63502676087955 0 0 0 0 105.00720819824346 379.90312239842024 0 379.90312239842024 -229.82307499286253 0 0 0 0 -19.152891073194041 293.15831788310606 0 293.15831788310606 -260.82149964111159 0 0 0 0 -69.474492248089518 361.48428051182418 0 361.48428051182418 -231.69224782451784 0 0 0 0 -125.40313923544454 275.23196653045306 0 275.23196653045306 -192.96936340190587 0 0 0 0 97.044159771641716 64.920627880226675 0 64.920627880226675 3.2194660283930716 0 0 0 0 27.081267292119989 41.454232165234387 0 41.454232165234387 25.112836384531136 0 0 0 0 -121.799063166412 252.01668150884962 0 252.01668150884962 -199.66185578596196 0 0 0 0 -4.5233594214143693 60.251090223192563 0 60.251090223192563 88.03749065030371 0 0 0 0 -33.942559572373284 106.54030799341854 0 106.54030799341854 -6.4200667343102396 0 0 0 0 -255.84512754176467 542.54364776342118 0 542.54364776342118 -548.61673687014263 0 0 0 0 17.5666178823667 84.000149161773152 0 84.000149161773152 -24.052690159034682 0 0 0 0 -433.80342775138342 111.8645488746115 0 111.8645488746115 -6.9605345343006775 0 0 0 0 20.950639745183054 32.910149728774172 0 32.910149728774172 25.986671201619913 0 0 0 0 -180.48371103537647 304.55652566811477 0 304.55652566811477 -182.74660160838539 0 0 0 0 -52.630267909044051 384.05595195251954 0 384.05595195251954 -480.21823581669014 0 0 0 0 -167.98446159851301 402.0793068552739 0 402.0793068552739 -310.95333776008192 0 0 0 0 -85.745426936875447 248.01193586134468 0 248.01193586134468 -471.87820651371339 0 0 0 0 -47.603070513192506 257.27272323934449 0 257.27272323934449 -699.354112616973 0 0 0 0 -106.89509155573614 -32.235246897456818 0 -32.235246897456818 -526.56788192680688 0 0 0 0 -348.73431852617068 140.34685148436984 0 140.34685148436984 -710.53087653221155 0 0 0 0 -408.76179151513634 574.06587131764354 0 574.06587131764354 -1064.0164584369923 0 0 0 0 -93.464258176623844 168.04285115201492 0 168.04285115201492 -861.23553244156938 0 0 0 0 -102.94457105987567 49.853639330745864 0 49.853639330745864 -877.61960347849526 0 0 0 0 -2.4633210778592343 -4.7107355697753235 0 -4.7107355697753235 -14.707634883914466 0 0 0 0 -278.32615765779337 890.89510016782151 0 890.89510016782151 -1448.2835385846265 0 0 0 0 -371.00197841219051 498.23354483090225 0 498.23354483090225 -1282.7070102503349 0 0 0 0 85.126768800873833 -290.78452951207146 0 -290.78452951207146 -896.99907403322868 0 0 0 0 -133.33821406898824 -237.79996184075208 0 -237.79996184075208 -218.21360067346541 0 0 0 0 -113.10754212902975 -112.93370167705871 0 -112.93370167705871 -342.35691865906119 0 0 0 0 42.631414023027901 101.35461418690466 0 101.35461418690466 -77.826891111646546 0 0 0 0 24.719890911073108 24.977932585672164 0 24.977932585672164 -77.625733393221509 0 0 0 0 6.8455092743024579 51.48098258554819 0 51.48098258554819 -71.661472991239862 0 0 0 0 -10.324195334353135 78.482196732249577 0 78.482196732249577 64.189173127859249 0 0 0 0 13.193286364746939 39.845202700623872 0 39.845202700623872 -27.089413325357867 0 0 0 0 -0.39781071826848802 5.4083086899153159 0 5.4083086899153159 21.481918603532279 0 0 0 0 50.128003348028869 95.394936286902521 0 95.394936286902521 -233.33260697766673 0 0 0 0 23.591835383020225 31.245634698221693 0 31.245634698221693 -90.457490154047264 0 0 0 0 -0.173238790387785 2.9723342667525969 0 2.9723342667525969 0.52345315062413533 0 0 0 0 718.88322867106035 607.47824581830355 0 607.47824581830355 -602.0556052349566 0 0 0 0 -0.73013005061346803 2.9944140869741034 0 2.9944140869741034 4.5953287326721295 0 0 0 0 44.797720071415824 288.0930289413227 0 288.0930289413227 -495.6478304865559 0 0 0 0 307.29075683910924 124.26876660085691 0 124.26876660085691 -1148.0321119189903 0 0 0 0 209.92608258370456 27.234777682257118 0 27.234777682257118 -447.85514288343256 0 0 0 0 -340.90602021233644 -73.532342835853342 0 -73.532342835853342 -118.091481996933 0 0 0 0 -57.78821554989554 168.58344665163168 0 168.58344665163168 -5.3301160975679522 0 0 0 0 5.2839479859809586 8.6351855820243202 0 8.6351855820243202 -22.018702430185584 0 0 0 0 1.8621535414872028 14.639845896186955 0 14.639845896186955 14.009162501132209 0 0 0 0 -178.22293611415807 -280.32717770063027 0 -280.32717770063027 -258.71357368183089 0 0 0 0 245.27262943063397 -107.74497954850085 0 -107.74497954850085 -495.60891209256079 0 0 0 0 451.9795375798567 -48.085266011112253 0 -48.085266011112253 -31.573207245586673 0 0 0 0 10.072388684777252 121.64633056302409 0 121.64633056302409 -78.907796654792037 0 0 0 0 -142.03641701137531 -66.340401402310818 0 -66.340401402310818 -112.54622318300608 0 0 0 0 31.988812653376954 64.876358492168947 0 64.876358492168947 -59.327111129663535 0 0 0 0 15.880214772137947 35.710224824392611 0 35.710224824392611 -43.037402222642612 0 0 0 0 333.67696649494246 174.65771650624811 0 174.65771650624811 -109.86221463039692 0 0 0 0 236.92632138885165 95.313604018636397 0 95.313604018636397 -92.173113323297002 0 0 0 0 -0.62884819044957396 54.904365520594354 0 54.904365520594354 1.3375860395428845 0 0 0 0 11.686345130434262 56.956928034376119 0 56.956928034376119 -75.071570590869001 0 0 0 0 10.24112539332792 57.085397178939701 0 57.085397178939701 -52.833191118524638 0 0 0 0 25.151184761969489 118.58117006953398 0 118.58117006953398 16.648723005131615 0 0 0 0 28.849179331496998 74.001539931530715 0 74.001539931530715 1.015751428931253 0 0 0 0 207.31814516643499 259.75134567148598 0 259.75134567148598 -6.9471320592056145 0 0 0 0 86.526592437687214 113.88477672986483 0 113.88477672986483 -122.6162849209195 0 0 0 0 99.008824954536976 120.0761306208733 0 120.0761306208733 -126.05839613504213 0 0 0 0 105.31698495347518 129.68251069292273 0 129.68251069292273 -121.84226084158581 0 0 0 0 70.583936026130687 67.120229525811737 0 67.120229525811737 -85.235405951651046 0 0 0 0 80.431271339699066 86.384982203563766 0 86.384982203563766 -77.297790974746533 0 0 0 0 45.060263135901693 45.872207146518889 0 45.872207146518889 -79.474704213458267 0 0 0 0 33.535817513254813 72.116216892712032 0 72.116216892712032 -61.549161676896716 0 0 0 0 -99.389942948408134 -67.345946503701271 0 -67.345946503701271 169.55291808521724 0 0 0 0 17.741045302820567 85.83953555647895 0 85.83953555647895 -18.991038017971732 0 0 0 0 16.406700499905824 72.855308282244508 0 72.855308282244508 30.513847495054904 0 0 0 0 24.602873063580773 74.983186309189477 0 74.983186309189477 4.0435963824493228 0 0 0 0 -473.84575363513432 -10.61994983011391 0 -10.61994983011391 137.95931100658709 0 0 0 0 4.704976574081229 254.609299185493 0 254.609299185493 226.49398189914427 0 0 0 0 7.1022549537188411 65.361027154019553 0 65.361027154019553 -33.271906285511335 0 0 0 0 253.06696409026699 235.37778680183874 0 235.37778680183874 -395.69042781891767 0 0 0 0 1.481485272970545 0.28803152236842777 0 0.28803152236842777 -4.3335461535604622 0 0 0 0 176.67641800610727 -50.981492862665618 0 -50.981492862665618 -241.29910126674804 0 0 0 0 -562.12056030081294 206.65185641226344 0 206.65185641226344 5.6966854843485635 0 0 0 0 110.08991730061825 43.628320852429169 0 43.628320852429169 -321.63529043923336 0 0 0 0 -170.07890239245899 355.56097047760704 0 355.56097047760704 -255.16180136871117 0 0 0 0 28.860459150506358 167.18177484014086 0 167.18177484014086 -79.395146185444901 0 0 0 0 -19.630580608456512 306.54814647759122 0 306.54814647759122 -70.523242752722581 0 0 0 0 -169.22462074764917 233.25890938564044 0 233.25890938564044 -17.712210372374102 0 0 0 0 -101.48376569605898 116.76937863595231 0 116.76937863595231 21.187807222202537 0 0 0 0 30.964272688909439 17.925990414201948 0 17.925990414201948 -5.0739847897509662 0 0 0 0 -41.133879920067557 136.9021012535959 0 136.9021012535959 -14.247466550230456 0 0 0 0 -29.602134166074393 105.09124550049091 0 105.09124550049091 8.2365866552881926 0 0 0 0 59.541676929569292 60.319203664383537 0 60.319203664383537 45.569785165387231 0 0 0 0 11.107824576713028 165.21192948142561 0 165.21192948142561 -49.338378557469696 0 0 0 0 9.283797325391788 172.73303091552953 0 172.73303091552953 -78.167949942173436 0 0 0 0 -16.446839846794319 210.19013495524814 0 210.19013495524814 -65.684343645873014 0 0 0 0 -11.09414195411955 192.36214674079383 0 192.36214674079383 -7.7350697741821932 0 0 0 0 70.18709142402804 97.258178477037291 0 97.258178477037291 -8.9810492423948745 0 0 0 0 101.19279000021925 105.50160896382295 0 105.50160896382295 -9.8329233636177378 0 0 0 0 14.653793960217826 39.580474593617708 0 39.580474593617708 -48.233839273701193 0 0 0 0 91.567706993722823 122.80330486127059 0 122.80330486127059 -119.51528247650458 0 0 0 0 95.801529433944708 55.701774033502964 0 55.701774033502964 -9.9388670278312219 0 0 0 0 90.023001907164144 81.839426440370517 0 81.839426440370517 -17.690511918000993 0 0 0 0 86.3250601075124 76.198131934492267 0 76.198131934492267 -15.822217781256768 0 0 0 0 147.67784532664155 92.346190583744828 0 92.346190583744828 -63.677192944567651 0 0 0 0 140.44225461062888 34.970103526469757 0 34.970103526469757 -38.336821451761352 0 0 0 0 106.18085254395297 65.210575717588398 0 65.210575717588398 8.4507048167098588 0 0 0 0 16.798155693332717 55.156596194834208 0 55.156596194834208 -43.031265364186197 0 0 0 0 164.76053229602985 112.32457019139838 0 112.32457019139838 -27.309854723983563 0 0 0 0 113.15292582448456 53.780138230097691 0 53.780138230097691 -56.290476731352101 0 0 0 0 85.985918586928165 74.327510305338365 0 74.327510305338365 -24.983278295942 0 0 0 0 67.86126000926015 66.807568052587158 0 66.807568052587158 -19.33292021122179 0 0 0 0 87.278014215116855 94.817802106641466 0 94.817802106641466 -29.237362720032252 0 0 0 0 41.426943731097708 61.850483024562891 0 61.850483024562891 -48.97640504782612 0 0 0 0 24.546366007794859 116.32682651242067 0 116.32682651242067 -34.145327004924297 0 0 0 0 51.857793629475054 102.22050183464671 0 102.22050183464671 -60.352296054261387 0 0 0 0 87.78243667397328 92.446017960624886 0 92.446017960624886 -34.630203168504522 0 0 0 0 5.6142845931026386 53.93340327671649 0 53.93340327671649 -164.75128732368466 0 0 0 0 49.650720416283804 55.657018754284316 0 55.657018754284316 6.9401308935416992 0 0 0 0 62.266303231474012 161.88380205585418 0 161.88380205585418 -71.846523417127173 0 0 0 0 26.046691419265699 137.96678739160416 0 137.96678739160416 -225.3812136669294 0 0 0 0 -12.210610804730095 115.98804277338786 0 115.98804277338786 -62.834150932347256 0 0 0 0 -46.083691504376475 102.65915540585411 0 102.65915540585411 -67.26526686566649 0 0 0 0 13.811214845529832 7.9390077972062443 0 7.9390077972062443 -9.1220129754169648 0 0 0 0 69.923914021928795 104.6328664670873 0 104.6328664670873 -144.03137787921878 0 0 0 0 35.900202657547197 96.271543888531596 0 96.271543888531596 -38.634584653016645 0 0 0 0 78.452501717023551 121.18735977867618 0 121.18735977867618 -112.20409551342891 0 0 0 0 -10.72832264075987 61.442424056112941 0 61.442424056112941 -104.85998055350501 0 0 0 0 33.085997769623646 76.577684587711701 0 76.577684587711701 -99.899482074091793 0 0 0 0 -64.532562850770773 138.64623984611171 0 138.64623984611171 -72.527002660135622 0 0 0 0 177.47038608145522 95.183930882585628 0 95.183930882585628 -51.348926737766305 0 0 0 0 4.1966272589264833 60.231135880157836 0 60.231135880157836 -20.891257403111936 0 0 0 0 117.35452840132348 155.73018268483065 0 155.73018268483065 -59.088438771515939 0 0 0 0 79.658606597286052 107.05813426729014 0 107.05813426729014 1.360149011197791 0 0 0 0 50.86876866867533 72.201064227908773 0 72.201064227908773 28.173992326156167 0 0 0 0 44.627975007635541 60.115238619868251 0 60.115238619868251 6.5434548384509981 0 0 0 0 293.73102357593598 169.4435607237574 0 169.4435607237574 102.31262534087227 0 0 0 0 55.114184890084829 58.026116125728109 0 58.026116125728109 30.599613570398322 0 0 0 0 106.83401771466225 119.41957029271197 0 119.41957029271197 12.75741326172227 0 0 0 0 139.40471406042343 54.585978190843889 0 54.585978190843889 118.80662242322433 0 0 0 0 50.430590044763164 106.73089056240744 0 106.73089056240744 -12.764022073524075 0 0 0 0 23.33047204092145 79.269268608422863 0 79.269268608422863 -28.287833215377759 0 0 0 0 -7.0645268131047487 89.53424285598885 0 89.53424285598885 -10.224785567610525 0 0 0 0 28.112117743387159 76.040137183456693 0 76.040137183456693 31.269720373028342 0 0 0 0 212.07315478636883 199.59560221712309 0 199.59560221712309 -11.17492997467707 0 0 0 0 42.041015623399289 25.432507733783495 0 25.432507733783495 370.34185944733326 0 0 0 0 26.019119716591774 88.879302148049021 0 88.879302148049021 10.289898552627061 0 0 0 0 97.967977711174171 185.88835753191233 0 185.88835753191233 -10.976978064929426 0 0 0 0 -79.480298852024134 -185.86643107979035 0 -185.86643107979035 184.90947099564801 0 0 0 0 -4.2443084838178038 169.08263232524268 0 169.08263232524268 -80.700272827489243 0 0 0 0 55.89172118340835 69.416771405812497 0 69.416771405812497 21.604049108387699 0 0 0 0 112.23015872261021 70.483528117310925 0 70.483528117310925 -95.182877782106516 0 0 0 0 -25.739139490651723 125.3122858118586 0 125.3122858118586 -34.840546128063579 0 0 0 0 80.12731897708727 134.56942258503113 0 134.56942258503113 -14.372781754922471 0 0 0 0 86.693094133443083 129.83007994135914 0 129.83007994135914 -87.516392351215472 0 0 0 0 85.256510585051728 90.913640559187115 0 90.913640559187115 12.148222253854328 0 0 0 0 62.267882046115119 79.810085601025776 0 79.810085601025776 33.08690794091217 0 0 0 0 79.417679296893198 54.694039058752217 0 54.694039058752217 -10.839900433197625 0 0 0 0 86.593102830083808 100.93426698839221 0 100.93426698839221 114.20799021148559 0 0 0 0 24.859790729212477 41.511771526724672 0 41.511771526724672 24.902914297725761 0 0 0 0 70.18451950832241 113.44388302235154 0 113.44388302235154 111.66241949479422 0 0 0 0 25.808521792623196 65.875776346161004 0 65.875776346161004 -26.6361826579761 0 0 0 0 19.201600745898986 45.378027104179196 0 45.378027104179196 -9.2476587743809233 0 0 0 0 -29.295788737836119 167.31634520113585 0 167.31634520113585 -22.768968319716805 0 0 0 0 26.25460949272383 82.729352887676214 0 82.729352887676214 -110.25516364742725 0 0 0 0 2.8470010543096578 164.82450458252788 0 164.82450458252788 -38.136029941622155 0 0 0 0 3.6320485334584873 17.942419741550054 0 17.942419741550054 25.991972991918239 0 0 0 0 67.585300811420893 -78.250262777288299 0 -78.250262777288299 -237.63223898226897 0 0 0 0 -31.985391413723846 -23.086923883053714 0 -23.086923883053714 -441.13498507777695 0 0 0 0 -185.82653865097382 -101.89618891847476 0 -101.89618891847476 596.07043074765534 0 0 0 0 129.70781383001304 126.95845714402822 0 126.95845714402822 54.354891871720611 0 0 0 0 47.831467156352161 29.612065234892803 0 29.612065234892803 -211.07202908878489 0 0 0 0 32.440965578357321 56.327516258726547 0 56.327516258726547 -37.536669657654407 0 0 0 0 41.547885586653138 35.659365479085864 0 35.659365479085864 -95.533150382183521 0 0 0 0 11.999237053726006 114.92801057871537 0 114.92801057871537 44.121868065327213 0 0 0 0 40.152328117808793 105.6257502288754 0 105.6257502288754 -52.091600655134243 0 0 0 0 34.065703397780453 127.8162714027294 0 127.8162714027294 -57.973826816538349 0 0 0 0 37.495294772554189 97.17881449876586 0 97.17881449876586 -64.330438300612514 0 0 0 0 -14.305307108574198 132.93786218165042 0 132.93786218165042 16.466380221674626 0 0 0 0 83.80306302770623 293.88561719490099 0 293.88561719490099 661.81923882944102 0 0 0 0 30.901564650809348 95.17106579968528 0 95.17106579968528 -60.21688679579821 0 0 0 0 -14.662408775722128 28.100737175359086 0 28.100737175359086 32.829320025580039 0 0 0 0 -11.392946779451449 7.7018316160174436 0 7.7018316160174436 -39.23472467456304 0 0 0 0 149.18201939659775 24.696514892841151 0 24.696514892841151 -517.7272421678008 0 0 0 0 393.23823115813138 342.73031523635655 0 342.73031523635655 170.56266261958535 0 0 0 0 11.949773621116151 15.531055928330753 0 15.531055928330753 -17.930513544066777 0 0 0 0 90.761906051484402 284.09751726016839 0 284.09751726016839 244.5065786932355 0 0 0 0 462.3290864827577 417.67621798295295 0 417.67621798295295 272.37869927999782 0 0 0 0 5.5939568482407367 17.552241370164438 0 17.552241370164438 -13.54378620679314 0 0 0 0 527.07306674587016 557.28393007961586 0 557.28393007961586 478.31533045384276 0 0 0 0 487.98649392613152 435.43151408807898 0 435.43151408807898 209.28069607622638 0 0 0 0 119.00214811436308 160.11799739252592 0 160.11799739252592 -378.39300527953674 0 0 0 0 88.170199710089946 -785.5215730425432 0 -785.5215730425432 -802.73312234722107 0 0 0 0 3.445301431522239 310.3123211163911 0 310.3123211163911 614.12027943825888 0 0 0 0 -560.96114011114696 -844.40448805767301 0 -844.40448805767301 1895.417024737988 0 0 0 0 257.06004799765651 680.75897213335338 0 680.75897213335338 1146.7476111429569 0 0 0 0 12.073687906988198 -725.10800235187344 0 -725.10800235187344 1006.1616881709924 0 0 0 0 -51.10443341453356 405.66509682131436 0 405.66509682131436 375.51163153613015 0 0 0 0 9.1004024093817861 864.33997896828714 0 864.33997896828714 534.08991076200255 0 0 0 0 273.96612947933318 726.6056808156427 0 726.6056808156427 -989.67436474639544 0 0 0 0 -177.21245778363664 -185.89894999317949 0 -185.89894999317949 858.71592066746234 0 0 0 0 426.08447175867332 122.21807277585322 0 122.21807277585322 276.84415438088217 0 0 0 0 -386.68150015876745 646.87941690246316 0 646.87941690246316 1653.1093273263004 0 0 0 0 351.94298858753609 1125.3801210569654 0 1125.3801210569654 740.33595351429722 0 0 0 0 3.6782194309163714 6.7408767963390179 0 6.7408767963390179 1.5909072506272892 0 0 0 0 141.3649501921318 562.59549439794409 0 562.59549439794409 -40.067360024463596 0 0 0 0 -26.080103638550469 116.59093929136525 0 116.59093929136525 -66.518838991607169 0 0 0 0 213.2808061512842 112.61381740957586 0 112.61381740957586 -930.55836306032188 0 0 0 0 -120.95624924641197 824.57484523406697 0 824.57484523406697 82.97890962670499 0 0 0 0 -139.10443523607091 186.29335022884163 0 186.29335022884163 -53.763322169384992 0 0 0 0 -4.9488423687463268 99.441800423162803 0 99.441800423162803 -64.796369513376177 0 0 0 0 -304.33173134263052 118.16461913791863 0 118.16461913791863 -215.54027850497823 0 0 0 0 -7.3872934413503515 2.3961741944578989 0 2.3961741944578989 -6.4622901671160804 0 0 0 0 6.7443339317687787 10.097260594797262 0 10.097260594797262 539.05446212141214 0 0 0 0 68.958353023756899 346.97100643234444 0 346.97100643234444 506.81460826299008 0 0 0 0 119.61221015735646 -25.070685637212591 0 -25.070685637212591 -850.5943672138601 0 0 0 0 4.5881419701472623 530.75579687309801 0 530.75579687309801 -470.99513305204164 0 0 0 0 139.53209647181939 358.90073932100131 0 358.90073932100131 -851.08543411976279 0 0 0 0 12.513946121776826 244.06775694269163 0 244.06775694269163 -406.91227327944944 0 0 0 0 -3.5884655564441346 318.30226893574581 0 318.30226893574581 -433.00447389220062 0 0 0 0 -235.92174568405608 -199.73624359728274 0 -199.73624359728274 -319.41490403491662 0 0 0 0 -433.89673045418749 834.34933287225431 0 834.34933287225431 208.2003841012629 0 0 0 0 -19.491859164465836 140.03250857734156 0 140.03250857734156 -132.67173763080064 0 0 0 0 36.592811817359149 42.13369790754534 0 42.13369790754534 -45.162591626947119 0 0 0 0 -201.61312259751276 -438.04595413850257 0 -438.04595413850257 327.68771936552366 0 0 0 0 253.21016489635804 250.49959222045436 0 250.49959222045436 -703.81817128736475 0 0 0 0 -25.69809635669148 90.094017320532288 0 90.094017320532288 91.829586194859147 0 0 0 0 -144.24052017556096 234.41016532274807 0 234.41016532274807 118.00130345566868 0 0 0 0 -102.03780606123473 484.86269215052744 0 484.86269215052744 -40.460793506419577 0 0 0 0 286.15025704755681 -294.68186401556886 0 -294.68186401556886 34.855703534032727 0 0 0 0 7.3227015599210148 85.016507502994102 0 85.016507502994102 127.17571462283249 0 0 0 0 -0.53980151856609382 8.1166322453310329 0 8.1166322453310329 35.015769465707479 0 0 0 0 -188.45402184340492 165.259559912447 0 165.259559912447 302.31465852902329 0 0 0 0 -90.897523393745359 216.73458367702187 0 216.73458367702187 -199.17678906695801 0 0 0 0 63.32865857280558 173.76087051111244 0 173.76087051111244 -253.9218533913463 0 0 0 0 115.38722847067038 343.19398722205369 0 343.19398722205369 -211.85478344743024 0 0 0 0 3.240263831508372 -0.70643497247127129 0 -0.70643497247127129 -0.21691029086046854 0 0 0 0 58.390005733657745 230.61690944703878 0 230.61690944703878 -431.0072964191022 0 0 0 0 48.741310448458535 345.19081803406152 0 345.19081803406152 73.740166327275801 0 0 0 0 37.462195351330593 264.49587155666813 0 264.49587155666813 -110.39872496618773 0 0 0 0 35.278889075823827 146.21671371127741 0 146.21671371127741 -53.353476801726856 0 0 0 0 103.58459095684884 221.01300838019961 0 221.01300838019961 -199.01609814874246 0 0 0 0 58.0368552114669 145.77552137298335 0 145.77552137298335 -160.91603170629242 0 0 0 0 59.277504740784934 242.64316427064477 0 242.64316427064477 -107.99404755694923 0 0 0 0 49.035227544474765 135.67276733750259 0 135.67276733750259 -168.12733314967772 0 0 0 0 41.062399066711805 70.258898208696337 0 70.258898208696337 -233.17765341128688 0 0 0 0 51.512139003782067 171.76841555039573 0 171.76841555039573 -253.94494884637243 0 0 0 0 -18.068346499996551 -60.449367664088641 0 -60.449367664088641 -408.34378750696487 0 0 0 0 49.66321702098503 260.39159707766157 0 260.39159707766157 -451.92366965049587 0 0 0 0 27.890172861902101 209.22971768840944 0 209.22971768840944 -357.44318985511927 0 0 0 0 -18.930182038460771 286.28666696064101 0 286.28666696064101 -198.21675484100706 0 0 0 0 20.650925732534233 177.81440672354529 0 177.81440672354529 -218.24061472326866 0 0 0 0 
</DataArray>
<DataArray type="Float64" Name="cross_section_updated" format="ascii">
1 1 1 1 1 1 1 1 1 1 1 1 0.01144511365540625 1 1 1 1 1 1 1 1 0.0061614839316520339 1 1 1 1 1 -3.0047142777350766e-09 1 1 0.020811672924920421 1 1 1 -7.6716654452690936e-09 1 1 0.020331834799443137 1 1 1 1 1 1 1 0.013602027322069644 1 1 1 1 1 1 0.011772927098266349 1 1 1 1 1 1 1 1 0.011197704555940199 1 1 1 1 0.010382636198500127 1 1 1 1 1 1 1 1 1 1 1 0.010273146712633754 0.010655782911133914 1 1 1 1 1 1 1 1 1 1 0.011387646064306055 0.013638004307207678 1 1 1 0.013697085122814298 1 1 1 0.012016139463707623 1 1 1 0.016271249213266156 1 1 1 1 1 1 1 1 0.0060907314765454509 1 1 1 1 1 1 1 1 1 1 1 1 1 1 1 1 1 1 1 1 1 1 1 1 1 0.0075281170824442398 1 1 1 1 0.0053491211589198392 1 1 1 1 1 1 1 1 1 0.01532662894533058 0.0041453836691993928 1 1 0.016374649248659175 1 1 1 1 0.0089375771300213257 1 0.015049476740829626 1 1 1 1 1 1 1 1 0.0081132789182334405 1 1 1 1 1 1 1 1 1 1 0.0051170813564234245 1 1 0.020323736011705659 1 1 0.012189178584375598 1 1 1 1 0.020050204363400263 1 0.016547569767090473 1 1 1 1 1 1 1 1 1 1 1 1 1 1 1 1 1 1 1 1 1 1 1 1 1 1 1 1 1 1 1 1 1 1 1 1 1 0.026520325790328966 1 1 1.9794390553745655e-09 1 0.021044698607154945 1 1 1 1 0.014012395073053685 1 -1.6115830475671444e-09 0.00054825754682772711 1 1 1 1 0.0099341402449913338 1 7.5558335456415993e-10 1 1 0.0095582062429096955 1 1 1 1 1 1 1 1 1 1 1 1 1 1 0.01477430906575148 1 1 1 1 1 1 1 0.010762756046323742 1 1 1 1 1 1 1 1 1 1 1 1 1 1 1 1 1 1 1 1 1 1 1 1 1 1 0.0091329927509432671 1 1 1 1 0.0075078224506392646 1 1 1 1 1 0.0062866726421298615 1 0.016086400418342951 1 1 1 0.00070100534522080787 1 1 1 1 1 1 1 1 1 1 1 0.010574633153488028 1 1 1 1 1 1 1 1 1 1 1 1 1 1 1 1 1 1 1 1 1 1 1 1 1 1 1 1 1 0.0063180298713689347 1 1 1 1 0.011146893514627464 1 1 1 1 1 1 1 0.0071069094365846536 1 1 1 1 1 1 1 1 0.002616592682352481 1 -5.7858605545524355e-09 1 1 0.020808996254887441 1 1 1 1 1 1 0.0062142919855822688 1 1.5230409607103201e-09 1 1 1 1 1 1 1 1 1 1 1 1 0.0041963396998649771 0.0089613427443816784 1 1 1 0.0047315326434718748 0.0098176247905334118 1 1 1 1 1 1 1 0.0010411027027144651 0.012610170756809223 1 1 1 0.0087532770201288624 1 1 1 0.0049870883643028247 1 1 1 1 0.013502616943699357 0.0099848770566768469 1 0.010281585497679234 1 1 1 1 0.007944995413083137 1 1 1 1 1 1 1 1 1 1 1 1 1 1 1 1 1 1 1 1 1 1 1 1 1 1 1 1 1 1 0.010592259951525254 1 1 1 1 1 1 1 1 1 1 1 1 1 1 1 1 1 1 1 1 1 0.010138865066232496 1 1 1 1 1 1 1 1 1 0.0098163671344443856 1 1 1 1 0.017417422105627661 1 1 1 -3.585320011365023e-09 1 1 0.023206622549496389 1 1 1 1 1 1 1 1 1 1 0.0095012951491175966 0.01364659665491539 0.015026118236684337 1 1 1 1 1 1 -2.3485538618028823e-09 1 1 1 1 1 1 1 1 0.0046099269565684463 1 1 1 1 1 1 0.017466670831810534 1 1 1 1 1 1 1 1 1 1 1 1 1 0.010487336766100717 1 1 0.011368834833338934 1 1 1 1 -3.559927018101372e-09 1 1 4.319995423884837e-09 1 1 1 1 1 1 1 1 1 1 1 1 1 1 1 1 1 1 1 1 0.010356650660705631 1 1 1 1 1 1 0.012215292825745426 1 1 1 0.011140324976842156 0.01669929886511326 1 1 1 0.01752424837290302 1 1 1 1 1 1 1 1 1 1 1 1 0.010767685164771834 1 1 0.019935411159003394 1 1 1 1 0.0083251628964732382 1 0.011856075703540844 1 1 1 1 1 1 1 1 1 1 -1.1089231789773724e-10 1 1 1 1 1 1 1 1 1 1 0.0099230425750156601 1 1 1 1 1 1 1 1 1 1 1 1 1 1 1 1 1 0.010260307476453047 1 1 1 1 1 1 1 1 1 1 1 1 0.0091710794126923512 0.0075025578847559907 1 1 0.0041554955178232187 1 1 1 1 0.0098805831745417839 1 1 0.004828608123944738 1 1 1 1 1 1 0.012494884770979736 1 1 0.0038402974909174667 1 0.012071964111795841 1 1 1 1 0.0046832698827312582 1 0.010004478732202648 1 1 1 1 1 1 0.0076174885669606264 1 1 1 1 0.0076390884253677641 1 1 1 0.0098222547526821882 1 1 0.010067611017022679 1 0.0062738849200233166 1 1 1 0.013980329296592275 1 1 1 0.0099875015339172465 1 1 1 1 1 1 1 1 1 1 0.0064211162060629004 1 0.010006035070235475 1 0.0099051276433350238 1 1 1 0.010017952863655116 1 1 1 1 1 1 1 0.010940878995883065 1 1 1 1 1 1 1 1 1 1 1 1 1 1 1 0.015950656512928714 1 1 1 1 0.010300462491624227 1 1 1 1 0.015863032673190787 1 1 1 1 1 0.015286687964851504 1 1 1 1 1 1 1 1 1 1 1 1 1 1 1 1 1 1 1 1 1 1 1 1 1 1 1 1 1 1 1 1 1 1 1 1 1 1 1 1 1 1 1 1 1 1 0.0097200007003209465 1 1 1 1 1 1 0.0096115925834296418 1 1 1 1 1 1 1 1 1 1 1 1 1 1 1 0.0084566901692493777 1 1 1 1 1 0.0098915918831087007 1 1 1 1 1 1 1 0.011968691480841315 1 1 1 1 1 1 1 1 1 1 1 1 1 1 1 1 1 1 1 1 1 1 1 0.0065828349682571299 1 1 1 1 1 1 1 1 1 1 1 1 -3.3305153010476651e-09 1 1 1 1 1 1 1 1 1 0.0040809611352701667 1 1 1 1 1 1 1 1 1 1 0.0086738692681876742 1 1 1 1 1 1 1 1 1 1 1 0.00058826953888717337 0.0042966322443134348 1 1 1 1 1 1 1 -3.0149801683032607e-09 1 1 1 1 0.0079258456746492678 1 1 1 1 1 1 0.011511767903286826 1 1 1 1 1 1 1 1 1 1 0.0028598379542098366 1 1 1 1 1 1 0.0073026583218998489 1 1 1 1 1 1 1 0.012297646236230295 1 1 0.0084881056646231214 1 0.0078253262002006517 1 1 1 1 1 1 1 0.008971697405402046 1 1 1 1 0.014964757005867607 1 1 1 1 1 1 1 0.00081861572896587027 1 1 1 1 0.014642188487180907 1 1 0.0041359845092672973 1 0.0099528998905385677 1 1 1 1 1 0.0082577930199183077 1 1 1 1 0.0072450169078103963 0.0091188721088026337 1 1 1 1 1 1 1 1 1 1 1 0.0097896582454474954 1 1 1 1 1 1 0.0078937419251009187 1 1 1 1 1 1 1 1 0.0093867805445289887 1 1 1 1 1 1 1 1 1 1 1 1 1 1 0.0070184958689230338 1 1 1 0.0087352042659808865 1 1 1 1 1 1 1 1 1 1 1 1 0.009336641676496428 1 1 1 1 1 1 1 0.019090724443277328 1 0.010282479196420353 1 0.005209086364951921 1 0.011593846551407281 1 1 1 1 1 1 1 1 0.010375499146301752 1 1 0.010787519959442115 1 1 0.010624356480632235 1 1 1 1 0.0019795396647619388 1 1 1 1 1 1 1 1 0.0071211254112129099 1 0.017953279546082831 1 0.0099909501051699823 1 1 0.016927616774134215 1 1 1 0.0081635158456390515 1 1 1 0.010429129128143044 1 0.008338429596217117 1 1 1 1 1 1 1 1 1 1 0.010008944793936795 0.0048211389470856729 1 0.0080717430276767976 1 1 0.015060825339155436 1 1 0.0072404300983707117 1 0.012213498009987797 1 1 1 0.015982726096738523 1 1 1 1 1 1 1 1 1 1 1 0.010036593304927214 1 0.018901856415603172 1 1 1 0.0090050255578478285 1 1 1 1 0.0062342177282610281 1 1 0.015067129359181617 1 1 1 0.006928251219104082 1 1 1 0.020185583750201359 1 0.0086014122322399158 0.030263821508269607 1 1 1 1 1 1 1 1 1 0.0026978487439494286 1 1 1 1 1 1 1 1 1 1 1 1 1 1 1 0.0053844911872426718 1 1 1 1 1 1 1 1 1 1 1 -4.5562792774789251e-09 1 0.010313301965212514 1 1 1 1 1 1 0.012076591173545238 1 1 1 1 1 1 0.010565370486139151 1 1 1 1 0.012100521259734823 1 1 1 1 0.012418000499777588 1 1 0.0079844372457099112 1 0.0098497721791071229 1 1 1 0.00093018859943061818 0.0099664508623602838 1 1 1 1 1 1 1 1 1 1 1 1 0.011986103672838151 1 1 1 1 1 1 1 1 1 1 1 0.011466510612905163 0.0097424248038643149 1 1 0.009362715302019417 1 1 1 0.0021424928281755292 -4.2807337535810674e-11 1 1 1 1 1 1 1 1 1 1 1 1 1 0.0086113780296364628 1 1 0.0091083317217300203 1 1 1 1 1 1 1 0.0096586043684113373 1 1 1 0.010715962660784693 1 1 1 1 1 0.0098665075177100728 1 0.0069644452539494757 1 1 1 1 1 1 1 1 1 1 0.008719125305188629 1 1 1 1 0.007244754811277003 0.0015177569093711429 1 1 1 1 1 1 1 1 1 1 1 1 1 1 0.0095483693661179442 1 1 1 1 1 1 1 5.3626999715894463e-09 1 1 1 0.00022172180944731237 1 1 1 1 1 1 1 1 0.0007336828807222584 1 1 1 1 1 1 1 1 1 1 1 1 1 0.010157156427483265 1 1 1 1 1 1 -4.979579934158429e-10 1 1 0.0060313870285451082 1 1 1 1 1 1 1 1 1 1 1 1 0.0096733617060648369 1 1 1 1 1 1 0.0043787295430349864 1 1 1 1 1 1 1 1 0.011455473620473978 1 1 1 0.014172834959141449 1 1 1 1 0.014950093146684322 1 1 1 1 1 1 0.0086310445530463822 1 1 1 1 1 1 0.013126372540202574 1 1 0.012455208375704574 1 1 1 1 0.011082346011816346 1 1 1 1 1 0.0081326881459971405 1 1 1 1 1 1 1 1 1 0.012184764006549165 1 1 1 0.0073514449983911427 1 0.017054940822112737 1 1 1 1 1 1 1 1 1 1 1 1 1 1 0.017870118338899121 1 1 1 0.018641379627571536 1 1 1 1 1 1 1 1 1 1 1 1 1 1 1 1 0.0094654783122790041 1 1 1 1 0.0092009382072464948 1 1 1 1 1 1 0.0092559871199839935 1 1 1 1 1 1 1 1 1 1 1 0.0090149512630746977 1 1 0.0074195864649204447 1 1 1 1 1 1 1 1 1 1 0.0066879268047879276 1 1 1 1 1 1 1 1 1 1 0.009906099213322514 1 1 1 1 1 1 1 1 1 1 1 1 1 1 -8.4745042333404796e-09 1 1 1 0.010302362743099114 1 0.010061339786981136 1 1 0.0036804282712536371 1 1 1 1 1 1 1 1 1 1 1 0.0097354598949674787 1 1 1 0.0094719565963436933 1 1 1 1 1 1 1 1 1 1 1 1 1 1 1 1 1 1 0.0082597222916431373 1 1 1 1 1 1 1 1 1 1 1 1 1 1 1 1 1 0.0098538627104092155 1 0.0044291850529773746 1 1 1 1 0.0064538674697788151 0.0091193103591327325 0.00056934995431907887 1 1 1 1 1 1 1 1 1 1 1 0.0097457474553801042 1 0.00072342400858812356 1 1 0.0060059261435081515 1 0.0045743197872274571 1 1 1 1 1 1 -6.452238549004008e-09 1 1 0.012470058838684163 1 1 0.010003988133799756 1 1 1 1 1 1 0.022377298983636794 1 0.011141218781994727 0.016684709338663145 1 1 1 1 1 0.016634226062497072 1 1 0.020536314809306566 1 1 1 1 1 1 1 1 1 1 1 1 1 1 1 1 1 1 1 1 1 1 0.018775327169693729 1 1 1 1 1 1 1 1 1 0.018847261956621529 1 1 1 1 1 1 0.011427086171549574 1 1 1 1 1 1 1 1 0.010009211508409733 1 1 1 1 0.0094623953414790379 1 1 1 1 1 1 1 1 1 1 1 0.013668820934161495 1 1 1 1 1 1 1 1 1 1 1 1 1 1 1 1 1 1 1 1 0.0093645823527177888 1 0.0091483877294574033 1 1 1 1 1 1 1 1 1 1 1 1 1 1 1 1 1 1 1 1 1 1 1 1 1 1 0.0026106691627156009 1 1 1 0.0092669426338693808 1 1 1 1 1 1 1 1 0.019744514703724264 1 1 1 1 0.010012413308947241 0.023810980260456322 1 1 0.010810718113980704 1 1 0.017004796228358293 0.014776090470945927 1 1 0.012969415069375455 1 1 1 1 1 1 0.0010008068997883549 1 1 1 1 1 1 1 1 1 1 1 1 1 1 1 1 0.011313639565113748 1 1 1 1 0.0080775895571258069 1 1 1 1 1 1 1 1 1 1 1 1 0.004825904920421141 1 1 0.014010772979021063 1 1 0.0046418333490963193 0.0097369328511749745 0.0095581380356173709 1 1 1 1 1 1 1 1 0.015235805309857867 1 0.010270971531307772 1 1 1 1 1 1 1 1 0.014799876006632469 1 0.010827847861869265 1 1 1 1 0.012609633092916794 1 4.7015128595839784e-10 1 1 1 0.015108736127785481 -1.1454985848757815e-09 1 1 1 1 1 0.009785211376664861 1 1 6.3235387516569208e-09 1 1 0.0021183360948474044 0.010116891576717973 1 1 1 1 0.006906517447512299 1 1 0.012118207438638492 1 0.010011600988443822 0.013618880566363914 1 1 1 1 1 1 1 1 1 1 1 1 1 1 1 1 0.0099124105061808576 1 1 1 1 1 1 1 1 1 1 1 1 1 1 1 0.0017446447456079574 1 0.0099667003786568127 1 1 1 1 0.0096196990525648368 1 1 1 1 1 1 0.0053874581664534391 1 0.0034196782037141348 1 1 1 1 1 1 1 0.011533789469958394 1 1 0.0059364320595035186 1 1 1 1 1 0.005843059599995086 0.010398342981247942 1 1 1 1 1 1 1 1 0.012261577964428116 0.0068382179846421913 1 1 0.014032627555728684 0.0050650883396358218 1 1 1 1 1 1 1 1 0.011140881112714121 1 1 1 1 0.0078210040764755615 1 1 1 1 1 1 1 1 1 0.009160212480950676 1 0.0069837356725155134 1 1 1 0.014404103801595319 1 1 1 1 1 1 1 1 1 1 0.014695159002974523 1 1 1 1 0.00041022798264854672 1 0.018638364605472479 1 1 0.012729103097309073 0.0089999621451678884 1 1 1 1 1 1 1 1 1 1 0.011632200573226524 1 1 1 1 1 1 1 1 1 1 1 1 1 1 1 1 1 1 1 1 1 1 1 1 1 1 1 1 1 1 1 1 1 0.010943227876697548 1 0.010886013461391793 1 1 1 1 1 1 1 1 1 0.01112971125067496 1 1 0.0094818360761801598 1 1 1 1 1 1 1 1 1 1 1 1 1 1 1 1 1 1 1 0.0026248139326615523 1 1 1 1 1 1 1 1 1 1 1 1 1 1 1 1 1 1 0.0070229120103890447 1 1 1 1 1 1 1 1 1 1 0.0076863510198377574 1 1 1 1 1 1 1 1 1 1 0.014119119152778824 1 1 1 1 1 1 1 1 1 1 1 1 1 1 1 1 0.0090214566690153142 1 1 1 1 1 1 1 1 1 1 0.0097315350378303148 1 1 1 1 0.0043926806318076231 1 1 1 1 1 1 1 1 0.0089976009462916229 1 0.010103354352114652 1 1 1 1 1 1 1 1 1 1 1 0.007729098486971453 1 1 1 1 1 0.011001913786793542 1 1 1 1 1 1 1 1 1 1 1 0.005658010913545921 1 1 0.0077175453003719141 1 1 1 0.0079706561876455237 1 1 1 1 0.010685168599460018 1 1 1 0.0085126966177549099 1 1 1 1 1 1 1 0.0029339600730636482 1 1 1 0.0089334090469529517 1 1 1 1 1 1 1 1 1 1 1 1 1 0.014167058498867902 1 1 0.011644148392986116 1 1 1 1 1 1 1 1 1 0.0097900424476471265 1 1 1 1 1 1 1 1 0.0085884019454243662 1 1 1 1 0.013015927250972 0.010054244566204226 1 0.016500247522882122 1 1 1 1 1 1 0.019665401625656768 1 1 1 1 0.009929804482300679 1 1 0.0097898981341308852 1 1 1 1 1 1 1 1 1 1 1 1 1 0.010430409261682601 1 1 1 1 0.023557807932826628 1 1 0.014260287362053946 1 1 1 1 1 0.014132641599383123 1 1 1 1 1 1 1 1 1 1 1 1 1 1 1 1 1 0.015026566303067625 1 1 0.011449222245001077 1 1 1 1 1 1 0.0028710519788880742 1 1 1 1 1 1 1 1 0.0045404501986457124 1 1 1 0.0034005523213074124 1 1 1 1 1 1 1 1 0.036695944724571668 0.031999621503815211 1 1 1 1 7.1138226490075063e-09 1 1 1 0.041159541748401175 1 1 0.0071144803996264633 1 1 1 1 1 1 1 1 1 1 1 1 1 1 1 1 1 1 0.010353982723640635 1 1 1 1 1 1 1 1 1 1 1 1 1 1 1 0.016647902131715436 1 1 1 1 1 1 1 1 1 1 1 0.021854487993319953 1 1 1 1 1 1 1 1 1 1 1 1 1 1 1 1 1 1 1 1 0.011919053332681194 1 1 1 1 1 1 0.0085068362519215984 1 1 1 1 1 1 1 1 1 1 1 1 1 1 5.1740910514408434e-10 1 1 0.0047457940861458658 1 1 1 1 1 1 1 1 1 1 1 1 1 0.0099460954053516154 1 1 1 1 1 1 1 1 1 1 1 1 1 1 1 1 1 1 1 1 1 1 1 1 1 1 1 1 1 1 1 1 1 1 1 0.020724354642202084 1 1 1 1 1 1 1 1 0.0093453580425661292 1 1 1 1 1 1 1 1 1 1 1 1 1 1 1 1 1 1 1 0.0094078573909447474 0.0087532154335108678 1 1 1 1 1 1 1 1 1 1 1 1 1 1 1 1 1 1 1 1 1 1 1 1 1 1 1 1 1 1 1 1 1 1 0.014861613934279441 1 1 0.011419532633919614 1 1 1 1 1 1 1 1 1 1 1 1 1 0.0058930696672820915 1 1 1 0.012392079181499635 1 1 0.0087040812265881257 1 0.013135588803789074 1 1 0.0044357395340058406 1 1 1 1 1 1 1 0.015925173205572279 1 1 1 1 0.016410692706348588 1 0.0026089284721469291 0.016248568542359849 1 1 1 1 1 1 0.021090043315883461 0.0070167077054585358 0.014434800332034745 1 1 1 1 1 1 0.018573049381000122 1 1 1 1 1 1 1 1 1 1 1 0.011177908484711768 1 0.010045240632157587 0.010281623242299216 1 1 1 0.0084256533646626108 1 1 0.0071456282685548531 0.0064222495275061894 1 1 1 1 1 1 1 1 1 1 1 1 1 1 0.012810533914554119 1 1 1 1 1 1 1 1 1 1 1 1 1 1 1 1 1 1 1 1 1 0.010920644201777838 1 0.0084611268921534616 1 1 1 1 1 1 1 1 1 1 0.017309755583037031 1 1 1 1 1 1 1 1 1 1 1 1 1 1 1 1 1 1 1 1 1 1 1 1 1 1 1 1 1 1 1 1 1 1 1 1 1 1 1 1 1 1 1 1 1 1 1 1 0.0062143397147476909 1 0.0054725285234735882 1 0.010748400940052527 1 1 1 1 1 1 1 1 1 1 1 1 1 1 1 1 1 1 1 0.0051727786024873615 1 1 1 1 0.011100955235742518 1 1 1 1 1 1 1 1 0.010551316874409536 1 1 1 1 1 1 1 1 1 1 1 1 0.0061265769148329402 1 0.0076162032141544253 1 0.0086621720313388995 1 1 1 1 1 0.0095750294768544783 1 1 0.013889430856109018 1 1 1 0.016781016955467104 0.028766865421439185 1 1 1 0.033450454590176863 1 1 1 0.0089696779564260379 1 0.018210333409918844 1 1 1 1 1 1 1 1 1 1 1 1 1 1 0.0084461156623126948 1 0.018309411046299122 1 1 1 1 1 1 1 1 0.018942226400048522 1 1 1 1 1 1 1 1 1 1 0.014507150675613357 1 1 1 1 1 1 1 1 1 1 1 1 1 1 1 1 0.014594691977132482 1 1 1 1 1 -3.3439791283229603e-09 1 1 1 1 0.0097923151913136483 1 0.00028754827794125887 1 1 1 0.023056648251928491 1 1 1 1 1 1 1 1 1 1 1 1 1 1 1 1 1 1 1 1 1 1 1 1 1 1 1 1 1 1 1 1 0.0043762498058879454 0.0096689868427384945 1 0.0099128373952276014 1 1 0.010098503242148926 1 0.0073827927150794045 1 1 1 0.013631516687824318 1 1 1 1 1 0.0013155083280509267 1 1 1 0.015088079296982087 1 1 0.0066104085258239936 1 1 0.01531507256361248 1 1 1 1 1 1 1 1 1 0.0099909649325581537 1 1 1 1 1 1 1 0.011947445930528933 1 1 1 0.00995467638999218 1 1 0.011028847206427382 1 1 1 1 1 1 1 1 0.0088619707567514153 0.0080871534581320459 1 1 1 1 0.013650322403577801 1 1 0.0090549093509368142 1 1 1 1 1 1 1 1 1 1 1 1 1 1 1 1 1 0.0069714336071792921 1 1 0.0071137095163266093 1 0.012393615708897202 1 0.0082499747759702258 1 1 1 1 1 0.0082640439421032465 1 1 0.010030804631652034 1 0.0099982543687619756 1 1 1 1 1 0.010559797117911822 1 1 1 0.0097367556112883669 1 1 1 0.012213962682487381 1 1 0.010785855939973915 1 1 1 1 0.011100381399718251 0.0088182616454423272 1 1 1 1 1 1 1 0.010196680016606268 0.010429762510144986 1 1 1 0.010132790239805706 1 1 1 1 1 1 1 1 1 1 0.0074213568320102286 1 1 1 1 1 1 1 1 0.0087496290536876048 1 1 0.014006830050587166 1 1 1 1 1 1 1 1 1 1 1 1 1 1 1 1 1 1 0.010111054924070932 1 0.0089627500639188548 1 1 1 1 1 1 1 1 1 1 1 1 1 1 1 1 1 1 1 1 1 1 1 1 1 1 1 1 1 1 1 1 1 1 1 1 1 1 1 1 1 1 1 1 1 1 1 1 1 1 1 0.010961601526292178 1 1 1 1 1 1 1 1 1 1 1 1 1 1 1 1 1 1 0.02164938388420231 1 1 1 0.010442549809420427 1 0.0031931982393333391 1 1 1 1 1 0.0078560251182129837 1 0.014827647930455143 1 1 1 1 1 0.012441587200308607 0.020209662428050071 1 1 1 1 1 1 1 1 1 1 1 1 1 1 0.010122638962015568 0.018337920819009763 1 1 1 1 1 1 1 1 1 1 1 0.0106102120634987 1 0.0095093970715769138 1 0.018879166021504974 1 1 1 0.0086646046813699043 1 0.016386639815294722 1 1 1 1 1 1 1 1 1 1 1 1 0.0097608028330695012 0.0099083963493487442 1 1 1 1 1 1 1 1 1 1 1 1 1 1 1 1 1 1 1 1 1 1 1 1 1 1 1 1 1 0.008292104650790659 1 1 1 0.009413084445742799 1 1 1 1 1 1 0.0089599544043537441 1 1 1 1 1 1 1 1 1 1 1 1 1 1 1 0.0098644928950608265 1 1 1 1 1 1 1 1 1 1 1 1 1 1 1 1 1 1 1 1 1 1 0.014260141150003791 1 1 1 0.020730647881095333 0.015395871802904927 1 1 1 1 1 1 1 0.012623672932591846 1 1 1 1 1 1 1 1 0.0058633828925686929 1 1 0.022519616011016333 1 1 0.011692352934755894 1 1 1 1 1 1 1 0.024081844386917163 1 1 1 1 1 1 1 1 0.010977866676781821 1 1 1 1 1 1 1 1 1 1 1 1 1 1 1 1 1 1 1 1 1 0.012353883262292894 1 0.015211167401164809 1 1 1 1 1 1 1 1 1 1 1 1 1 1 1 1 1 1 1 1 1 1 1 1 1 1 1 1 1 1 0.008881234919957133 1 1 1 1 1 1 1 1 1 0.0064722338511073174 1 1 1 1 1 1 1 1 1 1 1 1 1 1 0.011098076781794711 1 1 1 1 1 1 1 1 1 1 1 1 1 1 1 1 1 1 1 0.012979831282172227 1 1 1 0.014274207074665861 1 1 1 1 1 1 1 1 1 1 1 1 1 1 1 1 1 0.010719942659649158 1 1 1 1 1 1 1 1 0.010198461565693089 1 1 1 1 1 1 1 1 1 1 1 1 1 1 1 1 1 1 1 1 1 1 1 1 1 1 1 1 1 0.014073350293374169 1 1 1 0.010424544258820183 1 1 0.0113526954305662 1 1 1 0.0096366081595101669 1 0.012336703862933035 1 0.0046249340732392036 0.014520929075875873 1 1 1 1 0.011297723769162937 0.011007006656534665 1 1 1 1 1 0.01452088284493238 1 1 1 0.011796334550365786 1 1 1 1 1 1 1 1 1 1 1 1 1 1 1 1 1 1 0.014403113660780516 1 1 1 0.01201066108649218 1 1 1 1 1 1 1 1 1 1 1 1 1 1 1 1 1 1 1 1 0.0094023782783899286 1 1 1 1 1 1 1 1 0.0072218190236440112 1 1 1 1 0.0089564745428539431 0.0095548902621998451 1 1 1 1 1 1 1 1 1 1 1 1 1 1 1 1 1 1 1 0.0094015842806541017 1 1 1 0.0084047513349403136 1 0.014756930875856326 1 1 0.013719670668437066 1 1 1 1 1 1 1 0.0089577217186351046 1 1 1 0.019038698725158718 1 1 0.0097850369053969696 1 1 1 1 1 0.01022120045391393 0.019546675001920338 1 1 1 1 1 1 1 1 1 1 1 0.012622342337450531 1 1 1 0.010797180274210444 1 1 1 0.01817181866555569 1 0.0083420287621810418 1 1 1 1 0.0093949684971382924 1 1 1 1 1 1 1 1 1 1 1 1 1 0.013150172215381775 1 1 1 0.010752212446297593 1 1 1 0.010967625315900544 1 1 1 1 1 1 1 1 1 1 1 0.010217680045157232 1 1 1 1 1 1 1 1 1 1 1 1 1 1 1 1 1 1 1 1 1 1 1 1 1 1 1 1 1 1 1 1 1 1 1 0.0094881891273764507 1 1 1 1 1 1 1 1 1 1 1 1 1 1 1 1 1 1 1 0.014811999411893406 1 1 1 1 1 1 0.017331752363794153 1 1 1 1 1 0.0092842614042078758 1 1 1 1 1 1 1 1 1 1 0.0086895118766676382 1 1 1 1 1 1 1 1 1 1 1 1 0.011235685516152574 1 1 1 1 1 1 1 1 1 1 1 1 1 1 1 1 1 1 1 1 1 1 1 1 0.0090213461332950481 1 1 1 1 1 1 1 1 1 1 1 1 1 0.0095331570059186063 1 1 1 1 1 1 1 1 1 1 1 1 1 1 1 1 1 1 1 1 1 1 1 1 1 1 1 1 1 1 0.0116305658463801 0.010224203424118181 1 1 1 1 1 1 1 1 1 1 1 1 1 1 1 1 1 1 1 1 1 1 1 1 1 1 1 1 0.0013940386875945371 1 1 1 0.010085981240377531 1 1 1 1 1 0.010609784945299697 1 1 1 1 1 1 1 1 0.0007078546820018447 1 1 1 1 1 -4.9272676910794289e-09 1 1 1 0.011075669329406533 1 1 1 1 0.0097773398967536188 1 1 1 1 1 1 1 1 1 1 1 0.010435337293064617 1 1 1 1 1 1 1 1 1 1 1 1 1 1 0.0087261085290417581 1 1 1 1 1 1 1 1 0.006617757818358997 1 1 1 1 1 1 1 1 1 1 1 1 1 1 1 1 1 1 1 1 1 1 1 1 1 1 1 0.0063723777401928717 1 1 1 1 1 1 1 1 1 1 1 0.013587547379561936 1 1 1 1 1 1 1 1 1 1 1 1 1 1 0.0076850463262216687 1 1 1 1 1 1 1 1 -4.3701392712924836e-09 1 1 0.009324762968455861 1 1 1 1 8.2463120013032132e-10 1 1 0.0079528006881312736 1 0.016527315948819808 1 0.0099522295396822225 1 1 0.026354212939636863 1 1 1 1 1 1 1 1 1 1 1 1 0.013063608197450553 0.015606655183982104 1 1 0.012122469161442564 1 1 1 1 1 1 1 1 1 1 1 1 0.014756147466745804 1 1 1 1 1 1 1 1 1 1 1 1 1 1 0.009867061309865215 1 0.01109742987882433 1 1 1 1 1 1 0.0035666590690656141 1 1 1 1 1 1 0.0098169592189959014 1 1 1 1 -1.0892018502406398e-09 1 0.015847105850233405 1 1 1 0.0006857798753607397 0.0097558561688718404 1 1 0.010026590822187258 1 0.01526366755839776 1 1 0.011774798070001823 1 1 1 1 1 1 1 1 1 1 1 1 0.016297670610075442 1 1 1 1 1 1 1 0.013093935133619977 1 1 1 1 1 1 1 1 1 1 1 1 1 0.02239096050406205 1 0.011872350817897503 1 0.0031710872044155916 1 0.010100030777083231 1 0.0059232306574861157 0.012830368827053566 0.010444164961145481 1 1 1 0.010407619701477085 1 1 1 0.009926668546181544 1 1 0.010800005817370005 0.012364294070040653 1 1 1 0.010539739725693269 1 1 1 1 1 1 0.010133697698416433 1 1 1 1 1 1 1 1 1 1 1 1 1 1 1 1 1 1 0.010001822402798136 0.010698290803898537 1 1 1 0.0088156375081706179 0.011094701982253857 1 1 0.009998854485332713 1 0.010358772345330598 1 1 1 1 1 1 1 1 0.021956706307981043 1 1 1 1 1 1 1 1 1 1 1 0.0095538226187939015 1 1 0.010032985050883809 0.001014393182519259 1 1 1 0.010029934108434599 1 1 0.020745227542227559 1 1 1 1 1 1 1 1 1 1 -7.9639060623915015e-10 1 0.0096484517734039283 0.0033341026828428225 1 1 0.00471943834645909 1 0.0091122500707626047 1 1 0.00099114443071102523 0.010929304289833203 1 1 1 1 1 1 0.0097326959983296737 1 6.0856569854619846e-05 1 1 0.0036898507961265342 1 1 1 1 1 1 0.00783150400789249 1 1 1 1 1 1 1 1 1 0.0070109026572790587 1 0.0036023700079911673 1 1 1 1 1 1 0.0013271031000172875 1 1 1 1 1 1 1 1 1 1 1 1 1 1 1 1 1 1 1 1 1 1 1 1 1 1 1 1 1 1 1 1 0.0048194455309563955 1 1 1 1 1 0.0099875168140766621 1 1 1 1 1 1 0.0100102047723633 1 1 1 1 1 1 1 1 1 1 1 1 0.010198762578719545 1 1 1 1 1 0.0057967390800129082 1 1 1 1 1 -1.2631858628542325e-08 1 1 1 1 1 1 1 1 1 1 1 1 1 1 1 1 1 1 1 1 0.02242531817089996 0.0079323112204419746 1 1 1 0.020022366209585765 1 1 1 1 1 1 1 1 1 1 1 1 1 0.009444064769245912 1 1 0.011278624397448938 1 1 1 1 1 1 1 1 1 1 1 1 1 1 1 1 1 1 1 1 1 1 1 1 1 1 1 1 1 1 1 1 1 1 1 1 1 1 0.009004951000106641 1 1 1 1 1 1 1 0.009679888604854317 1 1 1 1 1 1 1 1 1 0.019503592034501409 1 1 1 1 1 1 1 0.017845511956603055 1 1 0.010008913295536666 1 0.015695584654144029 0.0039724844395831252 1 1 0.0047641832763966885 1 1 0.011687400610742646 1 1.7531968316344959e-09 1 0.010549849626888562 1 1 1 1 1 0.010363498782494297 1 1 1 1 1 1 0.010098666371508955 1 1 1 1 1 1 1 1 1 1 1 0.0093367372225000994 1 1 0.0073073822062392421 1 0.0093387424964271187 1 1 1 0.0058901651501128277 1 1 1 1 1 1 1 1 1 1 1 1 0.010292058854836125 1 1 1 1 1 1 1 1 1 0.026355152240175969 1 1 1 1 1 0.0088688975161047359 1 1 1 0.015364312637788913 1 0.017861391286956133 1 1 1 4.4799595977362827e-10 0.031212416664223433 0.027994483938538567 0.021042242129905721 1 0.0093251097820480702 1 1 1 1 1 0.014090787032003499 1 1 1 1 1 1 1 0.01118068371968026 1 1 1 1 1 0.011750664447487669 0.027254648159970772 1 1 1 1 1 1 1 1 0.022675186208376212 1 1 1 0.022228930203693924 0.01221982189238096 1 1 1 1 1 1 0.010643321627125217 1 1 1 1 1 1 1 1 0.0097562195803462537 1 1 1 1 1 1 0.0097493873380925453 1 1 1 1 1 1 1 1 1 1 1 1 1 1 1 1 0.01212730069033232 1 1 1 0.0097718238346108655 0.011017165048207364 1 1 1 1 1 1 0.0096673363121203351 1 1 1 0.01023781338512305 1 1 1 1 1 1 1 1 1 1 1 1 1 1 1 1 0.025801420294351004 1 1 1 1 0.023691714550773506 1 1 0.013618395780052243 1 1 1 0.030609397626449895 0.034820798860963301 1 1 1 1 1 1 1 1 1 1 1 0.032992043286055914 1 1 0.010230089060079193 1 1 1 1 1 1 1 1 1 1 1 1 1 1 1 1 1 1 1 1 1 1 1 1 1 1 1 1 1 0.016438298064148173 1 0.010368085522451297 1 1 1 1 1 1 1 1 1 1 1 1 1 1 1 1 1 1 1 1 1 0.014729279066697482 1 1 1 1 1 1 1 1 1 1 1 1 1 1 1 1 1 1 1 1 1 1 1 1 1 1 1 1 1 1 1 1 1 1 1 1 1 1 1 1 1 1 1 1 1 1 0.021306991200600797 1 1 1 1 1 1 1 1 1 1 1 1 0.010518620334598664 0.018183509684885 1 1 1 1 1 1 1 0.0099819704968697048 1 1 1 1 1 1 1 1 0.0087340715741836099 0.011776418425820792 1 1 1 0.008978304213926102 1 1 1 1 1 1 1 1 1 1 1 1 1 1 1 1 0.0098314356847223391 1 1 1 0.001183180456410189 1 1 1 1 1 0.008639737236497011 1 1 1 1 1 1 1 1 1 1 0.0066795684909056845 1 1 1 0.0062633973869785572 1 1 1 0.0061042667098564797 1 1 1 1 1 1 1 1 1 1 0.003885372664337472 1 1 1 0.0071067769503915558 1 1 1 1 0.0018381513250595848 1 1 1 1 1 1 1 0.00848060655937493 1 1 0.00085999748191323624 1 1 1 1 1 0.0094322458377697049 1 1 1 1 1 1 -5.1771474936929129e-09 0.0094518037504746442 1 0.010872408688597729 0.0092874353581506065 1 1 1 1 0.012083082519057167 0.0066349929883436198 0.011823876199593356 1 0.006167209309727471 1 0.0061467604929324737 1 0.012549569273536941 1 1 0.010027813657769426 1 0.012383180697616902 0.010638846779896139 1 1 0.010226682492151227 1 1 1 0.0137620556314214 1 1 1 1 1 1 1 1 1 1 1 1 1 1 0.017596515678355129 1 1 0.0083155764132028104 1 1 0.0064092624598650876 1 1 1 1 0.0097358439114937755 0.012932089722025971 1 0.01214123974701678 1 1 1 0.014138153339229348 1 0.009520182127665866 0.013581382738669904 1 0.010942372310410058 0.020970395677418974 1 1 1 0.010009670113859798 1 1 1 1 1 1 1 1 1 1 0.022261864680743395 1 1 0.010039114996733933 1 0.010289366429907822 1 1 1 1 1 0.017564355961262459 1 1 0.0038009885610663392 1 1 1 0.021463113829085383 1 0.024205155009551858 0.0051590739297566555 1 1 1 0.023370812663952915 1 1 1 0.0086263347354080464 1 1 0.03033840934038189 1 1 1 1 1 1 1 1 1 1 1 1 1 1 1 1 1 1 0.0095492877191347362 1 0.02257782319524905 1 1 0.008916513350549278 1 1 1 1 1 0.024203711038892912 1 1 0.035046845138424716 1 1 1 0.033164083679891723 1 1 1 0.0096239044684254833 1 1 1 0.010104487522490518 1 1 1 1 1 1 1 1 1 1 1 1 1 1 1 1 1 1 1 1 1 1 1 1 1 1 1 1 1 1 1 1 1 1 1 1 1 1 1 1 1 1 1 1 1 1 1 1 1 1 1 1 1 1 1 1 1 1 1 1 1 1 1 1 1 1 1 1 1 1 1 1 1 1 1 1 1 1 1 1 1 1 1 1 0.010002438254925243 1 1 1 1 1 1 1 1 1 1 1 1 1 0.0072661754575708143 1 1 0.0091665793654553615 1 1 1 1 1 1 1 1 1 1 3.5115396701534962e-11 1 0.0031603137381730449 1 1 2.8733743856479421e-10 0.001410170072046725 1 1 1 1 0.011165657855287975 1 1 1 0.013204594878483154 0.0098952066671077824 1 0.0021046936185239729 1 1 1 1 0.017505168542054264 1 1 1 1 1 1 1 1 1 0.02090763903921411 1 1 1 -2.1005545636221257e-09 1 1 1 1 1 0.020531143941726615 1 0.0021547299572558555 1 1 1 1 1.1142970678112984e-09 1 1 1 1 1 1 1 0.0094029155666445867 1 1 1 1 1 1 1 1 1 1 0.0051804605593427245 1 1 1 1 1 1 1 0.010220602396457928 0.0012078675044873127 1 -1.7686100084457479e-09 1 1 1 1 1 1 4.4308167655715547e-09 1 1 1 1 1 0.004582493567591335 1 1 1 1 1 1 0.0081486318437289096 1 -5.2002378098103819e-11 1 1.1092529499101556e-10 3.8710881063164226e-09 1 3.4535420721099053e-09 1 1 1 1 0.0069284413436623369 1 1 1 0.0081884524051571046 1 1 1.5445890261256423e-09 1 0.025205021923156018 1 1 1 1 1 1 1 0.025355268806972416 1 1 1 1 0.0082781211175465899 1 1 1 1 1 1 1 1 1 1 1 1 1 1 1 1 0.0093665946266193456 1 1 1 1 1 7.4274988497520858e-05 1 0.00025698866741640305 1 1 1 1 1 1.8310264068843729e-09 1 1 1 -1.4703433887097717e-09 1 1 1 1 1 1 1 1 -4.1443342507774261e-10 1 -1.7913133684710481e-09 1 1 1 1 1 1 1 1 1 1 -1.2403264162269556e-09 0.02669577001631844 1 1 1 0.004514804440671899 1 1 1 1 1 1 1 1 1 1 1 1 1 1 1 1 1 1 1 1 1 1 1 1 1 1 1 1 1 1 1 1 1 1 1 1 1 1 1 1 1 1 1 1 1 1 1 1 1 1 1 1 1 1 1 1 1 1 1 0.0099426279897945925 0.010006843401938512 1 1 1 1 1 1 1 1 -3.4481370939955236e-09 1 1 0.024993812595232052 1 1 1 1 5.9384056942668462e-09 1 0.009396641156672136 1 1 1 1 1 1 1 1 1 1 1 1 1 1 1 1 1 1 1 1 1 1 1 0.0093179590815776273 1 0.0078006313563990862 1 1 1 1 1 1 1 1 1 0.0069653960168580414 1 1 1 1 0.02131399172473844 -1.6196342877972114e-11 1 1 1 1 0.040206085431002 1 0.011081078553342734 1 1 1 1 1 1 1 1 1 1 0.039414139527062568 1 1 1 0.0052731693964489165 1 1 1 1 1 1 1 1 1 1 1 1 0.0072603526863583021 1 1 0.0067798913488875895 1 1 1 0.0084859737595162927 1 0.0085507021404654937 1 1 0.006063557931973388 1 0.01043379020206054 1 1 1 1 1 1 1 0.010127145408854038 1 1 0.0099351176012010718 1 1 0.009961262522829209 1 1 1 1 1 1 1 1 1 1 1 1 1 1 1 0.019831645523260683 1 1 1 1 1 0.010098213590253627 1 1 1 1 1 1 1 1 1 1 1 1 1 0.015708065756473932 1 1 1 1 1 1 1 1 1 1 1 1 1 1 1 1 1 1 1 0.0037733257473016556 0.021066740536663846 0.005171696536827382 1 1 1 0.010180395642053176 1 0.0086190795859969853 1 1 1 0.017440744515684052 0.0098807703631654531 0.015973163531063053 1 1 1 1 1 1 0.010020739549041976 1 1 1 1 1 1 1 1 1 1 1 0.010934508334975324 1 1 1 1 1 1 1 1 1 1 0.010192743669021986 1 0.0093554005038722805 1 1 1 1 0.0085586740784832447 0.00935938605057152 1 1 0.010172004119980007 1 1 1 0.005198494215345361 1 1 1 1 1 1 1 1 0.001551351613271041 1 1 1 1 1 1 1 1 1 0.011293317573393559 1 1 1 0.010179411301084355 1 1 0.0086220722129787125 1 1 1 0.010026683541114119 0.010042082904420019 1 1 1 1 1 1 1 1 1 1 1 1 1 1 1 1 1 1 1 1 1 1 1 1 1 1 1 1 1 1 1 1 1 1 1 1 1 1 1 1 1 1 1 1 1 1 1 1 1 1 0.015673138763212857 1 1 1 0.0099839739308354818 1 1 1 1 1 1 1 1 1 1 1 1 0.013664751078950176 1 1 0.011875993284486949 1 1 1 1 1 1 1 1 1 1 1 1 1 1 1 1 1 1 0.012251427643424474 1 1 1 1 1 1 1 1 1 1 1 1 1 1 1 0.0077485909250218574 1 1 1 1 1 1 1 1 1 1 1 1 0.0087705319529436665 1 1 1 1 1 1 1 1 0.01105086888396991 1 1 1 1 0.0122427280236133 1 1 1 0.01300483602251213 1 1 1 1 1 1 1 1 1 1 1 1 1 1 1 1 1 1 1 1 1 1 1 1 1 1 1 1 1 1 1 1 1 1 1 1 1 0.009426773791735038 1 1 1 1 1 0.0081764513515917014 1 0.0088297827377923771 1 1 1 1 1 1 1 0.0077277365319348493 1 1 1 1 1 1 1 1 1 1 1 1 1 1 1 1 1 1 1 1 1 1 1 1 1 1 1 1 1 1 1 1 1 1 1 1 1 0.010965683853578038 1 1 0.012231930950450186 1 1 1 1 1 1 1 1 1 0.006736286847802482 1 1 1 0.015556532709071128 0.0051318300633957925 1 1 1 1 0.0090726024073696857 1 1 1 0.014072579395742458 1 1 1 1 1 1 1 1 1 1 1 1 1 1 1 1 0.011809297707872791 1 1 1 1 1 1 1 1 1 1 1 1 1 1 1 1 0.0067506413413939408 1 1 1 0.0078916492893172426 1 1 1 1 1 1 1 1 1 1 1 1 1 1 1 1 1 0.0034091674243774839 1 1 1 1 1 1 1 0.0045533493974294946 1 1 1 1 1 1 1 1 1 1 1 0.011963986904098004 1 1 1 0.0069380510122115267 1 1 1 1 1 1 1 1 0.009043227697765617 1 1 1 1 1 1 1 1 1 1 1 1 1 1 1 1 1 1 1 1 1 1 1 1 1 1 1 1 0.012237643866599833 1 1 1 1 1 1 1 0.015622999648576844 1 1 1 1 1 -2.120217786061307e-09 1 1 1 1 0.0027591864405735883 1 1 1 0.0085955887755824467 1 1 0.0071196845725931684 1 1 1 1 1 1 1 0.0050416427397739147 1 1 1 1 0.0039549627003857488 1 1 1 1 1 1 1 1 1 1 0.0061640466917713202 1 1 1 1 1 1 1 1 1 1 1 1 1 1 1 1 1 1 1 0.0084930414202419105 1 0.007892234131532179 1 1 1 0.0037374316031856501 1 1 1 1 1 1 1 1 1 1 0.011799232926600733 1 1 1 1 0.01407736771290452 1 1 1 1 1 1 1 1 1 1 1 1 1 1 1 1 1 1 1 1 1 1 1 1 1 1 0.01423210192484603 1 1 1 1 1 0.012698048618194083 1 1 1 1 1 0.012722372471573512 1 1 1 1 0.012117880840354728 1 0.010785337298337333 1 1 1 1 1 1 0.017632853611266132 -2.953570645003456e-09 1 2.1734966430819735e-09 1 1 1 1 1 1 1 1 1 0.014383674019699783 1 1 0.011422704167966306 1 1 1 1 1 1 1 1 1 1 1 1 1 1 1 1 0.010077968279984847 1 1 1 1 0.010169879146631575 1 1 1 1 1 1 1 1 1 1 1 1 1 1 1 1 0.010088497352022633 1 1 1 0.010180408218669335 1 1 1 1 1 0.010482540646073582 1 1 0.011626276175646905 1 1 1 1 1 0.0095188838607360299 1 1 1 1 1 1 0.010000650856062512 1 1 1 1 1 1 1 1 1 1 1 1 1 1 1 1 1 1 1 1 1 0.0089627286882553447 1 1 0.011458042340628562 1 1 1 1 0.01053676327293785 1 1 1 1 0.0020991145867738856 1 0.0012451504610877726 1 1 0.010042516290629258 1 1 0.010797383696563884 1 1 1 1 1 1 1 1 0.00051974244246710474 1 1 0.016988286323234909 1 1 1 1 1 1 1 1 1 1 1 1 1 1 1 1 1 1 1 1 1 1 1 1 1 1 1 0.011177061675702843 1 1 1 1 0.010643617254801889 1 1 1 0.0079115776796153253 1 1 1 1 1 1 1 1 1 1 1 1 1 0.0074478621930179276 1 1 1 1 1 1 1 1 0.0095362845134026042 1 1 1 1 1 1 1 1 1 1 1 1 1 1 1 1 1 1 0.012461097997608375 0.0012869194558843729 1 1 0.0039134421724899698 1 0.0011509041456377721 1 1 0.01080923782826667 1 1 1 1 1 1 1 1 1 1 1 1 1 1 1 1 1 1 0.010158840736412135 1 1 1 1 1 0.011608117879427053 1 1 1 1 1 1 0.014512064264330202 1 1 1 1 1 1 1 1 1 1 1 1 1 1 1 1 1 1 1 1 1 1 1 1 1 1 1 1 1 1 1 1 1 1 1 1 1 1 1 1 1 1 1 1 1 1 1 1 1 1 1 0.0085240957970107202 1 1 1 1 1 1 1.0181421285920811e-08 1 -1.3021020291506535e-08 1 1 1 1 1 1 1 1 1 1 1 1 1 1 1 1 1 1.0308768411820823e-08 1 1 1 1 0.00021184947979352615 0.0084333180424457227 1 1 1 1 1 1 1 1 1 1 1 1 1 1 1 1 1 0.0024060859662356077 1 1 1 1 1 1 1 1 0.0069447664661350748 1 1 0.0043807452389034267 1 1 1 1 1 1 1 1 1 1 1 1 1 1 1 1 1 1 0.009568075542653787 1 1 1 1 1 1 1 1 0.01005073740865594 1 1 1 0.0030564771195180172 1 1 0.0075324460357071073 1 1 1 1 1 1 1 1 1 1 1 1 1 1 1 1 1 1 1 0.0090039297269976261 1 1 1 1 1 1 1 1 1 1 1 1 1 1 1 1 0.012462446796925056 1 1 1 1 1 1 1 1 0.0077920848258647146 1 1 1 1 1 1 0.0087881550988670957 1 1 0.018502614492476234 1 1 0.015982144830223928 1 1 0.010061820266036012 1 1 1 1 0.010625828710455823 1 1 0.014522823404886379 1 1 1 1 0.017371997072715237 1 1 0.003679685885229567 1 0.0098565259312803147 1 4.127026088929231e-09 1 1 1 1 1 1 1 1 1 0.0083280141448662248 1.1041544883266807e-09 1 1 1 1 1 0.014164472208035628 1 1 0.0019769684771125517 0.0092517790674008123 1 1 1 1 1 1 1 1 1 1 1 1 1 1 1 1 1 1 1 1 1 0.0061807516099172399 1 1 1 1 1 1 1 1 1 1 1 1 1 1 1 1 1 1 1 1 1 1 1 1 1 1 1 1 1 1 1 1 1 0.0056382352194666377 1 1 0.0064958751438249814 0.010896009427763746 1 1 1 0.0065837377360250873 0.0087538780118773755 1 1 1 1 1 1 1 1 1 1 1 1 1 1 1 0.0083987010302991327 1 1 1 1 1 1 1 1 0.01263313272503052 1 1 1 1 1 1 1 1 1 1 1 1 0.0085515803179017982 1 1 1 1 0.0055422521094402738 1 1 1 1 1 0.010003891637973663 1 0.010500250699947554 1 1 1 1 1 1 0.0010034425644102774 1 0.016834449292226945 1 5.696712927771852e-10 1 1 0.015023804917145334 1 1 2.9741371761204949e-09 1 1 1 1 1 1 1 1 1 1 1 0.0059455395678018035 1 1 1 1 1 1 1 1 1 1 1 1 1 1 0.0024750820901450511 1 1 1 1 1 1 1 1 1 0.0081478279917753804 1 1 1 1 0.0052425326786988968 1 1 1 1 1 1 1 1 1 1 0.010754038901767363 1 1 1 1 1 1 1 1 0.0036311593528743705 1 1 1 1 0.0066147666047660959 1 1 1 0.012987470589148021 1 1 1 1 0.010424561326952568 1 1 1 1 1 1 1 1 1 1 1 1 1 0.0032529893868312246 1 1 0.0091757795324496974 1 1 1 1 1 1 1 1 1 1 1 1 1 1 1 1 1 0.011082080614271628 1 0.00395820783940809 1 1 1 1 0.0098549300509690949 1 1 1 1 1 1 1 1 1 1 1 1 1 1 0.0017298521817683335 1 1 0.012310475743324664 0.015709990596032328 1 1 1 1 1 1 1 1 1 1 1 1 1 1 1 1 1 1 1 1 1 1 1 1 1 1 1 1 1 1 1 1 1 1 1 1 0.010374920121344035 1 1 1 1 0.0018806631804420167 1 1 0.0065512110447941297 1 1 1 -1.6251907944409005e-09 1 1 1 0.027443293938608615 1 1 1 1 1 1 1 1 0.0092436615396988622 1 0.029266406759500062 1 9.6389370304872379e-09 1 1 0.028454286304922916 1 1 1 1 1 0.0020456656177024572 0.0079441008884577891 1 -6.6800579477666044e-09 1 1 1 1 1 1 1 1 1 0.029570146122665536 1 1 1 1 1 1 1 1 1 1 1 1 1 1 1 1 1 0.0093339665878998078 1 1 1 1 1 1 1 1 1 1 3.8756659964667151e-09 1 1 1 0.025052339066978069 1 0.0087888073829694643 1 1 1 0.0099911087069601903 1 0.024564674000909163 0.025033949300084117 1 1 1 1 0.006652573446624295 1 1 1 1 1 1 1 1 0.0095576933134393777 1 1 1 0.0089555587150703456 1 1 0.01812322350045046 0.017907210416377377 1 0.018058222151571483 1 1 0.0065597786319071955 1 1 1 1 1 0.024790582910702012 1 0.0085684852278366738 1 1 1 0.0055557318284955234 1 1 1 1 1 1 0.006273889785340804 1 1 1 1 1 1 1 0.0089061423984248336 1 1 1 1 1 1 1 1 1 1 1 1 0.0089636511574292532 1 1 1 1 1 1 0.0072281711097133827 1 1 1 1 1 1 1 1 1 1 1 1 1 1 1 1 0.0066535826751671842 1 1 1 0.010122341106365208 1 1 0.010666093154984443 1 1 1 0.010183719409160831 1 0.0083521655009905008 1 0.0052812103430729604 1 1 1 1 1 1 1 1 1 1 1 1 1 1 1 0.00856469031824348 1 1 1 1 1 1 1 1 1 1 1 1 1 1 1 1 0.008528297118013714 1 0.0094259228003504003 1 0.012558036365718332 0.0080139137851103909 1 1 0.010136774711726963 1 0.010117584380923438 1 1 1 1 1 1 1 0.014289679535939799 1 1 1 1 1 1 1 1 0.015813440383228017 1 0.017008696214888146 1 1 1 1 0.01190723112408025 1 1 1 1 1 0.01075289117747831 1 0.0070801302969324131 1 1 1 1 1 1 0.0029404457823113857 1 1 1 1 1 1 1 1 1 1 1 0.014233975488369438 1 1 1 1 1 1 1 1 1 1 1 1 0.010434070717009795 1 1 1 1 1 0.010956846586003439 1 1 1 1 1 1 0.010522775868993632 1 1 1 1 1 1 1 1 1 1 1 1 1 1 1 1 1 1 1 1 1 1 1 1 1 1 0.0073782430105507422 1 1 1 0.0037887428806706782 1 1 1 1 1 1 1 1 1 1 1 1 1 1 1 1 1 0.009852286398922723 1 1 1 0.010045110482176323 1 1 1 1 0.014211493987207925 1 1 1 1 1 1 1 1 1 1 1 1 1 1 1 1 1 1 1 1 1 0.009676569456428195 0.00252162494253165 1 1 1 0.014118670587704697 1 1 1 1 0.0095450756545453347 1 1 0.015012998021404635 1 1 0.0099494879128777716 1 1 1 0.0089708398931863456 1 1 1 1 1 1 1 1 0.010662198769795711 1 1 0.011957352778089115 1 1 1 0.0059581351735601001 1 1 0.01012339784221955 0.019116283072297964 1 1 1 0.01507010722785649 1 0.0094361130852358196 1 1 1 1 1 1 0.010003034588891263 0.01590979091023257 1 1 1 1 1 1 1 0.015183591440319853 1 1 1 1 1 1 1 1 1 1 1 1 1 1 1 1 1 0.0069081676823402119 1 1 1 0.0095299257864605996 1 1 1 1 1 1 1 1 1 1 1 1 1 1 1 1 1 1 1 0.010242487509769173 0.0080301036157659142 1 1 1 1 1 1 1 0.0056763303429461578 1 1 1 1 1 1 1 0.006650339465951137 1 1 1 1 1 1 1 0.0090321443394803802 1 1 1 1 1 1 1 1 1 1 1 1 1 1 1 1 1 1 1 1 1 1 1 1 1 1 1 1 0.0098352837534208606 1 1 1 1 1 1 1 1 1 1 1 1 1 0.005642901262506328 1 1 1 1 1 0.0098481791024093747 1 1 1 0.010473515926275257 0.004506083190708058 1 1 1 1 1 1 1 1 1 0.014827011495223121 1 1 0.0099990795429982307 0.0083796124453212432 0.010256206491700275 1 0.0035664802060875449 1 1 1 1 1 0.0110105852018762 1 1 1 1 1 0.01190522567286844 1 1 0.015173443373092455 1 1 1 1 1 1 1 1 0.01360509127239317 1 0.0069538951880005473 0.018495621734559764 1 1 1 1 1 1 1 1 0.0081217602022759308 0.012872054418447014 1 1 0.0088968649306795933 1 1 1 0.008477793286683119 1 1 1 1 1 1 1 1 1 1 0.0096749463707948152 1 1 1 1 0.011644709565705756 0.014868325335989217 1 1 1 1 1 1 1 1 1 1 0.0042822692399858281 1 1 1 1 1 1 1 1 1 1 1 1 1 1 1 1 1 1 1 1 1 1 1 1 1 1 1 1 1 1 1 1 1 1 1 0.012057070733510842 1 1 1 1 1 1 0.0046486235534435455 0.015965788625080163 1 1 1 1 1 1 1 1 1 1 1 1 1 1 1 1 1 1 1 1 1 1 1 0.009585299270907531 1 1 1 1 1 1 1 1 1 1 1 1 1 1 1 1 1 1 1 1 1 1 1 1 1 1 1 1 1 1 1 1 0.0079543901006512256 1 1 1 1 1 1 1 0.0090388628930953493 1 1 1 1 1 1 0.0013397635224167356 1 1 1 1 1 1 1 0.0045820840773937166 1 0.005909445961618881 1 1 1 0.0096954517689143635 1 1 1 1 1 0.0099722136704350553 1 1 -2.4821022806542636e-09 1 1 1 1 1 1 1 1 1 1 1 0.0034082724300147638 1 1 1 1 1 1 1 1 1 1 1 1 1 1 1 0.0086982882476448545 1 1 1 1 1 1 1 1 0.010719670712384728 1 1 1 1 1 1 1 1 1 1 1 1 0.0053111124093035769 1 1 1 1 1 0.020735115560993077 1 1 1 1 1 1 1 0.0096662462922110365 1 1 1 1 1 0.0094308345479356542 1 1 1 1 1 1 1 1 0.0088458773365197793 1 1 1 1 1 1 1 1 1 1 1 1 1 1 1 0.019010858268229541 1 1 1 1 1 1 1 1 1 1 1 1 1 0.0037911703174176095 1 1 1 1 0.01578440215370943 1 1 0.011924371360434775 1 1 1 1 1 1 1 1 0.0075593765641968347 1 1 0.0098274430993371825 1 1 1 1 1 1 0.0098275798512201112 1 1 1 1 1 1 1 1 1 1 1 1 1 1 1 1 1 1 1 0.010205370749634769 1 1 1 1 0.010204990158463517 1 1 1 1 1 1 1 1 1 1 1 1 1 1 1 1 1 1 1 1 1 1 1 1 1 1 1 1 1 1 1 1 1 1 1 1 1 1 1 1 1 1 1 1 1 1 1 1 1 1 1 1 1 1 1 1 1 1 1 0.014775190217304966 0.0054598526385147353 1 1 0.01870844238008397 1 1 1 1 1 1.0428486615920995e-09 1 1 1 1 1 0.010109480189068112 1 1 1 1 0.026109631528320972 1 1 1.9878925658356472e-09 1 1 1 1 1 1 1 0.0066966839066896627 1 1 1 0.0029284776599104514 1 1 1 1 1 1 1 0.00840128259492922 1 1 1 0.0056585450645756305 1 0.0086241575031771392 1 1 1 1 1 1 0.0085117566236081951 0.018315342916146636 1 1 1 0.0099891744186679302 1 0.011301011188213224 1 1 1 1 1 0.0086990326075590887 1 1 1 1 1 1 0.027982797961306816 1 1 1 0.023219666126884544 1 1 1 1 1 1 1 1 1 1 1 1 0.0091596084778176601 1 1 1 1 1 1 0.0078928928170019785 1 1 1 1 0.01003597173981962 1 1 1 1 0.031165773537893439 1 0.0064889872320672282 1 0.012514879725695302 1 1 1 0.030730911561827993 1 1 1 0.010839281484432214 0.033235600702663258 1 1 1 1 0.009356119722746338 1 1 1 0.0096683436168134643 1 1 1 1 1 1 1 1 1 1 1 1 1 1 1 1 0.006618423150339614 1 1 1 1 1 1 1 1 1 1 1 1 1 0.0016962624667790499 1 1 1 0.01030138994351236 1 1 1 1 1 0.0092223860458381102 1 1 1 1 1 0.0098817495155529567 1 1 1 1 1 1 1 0.009489988053744354 1 1 1 1 1 1 1 1 1 0.0074721865958188791 1 1 1 1 1 1 1 0.0062743615572350281 1 1 1 1 1 1 1 1 1 1 1 1 1 1 1 0.008802174961416151 1 1 1 1 1 1 1 1 1 1 1 1 1 1 1 1 1 1 1 1 1 1 1 1 1 1 1 1 1 1 1 1 1 1 1 1 1 0.0083715820980085481 1 1 1 1 1 1 0.0094162135971556579 1 1 1 0.024021922321580236 1 1 1 1 1 1 0.011597786115873584 1 1 1 0.028862108080314315 1 1 1 1 0.010980098720485255 1 1 1 1 1 1 1 1 1 1 1 1 1 1 1 1 1 1 1 1 1 1 1 1 1 1 1 0.015284739253096367 1 1 1 1 1 1 1 1 1 1 1 1 1 1 1 1 1 1 1 1 1 1 1 0.010951217636739782 1 1 1 1 0.0099544441761181893 1 1 1 0.0099559799992836179 1 1 1 1 1 0.0092424587585638804 1 1 1 1 1 0.010001529055015897 1 1 1 1 1 1 1 1 1 1 1 1 0.013780389334944236 1 0.020264809638225981 1 1 1 1 1 1 1 1 0.0053720798449192267 1 1 0.012179315792240004 1 1 1 1 1 1 1 1 1 1 1 1 0.008651145680521978 1 1 1 1 1 0.009261088619861739 1 1 0.010026156536495454 1 1 1 1 1 1 1 1 1 1 1 1 1 1 1 1 1 0.0087530947520607291 1 1 0.015045782307693056 0.0018026178347852959 1 1 0.02028622203648791 1 1 1 1 0.023103851222300277 1 0.0099893256869591843 0.014189086041600865 1 1 1 1 1 1 1 1 1 0.009204619096205402 1 1 0.0077123525759062728 1 1 1 1 1 1 1 1 1 0.0099351564399577999 1 1 1 1 1 0.010580078284166974 1 1 0.0045515915276994889 0.014166177143848546 1 0.012240022811849015 1 0.0062421980754759979 1 1 1 1 0.0048416517577709664 1 0.0030563223550573726 1 1 1 1 1 1 0.0014284639927175102 1 1 1 1 1 1 1 1 1 1 1 1 1 1 1 1 1 1 1 1 1 1 1 1 1 1 1 1 1 1 1 1 1 1 0.011663503083074712 1 1 1 1 1 0.0043246451322026241 0.010180556752105822 1 0.010019682456056476 1 0.0099471900182813155 1 1 1 0.053166749250172687 1 1 1 1 1 0.01040865134784614 1 1 1 1 1 1 1 1 0.0060400943963728332 1 0.0099781095615959128 1 1 0.0088916860649632251 0.021906670351542909 1 0.016653117599839576 1 -9.8539110898743232e-10 1 1 1 1 1 1 1 0.01952355933095163 1 1 0.022013357909744243 0.024930008517628263 1 1 1 1 1 0.019083049731668397 0.020570362442547192 1 1 0.0035307043699572133 0.020022671752815711 1 1 1 0.0076733060603972475 1 1 1 0.029934589696847501 1 1 1 1 1 1 1 1 1 1 1 1 1 1 1 1 1 1 1 0.012116765796089434 1 1 0.0068649162928890103 1 1 1 1 1 0.0021972632843554538 1 1 1 1 1 1 1 1 1 1 1 1 1 1 1 1 0.016946501854554749 1 1 1 1 1 1 1 1 1 1 0.0098817954050422763 1 1 1.6260746332763532e-08 1 1 1 1 1 0.0092914953465125238 1 1 1 1 1 1 0.0094856348920424188 1 1 0.0086798926920867298 1 1 1 1 1 1 1 0.0077672853262507266 1 -9.9962475796910866e-09 1 -1.4336622347621564e-08 0.0020444204110099326 0.011957495732622392 0.0035892795263939431 1 0.00033376621573991822 1 1 1 1 0.010082215932909096 0.010012980176512941 0.0034358908528143578 1 0.017758178998446259 1 1 1 1 3.2327526766628978e-09 1 0.029698625200287154 1 1 1 0.00080572784097673184 1 1 1 1 0.011696941061721568 1 1 0.0098599607040491116 1 1 1 1 1 1 1 1 1 1 1 1 1 1 1 1 1 1 1 0.010049323351761752 1 1 1 1 1 0.010152595256713835 1 1 0.010103334223727381 1 1 1 1 1 1 1 1 1 0.011794152415705169 1 0.011915060319907134 1 1 1 1 1 1 0.010830309732537817 1 1 1 1 1 1 1 1 1 1 1 1 1 1 1 1 1 1 1 1 1 1 1 1 1 1 1 1 1 1 1 1 1 1 1 1 0.0094561249270632419 1 1 -4.9480185920769415e-10 1 1 1 0.0098536754275734481 1 1 1 1 1 1 1 1 1 1 1 1 1 1 1 1 1 1 0.011415763097248458 1 1 1 1 1 1 1 1 1 1 0.013529928691345545 0.0099515035409215441 0.0093018574805226462 1 1 1 1 0.010235678399188857 1 1 1 1 1 1 1 1 1 1 1 1 1 1 1 1 1 1 0.0099742652678599386 1 1 1 1 1 1 1 1 0.0099355681174787755 1 1 1 0.0092226166206774186 1 0.0099933961023168233 1 0.010055331771136175 1 0.011258565419386572 1 0.0091310414712220921 1 1 1 1 1 0.011799886954815424 1 1 0.0098754557897765619 0.010936475800905933 0.0091594908317452067 1 0.010594157261892272 0.010139766834907617 1 1 1 1 1 0.0089035238016675275 0.0088546511590211902 1 1 1 0.0096845355016408272 0.0075713230002802268 1 1 1 1 1 0.0045632634050710025 1 0.013815582932828328 1 1 1 1 0.0045763710909823598 0.015447949721702776 1 1 0.011405936034215927 1 0.006514584103830566 1 1 0.011203223935958989 1 0.0099205205817612871 0.005725667508280935 1 1 1 0.00047024189721050352 0.0093327189907282948 1 1 0.00063559254163621237 0.013798487262231082 0.010030420094734684 1 1 1 0.0099683513779657215 1 0.0053124607583976899 0.0054449966693012747 1 1 0.012644201573022006 0.0125192153895834 1 0.0051752057179490912 1 0.015101736655752544 1 1 1 1 1 1 0.0054646809390889173 1 1 1 1 1 1 1 0.0093958388361886636 0.010574419806306641 1 0.012662878742355679 0.0058229170263118801 1 1 1 1 0.014471803940710216 1 1 1 0.0092088162188062248 1 1 1 1 1 0.0088500238900830197 1 1 0.0092659220856720001 0.00080347627233109085 1 1 1 1 -2.812769538118598e-09 1 1 1 1 1 0.0072546994739166558 1 1 1 1 1 1 1 0.0087624007183929112 0.0099925142280780019 0.013105155001926751 0.00063351489718639631 1 1 1 1 1 0.0052835785052991746 0.0056127268451666747 1 1 0.010141655540392168 1 1 1 0.0091985741079200194 1 1 1 1 1 1 0.010145178268569609 1 1 1 1 0.0032725789844985382 0.00098474613955060186 0.0026262476795733541 1 0.0044769236821680944 1 1 0.0080540624222885451 1 1 1 1 1 1 1 1 1 0.0055715427783126006 1 1 1 1 0.0099897816704759071 1 1 0.0099778634947279427 1 1 1 1 1 1 1 1 1 1 1 1 1 1 1 1 1 1 1 1 1 1 1 1 1 1 1 0.0094684297124052481 1 1 1 1 1 1 1 1 1 1 1 1 1 1 1 1 1 0.0095433319685021972 1 1 1 1 1 1 1 0.0085620275858303146 1 1 1 1 1 1.2173682568950017e-08 1 1 1 1 1 1 1 1 1 1 1 1 1 1 1 1 1 1 1 0.0095042761072183721 1 1 1 1 1 1 1 0.0072623165283636423 1 1 1 1 1 1 1 1 1 1 -8.0606778821157299e-09 1 1 1 1 1 1 1 0.0012484617600249442 1 1 1 1 1 0.0063715868661801331 1 1 1 1 1 0.0057239459616473601 1 1 1 1 0.008023929334493099 1 1 1 1 1 1 1 1 1 1 1 1 1 1 1 0.0066166269177504455 1 1 0.0082288247486135852 1 1 1 1 0.0089339294275198461 1 1 1 1 1 1 1 1 1 0.010909564868953933 1 1 1 7.6552892774861547e-09 0.0092539945335422986 1 0.0086825930388117062 1 1 1 1 1 1 1 1 1 0.0067000851228106242 1 1 0.011314112580883495 0.012530106950403588 0.0026786389650417172 1 1 0.0039942269990574236 1 1 0.010091342838105678 1 1 1 1 0.0047206164431448216 0.0023749888862368285 1 1 0.010058384510401645 1 0.015124486733420497 1 1 1 0.0025017996099342688 1 1 0.0020445043735958617 0.0049124180789432773 1 0.012667942006559588 1 1 1 1 1 1 1 1 0.010836666350819426 1 1 1 1 1 1 1 1 0.014418191594929561 1 1 1 1 1 1 1 1 1 1 1 1 1 1 1 1 1 0.0055997983171856627 1 1 1 1 0.0089378305617652393 1 1 0.0082052031775865161 1 1 1 1 1 1 1 1 1 1 1 1 1 1 0.010976887728305747 1 1 1 0.010262031156755839 1 1 1 0.0052756866964769281 1 1 1 1 1 1 1 1 1 1 1 1 1 0.0063297567147440892 1 1 1 1 1 1 1 1 1 1 1 1 1 0.0089697719419309513 1 1 1 1 1 1 1 1 1 1 1 1 1 1 1 1 1 1 1 0.02129109296414116 1 0.010067014346585086 0.012520509088193035 1 1 0.0080057287235890465 0.015340657319783645 0.014421227641614371 1 1 1 0.010340998374409662 0.0089497701578326837 1 1 1 1 0.010022578974558743 0.0099136041879977557 1 1 1 1 1 1 1 1 1 1 1 1 1 1 0.01178574308451685 1 1 1 1 1 0.0093002735806227352 1 1 1 1 1 1 1 1 1 0.028337390844489357 1 1 1 1 0.0089561946661182376 1 1 1 0.0081448606713731449 1 1 1 1 1 1 1 1 0.015024449390409296 1 1 1 1 1 1 1 1 1 1 1 0.0070469511545713194 1 1 1 1 1 1 1 1 1 1 1 1 1 1 1 1 1 1 0.0083531627885238893 1 1 1 1 1 1 0.010243275322479909 1 1 1 0.03115210838404308 1 1 0.003711520598561226 1 1 1 1 1 1 1 1 0.00649659792968851 1 1 1 0.0091936950546432118 1 1 1 1 1 1 0.0072282108664009056 1 1 1 1 0.0093424633242295101 1 0.0091961032947601006 1 1 1 1 1 1 1 1 1 1 0.010982118755594503 1 1 1 1 1 0.0032987772187736751 1 1 1 0.0058771998139580247 1 1 1 1 1 0.0087641989614644384 1 1 1 1 1 1 1 1 1 1 4.3746101914543534e-09 1 1 1 1 1 0.01015975737829577 1 1 0.0079889577223100101 1 1 1 1 1 1 1 1 1 1 0.0046995561739178121 1 1 0.010308467784926034 1 1 1 1 1 1 0.008206466907655429 1 1 0.0089983636324664877 1 1 1 1 1 1 1 1 1 1 1 1 1 1 1 1 1 1 1 1 1 1 1 1 1 1 1 1 1 1 1 1 1 1 1 1 1 1 1 1 1 1 1 1 1 1 1 1 1 1 1 0.0076367269574331136 1 1 1 0.0061676823468132186 1 1 1 1 1 1 0.0080435336410934824 1 1 1 1 1 1 1 1 1 1 1 1 1 1 1 1 1 1 1 1 1 1 1 1 1 1 1 1 1 0.010013643784900128 1 1 1 0.0098633484335790365 1 1 1 1 1 1 1 1 1 1 1 1 1 1 1 1 1 1 1 1 1 1 1 1 1 1 1 1 1 1 0.010375046141802041 1 1 1 0.0093049961065462192 1 0.012480559574884354 1 1 1 1 1 1 1 1 0.017906592494614511 1 1 0.0028269150530603922 1 1 1 1 1 1 1 0.0095170336292610437 1 1 1 1 1 1 1 1 1 0.0072046549850743168 1 1 1 1 1 1 1 1 1 1 1 1 1 1 1 1 1 1 1 1 1 1 1 1 1 1 1 1 1 1 0.010348022972970963 1 1 1 1 1 1 1 1 1 1 1 1 1 1 0.0092099436697319174 1 1 1 1 1 0.0075283738595435367 1.9426871430971993e-09 1 1 1 1 -1.057512459545773e-09 1 1 1 1 1 1 0.0011913448944740786 0.01810390430750879 1 1 1 0.0096111685449882366 1 1 0.010006584093025231 1 1 1 1 1 1 1 1 1 1 1 1 1 1 1 1 1 1 1 1 1 1 1 3.3194856377538606e-09 0.023563136496575286 1 0.0049182085486794772 1 1 0.010208309786310231 1 1 1 0.010129936087990744 1 1 1 1 1 1 1 1 1 1 1 1 1 1 1 1 1 1 1 1 0.008794220716299532 1 1 0.010367294466803101 1 1 1 0.013201698302468493 1 1 0.0099916763762420979 1 0.014258488278729326 1 1 1 1 1 1 1 1 1 1 1 1 1 0.0063182314842083823 1 1 1 1 0.008859020579305342 1 1 1 1 1 1 1 1 1 1 1 1 1 1 1 0.0063599552354049807 1 1 1 1 1 1 1 1 1 0.0093142532145300931 1 0.0097812280124465814 1 1 1 0.0095152518719991974 1 1 1 1 1 1 1 1 1 1 0.0095509039428132853 1 0.0076271565121057159 1 1 1 1 1 1 0.0095475283537392319 1 1 1 1 0.0092081797701146564 1 1 1 1 0.0094345083793757473 1 1 1 1 1 1 1 1 1 1 1 1 1 1 1 1 1 1 1 0.0091005511429067196 1 1 1 1 1 1 1 1 1 1 1 1 1 1 1 1 1 1 0.026155790207359628 0.01004170788731204 1 1 1 1 1 1 0.016745015511692218 1 0.015208377962103599 1 1 1 1 0.015646356186414807 1 1 1 1 1 1 1 1 1 1 0.0086403440099780821 1 1 1 1 1 1 0.012728264220925323 1 1 0.0076790584598652456 0.0099608937412331393 1 1 0.0097727841190490446 1 0.010219092909440149 1 1 1 1 1 0.010737018586839705 0.0097858688136362101 1 1 1 1 1 1 0.0079454725205701376 1 1 0.0052333731418275214 0.0049306143020141392 0.0057194518101543364 1 1 1 1 1 1 1 0.020457161744573973 0.0084057690863291006 3.000009060616371e-09 1 1 0.017032444915834104 1 1 1 0.0047170942913422331 1 0.0095884959371794146 1 1 1 1 1 1 1 1 0.0088533569640788304 1 1 0.021275810231294226 1 1 1 1 1 1 0.0033502084603774032 1 0.020984164150268745 1 1 1 1 0.023247159178233667 0.0034167521884044452 1 1 1 1 1 1 1 1 1 1 0.018568609853208073 1 1 1 1 0.0099905229132317627 1 1 1 1 1 1 1 0.0051740740598950896 1 1 1 1 1 0.020176672576685213 0.0061215080873740797 1 0.02280251942809013 1 1 0.01169214020725412 1 1 0.011283282716197864 1 1 1 0.021024971305703723 1 1 1 1 1 1 0.01708631223578308 1 0.0084437812512537288 1 0.011581233168053772 0.0075049343052689624 1 1 1 0.0099843500448867657 1 1 1 1 0.0078657190238339801 0.012375639395899932 1 0.0023442169480021539 1 1 1 1 1 0.0073157792010670152 0.0072537348253797918 1 1 1 0.010949738746309438 1 1 0.011538052875162715 1 1 1 1 1 1 1 1 1 1 1 1 1 1 1 0.010267324661649114 1 -3.0634238028237615e-09 1 1 1 0.0029473949076184308 1 0.0090823360533676366 1 1 1 1 1 1 1 1 1 1 0.013575126899949497 1 1 0.014101532107824936 1 1 1 0.025515693901610938 0.010803067242680891 1 1 1 1 0.010245714895886569 1 1 1 1 1 1 1 1 1 1 1 1 1 1 1 
</DataArray>
</CellData>
</Piece>
</UnstructuredGrid>
</VTKFile>
