<?xml version="1.0"?>
<VTKFile type="UnstructuredGrid" version="0.1" byte_order="LittleEndian">
<UnstructuredGrid>
<Piece NumberOfPoints="29309" NumberOfCells="10224">
<Points>
<DataArray type="Float64" NumberOfComponents="3" format="ascii">
-0.49999999999999911 -0.49532622771744478 0 -0.48615541693063252 -0.5 0 -0.49999999999999911 -0.49532622771744478 0 -0.5 -0.5 0 -0.48615541693063252 -0.5 0 -0.49999999999999911 -0.49532622771744478 0 -0.48520599427574013 -0.48580804396970712 0 -0.48615541693063252 -0.5 0 -0.48520599427574013 -0.48580804396970712 0 -0.48615541693063252 -0.5 0 -0.48191894400668528 -0.50000000000000244 0 -0.48520599427574013 -0.48580804396970712 0 -0.5 -0.46989090573171949 0 -0.48011350871725877 -0.46780705049992172 0 -0.49999999999999911 -0.49532622771744478 0 -0.48520599427574013 -0.48580804396970712 0 -0.5 -0.46989090573171949 0 -0.48520599427574013 -0.48580804396970712 0 -0.46978046352871933 -0.4828496742093798 0 -0.48011350871725877 -0.46780705049992172 0 -0.46978046352871933 -0.4828496742093798 0 -0.45764198305075432 -0.46569934841875638 0 -0.48011350871725877 -0.46780705049992172 0 -0.48520599427574013 -0.48580804396970712 0 -0.46978046352871933 -0.4828496742093798 0 -0.48191894400668528 -0.50000000000000244 0 -0.46978046352871933 -0.4828496742093798 0 -0.48191894400668528 -0.50000000000000244 0 -0.46978046352871933 -0.4828496742093798 0 -0.4538757231698809 -0.5 0 -0.4510667084392157 -0.48327163927400429 0 -0.46978046352871933 -0.4828496742093798 0 -0.48191894400668528 -0.50000000000000244 0 -0.4538757231698809 -0.5 0 -0.46978046352871933 -0.4828496742093798 0 -0.45764198305075432 -0.46569934841875638 0 -0.46978046352871933 -0.4828496742093798 0 -0.4510667084392157 -0.48327163927400429 0 -0.45764198305075432 -0.46569934841875638 0 -0.4510667084392157 -0.48327163927400429 0 -0.43984629167316908 -0.47211939879000658 0 -0.43418908077355522 -0.49568977495187833 0 -0.4510667084392157 -0.48327163927400429 0 -0.43984629167316908 -0.47211939879000658 0 -0.45764198305075432 -0.46569934841875638 0 -0.4538757231698809 -0.5 0 -0.42583250233307651 -0.5 0 -0.43418908077355522 -0.49568977495187833 0 -0.4538757231698809 -0.5 0 -0.4510667084392157 -0.48327163927400429 0 -0.43418908077355522 -0.49568977495187833 0 -0.43984629167316908 -0.47211939879000658 0 -0.44550350257278581 -0.44854902262813562 0 -0.45764198305075432 -0.46569934841875638 0 -0.43984629167316908 -0.47211939879000658 0 -0.44550350257278581 -0.44854902262813562 0 -0.42918026569216838 -0.45870374125566138 0 -0.44550350257278581 -0.44854902262813562 0 -0.45764198305075432 -0.46569934841875638 0 -0.43984629167316908 -0.47211939879000658 0 -0.44550350257278581 -0.44854902262813562 0 -0.44550350257278581 -0.44854902262813562 0 -0.45764198305075432 -0.46569934841875638 0 -0.46006326994291141 -0.44835485634661137 0 -0.45764198305075432 -0.46569934841875638 0 -0.46006326994291141 -0.44835485634661137 0 -0.47547070664579311 -0.4494059160538344 0 -0.44550350257278581 -0.44854902262813562 0 -0.46006326994291141 -0.44835485634661137 0 -0.46017397261349868 -0.43165762058906387 0 -0.46006326994291141 -0.44835485634661137 0 -0.47547070664579311 -0.4494059160538344 0 -0.46017397261349868 -0.43165762058906387 0 -0.45764198305075432 -0.46569934841875638 0 -0.47547070664579311 -0.4494059160538344 0 -0.48011350871725877 -0.46780705049992172 0 -0.47547070664579311 -0.4494059160538344 0 -0.48011350871725877 -0.46780705049992172 0 -0.5 -0.44445558374599431 0 -0.5 -0.46989090573171949 0 -0.48011350871725877 -0.46780705049992172 0 -0.5 -0.44445558374599431 0 -0.47547070664579311 -0.4494059160538344 0 -0.5 -0.44445558374599431 0 -0.48039016628270881 -0.42888933741111901 0 -0.5 -0.44445558374599431 0 -0.5 -0.41902026176026907 0 -0.48039016628270881 -0.42888933741111901 0 -0.5 -0.41902026176026907 0 -0.47950130143004399 -0.41160388182976632 0 -0.48746864446835469 -0.40064741743319232 0 -0.5 -0.41902026176026907 0 -0.47950130143004399 -0.41160388182976632 0 -0.48039016628270881 -0.42888933741111901 0 -0.47950130143004399 -0.41160388182976632 0 -0.48039016628270881 -0.42888933741111901 0 -0.46643743848989261 -0.41758077542317329 0 -0.47950130143004399 -0.41160388182976632 0 -0.46903330510697933 -0.4063542943137825 0 -0.46643743848989261 -0.41758077542317329 0 -0.47950130143004399 -0.41160388182976632 0 -0.46903330510697933 -0.4063542943137825 0 -0.47623606316038591 -0.40121060678393572 0 -0.47547070664579311 -0.4494059160538344 0 -0.48039016628270881 -0.42888933741111901 0 -0.46017397261349868 -0.43165762058906387 0 -0.48039016628270881 -0.42888933741111901 0 -0.46017397261349868 -0.43165762058906387 0 -0.46643743848989261 -0.41758077542317329 0 -0.50000000000000022 -0.39186333439717241 0 -0.49509224694774079 -0.37005158701295748 0 -0.50000000000000022 -0.39186333439717241 0 -0.50000000000000133 -0.3935849397745439 0 -0.48159491317046837 -0.38422256161601631 0 -0.49039945445104022 -0.37987346372960218 0 -0.50000000000000022 -0.39186333439717241 0 -0.49509224694774079 -0.37005158701295748 0 -0.50000000000000133 -0.3935849397745439 0 -0.49323870232452249 -0.39259526696436209 0 -0.48159491317046837 -0.38422256161601631 0 -0.49039945445104022 -0.37987346372960218 0 -0.50000000000000022 -0.39186333439717241 0 -0.48159491317046837 -0.38422256161601631 0 -0.50000000000000133 -0.3935849397745439 0 -0.48159491317046837 -0.38422256161601631 0 -0.49039945445104022 -0.37987346372960218 0 -0.48159491317046837 -0.38422256161601631 0 -0.48491065768595137 -0.37335637189226278 0 -0.49323870232452249 -0.39259526696436209 0 -0.48746864446835469 -0.40064741743319232 0 -0.47684869752946668 -0.38941726441995073 0 -0.5 -0.41902026176026907 0 -0.50000000000000133 -0.3935849397745439 0 -0.48746864446835469 -0.40064741743319232 0 -0.49323870232452249 -0.39259526696436209 0 -0.47684869752946668 -0.38941726441995073 0 -0.50000000000000133 -0.3935849397745439 0 -0.49323870232452249 -0.39259526696436209 0 -0.48746864446835469 -0.40064741743319232 0 -0.47950130143004399 -0.41160388182976632 0 -0.48746864446835469 -0.40064741743319232 0 -0.47623606316038591 -0.40121060678393572 0 -0.46903330510697933 -0.4063542943137825 0 -0.47623606316038591 -0.40121060678393572 0 -0.46682973909756759 -0.39723500456206268 0 -0.47623606316038591 -0.40121060678393572 0 -0.47684869752946668 -0.38941726441995073 0 -0.46682973909756759 -0.39723500456206268 0 -0.48746864446835469 -0.40064741743319232 0 -0.47623606316038591 -0.40121060678393572 0 -0.47684869752946668 -0.38941726441995073 0 -0.49323870232452249 -0.39259526696436209 0 -0.47684869752946668 -0.38941726441995073 0 -0.48159491317046837 -0.38422256161601631 0 -0.47684869752946668 -0.38941726441995073 0 -0.48159491317046837 -0.38422256161601631 0 -0.46318982634093547 -0.37486018345748873 0 -0.48159491317046837 -0.38422256161601631 0 -0.46318982634093547 -0.37486018345748873 0 -0.48159491317046837 -0.38422256161601631 0 -0.47541868980982199 -0.37121554065115991 0 -0.46318982634093547 -0.37486018345748873 0 -0.48159491317046837 -0.38422256161601631 0 -0.48491065768595137 -0.37335637189226278 0 -0.47541868980982199 -0.37121554065115991 0 -0.47684869752946668 -0.38941726441995073 0 -0.46045869273441098 -0.38623926187553942 0 -0.46318982634093547 -0.37486018345748873 0 -0.47684869752946668 -0.38941726441995073 0 -0.46045869273441098 -0.38623926187553942 0 -0.46045869273441098 -0.38623926187553942 0 -0.4484166608936313 -0.37603761414193632 0 -0.46318982634093547 -0.37486018345748873 0 -0.46045869273441098 -0.38623926187553942 0 -0.46318982634093547 -0.37486018345748873 0 -0.47684869752946668 -0.38941726441995073 0 -0.46045869273441098 -0.38623926187553942 0 -0.46682973909756759 -0.39723500456206268 0 -0.46045869273441098 -0.38623926187553942 0 -0.46682973909756759 -0.39723500456206268 0 -0.45616198335700658 -0.40414120296997458 0 -0.46045869273441098 -0.38623926187553942 0 -0.45616198335700658 -0.40414120296997458 0 -0.46903330510697933 -0.4063542943137825 0 -0.46682973909756759 -0.39723500456206268 0 -0.45616198335700658 -0.40414120296997458 0 -0.45616198335700658 -0.40414120296997458 0 -0.44214758509232022 -0.38268875976128069 0 -0.43616488300048672 -0.40387531211529432 0 -0.46045869273441098 -0.38623926187553942 0 -0.45616198335700658 -0.40414120296997458 0 -0.44214758509232022 -0.38268875976128069 0 -0.46045869273441098 -0.38623926187553942 0 -0.44214758509232022 -0.38268875976128069 0 -0.4484166608936313 -0.37603761414193632 0 -0.46045869273441098 -0.38623926187553942 0 -0.44214758509232022 -0.38268875976128069 0 -0.44214758509232022 -0.38268875976128069 0 -0.4484166608936313 -0.37603761414193632 0 -0.43758707977579769 -0.37399721028401112 0 -0.46017397261349868 -0.43165762058906387 0 -0.46643743848989261 -0.41758077542317329 0 -0.45186527397959902 -0.42204314406440901 0 -0.46017397261349868 -0.43165762058906387 0 -0.45186527397959902 -0.42204314406440901 0 -0.45616198335700658 -0.40414120296997458 0 -0.45186527397959902 -0.42204314406440901 0 -0.45616198335700658 -0.40414120296997458 0 -0.46643743848989261 -0.41758077542317329 0 -0.45186527397959902 -0.42204314406440901 0 -0.46903330510697933 -0.4063542943137825 0 -0.45616198335700658 -0.40414120296997458 0 -0.46643743848989261 -0.41758077542317329 0 -0.45186527397959902 -0.42204314406440901 0 -0.43616488300048672 -0.40387531211529432 0 -0.45616198335700658 -0.40414120296997458 0 -0.45186527397959902 -0.42204314406440901 0 -0.43616488300048672 -0.40387531211529432 0 -0.45186527397959902 -0.42204314406440901 0 -0.42889835840991791 -0.42508779675966579 0 -0.43616488300048672 -0.40387531211529432 0 -0.44550350257278581 -0.44854902262813562 0 -0.45186527397959902 -0.42204314406440901 0 -0.42889835840991791 -0.42508779675966579 0 -0.44550350257278581 -0.44854902262813562 0 -0.46017397261349868 -0.43165762058906387 0 -0.45186527397959902 -0.42204314406440901 0 -0.44550350257278581 -0.44854902262813562 0 -0.45186527397959902 -0.42204314406440901 0 -0.44550350257278581 -0.44854902262813562 0 -0.42889835840991791 -0.42508779675966579 0 -0.42889835840991791 -0.42508779675966579 0 -0.43616488300048672 -0.40387531211529432 0 -0.42875153843867581 -0.40112161876200558 0 -0.42889835840991791 -0.42508779675966579 0 -0.42875153843867581 -0.40112161876200558 0 -0.41229321424704662 -0.40162657089119858 0 -0.40693228068349852 -0.41207061527762828 0 -0.41459994835563641 -0.42311664135267801 0 -0.41229321424704662 -0.40162657089119858 0 -0.42889835840991791 -0.42508779675966579 0 -0.41459994835563641 -0.42311664135267801 0 -0.41229321424704662 -0.40162657089119858 0 -0.42889835840991791 -0.42508779675966579 0 -0.41229321424704662 -0.40162657089119858 0 -0.40693228068349852 -0.41207061527762828 0 -0.41229321424704662 -0.40162657089119858 0 -0.42889835840991791 -0.42508779675966579 0 -0.41459994835563641 -0.42311664135267801 0 -0.42050909550830678 -0.44282883913093579 0 -0.40693228068349852 -0.41207061527762828 0 -0.41459994835563641 -0.42311664135267801 0 -0.40436679292941158 -0.43396938470396113 0 -0.41459994835563641 -0.42311664135267801 0 -0.40436679292941158 -0.43396938470396113 0 -0.42050909550830678 -0.44282883913093579 0 -0.44214758509232022 -0.38268875976128069 0 -0.42383647745022951 -0.37913825764702141 0 -0.43758707977579769 -0.37399721028401112 0 -0.44214758509232022 -0.38268875976128069 0 -0.42383647745022951 -0.37913825764702141 0 -0.43174449222022798 -0.38734747807419578 0 -0.44214758509232022 -0.38268875976128069 0 -0.42383647745022951 -0.37913825764702141 0 -0.42383647745022951 -0.37913825764702141 0 -0.42046449202137381 -0.38570748016617978 0 -0.42383647745022951 -0.37913825764702141 0 -0.43174449222022798 -0.38734747807419578 0 -0.42046449202137381 -0.38570748016617978 0 -0.44214758509232022 -0.38268875976128069 0 -0.43174449222022798 -0.38734747807419578 0 -0.43616488300048672 -0.40387531211529432 0 -0.43174449222022798 -0.38734747807419578 0 -0.43616488300048672 -0.40387531211529432 0 -0.42046449202137381 -0.38570748016617978 0 -0.43616488300048672 -0.40387531211529432 0 -0.42875153843867581 -0.40112161876200558 0 -0.42046449202137381 -0.38570748016617978 0 -0.43616488300048672 -0.40387531211529432 0 -0.42046449202137381 -0.38570748016617978 0 -0.42875153843867581 -0.40112161876200558 0 -0.41511247784728939 -0.39613414800832708 0 -0.42875153843867581 -0.40112161876200558 0 -0.41229321424704662 -0.40162657089119858 0 -0.41511247784728939 -0.39613414800832708 0 -0.40693228068349852 -0.41207061527762828 0 -0.41125442418652808 -0.40015887582028009 0 -0.40905861736450277 -0.39392039934855322 0 -0.40693228068349852 -0.41207061527762828 0 -0.40905861736450277 -0.39392039934855322 0 -0.40693228068349852 -0.41207061527762828 0 -0.41125442418652808 -0.40015887582028009 0 -0.41229321424704662 -0.40162657089119858 0 -0.41229321424704662 -0.40162657089119858 0 -0.41511247784728939 -0.39613414800832708 0 -0.41125442418652808 -0.40015887582028009 0 -0.41229321424704662 -0.40162657089119858 0 -0.41511247784728939 -0.39613414800832708 0 -0.41125442418652808 -0.40015887582028009 0 -0.41229321424704662 -0.40162657089119858 0 -0.41125442418652808 -0.40015887582028009 0 -0.40905861736450277 -0.39392039934855322 0 -0.41511247784728939 -0.39613414800832708 0 -0.40905861736450277 -0.39392039934855322 0 -0.41511247784728939 -0.39613414800832708 0 -0.40905861736450277 -0.39392039934855322 0 -0.41511247784728939 -0.39613414800832708 0 -0.41373633496857981 -0.38589146423884252 0 -0.42875153843867581 -0.40112161876200558 0 -0.41511247784728939 -0.39613414800832708 0 -0.42046449202137381 -0.38570748016617978 0 -0.41511247784728939 -0.39613414800832708 0 -0.42046449202137381 -0.38570748016617978 0 -0.40905861736450277 -0.39392039934855322 0 -0.4072696312735643 -0.37592596576787651 0 -0.41108014545796512 -0.37666481996132961 0 -0.40905861736450277 -0.39392039934855322 0 -0.41108014545796512 -0.37666481996132961 0 -0.40905861736450277 -0.39392039934855322 0 -0.41373633496857981 -0.38589146423884252 0 -0.41108014545796512 -0.37666481996132961 0 -0.42046449202137381 -0.38570748016617978 0 -0.41373633496857981 -0.38589146423884252 0 -0.41296594215176807 -0.37703047370982268 0 -0.41511247784728939 -0.39613414800832708 0 -0.42046449202137381 -0.38570748016617978 0 -0.41373633496857981 -0.38589146423884252 0 -0.41373633496857981 -0.38589146423884252 0 -0.41108014545796512 -0.37666481996132961 0 -0.41296594215176807 -0.37703047370982268 0 -0.4072696312735643 -0.37592596576787651 0 -0.41108014545796512 -0.37666481996132961 0 -0.41126754856870251 -0.3750651641043723 0 -0.4072696312735643 -0.37592596576787651 0 -0.41108014545796512 -0.37666481996132961 0 -0.41108014545796512 -0.37666481996132961 0 -0.41126754856870251 -0.3750651641043723 0 -0.41296594215176807 -0.37703047370982268 0 -0.41108014545796512 -0.37666481996132961 0 -0.41296594215176807 -0.37703047370982268 0 -0.41108014545796512 -0.37666481996132961 0 -0.41126754856870251 -0.3750651641043723 0 -0.41126754856870251 -0.3750651641043723 0 -0.41296594215176807 -0.37703047370982268 0 -0.42383647745022951 -0.37913825764702141 0 -0.42046449202137381 -0.38570748016617978 0 -0.41296594215176807 -0.37703047370982268 0 -0.42383647745022951 -0.37913825764702141 0 -0.41296594215176807 -0.37703047370982268 0 -0.42046449202137381 -0.38570748016617978 0 -0.41296594215176807 -0.37703047370982268 0 -0.42383647745022951 -0.37913825764702141 0 -0.41296594215176807 -0.37703047370982268 0 -0.42120701055000309 -0.37213698908984072 0 -0.38763058041797888 -0.38608469051336852 0 -0.40981429952192377 -0.37338352544344477 0 -0.39566232343660102 -0.37101069383993979 0 -0.4072696312735643 -0.37592596576787651 0 -0.38763058041797888 -0.38608469051336852 0 -0.40981429952192377 -0.37338352544344477 0 -0.40905861736450277 -0.39392039934855322 0 -0.38763058041797888 -0.38608469051336852 0 -0.40905861736450277 -0.39392039934855322 0 -0.4072696312735643 -0.37592596576787651 0 -0.38763058041797888 -0.38608469051336852 0 -0.38763058041797888 -0.38608469051336852 0 -0.40981429952192377 -0.37338352544344477 0 -0.40905861736450277 -0.39392039934855322 0 -0.39630713250688021 -0.4016261959921319 0 -0.38763058041797888 -0.38608469051336852 0 -0.40693228068349852 -0.41207061527762828 0 -0.40905861736450277 -0.39392039934855322 0 -0.39630713250688021 -0.4016261959921319 0 -0.39630713250688021 -0.4016261959921319 0 -0.38396818888554929 -0.39979864776837032 0 -0.38630266083370168 -0.41141850543845632 0 -0.38396818888554929 -0.39979864776837032 0 -0.37512769530458118 -0.4062457854902578 0 -0.38630266083370168 -0.41141850543845632 0 -0.38396818888554929 -0.39979864776837032 0 -0.37512769530458118 -0.4062457854902578 0 -0.3744728753646045 -0.39361806140763672 0 -0.38396818888554929 -0.39979864776837032 0 -0.38763058041797888 -0.38608469051336852 0 -0.3744728753646045 -0.39361806140763672 0 -0.39630713250688021 -0.4016261959921319 0 -0.38396818888554929 -0.39979864776837032 0 -0.38763058041797888 -0.38608469051336852 0 -0.38763058041797888 -0.38608469051336852 0 -0.38675848510619087 -0.37403121394135219 0 -0.3688461688659439 -0.37921569080381268 0 -0.38763058041797888 -0.38608469051336852 0 -0.3688461688659439 -0.37921569080381268 0 -0.38763058041797888 -0.38608469051336852 0 -0.3688461688659439 -0.37921569080381268 0 -0.3744728753646045 -0.39361806140763672 0 -0.38763058041797888 -0.38608469051336852 0 -0.3744728753646045 -0.39361806140763672 0 -0.38763058041797888 -0.38608469051336852 0 -0.39566232343660102 -0.37101069383993979 0 -0.38675848510619087 -0.37403121394135219 0 -0.40693228068349852 -0.41207061527762828 0 -0.40436679292941158 -0.43396938470396113 0 -0.39782053195988848 -0.42982190933477948 0 -0.39782053195988848 -0.42982190933477948 0 -0.38643861044177519 -0.42610764612766849 0 -0.388708783236278 -0.44757320339193041 0 -0.40436679292941158 -0.43396938470396113 0 -0.39782053195988848 -0.42982190933477948 0 -0.388708783236278 -0.44757320339193041 0 -0.40693228068349852 -0.41207061527762828 0 -0.40436679292941158 -0.43396938470396113 0 -0.39782053195988848 -0.42982190933477948 0 -0.39498823285348422 -0.41594338178467982 0 -0.38643861044177519 -0.42610764612766849 0 -0.40693228068349852 -0.41207061527762828 0 -0.39782053195988848 -0.42982190933477948 0 -0.39498823285348422 -0.41594338178467982 0 -0.40693228068349852 -0.41207061527762828 0 -0.39782053195988848 -0.42982190933477948 0 -0.40693228068349852 -0.41207061527762828 0 -0.39630713250688021 -0.4016261959921319 0 -0.39498823285348422 -0.41594338178467982 0 -0.39630713250688021 -0.4016261959921319 0 -0.39498823285348422 -0.41594338178467982 0 -0.38630266083370168 -0.41141850543845632 0 -0.38630266083370168 -0.41141850543845632 0 -0.37598397969694147 -0.41918093281251601 0 -0.38643861044177519 -0.42610764612766849 0 -0.39498823285348422 -0.41594338178467982 0 -0.38630266083370168 -0.41141850543845632 0 -0.38643861044177519 -0.42610764612766849 0 -0.37512769530458118 -0.4062457854902578 0 -0.38630266083370168 -0.41141850543845632 0 -0.37598397969694147 -0.41918093281251601 0 -0.38643861044177519 -0.42610764612766849 0 -0.388708783236278 -0.44757320339193041 0 -0.37441429701011503 -0.43281772285011472 0 -0.37598397969694147 -0.41918093281251601 0 -0.38643861044177519 -0.42610764612766849 0 -0.37441429701011503 -0.43281772285011472 0 -0.388708783236278 -0.44757320339193041 0 -0.36902153858596082 -0.44840178465177699 0 -0.37441429701011503 -0.43281772285011472 0 -0.39782053195988848 -0.42982190933477948 0 -0.388708783236278 -0.44757320339193041 0 -0.40436679292941158 -0.43396938470396113 0 -0.388708783236278 -0.44757320339193041 0 -0.40386468831178279 -0.44920456395816599 0 -0.39340918905447242 -0.46520952930629472 0 -0.40280606246679512 -0.47909897056770429 0 -0.41274671626350051 -0.46110833457502393 0 -0.40386468831178279 -0.44920456395816599 0 -0.39340918905447242 -0.46520952930629472 0 -0.41274671626350051 -0.46110833457502393 0 -0.388708783236278 -0.44757320339193041 0 -0.40386468831178279 -0.44920456395816599 0 -0.39340918905447242 -0.46520952930629472 0 -0.388708783236278 -0.44757320339193041 0 -0.37093562395134061 -0.4689170394434482 0 -0.36902153858596082 -0.44840178465177699 0 -0.388708783236278 -0.44757320339193041 0 -0.39340918905447242 -0.46520952930629472 0 -0.37093562395134061 -0.4689170394434482 0 -0.38693724352566961 -0.48264510786348952 0 -0.36974606065946769 -0.5 0 -0.37093562395134061 -0.4689170394434482 0 -0.39340918905447242 -0.46520952930629472 0 -0.38693724352566961 -0.48264510786348952 0 -0.37093562395134061 -0.4689170394434482 0 -0.38693724352566961 -0.48264510786348952 0 -0.39778928149627207 -0.5 0 -0.36974606065946769 -0.5 0 -0.38693724352566961 -0.48264510786348952 0 -0.39778928149627207 -0.5 0 -0.40280606246679512 -0.47909897056770429 0 -0.39778928149627207 -0.5 0 -0.40280606246679512 -0.47909897056770429 0 -0.41440923495103932 -0.48813650146072879 0 -0.39340918905447242 -0.46520952930629472 0 -0.38693724352566961 -0.48264510786348952 0 -0.40280606246679512 -0.47909897056770429 0 -0.40280606246679512 -0.47909897056770429 0 -0.41962792344503758 -0.47479317822831019 0 -0.41440923495103932 -0.48813650146072879 0 -0.40280606246679512 -0.47909897056770429 0 -0.41962792344503758 -0.47479317822831019 0 -0.41274671626350051 -0.46110833457502393 0 -0.41962792344503758 -0.47479317822831019 0 -0.41440923495103932 -0.48813650146072879 0 -0.42599040501401531 -0.48679035850763003 0 -0.39778928149627207 -0.5 0 -0.41440923495103932 -0.48813650146072879 0 -0.42583250233307651 -0.5 0 -0.43984629167316908 -0.47211939879000658 0 -0.42599040501401531 -0.48679035850763003 0 -0.43418908077355522 -0.49568977495187833 0 -0.42583250233307651 -0.5 0 -0.42599040501401531 -0.48679035850763003 0 -0.43418908077355522 -0.49568977495187833 0 -0.41440923495103932 -0.48813650146072879 0 -0.42583250233307651 -0.5 0 -0.42599040501401531 -0.48679035850763003 0 -0.43984629167316908 -0.47211939879000658 0 -0.41962792344503758 -0.47479317822831019 0 -0.42599040501401531 -0.48679035850763003 0 -0.43984629167316908 -0.47211939879000658 0 -0.43418908077355522 -0.49568977495187833 0 -0.43984629167316908 -0.47211939879000658 0 -0.41962792344503758 -0.47479317822831019 0 -0.42918026569216838 -0.45870374125566138 0 -0.44550350257278581 -0.44854902262813562 0 -0.42918026569216838 -0.45870374125566138 0 -0.42050909550830678 -0.44282883913093579 0 -0.44550350257278581 -0.44854902262813562 0 -0.42889835840991791 -0.42508779675966579 0 -0.42050909550830678 -0.44282883913093579 0 -0.40436679292941158 -0.43396938470396113 0 -0.40386468831178279 -0.44920456395816599 0 -0.42050909550830678 -0.44282883913093579 0 -0.40386468831178279 -0.44920456395816599 0 -0.42050909550830678 -0.44282883913093579 0 -0.41274671626350051 -0.46110833457502393 0 -0.42918026569216838 -0.45870374125566138 0 -0.42050909550830678 -0.44282883913093579 0 -0.41274671626350051 -0.46110833457502393 0 -0.41962792344503758 -0.47479317822831019 0 -0.42918026569216838 -0.45870374125566138 0 -0.41274671626350051 -0.46110833457502393 0 -0.44728620197534102 -0.27065214491736361 0 -0.45457930907554273 -0.25368028092202127 0 -0.43236998789552678 -0.25452055740584512 0 -0.44728620197534102 -0.27065214491736361 0 -0.43706027366371808 -0.2903868741680547 0 -0.42916354957484032 -0.271922358458205 0 -0.44728620197534102 -0.27065214491736361 0 -0.47541394804602732 -0.26808047816724229 0 -0.45740394963347591 -0.28617298876259278 0 -0.45457930907554273 -0.25368028092202127 0 -0.47541394804602732 -0.26808047816724229 0 -0.47321964036710051 -0.24693873317905721 0 -0.44728620197534102 -0.27065214491736361 0 -0.45457930907554273 -0.25368028092202127 0 -0.47541394804602732 -0.26808047816724229 0 -0.47541394804602732 -0.26808047816724229 0 -0.5 -0.244735536176657 0 -0.47321964036710051 -0.24693873317905721 0 -0.5 -0.27416109582076009 0 -0.47541394804602732 -0.26808047816724229 0 -0.5 -0.244735536176657 0 -0.5 -0.27416109582076009 0 -0.47541394804602732 -0.26808047816724229 0 -0.4764563839955851 -0.29772083783048958 0 -0.47541394804602732 -0.26808047816724229 0 -0.4764563839955851 -0.29772083783048958 0 -0.45740394963347591 -0.28617298876259278 0 -0.5 -0.27416109582076009 0 -0.5 -0.30358665546486319 0 -0.4764563839955851 -0.29772083783048958 0 -0.5 -0.30358665546486319 0 -0.48118984637655737 -0.31130993199397011 0 -0.4764563839955851 -0.29772083783048958 0 -0.48118984637655737 -0.31130993199397011 0 -0.4764563839955851 -0.29772083783048958 0 -0.46302626066742281 -0.31750414243599978 0 -0.4764563839955851 -0.29772083783048958 0 -0.45063418043222442 -0.3032846188205624 0 -0.46302626066742281 -0.31750414243599978 0 -0.4764563839955851 -0.29772083783048958 0 -0.45740394963347591 -0.28617298876259278 0 -0.45063418043222442 -0.3032846188205624 0 -0.44728620197534102 -0.27065214491736361 0 -0.45740394963347591 -0.28617298876259278 0 -0.43706027366371808 -0.2903868741680547 0 -0.45740394963347591 -0.28617298876259278 0 -0.45063418043222442 -0.3032846188205624 0 -0.43706027366371808 -0.2903868741680547 0 -0.45063418043222442 -0.3032846188205624 0 -0.44035123916544688 -0.31893274589652287 0 -0.43447557003253767 -0.30514749517224921 0 -0.45063418043222442 -0.3032846188205624 0 -0.43447557003253767 -0.30514749517224921 0 -0.43706027366371808 -0.2903868741680547 0 -0.45063418043222442 -0.3032846188205624 0 -0.44035123916544688 -0.31893274589652287 0 -0.46302626066742281 -0.31750414243599978 0 -0.44035123916544688 -0.31893274589652287 0 -0.46302626066742281 -0.31750414243599978 0 -0.44035123916544688 -0.31893274589652287 0 -0.44573850403421272 -0.3409036824681439 0 -0.43133529921925429 -0.33850911205166112 0 -0.44035123916544688 -0.31893274589652287 0 -0.44573850403421272 -0.3409036824681439 0 -0.45738832064225149 -0.33142472232976028 0 -0.45738832064225149 -0.33142472232976028 0 -0.46302626066742281 -0.31750414243599978 0 -0.46924099647251838 -0.3366017043567997 0 -0.44573850403421272 -0.3409036824681439 0 -0.45738832064225149 -0.33142472232976028 0 -0.45753141475268122 -0.34978234595416191 0 -0.45738832064225149 -0.33142472232976028 0 -0.46924099647251838 -0.3366017043567997 0 -0.45753141475268122 -0.34978234595416191 0 -0.44035123916544688 -0.31893274589652287 0 -0.45738832064225149 -0.33142472232976028 0 -0.46302626066742281 -0.31750414243599978 0 -0.46302626066742281 -0.31750414243599978 0 -0.4852767408432217 -0.32642809224452779 0 -0.46924099647251838 -0.3366017043567997 0 -0.48118984637655737 -0.31130993199397011 0 -0.46302626066742281 -0.31750414243599978 0 -0.4852767408432217 -0.32642809224452779 0 -0.5 -0.30358665546486319 0 -0.4852767408432217 -0.32642809224452779 0 -0.5 -0.33301221510896628 0 -0.5 -0.30358665546486319 0 -0.48118984637655737 -0.31130993199397011 0 -0.4852767408432217 -0.32642809224452779 0 -0.4852767408432217 -0.32642809224452779 0 -0.47954371870308521 -0.34061875194023639 0 -0.49018449389548119 -0.34823983962874261 0 -0.4852767408432217 -0.32642809224452779 0 -0.5 -0.33301221510896628 0 -0.49018449389548119 -0.34823983962874261 0 -0.4852767408432217 -0.32642809224452779 0 -0.49018449389548119 -0.34823983962874261 0 -0.4852767408432217 -0.32642809224452779 0 -0.47954371870308521 -0.34061875194023639 0 -0.46924099647251838 -0.3366017043567997 0 -0.47954371870308521 -0.34061875194023639 0 -0.46924099647251838 -0.3366017043567997 0 -0.47347264360111951 -0.35120537153087589 0 -0.47954371870308521 -0.34061875194023639 0 -0.47347264360111951 -0.35120537153087589 0 -0.49018449389548119 -0.34823983962874261 0 -0.47347264360111951 -0.35120537153087589 0 -0.49018449389548119 -0.34823983962874261 0 -0.48148037027576412 -0.36165631956932143 0 -0.47347264360111951 -0.35120537153087589 0 -0.48148037027576412 -0.36165631956932143 0 -0.46571465056894629 -0.36434067873108411 0 -0.49018449389548119 -0.34823983962874261 0 -0.49509224694774079 -0.37005158701295748 0 -0.5 -0.33301221510896628 0 -0.49018449389548119 -0.34823983962874261 0 -0.5 -0.36243777475306932 0 -0.49018449389548119 -0.34823983962874261 0 -0.49509224694774079 -0.37005158701295748 0 -0.48148037027576412 -0.36165631956932143 0 -0.50000000000000022 -0.39186333439717241 0 -0.5 -0.36243777475306932 0 -0.49509224694774079 -0.37005158701295748 0 -0.49018449389548119 -0.34823983962874261 0 -0.5 -0.36243777475306932 0 -0.49509224694774079 -0.37005158701295748 0 -0.49039945445104022 -0.37987346372960218 0 -0.49509224694774079 -0.37005158701295748 0 -0.48491065768595137 -0.37335637189226278 0 -0.49509224694774079 -0.37005158701295748 0 -0.48491065768595137 -0.37335637189226278 0 -0.48148037027576412 -0.36165631956932143 0 -0.48148037027576412 -0.36165631956932143 0 -0.47541868980982199 -0.37121554065115991 0 -0.46571465056894629 -0.36434067873108411 0 -0.48491065768595137 -0.37335637189226278 0 -0.48148037027576412 -0.36165631956932143 0 -0.47541868980982199 -0.37121554065115991 0 -0.46318982634093547 -0.37486018345748873 0 -0.46571465056894629 -0.36434067873108411 0 -0.43870012052469209 -0.36240265533136068 0 -0.47541868980982199 -0.37121554065115991 0 -0.46318982634093547 -0.37486018345748873 0 -0.46571465056894629 -0.36434067873108411 0 -0.46318982634093547 -0.37486018345748873 0 -0.46571465056894629 -0.36434067873108411 0 -0.46571465056894629 -0.36434067873108411 0 -0.45753141475268122 -0.34978234595416191 0 -0.43870012052469209 -0.36240265533136068 0 -0.47347264360111951 -0.35120537153087589 0 -0.46571465056894629 -0.36434067873108411 0 -0.45753141475268122 -0.34978234595416191 0 -0.46924099647251838 -0.3366017043567997 0 -0.47347264360111951 -0.35120537153087589 0 -0.45753141475268122 -0.34978234595416191 0 -0.44573850403421272 -0.3409036824681439 0 -0.45753141475268122 -0.34978234595416191 0 -0.43870012052469209 -0.36240265533136068 0 -0.44573850403421272 -0.3409036824681439 0 -0.43870012052469209 -0.36240265533136068 0 -0.43133529921925429 -0.33850911205166112 0 -0.46318982634093547 -0.37486018345748873 0 -0.43870012052469209 -0.36240265533136068 0 -0.4484166608936313 -0.37603761414193632 0 -0.46318982634093547 -0.37486018345748873 0 -0.43870012052469209 -0.36240265533136068 0 -0.4484166608936313 -0.37603761414193632 0 -0.43870012052469209 -0.36240265533136068 0 -0.43758707977579769 -0.37399721028401112 0 -0.42383647745022951 -0.37913825764702141 0 -0.42866045885025622 -0.3697402908071093 0 -0.42120701055000309 -0.37213698908984072 0 -0.42383647745022951 -0.37913825764702141 0 -0.42866045885025622 -0.3697402908071093 0 -0.42898896915218798 -0.36240517492457558 0 -0.42866045885025622 -0.3697402908071093 0 -0.42120701055000309 -0.37213698908984072 0 -0.43870012052469209 -0.36240265533136068 0 -0.43758707977579769 -0.37399721028401112 0 -0.42866045885025622 -0.3697402908071093 0 -0.42383647745022951 -0.37913825764702141 0 -0.43758707977579769 -0.37399721028401112 0 -0.42866045885025622 -0.3697402908071093 0 -0.43870012052469209 -0.36240265533136068 0 -0.42898896915218798 -0.36240517492457558 0 -0.42866045885025622 -0.3697402908071093 0 -0.43870012052469209 -0.36240265533136068 0 -0.41421041470844899 -0.34994512720523208 0 -0.43133529921925429 -0.33850911205166112 0 -0.43870012052469209 -0.36240265533136068 0 -0.41421041470844899 -0.34994512720523208 0 -0.43870012052469209 -0.36240265533136068 0 -0.42898896915218798 -0.36240517492457558 0 -0.41421041470844899 -0.34994512720523208 0 -0.42898896915218798 -0.36240517492457558 0 -0.41421041470844899 -0.34994512720523208 0 -0.41158320514557478 -0.37237074836067319 0 -0.41421041470844899 -0.34994512720523208 0 -0.41158320514557478 -0.37237074836067319 0 -0.42898896915218798 -0.36240517492457558 0 -0.42120701055000309 -0.37213698908984072 0 -0.41158320514557478 -0.37237074836067319 0 -0.42898896915218798 -0.36240517492457558 0 -0.41158320514557478 -0.37237074836067319 0 -0.41421041470844899 -0.34994512720523208 0 -0.41158320514557478 -0.37237074836067319 0 -0.39599997314130958 -0.35739816810380121 0 -0.41296594215176807 -0.37703047370982268 0 -0.42120701055000309 -0.37213698908984072 0 -0.41158320514557478 -0.37237074836067319 0 -0.41126754856870251 -0.3750651641043723 0 -0.41296594215176807 -0.37703047370982268 0 -0.41158320514557478 -0.37237074836067319 0 -0.41158320514557478 -0.37237074836067319 0 -0.40981429952192377 -0.37338352544344477 0 -0.41126754856870251 -0.3750651641043723 0 -0.41158320514557478 -0.37237074836067319 0 -0.41126754856870251 -0.3750651641043723 0 -0.41158320514557478 -0.37237074836067319 0 -0.40981429952192377 -0.37338352544344477 0 -0.41126754856870251 -0.3750651641043723 0 -0.40981429952192377 -0.37338352544344477 0 -0.4072696312735643 -0.37592596576787651 0 -0.41126754856870251 -0.3750651641043723 0 -0.40981429952192377 -0.37338352544344477 0 -0.40981429952192377 -0.37338352544344477 0 -0.39566232343660102 -0.37101069383993979 0 -0.39599997314130958 -0.35739816810380121 0 -0.41158320514557478 -0.37237074836067319 0 -0.40981429952192377 -0.37338352544344477 0 -0.39599997314130958 -0.35739816810380121 0 -0.40981429952192377 -0.37338352544344477 0 -0.39599997314130958 -0.35739816810380121 0 -0.39134303310890228 -0.36352363503284169 0 -0.39566232343660102 -0.37101069383993979 0 -0.39599997314130958 -0.35739816810380121 0 -0.39134303310890228 -0.36352363503284169 0 -0.39566232343660102 -0.37101069383993979 0 -0.38675848510619087 -0.37403121394135219 0 -0.38675848510619087 -0.37403121394135219 0 -0.37809175626065272 -0.36699607646647447 0 -0.3688461688659439 -0.37921569080381268 0 -0.39134303310890228 -0.36352363503284169 0 -0.38675848510619087 -0.37403121394135219 0 -0.37809175626065272 -0.36699607646647447 0 -0.39134303310890228 -0.36352363503284169 0 -0.37809175626065272 -0.36699607646647447 0 -0.37830395189338611 -0.35516799191734882 0 -0.37830395189338611 -0.35516799191734882 0 -0.38218564676069761 -0.34141281076415569 0 -0.36500338605709481 -0.34496816717466489 0 -0.39599997314130958 -0.35739816810380121 0 -0.38218564676069761 -0.34141281076415569 0 -0.39134303310890228 -0.36352363503284169 0 -0.37830395189338611 -0.35516799191734882 0 -0.38218564676069761 -0.34141281076415569 0 -0.39134303310890228 -0.36352363503284169 0 -0.39599997314130958 -0.35739816810380121 0 -0.38218564676069761 -0.34141281076415569 0 -0.39134303310890228 -0.36352363503284169 0 -0.38218564676069761 -0.34141281076415569 0 -0.41421041470844899 -0.34994512720523208 0 -0.39599997314130958 -0.35739816810380121 0 -0.39532286798551891 -0.34033732928801891 0 -0.41421041470844899 -0.34994512720523208 0 -0.39532286798551891 -0.34033732928801891 0 -0.39599997314130958 -0.35739816810380121 0 -0.39532286798551891 -0.34033732928801891 0 -0.38218564676069761 -0.34141281076415569 0 -0.40583580704490257 -0.33309060133052382 0 -0.39532286798551891 -0.34033732928801891 0 -0.39613372782217088 -0.32171859947179832 0 -0.39532286798551891 -0.34033732928801891 0 -0.38748053206468142 -0.33117170915417021 0 -0.39613372782217088 -0.32171859947179832 0 -0.41421041470844899 -0.34994512720523208 0 -0.40583580704490257 -0.33309060133052382 0 -0.39532286798551891 -0.34033732928801891 0 -0.38218564676069761 -0.34141281076415569 0 -0.3687916680951927 -0.32591386211703999 0 -0.37459123798087079 -0.32307584958655 0 -0.38218564676069761 -0.34141281076415569 0 -0.37459123798087079 -0.32307584958655 0 -0.39532286798551891 -0.34033732928801891 0 -0.38748053206468142 -0.33117170915417021 0 -0.38218564676069761 -0.34141281076415569 0 -0.38748053206468142 -0.33117170915417021 0 -0.38218564676069761 -0.34141281076415569 0 -0.37459123798087079 -0.32307584958655 0 -0.38218564676069761 -0.34141281076415569 0 -0.3687916680951927 -0.32591386211703999 0 -0.39613372782217088 -0.32171859947179832 0 -0.37459123798087079 -0.32307584958655 0 -0.38102839330070309 -0.31303530574707672 0 -0.39613372782217088 -0.32171859947179832 0 -0.38645983304389597 -0.30277220628514662 0 -0.38748053206468142 -0.33117170915417021 0 -0.39613372782217088 -0.32171859947179832 0 -0.37459123798087079 -0.32307584958655 0 -0.38102839330070309 -0.31303530574707672 0 -0.39613372782217088 -0.32171859947179832 0 -0.37459123798087079 -0.32307584958655 0 -0.39613372782217088 -0.32171859947179832 0 -0.41767621766347113 -0.32036134935704608 0 -0.39613372782217088 -0.32171859947179832 0 -0.41767621766347113 -0.32036134935704608 0 -0.40529497586861668 -0.30849457390512719 0 -0.40583580704490257 -0.33309060133052382 0 -0.39613372782217088 -0.32171859947179832 0 -0.41767621766347113 -0.32036134935704608 0 -0.41421041470844899 -0.34994512720523208 0 -0.41767621766347113 -0.32036134935704608 0 -0.43133529921925429 -0.33850911205166112 0 -0.41421041470844899 -0.34994512720523208 0 -0.41767621766347113 -0.32036134935704608 0 -0.41421041470844899 -0.34994512720523208 0 -0.40583580704490257 -0.33309060133052382 0 -0.41767621766347113 -0.32036134935704608 0 -0.44035123916544688 -0.31893274589652287 0 -0.41767621766347113 -0.32036134935704608 0 -0.43447557003253767 -0.30514749517224921 0 -0.44035123916544688 -0.31893274589652287 0 -0.41767621766347113 -0.32036134935704608 0 -0.44035123916544688 -0.31893274589652287 0 -0.41767621766347113 -0.32036134935704608 0 -0.43133529921925429 -0.33850911205166112 0 -0.43447557003253767 -0.30514749517224921 0 -0.43706027366371808 -0.2903868741680547 0 -0.41983044130147429 -0.30197309290708302 0 -0.41767621766347113 -0.32036134935704608 0 -0.43447557003253767 -0.30514749517224921 0 -0.41983044130147429 -0.30197309290708302 0 -0.43706027366371808 -0.2903868741680547 0 -0.41832424122508649 -0.28444876490183602 0 -0.42916354957484032 -0.271922358458205 0 -0.43706027366371808 -0.2903868741680547 0 -0.41832424122508649 -0.28444876490183602 0 -0.41983044130147429 -0.30197309290708302 0 -0.41832424122508649 -0.28444876490183602 0 -0.40353717733951039 -0.29312325985308602 0 -0.4031948992353514 -0.27472027147467348 0 -0.41832424122508649 -0.28444876490183602 0 -0.41983044130147429 -0.30197309290708302 0 -0.40353717733951039 -0.29312325985308602 0 -0.41983044130147429 -0.30197309290708302 0 -0.40529497586861668 -0.30849457390512719 0 -0.40353717733951039 -0.29312325985308602 0 -0.41767621766347113 -0.32036134935704608 0 -0.41983044130147429 -0.30197309290708302 0 -0.40529497586861668 -0.30849457390512719 0 -0.41767621766347113 -0.32036134935704608 0 -0.41983044130147429 -0.30197309290708302 0 -0.39613372782217088 -0.32171859947179832 0 -0.40529497586861668 -0.30849457390512719 0 -0.38645983304389597 -0.30277220628514662 0 -0.40529497586861668 -0.30849457390512719 0 -0.38645983304389597 -0.30277220628514662 0 -0.40353717733951039 -0.29312325985308602 0 -0.38102839330070309 -0.31303530574707672 0 -0.38645983304389597 -0.30277220628514662 0 -0.36692877435587468 -0.30457456764481178 0 -0.38645983304389597 -0.30277220628514662 0 -0.38657742987436811 -0.28437881304258061 0 -0.37155377923263722 -0.29182170416634179 0 -0.38657742987436811 -0.28437881304258061 0 -0.37224670342877619 -0.27797574244273909 0 -0.37155377923263722 -0.29182170416634179 0 -0.38657742987436811 -0.28437881304258061 0 -0.40353717733951039 -0.29312325985308602 0 -0.4031948992353514 -0.27472027147467348 0 -0.38645983304389597 -0.30277220628514662 0 -0.38657742987436811 -0.28437881304258061 0 -0.40353717733951039 -0.29312325985308602 0 -0.38657742987436811 -0.28437881304258061 0 -0.4031948992353514 -0.27472027147467348 0 -0.38559306263697157 -0.26415284775593412 0 -0.38657742987436811 -0.28437881304258061 0 -0.38559306263697157 -0.26415284775593412 0 -0.37224670342877619 -0.27797574244273909 0 -0.38559306263697157 -0.26415284775593412 0 -0.3633779528215354 -0.25781581817734728 0 -0.38731903233915838 -0.23842812602661409 0 -0.38559306263697157 -0.26415284775593412 0 -0.40263167937642541 -0.25474881847894387 0 -0.38731903233915838 -0.23842812602661409 0 -0.4031948992353514 -0.27472027147467348 0 -0.38559306263697157 -0.26415284775593412 0 -0.40263167937642541 -0.25474881847894387 0 -0.40263167937642541 -0.25474881847894387 0 -0.41679820476979329 -0.2507607630774138 0 -0.416497415770337 -0.26444305356315401 0 -0.4031948992353514 -0.27472027147467348 0 -0.40263167937642541 -0.25474881847894387 0 -0.416497415770337 -0.26444305356315401 0 -0.41832424122508649 -0.28444876490183602 0 -0.416497415770337 -0.26444305356315401 0 -0.42916354957484032 -0.271922358458205 0 -0.41832424122508649 -0.28444876490183602 0 -0.4031948992353514 -0.27472027147467348 0 -0.416497415770337 -0.26444305356315401 0 -0.44728620197534102 -0.27065214491736361 0 -0.42916354957484032 -0.271922358458205 0 -0.43236998789552678 -0.25452055740584512 0 -0.416497415770337 -0.26444305356315401 0 -0.42916354957484032 -0.271922358458205 0 -0.43236998789552678 -0.25452055740584512 0 -0.41679820476979329 -0.2507607630774138 0 -0.416497415770337 -0.26444305356315401 0 -0.43236998789552678 -0.25452055740584512 0 -0.32053224806165032 -0.25325990110162788 0 -0.32151625398157541 -0.27120874171056331 0 -0.33411189979342348 -0.25865620679674789 0 -0.32053224806165032 -0.25325990110162788 0 -0.33411189979342348 -0.25865620679674789 0 -0.32807514775026009 -0.2398334552598963 0 -0.32053224806165032 -0.25325990110162788 0 -0.32151625398157541 -0.27120874171056331 0 -0.30618571126858501 -0.25346888261604072 0 -0.32151625398157541 -0.27120874171056331 0 -0.30618571126858501 -0.25346888261604072 0 -0.32151625398157541 -0.27120874171056331 0 -0.31678399046273759 -0.29077654705736888 0 -0.30777579710460701 -0.27720609143501668 0 -0.32151625398157541 -0.27120874171056331 0 -0.33684679669456602 -0.28894860080508561 0 -0.34089885113012752 -0.27622117680514502 0 -0.33411189979342348 -0.25865620679674789 0 -0.34818730965395323 -0.26622364645270419 0 -0.32151625398157541 -0.27120874171056331 0 -0.34089885113012752 -0.27622117680514502 0 -0.33411189979342348 -0.25865620679674789 0 -0.32151625398157541 -0.27120874171056331 0 -0.34089885113012752 -0.27622117680514502 0 -0.33684679669456602 -0.28894860080508561 0 -0.33411189979342348 -0.25865620679674789 0 -0.34818730965395323 -0.26622364645270419 0 -0.34508872539177032 -0.247264508647837 0 -0.3633779528215354 -0.25781581817734728 0 -0.34818730965395323 -0.26622364645270419 0 -0.34508872539177032 -0.247264508647837 0 -0.38559306263697157 -0.26415284775593412 0 -0.3633779528215354 -0.25781581817734728 0 -0.37224670342877619 -0.27797574244273909 0 -0.3633779528215354 -0.25781581817734728 0 -0.37224670342877619 -0.27797574244273909 0 -0.35938782112561218 -0.28411536582363528 0 -0.3633779528215354 -0.25781581817734728 0 -0.35938782112561218 -0.28411536582363528 0 -0.34089885113012752 -0.27622117680514502 0 -0.34818730965395323 -0.26622364645270419 0 -0.35938782112561218 -0.28411536582363528 0 -0.3633779528215354 -0.25781581817734728 0 -0.34818730965395323 -0.26622364645270419 0 -0.35938782112561218 -0.28411536582363528 0 -0.34534302553163498 -0.2881744992421334 0 -0.35539768942968908 -0.31041491346992328 0 -0.33684679669456602 -0.28894860080508561 0 -0.34089885113012752 -0.27622117680514502 0 -0.34534302553163498 -0.2881744992421334 0 -0.35938782112561218 -0.28411536582363528 0 -0.34534302553163498 -0.2881744992421334 0 -0.35909471799272202 -0.28604725188559132 0 -0.35539768942968908 -0.31041491346992328 0 -0.34534302553163498 -0.2881744992421334 0 -0.35909471799272202 -0.28604725188559132 0 -0.35938782112561218 -0.28411536582363528 0 -0.35909471799272202 -0.28604725188559132 0 -0.35938782112561218 -0.28411536582363528 0 -0.35909471799272202 -0.28604725188559132 0 -0.36561365362947568 -0.28499652453394758 0 -0.37155377923263722 -0.29182170416634179 0 -0.35909471799272202 -0.28604725188559132 0 -0.37155377923263722 -0.29182170416634179 0 -0.36692877435587468 -0.30457456764481178 0 -0.35909471799272202 -0.28604725188559132 0 -0.36692877435587468 -0.30457456764481178 0 -0.37224670342877619 -0.27797574244273909 0 -0.35938782112561218 -0.28411536582363528 0 -0.36561365362947568 -0.28499652453394758 0 -0.35909471799272202 -0.28604725188559132 0 -0.35938782112561218 -0.28411536582363528 0 -0.36561365362947568 -0.28499652453394758 0 -0.37224670342877619 -0.27797574244273909 0 -0.36561365362947568 -0.28499652453394758 0 -0.37155377923263722 -0.29182170416634179 0 -0.35909471799272202 -0.28604725188559132 0 -0.36692877435587468 -0.30457456764481178 0 -0.35539768942968908 -0.31041491346992328 0 -0.38645983304389597 -0.30277220628514662 0 -0.37155377923263722 -0.29182170416634179 0 -0.36692877435587468 -0.30457456764481178 0 -0.36692877435587468 -0.30457456764481178 0 -0.35539768942968908 -0.31041491346992328 0 -0.36707194984712882 -0.31747326665967718 0 -0.35909471799272202 -0.28604725188559132 0 -0.35539768942968908 -0.31041491346992328 0 -0.35539768942968908 -0.31041491346992328 0 -0.33684679669456602 -0.28894860080508561 0 -0.35539768942968908 -0.31041491346992328 0 -0.33132050903457633 -0.30441692891465461 0 -0.333375608224172 -0.32071372605787191 0 -0.35539768942968908 -0.31041491346992328 0 -0.33132050903457633 -0.30441692891465461 0 -0.33684679669456602 -0.28894860080508561 0 -0.33132050903457633 -0.30441692891465461 0 -0.33684679669456602 -0.28894860080508561 0 -0.31678399046273759 -0.29077654705736888 0 -0.34089885113012752 -0.27622117680514502 0 -0.34534302553163498 -0.2881744992421334 0 -0.33684679669456602 -0.28894860080508561 0 -0.34534302553163498 -0.2881744992421334 0 -0.33684679669456602 -0.28894860080508561 0 -0.33684679669456602 -0.28894860080508561 0 -0.31678399046273759 -0.29077654705736888 0 -0.32151625398157541 -0.27120874171056331 0 -0.33684679669456602 -0.28894860080508561 0 -0.31678399046273759 -0.29077654705736888 0 -0.33132050903457633 -0.30441692891465461 0 -0.31678399046273759 -0.29077654705736888 0 -0.31504839622754038 -0.30665910968376281 0 -0.33132050903457633 -0.30441692891465461 0 -0.31504839622754038 -0.30665910968376281 0 -0.333375608224172 -0.32071372605787191 0 -0.31504839622754038 -0.30665910968376281 0 -0.32223320835782959 -0.33221553221624373 0 -0.333375608224172 -0.32071372605787191 0 -0.31504839622754038 -0.30665910968376281 0 -0.333375608224172 -0.32071372605787191 0 -0.31504839622754038 -0.30665910968376281 0 -0.32223320835782959 -0.33221553221624373 0 -0.30230849457523712 -0.32662388507259071 0 -0.33994748709090827 -0.33674498269004871 0 -0.333375608224172 -0.32071372605787191 0 -0.35170282022080268 -0.33476834243198222 0 -0.32223320835782959 -0.33221553221624373 0 -0.33994748709090827 -0.33674498269004871 0 -0.33917045661945072 -0.35284774152986143 0 -0.32223320835782959 -0.33221553221624373 0 -0.33994748709090827 -0.33674498269004871 0 -0.333375608224172 -0.32071372605787191 0 -0.333375608224172 -0.32071372605787191 0 -0.35170282022080268 -0.33476834243198222 0 -0.35539768942968908 -0.31041491346992328 0 -0.333375608224172 -0.32071372605787191 0 -0.35170282022080268 -0.33476834243198222 0 -0.35539768942968908 -0.31041491346992328 0 -0.35170282022080268 -0.33476834243198222 0 -0.35539768942968908 -0.31041491346992328 0 -0.3687916680951927 -0.32591386211703999 0 -0.35170282022080268 -0.33476834243198222 0 -0.36692877435587468 -0.30457456764481178 0 -0.37459123798087079 -0.32307584958655 0 -0.35539768942968908 -0.31041491346992328 0 -0.3687916680951927 -0.32591386211703999 0 -0.38102839330070309 -0.31303530574707672 0 -0.36692877435587468 -0.30457456764481178 0 -0.37459123798087079 -0.32307584958655 0 -0.36692877435587468 -0.30457456764481178 0 -0.36707194984712882 -0.31747326665967718 0 -0.37459123798087079 -0.32307584958655 0 -0.35539768942968908 -0.31041491346992328 0 -0.36707194984712882 -0.31747326665967718 0 -0.3687916680951927 -0.32591386211703999 0 -0.36707194984712882 -0.31747326665967718 0 -0.36965037937401629 -0.32338714048006051 0 -0.3687916680951927 -0.32591386211703999 0 -0.36965037937401629 -0.32338714048006051 0 -0.3687916680951927 -0.32591386211703999 0 -0.37459123798087079 -0.32307584958655 0 -0.36707194984712882 -0.31747326665967718 0 -0.36965037937401629 -0.32338714048006051 0 -0.37459123798087079 -0.32307584958655 0 -0.36965037937401629 -0.32338714048006051 0 -0.37459123798087079 -0.32307584958655 0 -0.3687916680951927 -0.32591386211703999 0 -0.35170282022080268 -0.33476834243198222 0 -0.36500338605709481 -0.34496816717466489 0 -0.38218564676069761 -0.34141281076415569 0 -0.3687916680951927 -0.32591386211703999 0 -0.36500338605709481 -0.34496816717466489 0 -0.35170282022080268 -0.33476834243198222 0 -0.36500338605709481 -0.34496816717466489 0 -0.35170282022080268 -0.33476834243198222 0 -0.35139357562492912 -0.33680661926174849 0 -0.36500338605709481 -0.34496816717466489 0 -0.35170282022080268 -0.33476834243198222 0 -0.35139357562492912 -0.33680661926174849 0 -0.33994748709090827 -0.33674498269004871 0 -0.35170282022080268 -0.33476834243198222 0 -0.35139357562492912 -0.33680661926174849 0 -0.33994748709090827 -0.33674498269004871 0 -0.35139357562492912 -0.33680661926174849 0 -0.34575933403213338 -0.3441865505936661 0 -0.35139357562492912 -0.33680661926174849 0 -0.34575933403213338 -0.3441865505936661 0 -0.35252581679324552 -0.35034685889300587 0 -0.35252581679324552 -0.35034685889300587 0 -0.36336632139185548 -0.36241494126870899 0 -0.34758058164856559 -0.36134757844884641 0 -0.34575933403213338 -0.3441865505936661 0 -0.35252581679324552 -0.35034685889300587 0 -0.33917045661945072 -0.35284774152986143 0 -0.35252581679324552 -0.35034685889300587 0 -0.34758058164856559 -0.36134757844884641 0 -0.33917045661945072 -0.35284774152986143 0 -0.35139357562492912 -0.33680661926174849 0 -0.35252581679324552 -0.35034685889300587 0 -0.36500338605709481 -0.34496816717466489 0 -0.37830395189338611 -0.35516799191734882 0 -0.36500338605709481 -0.34496816717466489 0 -0.36336632139185548 -0.36241494126870899 0 -0.35252581679324552 -0.35034685889300587 0 -0.36500338605709481 -0.34496816717466489 0 -0.36336632139185548 -0.36241494126870899 0 -0.37830395189338611 -0.35516799191734882 0 -0.36500338605709481 -0.34496816717466489 0 -0.36336632139185548 -0.36241494126870899 0 -0.35006175731390882 -0.37234669109425678 0 -0.3688461688659439 -0.37921569080381268 0 -0.37809175626065272 -0.36699607646647447 0 -0.36336632139185548 -0.36241494126870899 0 -0.3688461688659439 -0.37921569080381268 0 -0.37809175626065272 -0.36699607646647447 0 -0.37830395189338611 -0.35516799191734882 0 -0.36336632139185548 -0.36241494126870899 0 -0.36336632139185548 -0.36241494126870899 0 -0.35006175731390882 -0.37234669109425678 0 -0.34758058164856559 -0.36134757844884641 0 -0.35006175731390882 -0.37234669109425678 0 -0.34758058164856559 -0.36134757844884641 0 -0.33277855612436752 -0.36878165945839869 0 -0.34758058164856559 -0.36134757844884641 0 -0.33277855612436752 -0.36878165945839869 0 -0.33917045661945072 -0.35284774152986143 0 -0.33994748709090827 -0.33674498269004871 0 -0.34575933403213338 -0.3441865505936661 0 -0.33917045661945072 -0.35284774152986143 0 -0.33277855612436752 -0.36878165945839869 0 -0.33917045661945072 -0.35284774152986143 0 -0.30981201213498211 -0.34907937906736553 0 -0.33917045661945072 -0.35284774152986143 0 -0.30981201213498211 -0.34907937906736553 0 -0.32223320835782959 -0.33221553221624373 0 -0.33917045661945072 -0.35284774152986143 0 -0.30981201213498211 -0.34907937906736553 0 -0.33277855612436752 -0.36878165945839869 0 -0.30934637900480422 -0.3729051973103838 0 -0.30981201213498211 -0.34907937906736553 0 -0.30934637900480422 -0.3729051973103838 0 -0.30981201213498211 -0.34907937906736553 0 -0.28568508505150358 -0.3689813020744806 0 -0.30981201213498211 -0.34907937906736553 0 -0.28045356765051338 -0.34531101660486963 0 -0.30981201213498211 -0.34907937906736553 0 -0.28568508505150358 -0.3689813020744806 0 -0.28045356765051338 -0.34531101660486963 0 -0.28568508505150358 -0.3689813020744806 0 -0.25488830083163388 -0.36685168130002832 0 -0.28045356765051338 -0.34531101660486963 0 -0.25488830083163388 -0.36685168130002832 0 -0.28045356765051338 -0.34531101660486963 0 -0.25109512316604471 -0.34154265414237361 0 -0.28045356765051338 -0.34531101660486963 0 -0.2677932133139363 -0.32977539705638748 0 -0.28189804873344498 -0.31648586055582412 0 -0.28045356765051338 -0.34531101660486963 0 -0.2677932133139363 -0.32977539705638748 0 -0.25109512316604471 -0.34154265414237361 0 -0.28045356765051338 -0.34531101660486963 0 -0.25109512316604471 -0.34154265414237361 0 -0.2677932133139363 -0.32977539705638748 0 -0.25109512316604471 -0.34154265414237361 0 -0.2552863565788695 -0.31611310254605751 0 -0.2677932133139363 -0.32977539705638748 0 -0.2552863565788695 -0.31611310254605751 0 -0.28189804873344498 -0.31648586055582412 0 -0.28189804873344498 -0.31648586055582412 0 -0.30230849457523712 -0.32662388507259071 0 -0.29899403094178301 -0.31059333715545739 0 -0.28045356765051338 -0.34531101660486963 0 -0.28189804873344498 -0.31648586055582412 0 -0.30230849457523712 -0.32662388507259071 0 -0.32223320835782959 -0.33221553221624373 0 -0.30981201213498211 -0.34907937906736553 0 -0.30230849457523712 -0.32662388507259071 0 -0.30981201213498211 -0.34907937906736553 0 -0.28045356765051338 -0.34531101660486963 0 -0.30230849457523712 -0.32662388507259071 0 -0.31504839622754038 -0.30665910968376281 0 -0.30230849457523712 -0.32662388507259071 0 -0.29899403094178301 -0.31059333715545739 0 -0.31504839622754038 -0.30665910968376281 0 -0.29672118423090937 -0.29260449330965288 0 -0.31504839622754038 -0.30665910968376281 0 -0.29899403094178301 -0.31059333715545739 0 -0.29672118423090937 -0.29260449330965288 0 -0.31678399046273759 -0.29077654705736888 0 -0.29672118423090937 -0.29260449330965288 0 -0.30777579710460701 -0.27720609143501668 0 -0.31678399046273759 -0.29077654705736888 0 -0.29672118423090937 -0.29260449330965288 0 -0.31678399046273759 -0.29077654705736888 0 -0.31504839622754038 -0.30665910968376281 0 -0.29672118423090937 -0.29260449330965288 0 -0.29672118423090937 -0.29260449330965288 0 -0.27529961538464642 -0.27617690288721941 0 -0.29672118423090937 -0.29260449330965288 0 -0.26803510638311451 -0.29521811614429833 0 -0.28189804873344498 -0.31648586055582412 0 -0.29899403094178301 -0.31059333715545739 0 -0.29672118423090937 -0.29260449330965288 0 -0.28189804873344498 -0.31648586055582412 0 -0.29672118423090937 -0.29260449330965288 0 -0.26803510638311451 -0.29521811614429833 0 -0.2552863565788695 -0.31611310254605751 0 -0.28189804873344498 -0.31648586055582412 0 -0.26803510638311451 -0.29521811614429833 0 -0.2552863565788695 -0.31611310254605751 0 -0.25213886797067592 -0.29948735812300709 0 -0.26803510638311451 -0.29521811614429833 0 -0.25213886797067592 -0.29948735812300709 0 -0.25026817800329881 -0.2848496734077437 0 -0.26803510638311451 -0.29521811614429833 0 -0.25026817800329881 -0.2848496734077437 0 -0.26803510638311451 -0.29521811614429833 0 -0.26125283212923889 -0.27620938006357743 0 -0.29672118423090937 -0.29260449330965288 0 -0.26803510638311451 -0.29521811614429833 0 -0.27529961538464642 -0.27617690288721941 0 -0.26803510638311451 -0.29521811614429833 0 -0.27529961538464642 -0.27617690288721941 0 -0.26125283212923889 -0.27620938006357743 0 -0.27529961538464642 -0.27617690288721941 0 -0.26125283212923889 -0.27620938006357743 0 -0.26640045744717161 -0.26016405429774031 0 -0.26125283212923889 -0.27620938006357743 0 -0.26640045744717161 -0.26016405429774031 0 -0.2462608034279633 -0.26463815358088549 0 -0.25026817800329881 -0.2848496734077437 0 -0.26125283212923889 -0.27620938006357743 0 -0.2462608034279633 -0.26463815358088549 0 -0.25473520772639757 -0.25111225091949058 0 -0.26640045744717161 -0.26016405429774031 0 -0.2462608034279633 -0.26463815358088549 0 -0.25473520772639757 -0.25111225091949058 0 -0.26640045744717161 -0.26016405429774031 0 -0.26712662972940088 -0.24472262477513351 0 -0.26640045744717161 -0.26016405429774031 0 -0.27539145014436323 -0.25229755620922312 0 -0.26712662972940088 -0.24472262477513351 0 -0.26640045744717161 -0.26016405429774031 0 -0.27539145014436323 -0.25229755620922312 0 -0.28413880772532518 -0.26009703549102631 0 -0.27529961538464642 -0.27617690288721941 0 -0.26640045744717161 -0.26016405429774031 0 -0.28413880772532518 -0.26009703549102631 0 -0.28413880772532518 -0.26009703549102631 0 -0.29417012804027109 -0.27215312560113769 0 -0.30618571126858501 -0.25346888261604072 0 -0.27539145014436323 -0.25229755620922312 0 -0.28413880772532518 -0.26009703549102631 0 -0.28458303065451579 -0.24802118311711149 0 -0.28413880772532518 -0.26009703549102631 0 -0.30618571126858501 -0.25346888261604072 0 -0.28458303065451579 -0.24802118311711149 0 -0.27529961538464642 -0.27617690288721941 0 -0.28413880772532518 -0.26009703549102631 0 -0.29417012804027109 -0.27215312560113769 0 -0.29672118423090937 -0.29260449330965288 0 -0.27529961538464642 -0.27617690288721941 0 -0.29417012804027109 -0.27215312560113769 0 -0.29417012804027109 -0.27215312560113769 0 -0.30777579710460701 -0.27720609143501668 0 -0.30618571126858501 -0.25346888261604072 0 -0.32151625398157541 -0.27120874171056331 0 -0.30777579710460701 -0.27720609143501668 0 -0.30618571126858501 -0.25346888261604072 0 -0.29672118423090937 -0.29260449330965288 0 -0.29417012804027109 -0.27215312560113769 0 -0.30777579710460701 -0.27720609143501668 0 -0.33106865447154582 -0.45634111031522351 0 -0.34782648375240072 -0.47598710927410981 0 -0.35130348917006671 -0.45151333935243387 0 -0.33106865447154582 -0.45634111031522351 0 -0.35130348917006671 -0.45151333935243387 0 -0.33628965587939852 -0.43403349847810369 0 -0.33106865447154582 -0.45634111031522351 0 -0.31436802859572671 -0.44091732850011012 0 -0.33628965587939852 -0.43403349847810369 0 -0.33106865447154582 -0.45634111031522351 0 -0.31436802859572671 -0.44091732850011012 0 -0.31231300704077031 -0.46010039155843951 0 -0.33106865447154582 -0.45634111031522351 0 -0.32431126239091251 -0.47549499472814433 0 -0.31231300704077031 -0.46010039155843951 0 -0.32431126239091251 -0.47549499472814433 0 -0.31365961898585898 -0.5 0 -0.30055675854594971 -0.47748962930126132 0 -0.32431126239091251 -0.47549499472814433 0 -0.31365961898585898 -0.5 0 -0.34170283982266342 -0.5 0 -0.33106865447154582 -0.45634111031522351 0 -0.32431126239091251 -0.47549499472814433 0 -0.34782648375240072 -0.47598710927410981 0 -0.32431126239091251 -0.47549499472814433 0 -0.34170283982266342 -0.5 0 -0.34782648375240072 -0.47598710927410981 0 -0.34170283982266342 -0.5 0 -0.34782648375240072 -0.47598710927410981 0 -0.36974606065946769 -0.5 0 -0.34782648375240072 -0.47598710927410981 0 -0.36974606065946769 -0.5 0 -0.37093562395134061 -0.4689170394434482 0 -0.37093562395134061 -0.4689170394434482 0 -0.35130348917006671 -0.45151333935243387 0 -0.36902153858596082 -0.44840178465177699 0 -0.34782648375240072 -0.47598710927410981 0 -0.37093562395134061 -0.4689170394434482 0 -0.35130348917006671 -0.45151333935243387 0 -0.35130348917006671 -0.45151333935243387 0 -0.36902153858596082 -0.44840178465177699 0 -0.35751525936698769 -0.43071148324375502 0 -0.35130348917006671 -0.45151333935243387 0 -0.35751525936698769 -0.43071148324375502 0 -0.33628965587939852 -0.43403349847810369 0 -0.36843781272771292 -0.4241161486559788 0 -0.36583771483680771 -0.4137544557175295 0 -0.35751525936698769 -0.43071148324375502 0 -0.37441429701011503 -0.43281772285011472 0 -0.36843781272771292 -0.4241161486559788 0 -0.35751525936698769 -0.43071148324375502 0 -0.36902153858596082 -0.44840178465177699 0 -0.37441429701011503 -0.43281772285011472 0 -0.35751525936698769 -0.43071148324375502 0 -0.37598397969694147 -0.41918093281251601 0 -0.37441429701011503 -0.43281772285011472 0 -0.36843781272771292 -0.4241161486559788 0 -0.37598397969694147 -0.41918093281251601 0 -0.36843781272771292 -0.4241161486559788 0 -0.36583771483680771 -0.4137544557175295 0 -0.37512769530458118 -0.4062457854902578 0 -0.37598397969694147 -0.41918093281251601 0 -0.36583771483680771 -0.4137544557175295 0 -0.37512769530458118 -0.4062457854902578 0 -0.36583771483680771 -0.4137544557175295 0 -0.36131517031123012 -0.40115143230190481 0 -0.36583771483680771 -0.4137544557175295 0 -0.35751525936698769 -0.43071148324375502 0 -0.33728908093810089 -0.41172873352291989 0 -0.36583771483680771 -0.4137544557175295 0 -0.34695513953618501 -0.40110895956241338 0 -0.33728908093810089 -0.41172873352291989 0 -0.36583771483680771 -0.4137544557175295 0 -0.33728908093810089 -0.41172873352291989 0 -0.35006175731390882 -0.37234669109425678 0 -0.3688461688659439 -0.37921569080381268 0 -0.35006175731390882 -0.37234669109425678 0 -0.3688461688659439 -0.37921569080381268 0 -0.35937347582598728 -0.38866841085406528 0 -0.3688461688659439 -0.37921569080381268 0 -0.3744728753646045 -0.39361806140763672 0 -0.35937347582598728 -0.38866841085406528 0 -0.3744728753646045 -0.39361806140763672 0 -0.36131517031123012 -0.40115143230190481 0 -0.35937347582598728 -0.38866841085406528 0 -0.3744728753646045 -0.39361806140763672 0 -0.36131517031123012 -0.40115143230190481 0 -0.37512769530458118 -0.4062457854902578 0 -0.3744728753646045 -0.39361806140763672 0 -0.36131517031123012 -0.40115143230190481 0 -0.36583771483680771 -0.4137544557175295 0 -0.36131517031123012 -0.40115143230190481 0 -0.34695513953618501 -0.40110895956241338 0 -0.34695513953618501 -0.40110895956241338 0 -0.35937347582598728 -0.38866841085406528 0 -0.34741894426719938 -0.38675635795276231 0 -0.36131517031123012 -0.40115143230190481 0 -0.34695513953618501 -0.40110895956241338 0 -0.35937347582598728 -0.38866841085406528 0 -0.35006175731390882 -0.37234669109425678 0 -0.35937347582598728 -0.38866841085406528 0 -0.34741894426719938 -0.38675635795276231 0 -0.34741894426719938 -0.38675635795276231 0 -0.32195839532678899 -0.3881466679681454 0 -0.35006175731390882 -0.37234669109425678 0 -0.33277855612436752 -0.36878165945839869 0 -0.34741894426719938 -0.38675635795276231 0 -0.33277855612436752 -0.36878165945839869 0 -0.34741894426719938 -0.38675635795276231 0 -0.32195839532678899 -0.3881466679681454 0 -0.34695513953618501 -0.40110895956241338 0 -0.32195839532678899 -0.3881466679681454 0 -0.33728908093810089 -0.41172873352291989 0 -0.34695513953618501 -0.40110895956241338 0 -0.34741894426719938 -0.38675635795276231 0 -0.32195839532678899 -0.3881466679681454 0 -0.32195839532678899 -0.3881466679681454 0 -0.33728908093810089 -0.41172873352291989 0 -0.30874044703939407 -0.40970301132831022 0 -0.33277855612436752 -0.36878165945839869 0 -0.30934637900480422 -0.3729051973103838 0 -0.32195839532678899 -0.3881466679681454 0 -0.35751525936698769 -0.43071148324375502 0 -0.33628965587939852 -0.43403349847810369 0 -0.33728908093810089 -0.41172873352291989 0 -0.33628965587939852 -0.43403349847810369 0 -0.33728908093810089 -0.41172873352291989 0 -0.31905137037779269 -0.42407456163089602 0 -0.33728908093810089 -0.41172873352291989 0 -0.31905137037779269 -0.42407456163089602 0 -0.30874044703939407 -0.40970301132831022 0 -0.33728908093810089 -0.41172873352291989 0 -0.30874044703939407 -0.40970301132831022 0 -0.31436802859572671 -0.44091732850011012 0 -0.33628965587939852 -0.43403349847810369 0 -0.31905137037779269 -0.42407456163089602 0 -0.31436802859572671 -0.44091732850011012 0 -0.31905137037779269 -0.42407456163089602 0 -0.29217801133065052 -0.42907251802698482 0 -0.31905137037779269 -0.42407456163089602 0 -0.30874044703939407 -0.40970301132831022 0 -0.29217801133065052 -0.42907251802698482 0 -0.30874044703939407 -0.40970301132831022 0 -0.2801918131406872 -0.4076772891337006 0 -0.30874044703939407 -0.40970301132831022 0 -0.29217801133065052 -0.42907251802698482 0 -0.2801918131406872 -0.4076772891337006 0 -0.32195839532678899 -0.3881466679681454 0 -0.29649784638637872 -0.38953697798352849 0 -0.30934637900480422 -0.3729051973103838 0 -0.32195839532678899 -0.3881466679681454 0 -0.29649784638637872 -0.38953697798352849 0 -0.30934637900480422 -0.3729051973103838 0 -0.28568508505150358 -0.3689813020744806 0 -0.29649784638637872 -0.38953697798352849 0 -0.32195839532678899 -0.3881466679681454 0 -0.30874044703939407 -0.40970301132831022 0 -0.29649784638637872 -0.38953697798352849 0 -0.29649784638637872 -0.38953697798352849 0 -0.27103729744596838 -0.39092728799891152 0 -0.2801918131406872 -0.4076772891337006 0 -0.30874044703939407 -0.40970301132831022 0 -0.29649784638637872 -0.38953697798352849 0 -0.2801918131406872 -0.4076772891337006 0 -0.29649784638637872 -0.38953697798352849 0 -0.27103729744596838 -0.39092728799891152 0 -0.28568508505150358 -0.3689813020744806 0 -0.29649784638637872 -0.38953697798352849 0 -0.27103729744596838 -0.39092728799891152 0 -0.28568508505150358 -0.3689813020744806 0 -0.25488830083163388 -0.36685168130002832 0 -0.27103729744596838 -0.39092728799891152 0 -0.27103729744596838 -0.39092728799891152 0 -0.25164317924198021 -0.40565156693909088 0 -0.2801918131406872 -0.4076772891337006 0 -0.27103729744596838 -0.39092728799891152 0 -0.25164317924198021 -0.40565156693909088 0 -0.24595991543526949 -0.38690116566415572 0 -0.25488830083163388 -0.36685168130002832 0 -0.27103729744596838 -0.39092728799891152 0 -0.24595991543526949 -0.38690116566415572 0 -0.29217801133065052 -0.42907251802698482 0 -0.26513032535793069 -0.41775807750045901 0 -0.26384754497010332 -0.43583638446770873 0 -0.29217801133065052 -0.42907251802698482 0 -0.2801918131406872 -0.4076772891337006 0 -0.26513032535793069 -0.41775807750045901 0 -0.25164317924198021 -0.40565156693909088 0 -0.2801918131406872 -0.4076772891337006 0 -0.26513032535793069 -0.41775807750045901 0 -0.25164317924198021 -0.40565156693909088 0 -0.2801918131406872 -0.4076772891337006 0 -0.25164317924198021 -0.40565156693909088 0 -0.26513032535793069 -0.41775807750045901 0 -0.2475929601149178 -0.4304769916774086 0 -0.26513032535793069 -0.41775807750045901 0 -0.26384754497010332 -0.43583638446770873 0 -0.2475929601149178 -0.4304769916774086 0 -0.26384754497010332 -0.43583638446770873 0 -0.24935483431473821 -0.45387541306151041 0 -0.2475929601149178 -0.4304769916774086 0 -0.26384754497010332 -0.43583638446770873 0 -0.27257305708738239 -0.4529212580396057 0 -0.24935483431473821 -0.45387541306151041 0 -0.26120983142490839 -0.46722330273960078 0 -0.2475118771518067 -0.48168785313146562 0 -0.24935483431473821 -0.45387541306151041 0 -0.26120983142490839 -0.46722330273960078 0 -0.27257305708738239 -0.4529212580396057 0 -0.24935483431473821 -0.45387541306151041 0 -0.26120983142490839 -0.46722330273960078 0 -0.27257305708738239 -0.4529212580396057 0 -0.2778168751627802 -0.47922253879846438 0 -0.27257305708738239 -0.4529212580396057 0 -0.29129752730849851 -0.4533454741551694 0 -0.2778168751627802 -0.47922253879846438 0 -0.29217801133065052 -0.42907251802698482 0 -0.26384754497010332 -0.43583638446770873 0 -0.27257305708738239 -0.4529212580396057 0 -0.29217801133065052 -0.42907251802698482 0 -0.27257305708738239 -0.4529212580396057 0 -0.29129752730849851 -0.4533454741551694 0 -0.29129752730849851 -0.4533454741551694 0 -0.31231300704077031 -0.46010039155843951 0 -0.30055675854594971 -0.47748962930126132 0 -0.31436802859572671 -0.44091732850011012 0 -0.29129752730849851 -0.4533454741551694 0 -0.31231300704077031 -0.46010039155843951 0 -0.31436802859572671 -0.44091732850011012 0 -0.29217801133065052 -0.42907251802698482 0 -0.29129752730849851 -0.4533454741551694 0 -0.31365961898585898 -0.5 0 -0.30055675854594971 -0.47748962930126132 0 -0.28561639814905471 -0.5 0 -0.32431126239091251 -0.47549499472814433 0 -0.31231300704077031 -0.46010039155843951 0 -0.30055675854594971 -0.47748962930126132 0 -0.29129752730849851 -0.4533454741551694 0 -0.30055675854594971 -0.47748962930126132 0 -0.2778168751627802 -0.47922253879846438 0 -0.30055675854594971 -0.47748962930126132 0 -0.28561639814905471 -0.5 0 -0.2778168751627802 -0.47922253879846438 0 -0.28561639814905471 -0.5 0 -0.2778168751627802 -0.47922253879846438 0 -0.25757317731225032 -0.5 0 -0.26120983142490839 -0.46722330273960078 0 -0.2778168751627802 -0.47922253879846438 0 -0.2475118771518067 -0.48168785313146562 0 -0.2778168751627802 -0.47922253879846438 0 -0.25757317731225032 -0.5 0 -0.2475118771518067 -0.48168785313146562 0 -0.25757317731225032 -0.5 0 -0.2475118771518067 -0.48168785313146562 0 -0.22952995647544591 -0.5 0 -0.2475118771518067 -0.48168785313146562 0 -0.2255425825150349 -0.47301295195920029 0 -0.24935483431473821 -0.45387541306151041 0 -0.2475118771518067 -0.48168785313146562 0 -0.2255425825150349 -0.47301295195920029 0 -0.22952995647544591 -0.5 0 -0.2255425825150349 -0.47301295195920029 0 -0.22952995647544591 -0.5 0 -0.20148673563864161 -0.5 0 -0.24935483431473821 -0.45387541306151041 0 -0.23045675744100211 -0.44876414682368793 0 -0.2475929601149178 -0.4304769916774086 0 -0.2255425825150349 -0.47301295195920029 0 -0.24935483431473821 -0.45387541306151041 0 -0.23045675744100211 -0.44876414682368793 0 -0.2255425825150349 -0.47301295195920029 0 -0.23045675744100211 -0.44876414682368793 0 -0.21318353933801501 -0.45366858538994748 0 -0.21318353933801501 -0.45366858538994748 0 -0.1940942005471725 -0.44965953273186993 0 -0.21003731717059809 -0.4373070525132674 0 -0.23045675744100211 -0.44876414682368793 0 -0.21318353933801501 -0.45366858538994748 0 -0.21003731717059809 -0.4373070525132674 0 -0.2255425825150349 -0.47301295195920029 0 -0.21318353933801501 -0.45366858538994748 0 -0.2029742060631442 -0.46799489493667368 0 -0.21318353933801501 -0.45366858538994748 0 -0.2029742060631442 -0.46799489493667368 0 -0.1940942005471725 -0.44965953273186993 0 -0.2029742060631442 -0.46799489493667368 0 -0.1940942005471725 -0.44965953273186993 0 -0.1725716987963648 -0.4693314476804869 0 -0.1940942005471725 -0.44965953273186993 0 -0.1896813722004122 -0.43044146412770001 0 -0.21003731717059809 -0.4373070525132674 0 -0.2029742060631442 -0.46799489493667368 0 -0.20148673563864161 -0.5 0 -0.1843826478535929 -0.48654112135233868 0 -0.2255425825150349 -0.47301295195920029 0 -0.2029742060631442 -0.46799489493667368 0 -0.20148673563864161 -0.5 0 -0.20148673563864161 -0.5 0 -0.1843826478535929 -0.48654112135233868 0 -0.1734435148018372 -0.50000000000000011 0 -0.1843826478535929 -0.48654112135233868 0 -0.1734435148018372 -0.50000000000000011 0 -0.17143708396797649 -0.49537926414453298 0 -0.1734435148018372 -0.50000000000000011 0 -0.143684532447788 -0.5 0 -0.1523252619271605 -0.48385358432763409 0 -0.1734435148018372 -0.50000000000000011 0 -0.17143708396797649 -0.49537926414453298 0 -0.1523252619271605 -0.48385358432763409 0 -0.1734435148018372 -0.50000000000000011 0 -0.1523252619271605 -0.48385358432763409 0 -0.1725716987963648 -0.4693314476804869 0 -0.14732597182070459 -0.45927456449764659 0 -0.1523252619271605 -0.48385358432763409 0 -0.17143708396797649 -0.49537926414453298 0 -0.1725716987963648 -0.4693314476804869 0 -0.1523252619271605 -0.48385358432763409 0 -0.17143708396797649 -0.49537926414453298 0 -0.1725716987963648 -0.4693314476804869 0 -0.2029742060631442 -0.46799489493667368 0 -0.1843826478535929 -0.48654112135233868 0 -0.1725716987963648 -0.4693314476804869 0 -0.1843826478535929 -0.48654112135233868 0 -0.17143708396797649 -0.49537926414453298 0 -0.1725716987963648 -0.4693314476804869 0 -0.1725716987963648 -0.4693314476804869 0 -0.17370631362475311 -0.44328363121644082 0 -0.1940942005471725 -0.44965953273186993 0 -0.1725716987963648 -0.4693314476804869 0 -0.17370631362475311 -0.44328363121644082 0 -0.1940942005471725 -0.44965953273186993 0 -0.17370631362475311 -0.44328363121644082 0 -0.1896813722004122 -0.43044146412770001 0 -0.1725716987963648 -0.4693314476804869 0 -0.17370631362475311 -0.44328363121644082 0 -0.15824767014061841 -0.44474376746187549 0 -0.17370631362475311 -0.44328363121644082 0 -0.15824767014061841 -0.44474376746187549 0 -0.16436640470530339 -0.43073052758936781 0 -0.1725716987963648 -0.4693314476804869 0 -0.15824767014061841 -0.44474376746187549 0 -0.14732597182070459 -0.45927456449764659 0 -0.15824767014061841 -0.44474376746187549 0 -0.14732597182070459 -0.45927456449764659 0 -0.14243959689631239 -0.4407734403369889 0 -0.14243959689631239 -0.4407734403369889 0 -0.12750507033415631 -0.44988850150804383 0 -0.1233111415474024 -0.43290217214824839 0 -0.14732597182070459 -0.45927456449764659 0 -0.14243959689631239 -0.4407734403369889 0 -0.12750507033415631 -0.44988850150804383 0 -0.14732597182070459 -0.45927456449764659 0 -0.12750507033415631 -0.44988850150804383 0 -0.13120700905248381 -0.46770716865526812 0 -0.13120700905248381 -0.46770716865526812 0 -0.13087027772794541 -0.48508543112596131 0 -0.1132090351185559 -0.47386640264690399 0 -0.13120700905248381 -0.46770716865526812 0 -0.13087027772794541 -0.48508543112596131 0 -0.1523252619271605 -0.48385358432763409 0 -0.13087027772794541 -0.48508543112596131 0 -0.143684532447788 -0.5 0 -0.11392555009373879 -0.5 0 -0.13087027772794541 -0.48508543112596131 0 -0.143684532447788 -0.5 0 -0.1523252619271605 -0.48385358432763409 0 -0.13120700905248381 -0.46770716865526812 0 -0.1523252619271605 -0.48385358432763409 0 -0.14732597182070459 -0.45927456449764659 0 -0.13120700905248381 -0.46770716865526812 0 -0.1523252619271605 -0.48385358432763409 0 -0.1486563318063446 -0.39606989669257742 0 -0.14037703711346999 -0.38330045648048888 0 -0.13440122508289731 -0.39934357213894822 0 -0.1486563318063446 -0.39606989669257742 0 -0.1398860144490226 -0.41026832019552201 0 -0.15476461600332289 -0.40941708528366549 0 -0.1486563318063446 -0.39606989669257742 0 -0.13440122508289731 -0.39934357213894822 0 -0.1398860144490226 -0.41026832019552201 0 -0.1486563318063446 -0.39606989669257742 0 -0.15476461600332289 -0.40941708528366549 0 -0.16361966238721101 -0.39816223525796718 0 -0.14037703711346999 -0.38330045648048888 0 -0.15888943580214379 -0.37592771079887299 0 -0.14350339700977829 -0.36988746465782912 0 -0.1486563318063446 -0.39606989669257742 0 -0.14037703711346999 -0.38330045648048888 0 -0.15888943580214379 -0.37592771079887299 0 -0.14037703711346999 -0.38330045648048888 0 -0.1176470443896992 -0.39744712592041681 0 -0.1229729419482984 -0.38896607702568009 0 -0.1312901557849786 -0.3781160501614082 0 -0.12378043572137661 -0.36788844558584788 0 -0.1229729419482984 -0.38896607702568009 0 -0.14037703711346999 -0.38330045648048888 0 -0.1176470443896992 -0.39744712592041681 0 -0.14037703711346999 -0.38330045648048888 0 -0.1312901557849786 -0.3781160501614082 0 -0.1229729419482984 -0.38896607702568009 0 -0.14037703711346999 -0.38330045648048888 0 -0.1312901557849786 -0.3781160501614082 0 -0.14350339700977829 -0.36988746465782912 0 -0.14037703711346999 -0.38330045648048888 0 -0.13440122508289731 -0.39934357213894822 0 -0.1176470443896992 -0.39744712592041681 0 -0.13440122508289731 -0.39934357213894822 0 -0.1249886909415846 -0.41044930346258102 0 -0.1176470443896992 -0.39744712592041681 0 -0.13115924457646219 -0.41981911781351028 0 -0.1398860144490226 -0.41026832019552201 0 -0.1490760350002725 -0.42506899345032201 0 -0.13115924457646219 -0.41981911781351028 0 -0.1398860144490226 -0.41026832019552201 0 -0.1249886909415846 -0.41044930346258102 0 -0.13115924457646219 -0.41981911781351028 0 -0.1193516847202129 -0.42054645645416622 0 -0.1249886909415846 -0.41044930346258102 0 -0.13440122508289731 -0.39934357213894822 0 -0.1398860144490226 -0.41026832019552201 0 -0.1249886909415846 -0.41044930346258102 0 -0.1490760350002725 -0.42506899345032201 0 -0.1233111415474024 -0.43290217214824839 0 -0.14243959689631239 -0.4407734403369889 0 -0.1490760350002725 -0.42506899345032201 0 -0.1233111415474024 -0.43290217214824839 0 -0.13115924457646219 -0.41981911781351028 0 -0.1490760350002725 -0.42506899345032201 0 -0.1233111415474024 -0.43290217214824839 0 -0.14243959689631239 -0.4407734403369889 0 -0.1233111415474024 -0.43290217214824839 0 -0.15824767014061841 -0.44474376746187549 0 -0.14243959689631239 -0.4407734403369889 0 -0.1490760350002725 -0.42506899345032201 0 -0.1398860144490226 -0.41026832019552201 0 -0.1490760350002725 -0.42506899345032201 0 -0.15476461600332289 -0.40941708528366549 0 -0.1490760350002725 -0.42506899345032201 0 -0.17484624731220419 -0.41711370753045801 0 -0.1490760350002725 -0.42506899345032201 0 -0.15476461600332289 -0.40941708528366549 0 -0.17484624731220419 -0.41711370753045801 0 -0.15476461600332289 -0.40941708528366549 0 -0.17484624731220419 -0.41711370753045801 0 -0.16361966238721101 -0.39816223525796718 0 -0.1490760350002725 -0.42506899345032201 0 -0.16436640470530339 -0.43073052758936781 0 -0.17484624731220419 -0.41711370753045801 0 -0.15824767014061841 -0.44474376746187549 0 -0.1490760350002725 -0.42506899345032201 0 -0.16436640470530339 -0.43073052758936781 0 -0.17370631362475311 -0.44328363121644082 0 -0.16436640470530339 -0.43073052758936781 0 -0.17484624731220419 -0.41711370753045801 0 -0.17370631362475311 -0.44328363121644082 0 -0.17484624731220419 -0.41711370753045801 0 -0.1896813722004122 -0.43044146412770001 0 -0.17370631362475311 -0.44328363121644082 0 -0.17484624731220419 -0.41711370753045801 0 -0.17484624731220419 -0.41711370753045801 0 -0.19158334154275611 -0.41214569808626977 0 -0.17484624731220419 -0.41711370753045801 0 -0.18207190789633909 -0.39621419269092351 0 -0.19158334154275611 -0.41214569808626977 0 -0.17484624731220419 -0.41711370753045801 0 -0.1896813722004122 -0.43044146412770001 0 -0.19158334154275611 -0.41214569808626977 0 -0.17484624731220419 -0.41711370753045801 0 -0.18207190789633909 -0.39621419269092351 0 -0.16361966238721101 -0.39816223525796718 0 -0.18207190789633909 -0.39621419269092351 0 -0.16361966238721101 -0.39816223525796718 0 -0.17451238462272561 -0.38296624542026392 0 -0.16361966238721101 -0.39816223525796718 0 -0.15888943580214379 -0.37592771079887299 0 -0.17451238462272561 -0.38296624542026392 0 -0.1486563318063446 -0.39606989669257742 0 -0.16361966238721101 -0.39816223525796718 0 -0.15888943580214379 -0.37592771079887299 0 -0.16361966238721101 -0.39816223525796718 0 -0.15888943580214379 -0.37592771079887299 0 -0.18207190789633909 -0.39621419269092351 0 -0.17451238462272561 -0.38296624542026392 0 -0.19096945708337351 -0.38058061793758402 0 -0.17451238462272561 -0.38296624542026392 0 -0.19096945708337351 -0.38058061793758402 0 -0.17701145994456069 -0.36394647041597178 0 -0.19096945708337351 -0.38058061793758402 0 -0.20976095733471581 -0.38787638358047333 0 -0.20399020156669759 -0.36466238354839731 0 -0.19096945708337351 -0.38058061793758402 0 -0.19653451022960319 -0.39677685807388258 0 -0.20976095733471581 -0.38787638358047333 0 -0.19653451022960319 -0.39677685807388258 0 -0.19158334154275611 -0.41214569808626977 0 -0.20828688729083181 -0.40706739807416248 0 -0.18207190789633909 -0.39621419269092351 0 -0.19096945708337351 -0.38058061793758402 0 -0.19653451022960319 -0.39677685807388258 0 -0.18207190789633909 -0.39621419269092351 0 -0.19653451022960319 -0.39677685807388258 0 -0.19158334154275611 -0.41214569808626977 0 -0.20976095733471581 -0.38787638358047333 0 -0.20828688729083181 -0.40706739807416248 0 -0.2282915975756116 -0.3974001385121132 0 -0.19653451022960319 -0.39677685807388258 0 -0.20976095733471581 -0.38787638358047333 0 -0.20828688729083181 -0.40706739807416248 0 -0.20976095733471581 -0.38787638358047333 0 -0.22842994999047311 -0.37634712235092649 0 -0.20399020156669759 -0.36466238354839731 0 -0.1896813722004122 -0.43044146412770001 0 -0.204996063911147 -0.42179721141703969 0 -0.21003731717059809 -0.4373070525132674 0 -0.19158334154275611 -0.41214569808626977 0 -0.204996063911147 -0.42179721141703969 0 -0.20828688729083181 -0.40706739807416248 0 -0.1896813722004122 -0.43044146412770001 0 -0.19158334154275611 -0.41214569808626977 0 -0.204996063911147 -0.42179721141703969 0 -0.19158334154275611 -0.41214569808626977 0 -0.20828688729083181 -0.40706739807416248 0 -0.204996063911147 -0.42179721141703969 0 -0.20828688729083181 -0.40706739807416248 0 -0.22539140135113669 -0.4220244442837992 0 -0.204996063911147 -0.42179721141703969 0 -0.21003731717059809 -0.4373070525132674 0 -0.22539140135113669 -0.4220244442837992 0 -0.23045675744100211 -0.44876414682368793 0 -0.21003731717059809 -0.4373070525132674 0 -0.22539140135113669 -0.4220244442837992 0 -0.20828688729083181 -0.40706739807416248 0 -0.22539140135113669 -0.4220244442837992 0 -0.2282915975756116 -0.3974001385121132 0 -0.25164317924198021 -0.40565156693909088 0 -0.22539140135113669 -0.4220244442837992 0 -0.2475929601149178 -0.4304769916774086 0 -0.25164317924198021 -0.40565156693909088 0 -0.22539140135113669 -0.4220244442837992 0 -0.2282915975756116 -0.3974001385121132 0 -0.23045675744100211 -0.44876414682368793 0 -0.22539140135113669 -0.4220244442837992 0 -0.2475929601149178 -0.4304769916774086 0 -0.22842994999047311 -0.37634712235092649 0 -0.2282915975756116 -0.3974001385121132 0 -0.24595991543526949 -0.38690116566415572 0 -0.20976095733471581 -0.38787638358047333 0 -0.22842994999047311 -0.37634712235092649 0 -0.2282915975756116 -0.3974001385121132 0 -0.25164317924198021 -0.40565156693909088 0 -0.2282915975756116 -0.3974001385121132 0 -0.24595991543526949 -0.38690116566415572 0 -0.25488830083163388 -0.36685168130002832 0 -0.22842994999047311 -0.37634712235092649 0 -0.24595991543526949 -0.38690116566415572 0 -0.25488830083163388 -0.36685168130002832 0 -0.22842994999047311 -0.37634712235092649 0 -0.2274278617890988 -0.35270627511692432 0 -0.22842994999047311 -0.37634712235092649 0 -0.2274278617890988 -0.35270627511692432 0 -0.20399020156669759 -0.36466238354839731 0 -0.25488830083163388 -0.36685168130002832 0 -0.25109512316604471 -0.34154265414237361 0 -0.2274278617890988 -0.35270627511692432 0 -0.25109512316604471 -0.34154265414237361 0 -0.2552863565788695 -0.31611310254605751 0 -0.22829156877198389 -0.32840251352123367 0 -0.25109512316604471 -0.34154265414237361 0 -0.2274278617890988 -0.35270627511692432 0 -0.22829156877198389 -0.32840251352123367 0 -0.2552863565788695 -0.31611310254605751 0 -0.22829156877198389 -0.32840251352123367 0 -0.23667204647731341 -0.30221565890671759 0 -0.22829156877198389 -0.32840251352123367 0 -0.21774226054262011 -0.31317721232648882 0 -0.23667204647731341 -0.30221565890671759 0 -0.2274278617890988 -0.35270627511692432 0 -0.22829156877198389 -0.32840251352123367 0 -0.20923089243350271 -0.34483103666732812 0 -0.22829156877198389 -0.32840251352123367 0 -0.20272361033433889 -0.32741812117506608 0 -0.20923089243350271 -0.34483103666732812 0 -0.21774226054262011 -0.31317721232648882 0 -0.20272361033433889 -0.32741812117506608 0 -0.20407462950215899 -0.31127066373729012 0 -0.22829156877198389 -0.32840251352123367 0 -0.21774226054262011 -0.31317721232648882 0 -0.20272361033433889 -0.32741812117506608 0 -0.20272361033433889 -0.32741812117506608 0 -0.18771392466332379 -0.31064426929533778 0 -0.18343194628517531 -0.32989386597559972 0 -0.20272361033433889 -0.32741812117506608 0 -0.20407462950215899 -0.31127066373729012 0 -0.18771392466332379 -0.31064426929533778 0 -0.20272361033433889 -0.32741812117506608 0 -0.19123714131727601 -0.34563485206223971 0 -0.18343194628517531 -0.32989386597559972 0 -0.20272361033433889 -0.32741812117506608 0 -0.19123714131727601 -0.34563485206223971 0 -0.20923089243350271 -0.34483103666732812 0 -0.19123714131727601 -0.34563485206223971 0 -0.20399020156669759 -0.36466238354839731 0 -0.20923089243350271 -0.34483103666732812 0 -0.19123714131727601 -0.34563485206223971 0 -0.20399020156669759 -0.36466238354839731 0 -0.17701145994456069 -0.36394647041597178 0 -0.19096945708337351 -0.38058061793758402 0 -0.20399020156669759 -0.36466238354839731 0 -0.17701145994456069 -0.36394647041597178 0 -0.2274278617890988 -0.35270627511692432 0 -0.20399020156669759 -0.36466238354839731 0 -0.20923089243350271 -0.34483103666732812 0 -0.22047858705676329 -0.26374954356560298 0 -0.2462608034279633 -0.26463815358088549 0 -0.22939152313381031 -0.24359072022062511 0 -0.25473520772639757 -0.25111225091949058 0 -0.2462608034279633 -0.26463815358088549 0 -0.22939152313381031 -0.24359072022062511 0 -0.25026817800329881 -0.2848496734077437 0 -0.2462608034279633 -0.26463815358088549 0 -0.2313760309501057 -0.28066529612940738 0 -0.22047858705676329 -0.26374954356560298 0 -0.2462608034279633 -0.26463815358088549 0 -0.2313760309501057 -0.28066529612940738 0 -0.22047858705676329 -0.26374954356560298 0 -0.2313760309501057 -0.28066529612940738 0 -0.21079289637397511 -0.27800098956781277 0 -0.2313760309501057 -0.28066529612940738 0 -0.23667204647731341 -0.30221565890671759 0 -0.21694944762730539 -0.29657910429213641 0 -0.2313760309501057 -0.28066529612940738 0 -0.21694944762730539 -0.29657910429213641 0 -0.21079289637397511 -0.27800098956781277 0 -0.25026817800329881 -0.2848496734077437 0 -0.2313760309501057 -0.28066529612940738 0 -0.23667204647731341 -0.30221565890671759 0 -0.25213886797067592 -0.29948735812300709 0 -0.25026817800329881 -0.2848496734077437 0 -0.23667204647731341 -0.30221565890671759 0 -0.2552863565788695 -0.31611310254605751 0 -0.25213886797067592 -0.29948735812300709 0 -0.23667204647731341 -0.30221565890671759 0 -0.21774226054262011 -0.31317721232648882 0 -0.23667204647731341 -0.30221565890671759 0 -0.21694944762730539 -0.29657910429213641 0 -0.20407462950215899 -0.31127066373729012 0 -0.1991139005232383 -0.29493206579628328 0 -0.21694944762730539 -0.29657910429213641 0 -0.21774226054262011 -0.31317721232648882 0 -0.20407462950215899 -0.31127066373729012 0 -0.21694944762730539 -0.29657910429213641 0 -0.20407462950215899 -0.31127066373729012 0 -0.18771392466332379 -0.31064426929533778 0 -0.1991139005232383 -0.29493206579628328 0 -0.18771392466332379 -0.31064426929533778 0 -0.1991139005232383 -0.29493206579628328 0 -0.18341480972230481 -0.29398984851303678 0 -0.1991139005232383 -0.29493206579628328 0 -0.19173769525036191 -0.27910751937208661 0 -0.18341480972230481 -0.29398984851303678 0 -0.1991139005232383 -0.29493206579628328 0 -0.21079289637397511 -0.27800098956781277 0 -0.19173769525036191 -0.27910751937208661 0 -0.1991139005232383 -0.29493206579628328 0 -0.21694944762730539 -0.29657910429213641 0 -0.21079289637397511 -0.27800098956781277 0 -0.22047858705676329 -0.26374954356560298 0 -0.21079289637397511 -0.27800098956781277 0 -0.2005130271852644 -0.26559967346429009 0 -0.19173769525036191 -0.27910751937208661 0 -0.2005130271852644 -0.26559967346429009 0 -0.17968295940511231 -0.25641413664057061 0 -0.21079289637397511 -0.27800098956781277 0 -0.19173769525036191 -0.27910751937208661 0 -0.21079289637397511 -0.27800098956781277 0 -0.19173769525036191 -0.27910751937208661 0 -0.2005130271852644 -0.26559967346429009 0 -0.20453724126946121 -0.25000242843059739 0 -0.17968295940511231 -0.25641413664057061 0 -0.2005130271852644 -0.26559967346429009 0 -0.20453724126946121 -0.25000242843059739 0 -0.17968295940511231 -0.25641413664057061 0 -0.22047858705676329 -0.26374954356560298 0 -0.2005130271852644 -0.26559967346429009 0 -0.20453724126946121 -0.25000242843059739 0 -0.22047858705676329 -0.26374954356560298 0 -0.20453724126946121 -0.25000242843059739 0 -0.22939152313381031 -0.24359072022062511 0 -0.15868149439502019 -0.26183192607265171 0 -0.17968295940511231 -0.25641413664057061 0 -0.15868149439502019 -0.26183192607265171 0 -0.17968295940511231 -0.25641413664057061 0 -0.1647284344901889 -0.2418583948049611 0 -0.15868149439502019 -0.26183192607265171 0 -0.17968295940511231 -0.25641413664057061 0 -0.16153907740307649 -0.27417849787147269 0 -0.19173769525036191 -0.27910751937208661 0 -0.17268249412674899 -0.28021404917636228 0 -0.17968295940511231 -0.25641413664057061 0 -0.17268249412674899 -0.28021404917636228 0 -0.19173769525036191 -0.27910751937208661 0 -0.17968295940511231 -0.25641413664057061 0 -0.17268249412674899 -0.28021404917636228 0 -0.17968295940511231 -0.25641413664057061 0 -0.17268249412674899 -0.28021404917636228 0 -0.16153907740307649 -0.27417849787147269 0 -0.17268249412674899 -0.28021404917636228 0 -0.1511691708437477 -0.28146332139590791 0 -0.17268249412674899 -0.28021404917636228 0 -0.16153907740307649 -0.27417849787147269 0 -0.1511691708437477 -0.28146332139590791 0 -0.15868149439502019 -0.26183192607265171 0 -0.16153907740307649 -0.27417849787147269 0 -0.14988723707240059 -0.2712373606254958 0 -0.17268249412674899 -0.28021404917636228 0 -0.1602033354931483 -0.28250744839945852 0 -0.16598406695729481 -0.30298710416930841 0 -0.1602033354931483 -0.28250744839945852 0 -0.16598406695729481 -0.30298710416930841 0 -0.15540042715953351 -0.29534531177471163 0 -0.17268249412674899 -0.28021404917636228 0 -0.1602033354931483 -0.28250744839945852 0 -0.1511691708437477 -0.28146332139590791 0 -0.17268249412674899 -0.28021404917636228 0 -0.16598406695729481 -0.30298710416930841 0 -0.17268249412674899 -0.28021404917636228 0 -0.18341480972230481 -0.29398984851303678 0 -0.16598406695729481 -0.30298710416930841 0 -0.19173769525036191 -0.27910751937208661 0 -0.17268249412674899 -0.28021404917636228 0 -0.18341480972230481 -0.29398984851303678 0 -0.18771392466332379 -0.31064426929533778 0 -0.16598406695729481 -0.30298710416930841 0 -0.17363798392206939 -0.31819332873149597 0 -0.18771392466332379 -0.31064426929533778 0 -0.18341480972230481 -0.29398984851303678 0 -0.16598406695729481 -0.30298710416930841 0 -0.16598406695729481 -0.30298710416930841 0 -0.14469875604694199 -0.30922413742159027 0 -0.15540042715953351 -0.29534531177471163 0 -0.14469875604694199 -0.30922413742159027 0 -0.1432012252225659 -0.29363112190148022 0 -0.15540042715953351 -0.29534531177471163 0 -0.14469875604694199 -0.30922413742159027 0 -0.12619911495198419 -0.30475479540350309 0 -0.13337854816676861 -0.31555927879821688 0 -0.14469875604694199 -0.30922413742159027 0 -0.12619911495198419 -0.30475479540350309 0 -0.1432012252225659 -0.29363112190148022 0 -0.12619911495198419 -0.30475479540350309 0 -0.1432012252225659 -0.29363112190148022 0 -0.12619911495198419 -0.30475479540350309 0 -0.12679419190480831 -0.28922178065079068 0 -0.12965584756074661 -0.28271259361545531 0 -0.1511691708437477 -0.28146332139590791 0 -0.1354971132119572 -0.28979355612951369 0 -0.12965584756074661 -0.28271259361545531 0 -0.1511691708437477 -0.28146332139590791 0 -0.12619911495198419 -0.30475479540350309 0 -0.1354971132119572 -0.28979355612951369 0 -0.1432012252225659 -0.29363112190148022 0 -0.12619911495198419 -0.30475479540350309 0 -0.1354971132119572 -0.28979355612951369 0 -0.12679419190480831 -0.28922178065079068 0 -0.1354971132119572 -0.28979355612951369 0 -0.12679419190480831 -0.28922178065079068 0 -0.12965584756074661 -0.28271259361545531 0 -0.1354971132119572 -0.28979355612951369 0 -0.1432012252225659 -0.29363112190148022 0 -0.1511691708437477 -0.28146332139590791 0 -0.1602033354931483 -0.28250744839945852 0 -0.1432012252225659 -0.29363112190148022 0 -0.1511691708437477 -0.28146332139590791 0 -0.1602033354931483 -0.28250744839945852 0 -0.1432012252225659 -0.29363112190148022 0 -0.15540042715953351 -0.29534531177471163 0 -0.1602033354931483 -0.28250744839945852 0 -0.1432012252225659 -0.29363112190148022 0 -0.15868149439502019 -0.26183192607265171 0 -0.14988723707240059 -0.2712373606254958 0 -0.1387871995286013 -0.26508072539534622 0 -0.16153907740307649 -0.27417849787147269 0 -0.1511691708437477 -0.28146332139590791 0 -0.14988723707240059 -0.2712373606254958 0 -0.14988723707240059 -0.2712373606254958 0 -0.13964187995783961 -0.27475837972640049 0 -0.1387871995286013 -0.26508072539534622 0 -0.1511691708437477 -0.28146332139590791 0 -0.14988723707240059 -0.2712373606254958 0 -0.13964187995783961 -0.27475837972640049 0 -0.12870994478370179 -0.27329789759979722 0 -0.1387871995286013 -0.26508072539534622 0 -0.12007816384016071 -0.26567787080003191 0 -0.12965584756074661 -0.28271259361545531 0 -0.1511691708437477 -0.28146332139590791 0 -0.13964187995783961 -0.27475837972640049 0 -0.12965584756074661 -0.28271259361545531 0 -0.12870994478370179 -0.27329789759979722 0 -0.11789137402516341 -0.27716271070769422 0 -0.12965584756074661 -0.28271259361545531 0 -0.13964187995783961 -0.27475837972640049 0 -0.12870994478370179 -0.27329789759979722 0 -0.13964187995783961 -0.27475837972640049 0 -0.12870994478370179 -0.27329789759979722 0 -0.1387871995286013 -0.26508072539534622 0 -0.1387871995286013 -0.26508072539534622 0 -0.12160584249772299 -0.25215775347966563 0 -0.140756153879736 -0.24256588416855229 0 -0.1387871995286013 -0.26508072539534622 0 -0.12160584249772299 -0.25215775347966563 0 -0.12007816384016071 -0.26567787080003191 0 -0.15868149439502019 -0.26183192607265171 0 -0.1387871995286013 -0.26508072539534622 0 -0.140756153879736 -0.24256588416855229 0 -0.17701145994456069 -0.36394647041597178 0 -0.1710347373393809 -0.34305723459107529 0 -0.15415920921707649 -0.35369318633977892 0 -0.1710347373393809 -0.34305723459107529 0 -0.16098955164015569 -0.3367442280687038 0 -0.15415920921707649 -0.35369318633977892 0 -0.15888943580214379 -0.37592771079887299 0 -0.15415920921707649 -0.35369318633977892 0 -0.15888943580214379 -0.37592771079887299 0 -0.17451238462272561 -0.38296624542026392 0 -0.17701145994456069 -0.36394647041597178 0 -0.15888943580214379 -0.37592771079887299 0 -0.17701145994456069 -0.36394647041597178 0 -0.15415920921707649 -0.35369318633977892 0 -0.19123714131727601 -0.34563485206223971 0 -0.17701145994456069 -0.36394647041597178 0 -0.1710347373393809 -0.34305723459107529 0 -0.19123714131727601 -0.34563485206223971 0 -0.18343194628517531 -0.32989386597559972 0 -0.1710347373393809 -0.34305723459107529 0 -0.18343194628517531 -0.32989386597559972 0 -0.1710347373393809 -0.34305723459107529 0 -0.1705423898696804 -0.33010826314235697 0 -0.18771392466332379 -0.31064426929533778 0 -0.18343194628517531 -0.32989386597559972 0 -0.17363798392206939 -0.31819332873149597 0 -0.18343194628517531 -0.32989386597559972 0 -0.17363798392206939 -0.31819332873149597 0 -0.1705423898696804 -0.33010826314235697 0 -0.16598406695729481 -0.30298710416930841 0 -0.15928563978784011 -0.3257601591622542 0 -0.16598406695729481 -0.30298710416930841 0 -0.17363798392206939 -0.31819332873149597 0 -0.15928563978784011 -0.3257601591622542 0 -0.16598406695729481 -0.30298710416930841 0 -0.14469875604694199 -0.30922413742159027 0 -0.15928563978784011 -0.3257601591622542 0 -0.17363798392206939 -0.31819332873149597 0 -0.15928563978784011 -0.3257601591622542 0 -0.1705423898696804 -0.33010826314235697 0 -0.1710347373393809 -0.34305723459107529 0 -0.1705423898696804 -0.33010826314235697 0 -0.16098955164015569 -0.3367442280687038 0 -0.15928563978784011 -0.3257601591622542 0 -0.16098955164015569 -0.3367442280687038 0 -0.14942898263200929 -0.33145866188068462 0 -0.15928563978784011 -0.3257601591622542 0 -0.1705423898696804 -0.33010826314235697 0 -0.16098955164015569 -0.3367442280687038 0 -0.14942898263200929 -0.33145866188068462 0 -0.15415920921707649 -0.35369318633977892 0 -0.14942898263200929 -0.33145866188068462 0 -0.13796481287087339 -0.34163008730672101 0 -0.1436929398422524 -0.34923888267326852 0 -0.16098955164015569 -0.3367442280687038 0 -0.14942898263200929 -0.33145866188068462 0 -0.15415920921707649 -0.35369318633977892 0 -0.14942898263200929 -0.33145866188068462 0 -0.13796481287087339 -0.34163008730672101 0 -0.13680362358538989 -0.3294830112483631 0 -0.14469875604694199 -0.30922413742159027 0 -0.15928563978784011 -0.3257601591622542 0 -0.14942898263200929 -0.33145866188068462 0 -0.14469875604694199 -0.30922413742159027 0 -0.14942898263200929 -0.33145866188068462 0 -0.14469875604694199 -0.30922413742159027 0 -0.14942898263200929 -0.33145866188068462 0 -0.13680362358538989 -0.3294830112483631 0 -0.14469875604694199 -0.30922413742159027 0 -0.13337854816676861 -0.31555927879821688 0 -0.13680362358538989 -0.3294830112483631 0 -0.12619911495198419 -0.30475479540350309 0 -0.13337854816676861 -0.31555927879821688 0 -0.12539352222321989 -0.32578280477475952 0 -0.12619911495198419 -0.30475479540350309 0 -0.12539352222321989 -0.32578280477475952 0 -0.13337854816676861 -0.31555927879821688 0 -0.12539352222321989 -0.32578280477475952 0 -0.13680362358538989 -0.3294830112483631 0 -0.12539352222321989 -0.32578280477475952 0 -0.13680362358538989 -0.3294830112483631 0 -0.12458792949445489 -0.34681081414601578 0 -0.13796481287087339 -0.34163008730672101 0 -0.13680362358538989 -0.3294830112483631 0 -0.12458792949445489 -0.34681081414601578 0 -0.12572918590040449 -0.34943160115698341 0 -0.13343869132058531 -0.35068317160642398 0 -0.12458792949445489 -0.34681081414601578 0 -0.13796481287087339 -0.34163008730672101 0 -0.13343869132058531 -0.35068317160642398 0 -0.12458792949445489 -0.34681081414601578 0 -0.12572918590040449 -0.34943160115698341 0 -0.12962749105629509 -0.3579525820837795 0 -0.12378043572137661 -0.36788844558584788 0 -0.12572918590040449 -0.34943160115698341 0 -0.12458792949445489 -0.34681081414601578 0 -0.12572918590040449 -0.34943160115698341 0 -0.12962749105629509 -0.3579525820837795 0 -0.13343869132058531 -0.35068317160642398 0 -0.12962749105629509 -0.3579525820837795 0 -0.13869338548761689 -0.35830109467933557 0 -0.13343869132058531 -0.35068317160642398 0 -0.13869338548761689 -0.35830109467933557 0 -0.13343869132058531 -0.35068317160642398 0 -0.1436929398422524 -0.34923888267326852 0 -0.13796481287087339 -0.34163008730672101 0 -0.13343869132058531 -0.35068317160642398 0 -0.1436929398422524 -0.34923888267326852 0 -0.14942898263200929 -0.33145866188068462 0 -0.1436929398422524 -0.34923888267326852 0 -0.15415920921707649 -0.35369318633977892 0 -0.13869338548761689 -0.35830109467933557 0 -0.1436929398422524 -0.34923888267326852 0 -0.15415920921707649 -0.35369318633977892 0 -0.15888943580214379 -0.37592771079887299 0 -0.15415920921707649 -0.35369318633977892 0 -0.14350339700977829 -0.36988746465782912 0 -0.13869338548761689 -0.35830109467933557 0 -0.15415920921707649 -0.35369318633977892 0 -0.14350339700977829 -0.36988746465782912 0 -0.13869338548761689 -0.35830109467933557 0 -0.14350339700977829 -0.36988746465782912 0 -0.12378043572137661 -0.36788844558584788 0 -0.1312901557849786 -0.3781160501614082 0 -0.14350339700977829 -0.36988746465782912 0 -0.12378043572137661 -0.36788844558584788 0 -0.12962749105629509 -0.3579525820837795 0 -0.13869338548761689 -0.35830109467933557 0 -0.12378043572137661 -0.36788844558584788 0 -0.12378043572137661 -0.36788844558584788 0 -0.1071998511793521 -0.362181041159304 0 -0.1135281488998206 -0.37886122845980819 0 -0.1071998511793521 -0.362181041159304 0 -0.1010584514226411 -0.38688741825982492 0 -0.1071998511793521 -0.362181041159304 0 -0.097038030514342094 -0.36455698261834629 0 -0.097426847072590028 -0.35182221484521059 0 -0.097038030514342094 -0.36455698261834629 0 -0.097426847072590028 -0.35182221484521059 0 -0.08835891427165754 -0.36277448715792082 0 -0.1071998511793521 -0.362181041159304 0 -0.097038030514342094 -0.36455698261834629 0 -0.09633712716268375 -0.37610668925234869 0 -0.097038030514342094 -0.36455698261834629 0 -0.08835891427165754 -0.36277448715792082 0 -0.09633712716268375 -0.37610668925234869 0 -0.097426847072590028 -0.35182221484521059 0 -0.10406688098121319 -0.34675429806874791 0 -0.098299574736847709 -0.33553927221169377 0 -0.1071998511793521 -0.362181041159304 0 -0.10406688098121319 -0.34675429806874791 0 -0.11334125093606311 -0.33747466405878312 0 -0.1071998511793521 -0.362181041159304 0 -0.097426847072590028 -0.35182221484521059 0 -0.10406688098121319 -0.34675429806874791 0 -0.12378043572137661 -0.36788844558584788 0 -0.1071998511793521 -0.362181041159304 0 -0.12458792949445489 -0.34681081414601578 0 -0.12378043572137661 -0.36788844558584788 0 -0.12458792949445489 -0.34681081414601578 0 -0.1071998511793521 -0.362181041159304 0 -0.12458792949445489 -0.34681081414601578 0 -0.11334125093606311 -0.33747466405878312 0 -0.1071998511793521 -0.362181041159304 0 -0.11334125093606311 -0.33747466405878312 0 -0.12572918590040449 -0.34943160115698341 0 -0.12378043572137661 -0.36788844558584788 0 -0.12458792949445489 -0.34681081414601578 0 -0.12539352222321989 -0.32578280477475952 0 -0.12458792949445489 -0.34681081414601578 0 -0.12539352222321989 -0.32578280477475952 0 -0.12458792949445489 -0.34681081414601578 0 -0.11304185601617139 -0.32029635232848341 0 -0.12458792949445489 -0.34681081414601578 0 -0.11304185601617139 -0.32029635232848341 0 -0.12458792949445489 -0.34681081414601578 0 -0.11334125093606311 -0.33747466405878312 0 -0.11304185601617139 -0.32029635232848341 0 -0.12619911495198419 -0.30475479540350309 0 -0.12539352222321989 -0.32578280477475952 0 -0.1173980217163524 -0.31579225397981198 0 -0.12539352222321989 -0.32578280477475952 0 -0.1173980217163524 -0.31579225397981198 0 -0.11304185601617139 -0.32029635232848341 0 -0.1173980217163524 -0.31579225397981198 0 -0.11304185601617139 -0.32029635232848341 0 -0.1106920791077485 -0.31490031269342561 0 -0.1173980217163524 -0.31579225397981198 0 -0.11304185601617139 -0.32029635232848341 0 -0.11304185601617139 -0.32029635232848341 0 -0.1106920791077485 -0.31490031269342561 0 -0.11304185601617139 -0.32029635232848341 0 -0.1106920791077485 -0.31490031269342561 0 -0.095701642485047603 -0.3247078436404649 0 -0.11304185601617139 -0.32029635232848341 0 -0.095701642485047603 -0.3247078436404649 0 -0.098299574736847709 -0.33553927221169377 0 -0.1106920791077485 -0.31490031269342561 0 -0.095701642485047603 -0.3247078436404649 0 -0.098528883647027499 -0.31266925330717948 0 -0.1106920791077485 -0.31490031269342561 0 -0.095701642485047603 -0.3247078436404649 0 -0.11304185601617139 -0.32029635232848341 0 -0.098299574736847709 -0.33553927221169377 0 -0.11334125093606311 -0.33747466405878312 0 -0.11304185601617139 -0.32029635232848341 0 -0.098299574736847709 -0.33553927221169377 0 -0.10406688098121319 -0.34675429806874791 0 -0.11334125093606311 -0.33747466405878312 0 -0.098299574736847709 -0.33553927221169377 0 -0.098299574736847709 -0.33553927221169377 0 -0.083557293457524093 -0.35078219209490408 0 -0.098299574736847709 -0.33553927221169377 0 -0.081969356375131169 -0.33307335892500489 0 -0.083557293457524093 -0.35078219209490408 0 -0.095701642485047603 -0.3247078436404649 0 -0.098299574736847709 -0.33553927221169377 0 -0.081969356375131169 -0.33307335892500489 0 -0.081969356375131169 -0.33307335892500489 0 -0.071134806611751644 -0.33972804002015872 0 -0.083557293457524093 -0.35078219209490408 0 -0.095701642485047603 -0.3247078436404649 0 -0.098528883647027499 -0.31266925330717948 0 -0.08527965166099169 -0.3175299519688628 0 -0.095701642485047603 -0.3247078436404649 0 -0.081969356375131169 -0.33307335892500489 0 -0.08527965166099169 -0.3175299519688628 0 -0.081969356375131169 -0.33307335892500489 0 -0.08527965166099169 -0.3175299519688628 0 -0.07290018194923005 -0.32023671894014483 0 -0.08527965166099169 -0.3175299519688628 0 -0.07290018194923005 -0.32023671894014483 0 -0.076736858100049501 -0.30862307501708708 0 -0.07290018194923005 -0.32023671894014483 0 -0.065424813229146978 -0.31194404641596568 0 -0.055938037814750437 -0.32202892947626399 0 -0.07290018194923005 -0.32023671894014483 0 -0.066355503522586567 -0.32977592421742158 0 -0.055938037814750437 -0.32202892947626399 0 -0.07290018194923005 -0.32023671894014483 0 -0.076736858100049501 -0.30862307501708708 0 -0.065424813229146978 -0.31194404641596568 0 -0.081969356375131169 -0.33307335892500489 0 -0.07290018194923005 -0.32023671894014483 0 -0.066355503522586567 -0.32977592421742158 0 -0.081969356375131169 -0.33307335892500489 0 -0.071134806611751644 -0.33972804002015872 0 -0.066355503522586567 -0.32977592421742158 0 -0.071134806611751644 -0.33972804002015872 0 -0.066384054622172214 -0.3486398746901927 0 -0.057702481325320423 -0.33948968153668951 0 -0.071134806611751644 -0.33972804002015872 0 -0.066355503522586567 -0.32977592421742158 0 -0.057702481325320423 -0.33948968153668951 0 -0.068217965567002825 -0.3576020375347676 0 -0.067654587367833696 -0.36722494408549061 0 -0.083557293457524093 -0.35078219209490408 0 -0.066384054622172214 -0.3486398746901927 0 -0.068217965567002825 -0.3576020375347676 0 -0.083557293457524093 -0.35078219209490408 0 -0.071134806611751644 -0.33972804002015872 0 -0.066384054622172214 -0.3486398746901927 0 -0.083557293457524093 -0.35078219209490408 0 -0.067654587367833696 -0.36722494408549061 0 -0.083557293457524093 -0.35078219209490408 0 -0.066384054622172214 -0.3486398746901927 0 -0.068217965567002825 -0.3576020375347676 0 -0.060615864364976457 -0.35532775234677361 0 -0.068217965567002825 -0.3576020375347676 0 -0.062807596475487337 -0.36020730986154348 0 -0.060615864364976457 -0.35532775234677361 0 -0.067654587367833696 -0.36722494408549061 0 -0.071257135564174137 -0.36607892319519703 0 -0.083557293457524093 -0.35078219209490408 0 -0.068217965567002825 -0.3576020375347676 0 -0.062807596475487337 -0.36020730986154348 0 -0.065842007527218499 -0.36293845286049048 0 -0.068217965567002825 -0.3576020375347676 0 -0.065842007527218499 -0.36293845286049048 0 -0.067654587367833696 -0.36722494408549061 0 -0.062807596475487337 -0.36020730986154348 0 -0.065842007527218499 -0.36293845286049048 0 -0.063394132625410965 -0.36590566505414202 0 -0.065842007527218499 -0.36293845286049048 0 -0.063394132625410965 -0.36590566505414202 0 -0.067654587367833696 -0.36722494408549061 0 -0.063394132625410965 -0.36590566505414202 0 -0.067654587367833696 -0.36722494408549061 0 -0.067654587367833696 -0.36722494408549061 0 -0.071257135564174137 -0.36607892319519703 0 -0.071257135564174137 -0.36607892319519703 0 -0.08835891427165754 -0.36277448715792082 0 -0.083557293457524093 -0.35078219209490408 0 -0.067654587367833696 -0.36722494408549061 0 -0.071257135564174137 -0.36607892319519703 0 -0.09633712716268375 -0.37610668925234869 0 -0.071257135564174137 -0.36607892319519703 0 -0.08835891427165754 -0.36277448715792082 0 -0.09633712716268375 -0.37610668925234869 0 -0.067654587367833696 -0.36722494408549061 0 -0.09633712716268375 -0.37610668925234869 0 -0.067654587367833696 -0.36722494408549061 0 -0.09633712716268375 -0.37610668925234869 0 -0.076193967929479189 -0.37730602523993412 0 -0.097426847072590028 -0.35182221484521059 0 -0.08835891427165754 -0.36277448715792082 0 -0.083557293457524093 -0.35078219209490408 0 -0.097426847072590028 -0.35182221484521059 0 -0.098299574736847709 -0.33553927221169377 0 -0.083557293457524093 -0.35078219209490408 0 -0.10725790169565889 -0.2598324477265071 0 -0.098145561125637798 -0.27575963805146819 0 -0.091873906359618035 -0.26080001004073111 0 -0.10725790169565889 -0.2598324477265071 0 -0.091873906359618035 -0.26080001004073111 0 -0.10273856262009171 -0.24839411363350219 0 -0.10725790169565889 -0.2598324477265071 0 -0.12160584249772299 -0.25215775347966563 0 -0.10273856262009171 -0.24839411363350219 0 -0.10725790169565889 -0.2598324477265071 0 -0.12160584249772299 -0.25215775347966563 0 -0.12007816384016071 -0.26567787080003191 0 -0.12007816384016071 -0.26567787080003191 0 -0.11789137402516341 -0.27716271070769422 0 -0.098145561125637798 -0.27575963805146819 0 -0.12870994478370179 -0.27329789759979722 0 -0.12007816384016071 -0.26567787080003191 0 -0.11789137402516341 -0.27716271070769422 0 -0.11789137402516341 -0.27716271070769422 0 -0.098145561125637798 -0.27575963805146819 0 -0.1081425242777454 -0.28396186583500282 0 -0.12007816384016071 -0.26567787080003191 0 -0.098145561125637798 -0.27575963805146819 0 -0.10725790169565889 -0.2598324477265071 0 -0.12007816384016071 -0.26567787080003191 0 -0.098145561125637798 -0.27575963805146819 0 -0.098145561125637798 -0.27575963805146819 0 -0.095239629588959124 -0.27941522908263022 0 -0.1081425242777454 -0.28396186583500282 0 -0.095239629588959124 -0.27941522908263022 0 -0.1029658543483537 -0.29715777088802803 0 -0.089289220458481172 -0.29353992654553562 0 -0.095239629588959124 -0.27941522908263022 0 -0.1081425242777454 -0.28396186583500282 0 -0.1029658543483537 -0.29715777088802803 0 -0.095239629588959124 -0.27941522908263022 0 -0.1029658543483537 -0.29715777088802803 0 -0.1081425242777454 -0.28396186583500282 0 -0.1152094871892962 -0.29475979085292592 0 -0.1029658543483537 -0.29715777088802803 0 -0.12965584756074661 -0.28271259361545531 0 -0.1081425242777454 -0.28396186583500282 0 -0.12679419190480831 -0.28922178065079068 0 -0.12965584756074661 -0.28271259361545531 0 -0.1081425242777454 -0.28396186583500282 0 -0.12679419190480831 -0.28922178065079068 0 -0.1081425242777454 -0.28396186583500282 0 -0.1152094871892962 -0.29475979085292592 0 -0.12965584756074661 -0.28271259361545531 0 -0.11789137402516341 -0.27716271070769422 0 -0.1081425242777454 -0.28396186583500282 0 -0.12619911495198419 -0.30475479540350309 0 -0.12679419190480831 -0.28922178065079068 0 -0.1152094871892962 -0.29475979085292592 0 -0.1152094871892962 -0.29475979085292592 0 -0.11298430814847189 -0.30326663450919877 0 -0.1029658543483537 -0.29715777088802803 0 -0.12619911495198419 -0.30475479540350309 0 -0.1152094871892962 -0.29475979085292592 0 -0.11298430814847189 -0.30326663450919877 0 -0.12619911495198419 -0.30475479540350309 0 -0.1173980217163524 -0.31579225397981198 0 -0.1106920791077485 -0.31490031269342561 0 -0.12619911495198419 -0.30475479540350309 0 -0.1106920791077485 -0.31490031269342561 0 -0.12619911495198419 -0.30475479540350309 0 -0.1106920791077485 -0.31490031269342561 0 -0.11298430814847189 -0.30326663450919877 0 -0.1106920791077485 -0.31490031269342561 0 -0.11298430814847189 -0.30326663450919877 0 -0.1029658543483537 -0.29715777088802803 0 -0.1106920791077485 -0.31490031269342561 0 -0.098528883647027499 -0.31266925330717948 0 -0.1029658543483537 -0.29715777088802803 0 -0.1106920791077485 -0.31490031269342561 0 -0.1029658543483537 -0.29715777088802803 0 -0.1029658543483537 -0.29715777088802803 0 -0.094518343720110976 -0.30232807028284031 0 -0.089289220458481172 -0.29353992654553562 0 -0.098528883647027499 -0.31266925330717948 0 -0.1029658543483537 -0.29715777088802803 0 -0.094518343720110976 -0.30232807028284031 0 -0.098528883647027499 -0.31266925330717948 0 -0.08527965166099169 -0.3175299519688628 0 -0.087289416426581529 -0.30594533039061822 0 -0.098528883647027499 -0.31266925330717948 0 -0.094518343720110976 -0.30232807028284031 0 -0.087289416426581529 -0.30594533039061822 0 -0.094518343720110976 -0.30232807028284031 0 -0.087289416426581529 -0.30594533039061822 0 -0.089289220458481172 -0.29353992654553562 0 -0.087289416426581529 -0.30594533039061822 0 -0.079781392326616213 -0.29824383775450042 0 -0.089289220458481172 -0.29353992654553562 0 -0.087289416426581529 -0.30594533039061822 0 -0.079781392326616213 -0.29824383775450042 0 -0.076736858100049501 -0.30862307501708708 0 -0.08527965166099169 -0.3175299519688628 0 -0.087289416426581529 -0.30594533039061822 0 -0.076736858100049501 -0.30862307501708708 0 -0.076736858100049501 -0.30862307501708708 0 -0.065424813229146978 -0.31194404641596568 0 -0.069378508236853903 -0.29726945151635648 0 -0.065424813229146978 -0.31194404641596568 0 -0.069378508236853903 -0.29726945151635648 0 -0.055908647324345882 -0.31238255574332768 0 -0.079781392326616213 -0.29824383775450042 0 -0.076736858100049501 -0.30862307501708708 0 -0.069378508236853903 -0.29726945151635648 0 -0.076212958411114987 -0.28584140530290442 0 -0.054280355696592238 -0.29592317255434059 0 -0.061383576921693439 -0.28193902719851421 0 -0.069378508236853903 -0.29726945151635648 0 -0.076212958411114987 -0.28584140530290442 0 -0.054280355696592238 -0.29592317255434059 0 -0.076212958411114987 -0.28584140530290442 0 -0.054280355696592238 -0.29592317255434059 0 -0.079781392326616213 -0.29824383775450042 0 -0.069378508236853903 -0.29726945151635648 0 -0.076212958411114987 -0.28584140530290442 0 -0.095239629588959124 -0.27941522908263022 0 -0.076212958411114987 -0.28584140530290442 0 -0.089289220458481172 -0.29353992654553562 0 -0.079781392326616213 -0.29824383775450042 0 -0.076212958411114987 -0.28584140530290442 0 -0.089289220458481172 -0.29353992654553562 0 -0.098145561125637798 -0.27575963805146819 0 -0.076212958411114987 -0.28584140530290442 0 -0.082880277429810967 -0.27142569690380081 0 -0.098145561125637798 -0.27575963805146819 0 -0.095239629588959124 -0.27941522908263022 0 -0.076212958411114987 -0.28584140530290442 0 -0.098145561125637798 -0.27575963805146819 0 -0.076212958411114987 -0.28584140530290442 0 -0.098145561125637798 -0.27575963805146819 0 -0.082880277429810967 -0.27142569690380081 0 -0.091873906359618035 -0.26080001004073111 0 -0.076212958411114987 -0.28584140530290442 0 -0.082880277429810967 -0.27142569690380081 0 -0.069555065359491935 -0.27047241122135762 0 -0.069555065359491935 -0.27047241122135762 0 -0.056678216200532303 -0.27018647006176522 0 -0.061383576921693439 -0.28193902719851421 0 -0.076212958411114987 -0.28584140530290442 0 -0.069555065359491935 -0.27047241122135762 0 -0.061383576921693439 -0.28193902719851421 0 -0.082880277429810967 -0.27142569690380081 0 -0.069555065359491935 -0.27047241122135762 0 -0.078048035401092605 -0.26083776026435129 0 -0.078048035401092605 -0.26083776026435129 0 -0.062127327792707368 -0.25260410759681001 0 -0.079354248621226114 -0.2415659165720673 0 -0.069555065359491935 -0.27047241122135762 0 -0.062127327792707368 -0.25260410759681001 0 -0.056678216200532303 -0.27018647006176522 0 -0.069555065359491935 -0.27047241122135762 0 -0.078048035401092605 -0.26083776026435129 0 -0.062127327792707368 -0.25260410759681001 0 -0.078048035401092605 -0.26083776026435129 0 -0.091873906359618035 -0.26080001004073111 0 -0.079354248621226114 -0.2415659165720673 0 -0.091873906359618035 -0.26080001004073111 0 -0.079354248621226114 -0.2415659165720673 0 -0.10273856262009171 -0.24839411363350219 0 -0.082880277429810967 -0.27142569690380081 0 -0.078048035401092605 -0.26083776026435129 0 -0.091873906359618035 -0.26080001004073111 0 -0.039766414684223789 -0.25612946500436229 0 -0.062127327792707368 -0.25260410759681001 0 -0.056678216200532303 -0.27018647006176522 0 -0.039766414684223789 -0.25612946500436229 0 -0.056678216200532303 -0.27018647006176522 0 -0.045671759383192581 -0.27975370330637328 0 -0.056678216200532303 -0.27018647006176522 0 -0.045671759383192581 -0.27975370330637328 0 -0.061383576921693439 -0.28193902719851421 0 -0.039766414684223789 -0.25612946500436229 0 -0.045671759383192581 -0.27975370330637328 0 -0.02534768858988113 -0.27972373702727948 0 -0.039766414684223789 -0.25612946500436229 0 -0.02534768858988113 -0.27972373702727948 0 -0.045671759383192581 -0.27975370330637328 0 -0.036574304206232582 -0.29462034799197812 0 -0.054280355696592238 -0.29592317255434059 0 -0.045671759383192581 -0.27975370330637328 0 -0.036574304206232582 -0.29462034799197812 0 -0.02534768858988113 -0.27972373702727948 0 -0.045671759383192581 -0.27975370330637328 0 -0.054280355696592238 -0.29592317255434059 0 -0.061383576921693439 -0.28193902719851421 0 -0.069378508236853903 -0.29726945151635648 0 -0.055908647324345882 -0.31238255574332768 0 -0.044362343127309897 -0.30794466793977687 0 -0.069378508236853903 -0.29726945151635648 0 -0.054280355696592238 -0.29592317255434059 0 -0.044362343127309897 -0.30794466793977687 0 -0.069378508236853903 -0.29726945151635648 0 -0.044362343127309897 -0.30794466793977687 0 -0.044362343127309897 -0.30794466793977687 0 -0.032347752982069447 -0.30600493980577681 0 -0.019346178017765898 -0.31861988436319733 0 -0.054280355696592238 -0.29592317255434059 0 -0.032347752982069447 -0.30600493980577681 0 -0.054280355696592238 -0.29592317255434059 0 -0.044362343127309897 -0.30794466793977687 0 -0.032347752982069447 -0.30600493980577681 0 -0.036574304206232582 -0.29462034799197812 0 -0.054280355696592238 -0.29592317255434059 0 -0.032347752982069447 -0.30600493980577681 0 -0.036574304206232582 -0.29462034799197812 0 -0.032347752982069447 -0.30600493980577681 0 -0.024908977258297511 -0.30045738364768559 0 -0.032347752982069447 -0.30600493980577681 0 -0.024908977258297511 -0.30045738364768559 0 -0.019346178017765898 -0.31861988436319733 0 -0.024908977258297511 -0.30045738364768559 0 -0.010928962495538491 -0.30331800905019668 0 -0.019346178017765898 -0.31861988436319733 0 -0.010928962495538491 -0.30331800905019668 0 -0.019346178017765898 -0.31861988436319733 0 -0.00085300724567920162 -0.3134600792683459 0 -0.010928962495538491 -0.30331800905019668 0 -0.00085300724567920162 -0.3134600792683459 0 0.002263828681637008 -0.29971307659348662 0 -0.010928962495538491 -0.30331800905019668 0 -0.0086068970976947087 -0.28569610947311452 0 0.002263828681637008 -0.29971307659348662 0 -0.010928962495538491 -0.30331800905019668 0 -0.0086068970976947087 -0.28569610947311452 0 -0.02534768858988113 -0.27972373702727948 0 -0.010928962495538491 -0.30331800905019668 0 -0.02534768858988113 -0.27972373702727948 0 -0.024908977258297511 -0.30045738364768559 0 -0.010928962495538491 -0.30331800905019668 0 -0.02534768858988113 -0.27972373702727948 0 -0.036574304206232582 -0.29462034799197812 0 -0.024908977258297511 -0.30045738364768559 0 -0.02534768858988113 -0.27972373702727948 0 -0.0086068970976947087 -0.28569610947311452 0 -0.02534768858988113 -0.27972373702727948 0 -0.0001076141968513938 -0.26993945428185911 0 -0.02534768858988113 -0.27972373702727948 0 -0.0001076141968513938 -0.26993945428185911 0 -0.017469828598401758 -0.25688663138693307 0 -0.017469828598401758 -0.25688663138693307 0 -0.01075693259031375 -0.24228488697704789 0 0.0022157039987719608 -0.25103517629298772 0 -0.0001076141968513938 -0.26993945428185911 0 -0.017469828598401758 -0.25688663138693307 0 0.0022157039987719608 -0.25103517629298772 0 -0.039766414684223789 -0.25612946500436229 0 -0.02534768858988113 -0.27972373702727948 0 -0.017469828598401758 -0.25688663138693307 0 -0.039766414684223789 -0.25612946500436229 0 -0.017469828598401758 -0.25688663138693307 0 -0.03122802391732607 -0.24207170577204351 0 -0.039347352009563998 -0.35845941451144692 0 -0.045151923891276653 -0.35164392704791347 0 -0.039598810066825932 -0.35060202423722192 0 -0.039347352009563998 -0.35845941451144692 0 -0.045151923891276653 -0.35164392704791347 0 -0.052718166547218531 -0.35473273780361009 0 -0.045151923891276653 -0.35164392704791347 0 -0.043970211352181612 -0.34446683051801369 0 -0.051352665073146231 -0.34884579725161308 0 -0.045151923891276653 -0.35164392704791347 0 -0.043970211352181612 -0.34446683051801369 0 -0.039598810066825932 -0.35060202423722192 0 -0.043970211352181612 -0.34446683051801369 0 -0.039598810066825932 -0.35060202423722192 0 -0.031632573392842991 -0.34751394815392928 0 -0.039347352009563998 -0.35845941451144692 0 -0.039598810066825932 -0.35060202423722192 0 -0.031632573392842991 -0.34751394815392928 0 -0.039347352009563998 -0.35845941451144692 0 -0.038546149698533261 -0.36535814963739388 0 -0.02658066793947601 -0.36005917831336182 0 -0.038546149698533261 -0.36535814963739388 0 -0.025946650388053129 -0.37304949364746259 0 -0.039878636675221381 -0.37792841910806801 0 -0.038546149698533261 -0.36535814963739388 0 -0.051908649603689551 -0.37236482759840839 0 -0.039878636675221381 -0.37792841910806801 0 -0.063394132625410965 -0.36590566505414202 0 -0.038546149698533261 -0.36535814963739388 0 -0.051908649603689551 -0.37236482759840839 0 -0.063394132625410965 -0.36590566505414202 0 -0.039347352009563998 -0.35845941451144692 0 -0.038546149698533261 -0.36535814963739388 0 -0.063394132625410965 -0.36590566505414202 0 -0.039347352009563998 -0.35845941451144692 0 -0.063394132625410965 -0.36590566505414202 0 -0.039347352009563998 -0.35845941451144692 0 -0.055968012292828231 -0.35926264151154302 0 -0.063394132625410965 -0.36590566505414202 0 -0.038546149698533261 -0.36535814963739388 0 -0.063394132625410965 -0.36590566505414202 0 -0.067654587367833696 -0.36722494408549061 0 -0.051908649603689551 -0.37236482759840839 0 -0.067654587367833696 -0.36722494408549061 0 -0.051908649603689551 -0.37236482759840839 0 -0.050069741651448618 -0.38540696010694731 0 -0.062807596475487337 -0.36020730986154348 0 -0.063394132625410965 -0.36590566505414202 0 -0.055968012292828231 -0.35926264151154302 0 -0.039347352009563998 -0.35845941451144692 0 -0.055968012292828231 -0.35926264151154302 0 -0.052718166547218531 -0.35473273780361009 0 -0.060615864364976457 -0.35532775234677361 0 -0.055968012292828231 -0.35926264151154302 0 -0.052718166547218531 -0.35473273780361009 0 -0.060615864364976457 -0.35532775234677361 0 -0.052718166547218531 -0.35473273780361009 0 -0.057992491958304061 -0.34952615109981588 0 -0.062807596475487337 -0.36020730986154348 0 -0.060615864364976457 -0.35532775234677361 0 -0.055968012292828231 -0.35926264151154302 0 -0.045151923891276653 -0.35164392704791347 0 -0.052718166547218531 -0.35473273780361009 0 -0.051352665073146231 -0.34884579725161308 0 -0.043970211352181612 -0.34446683051801369 0 -0.051352665073146231 -0.34884579725161308 0 -0.057702481325320423 -0.33948968153668951 0 -0.052718166547218531 -0.35473273780361009 0 -0.051352665073146231 -0.34884579725161308 0 -0.057992491958304061 -0.34952615109981588 0 -0.066384054622172214 -0.3486398746901927 0 -0.060615864364976457 -0.35532775234677361 0 -0.057992491958304061 -0.34952615109981588 0 -0.051352665073146231 -0.34884579725161308 0 -0.057992491958304061 -0.34952615109981588 0 -0.057702481325320423 -0.33948968153668951 0 -0.066384054622172214 -0.3486398746901927 0 -0.057992491958304061 -0.34952615109981588 0 -0.057702481325320423 -0.33948968153668951 0 -0.066355503522586567 -0.32977592421742158 0 -0.057702481325320423 -0.33948968153668951 0 -0.055938037814750437 -0.32202892947626399 0 -0.057702481325320423 -0.33948968153668951 0 -0.047569462750085938 -0.33283002131474843 0 -0.055938037814750437 -0.32202892947626399 0 -0.043970211352181612 -0.34446683051801369 0 -0.057702481325320423 -0.33948968153668951 0 -0.047569462750085938 -0.33283002131474843 0 -0.065424813229146978 -0.31194404641596568 0 -0.055908647324345882 -0.31238255574332768 0 -0.055938037814750437 -0.32202892947626399 0 -0.047569462750085938 -0.33283002131474843 0 -0.055938037814750437 -0.32202892947626399 0 -0.044439534213668148 -0.32272568336827501 0 -0.055908647324345882 -0.31238255574332768 0 -0.044362343127309897 -0.30794466793977687 0 -0.044439534213668148 -0.32272568336827501 0 -0.055908647324345882 -0.31238255574332768 0 -0.055938037814750437 -0.32202892947626399 0 -0.044439534213668148 -0.32272568336827501 0 -0.044362343127309897 -0.30794466793977687 0 -0.019346178017765898 -0.31861988436319733 0 -0.044362343127309897 -0.30794466793977687 0 -0.044439534213668148 -0.32272568336827501 0 -0.033371113682783539 -0.32417083199984159 0 -0.044362343127309897 -0.30794466793977687 0 -0.033371113682783539 -0.32417083199984159 0 -0.019346178017765898 -0.31861988436319733 0 -0.044439534213668148 -0.32272568336827501 0 -0.033371113682783539 -0.32417083199984159 0 -0.03579704904450913 -0.33543898167449948 0 -0.043970211352181612 -0.34446683051801369 0 -0.047569462750085938 -0.33283002131474843 0 -0.03579704904450913 -0.33543898167449948 0 -0.047569462750085938 -0.33283002131474843 0 -0.044439534213668148 -0.32272568336827501 0 -0.03579704904450913 -0.33543898167449948 0 -0.043970211352181612 -0.34446683051801369 0 -0.031632573392842991 -0.34751394815392928 0 -0.03579704904450913 -0.33543898167449948 0 -0.02291046401066461 -0.33612494265345938 0 -0.019346178017765898 -0.31861988436319733 0 -0.0075089357889968006 -0.33877962972729592 0 -0.031632573392842991 -0.34751394815392928 0 -0.03579704904450913 -0.33543898167449948 0 -0.02291046401066461 -0.33612494265345938 0 -0.033371113682783539 -0.32417083199984159 0 -0.03579704904450913 -0.33543898167449948 0 -0.02291046401066461 -0.33612494265345938 0 -0.033371113682783539 -0.32417083199984159 0 -0.02291046401066461 -0.33612494265345938 0 -0.019346178017765898 -0.31861988436319733 0 -0.019346178017765898 -0.31861988436319733 0 0.0056699870917780899 -0.32929510078661778 0 -0.019346178017765898 -0.31861988436319733 0 -0.00085300724567920162 -0.3134600792683459 0 0.0056699870917780899 -0.32929510078661778 0 -0.019346178017765898 -0.31861988436319733 0 -0.0075089357889968006 -0.33877962972729592 0 0.0056699870917780899 -0.32929510078661778 0 -0.02291046401066461 -0.33612494265345938 0 -0.0075089357889968006 -0.33877962972729592 0 -0.0153005713937174 -0.35101316396875087 0 -0.0075089357889968006 -0.33877962972729592 0 -0.0028297137070933099 -0.35279292629653702 0 0.01002462915729488 -0.34647941110618691 0 -0.0028297137070933099 -0.35279292629653702 0 -0.0153005713937174 -0.35101316396875087 0 -0.01369816677165556 -0.36481063422064669 0 -0.0075089357889968006 -0.33877962972729592 0 -0.0028297137070933099 -0.35279292629653702 0 -0.0153005713937174 -0.35101316396875087 0 -0.039347352009563998 -0.35845941451144692 0 -0.0153005713937174 -0.35101316396875087 0 -0.02658066793947601 -0.36005917831336182 0 -0.031632573392842991 -0.34751394815392928 0 -0.02291046401066461 -0.33612494265345938 0 -0.0153005713937174 -0.35101316396875087 0 -0.039347352009563998 -0.35845941451144692 0 -0.031632573392842991 -0.34751394815392928 0 -0.0153005713937174 -0.35101316396875087 0 -0.039347352009563998 -0.35845941451144692 0 -0.0153005713937174 -0.35101316396875087 0 -0.0153005713937174 -0.35101316396875087 0 -0.02658066793947601 -0.36005917831336182 0 -0.01369816677165556 -0.36481063422064669 0 -0.038546149698533261 -0.36535814963739388 0 -0.025946650388053129 -0.37304949364746259 0 -0.01369816677165556 -0.36481063422064669 0 -0.038546149698533261 -0.36535814963739388 0 -0.01369816677165556 -0.36481063422064669 0 -0.038546149698533261 -0.36535814963739388 0 -0.02658066793947601 -0.36005917831336182 0 -0.01369816677165556 -0.36481063422064669 0 -0.025946650388053129 -0.37304949364746259 0 -0.01369816677165556 -0.36481063422064669 0 -0.01694873353745464 -0.37755637363288341 0 -0.01369816677165556 -0.36481063422064669 0 -0.0042880474431544443 -0.38143749126606391 0 0.011149816155222141 -0.3642631188038995 0 -0.0028297137070933099 -0.35279292629653702 0 -0.01369816677165556 -0.36481063422064669 0 0.011149816155222141 -0.3642631188038995 0 -0.01369816677165556 -0.36481063422064669 0 0.011149816155222141 -0.3642631188038995 0 -0.01369816677165556 -0.36481063422064669 0 -0.0042880474431544443 -0.38143749126606391 0 -0.01694873353745464 -0.37755637363288341 0 -0.0042880474431544443 -0.38143749126606391 0 -0.02095194952202754 -0.39078185258672637 0 -0.01694873353745464 -0.37755637363288341 0 -0.0042880474431544443 -0.38143749126606391 0 -0.009087554253817921 -0.39655601123361878 0 -0.02095194952202754 -0.39078185258672637 0 -0.009087554253817921 -0.39655601123361878 0 -0.0070445583114871384 -0.41363436916954233 0 0.0059412400519459289 -0.39827433823653918 0 -0.009087554253817921 -0.39655601123361878 0 -0.026374354460180612 -0.40557476739402581 0 -0.0070445583114871384 -0.41363436916954233 0 -0.0042880474431544443 -0.38143749126606391 0 -0.009087554253817921 -0.39655601123361878 0 0.0059412400519459289 -0.39827433823653918 0 -0.026374354460180612 -0.40557476739402581 0 -0.02095194952202754 -0.39078185258672637 0 -0.042503980599766483 -0.39965041063444129 0 -0.009087554253817921 -0.39655601123361878 0 -0.026374354460180612 -0.40557476739402581 0 -0.02095194952202754 -0.39078185258672637 0 -0.02095194952202754 -0.39078185258672637 0 -0.02889589701524017 -0.38199009353337898 0 -0.03813528074304888 -0.38817309320675342 0 -0.02095194952202754 -0.39078185258672637 0 -0.01694873353745464 -0.37755637363288341 0 -0.02889589701524017 -0.38199009353337898 0 -0.025946650388053129 -0.37304949364746259 0 -0.01694873353745464 -0.37755637363288341 0 -0.02889589701524017 -0.38199009353337898 0 -0.02889589701524017 -0.38199009353337898 0 -0.039878636675221381 -0.37792841910806801 0 -0.03813528074304888 -0.38817309320675342 0 -0.025946650388053129 -0.37304949364746259 0 -0.02889589701524017 -0.38199009353337898 0 -0.039878636675221381 -0.37792841910806801 0 -0.039878636675221381 -0.37792841910806801 0 -0.03813528074304888 -0.38817309320675342 0 -0.050069741651448618 -0.38540696010694731 0 -0.02095194952202754 -0.39078185258672637 0 -0.03813528074304888 -0.38817309320675342 0 -0.042503980599766483 -0.39965041063444129 0 -0.02095194952202754 -0.39078185258672637 0 -0.042503980599766483 -0.39965041063444129 0 -0.03813528074304888 -0.38817309320675342 0 -0.042503980599766483 -0.39965041063444129 0 -0.050069741651448618 -0.38540696010694731 0 -0.042503980599766483 -0.39965041063444129 0 -0.061808672072140948 -0.39406674996092722 0 -0.064056011677505298 -0.40851896868215631 0 -0.042503980599766483 -0.39965041063444129 0 -0.061808672072140948 -0.39406674996092722 0 -0.050069741651448618 -0.38540696010694731 0 -0.042503980599766483 -0.39965041063444129 0 -0.064056011677505298 -0.40851896868215631 0 -0.067654587367833696 -0.36722494408549061 0 -0.050069741651448618 -0.38540696010694731 0 -0.066034410415989148 -0.38261550152579732 0 -0.061808672072140948 -0.39406674996092722 0 -0.050069741651448618 -0.38540696010694731 0 -0.066034410415989148 -0.38261550152579732 0 -0.067654587367833696 -0.36722494408549061 0 -0.050069741651448618 -0.38540696010694731 0 -0.051908649603689551 -0.37236482759840839 0 -0.039878636675221381 -0.37792841910806801 0 -0.050069741651448618 -0.38540696010694731 0 -0.060844704671374442 -0.43279970755891711 0 -0.04308202525635442 -0.4209789856293274 0 -0.064056011677505298 -0.40851896868215631 0 -0.042503980599766483 -0.39965041063444129 0 -0.04308202525635442 -0.4209789856293274 0 -0.064056011677505298 -0.40851896868215631 0 -0.026374354460180612 -0.40557476739402581 0 -0.042503980599766483 -0.39965041063444129 0 -0.04308202525635442 -0.4209789856293274 0 -0.060844704671374442 -0.43279970755891711 0 -0.04308202525635442 -0.4209789856293274 0 -0.036081366587504667 -0.44821188838796422 0 -0.04308202525635442 -0.4209789856293274 0 -0.02258801128604453 -0.42079262796251321 0 -0.036081366587504667 -0.44821188838796422 0 -0.02258801128604453 -0.42079262796251321 0 -0.01093901682269725 -0.43953332273650902 0 -0.036081366587504667 -0.44821188838796422 0 -0.026374354460180612 -0.40557476739402581 0 -0.04308202525635442 -0.4209789856293274 0 -0.02258801128604453 -0.42079262796251321 0 -0.026374354460180612 -0.40557476739402581 0 -0.02258801128604453 -0.42079262796251321 0 -0.0070445583114871384 -0.41363436916954233 0 -0.02258801128604453 -0.42079262796251321 0 -0.0070445583114871384 -0.41363436916954233 0 -0.01093901682269725 -0.43953332273650902 0 -0.0070445583114871384 -0.41363436916954233 0 -0.01093901682269725 -0.43953332273650902 0 0.0044685336387176736 -0.42549483916402359 0 -0.01093901682269725 -0.43953332273650902 0 -0.0017589576795830029 -0.4612804419831531 0 0.0095097002263758116 -0.44187517972810342 0 -0.01093901682269725 -0.43953332273650902 0 -0.0017589576795830029 -0.4612804419831531 0 -0.02315218425453907 -0.46540151305333438 0 -0.01093901682269725 -0.43953332273650902 0 -0.02315218425453907 -0.46540151305333438 0 -0.036081366587504667 -0.44821188838796422 0 -0.02315218425453907 -0.46540151305333438 0 -0.0080881070218758316 -0.48101002315979358 0 -0.024648603031591221 -0.5 0 -0.0080881070218758316 -0.48101002315979358 0 -0.024648603031591221 -0.5 0 0.0051103793224578486 -0.5 0 -0.0017589576795830029 -0.4612804419831531 0 -0.02315218425453907 -0.46540151305333438 0 -0.0080881070218758316 -0.48101002315979358 0 -0.0017589576795830029 -0.4612804419831531 0 -0.0080881070218758316 -0.48101002315979358 0 0.0074432789513676602 -0.47835213141926042 0 -0.02315218425453907 -0.46540151305333438 0 -0.024648603031591221 -0.5 0 -0.046330757606104729 -0.4742687574542489 0 -0.024648603031591221 -0.5 0 -0.046330757606104729 -0.4742687574542489 0 -0.054407585385640278 -0.5 0 -0.046330757606104729 -0.4742687574542489 0 -0.054407585385640278 -0.5 0 -0.074747428167778462 -0.47527942338553669 0 -0.02315218425453907 -0.46540151305333438 0 -0.046330757606104729 -0.4742687574542489 0 -0.036081366587504667 -0.44821188838796422 0 -0.046330757606104729 -0.4742687574542489 0 -0.036081366587504667 -0.44821188838796422 0 -0.062075821013604322 -0.45393888098839119 0 -0.046330757606104729 -0.4742687574542489 0 -0.062075821013604322 -0.45393888098839119 0 -0.074747428167778462 -0.47527942338553669 0 -0.060844704671374442 -0.43279970755891711 0 -0.036081366587504667 -0.44821188838796422 0 -0.062075821013604322 -0.45393888098839119 0 -0.060844704671374442 -0.43279970755891711 0 -0.036081366587504667 -0.44821188838796422 0 -0.060844704671374442 -0.43279970755891711 0 -0.062075821013604322 -0.45393888098839119 0 -0.074489826837349199 -0.44104081783575799 0 -0.062075821013604322 -0.45393888098839119 0 -0.074489826837349199 -0.44104081783575799 0 -0.079975627950060732 -0.45294177642491329 0 -0.062075821013604322 -0.45393888098839119 0 -0.079975627950060732 -0.45294177642491329 0 -0.074747428167778462 -0.47527942338553669 0 -0.079975627950060732 -0.45294177642491329 0 -0.074747428167778462 -0.47527942338553669 0 -0.094942505704960184 -0.46165232131560491 0 -0.091843909380614708 -0.44991165830199592 0 -0.079975627950060732 -0.45294177642491329 0 -0.094942505704960184 -0.46165232131560491 0 -0.091843909380614708 -0.44991165830199592 0 -0.08740265335112174 -0.4418236396635607 0 -0.079975627950060732 -0.45294177642491329 0 -0.091843909380614708 -0.44991165830199592 0 -0.08740265335112174 -0.4418236396635607 0 -0.095614682884608185 -0.44132259548134739 0 -0.08740265335112174 -0.4418236396635607 0 -0.095614682884608185 -0.44132259548134739 0 -0.09713369496256663 -0.43092516601685349 0 -0.074489826837349199 -0.44104081783575799 0 -0.08740265335112174 -0.4418236396635607 0 -0.084699501207830097 -0.42973820624899811 0 -0.074489826837349199 -0.44104081783575799 0 -0.08740265335112174 -0.4418236396635607 0 -0.079975627950060732 -0.45294177642491329 0 -0.054407585385640278 -0.5 0 -0.074747428167778462 -0.47527942338553669 0 -0.084166567739689502 -0.5 0 -0.074747428167778462 -0.47527942338553669 0 -0.096198217364944563 -0.48215962946960911 0 -0.094942505704960184 -0.46165232131560491 0 -0.074747428167778462 -0.47527942338553669 0 -0.084166567739689502 -0.5 0 -0.096198217364944563 -0.48215962946960911 0 -0.096198217364944563 -0.48215962946960911 0 -0.1132090351185559 -0.47386640264690399 0 -0.11392555009373879 -0.5 0 -0.084166567739689502 -0.5 0 -0.096198217364944563 -0.48215962946960911 0 -0.11392555009373879 -0.5 0 -0.096198217364944563 -0.48215962946960911 0 -0.1132090351185559 -0.47386640264690399 0 -0.094942505704960184 -0.46165232131560491 0 -0.13087027772794541 -0.48508543112596131 0 -0.1132090351185559 -0.47386640264690399 0 -0.11392555009373879 -0.5 0 -0.10219231269041711 -0.44812101259322512 0 -0.095614682884608185 -0.44132259548134739 0 -0.1233111415474024 -0.43290217214824839 0 -0.091843909380614708 -0.44991165830199592 0 -0.10219231269041711 -0.44812101259322512 0 -0.095614682884608185 -0.44132259548134739 0 -0.1132090351185559 -0.47386640264690399 0 -0.094942505704960184 -0.46165232131560491 0 -0.110088756177807 -0.45156075298290188 0 -0.091843909380614708 -0.44991165830199592 0 -0.10219231269041711 -0.44812101259322512 0 -0.094942505704960184 -0.46165232131560491 0 -0.10219231269041711 -0.44812101259322512 0 -0.094942505704960184 -0.46165232131560491 0 -0.110088756177807 -0.45156075298290188 0 -0.13120700905248381 -0.46770716865526812 0 -0.110088756177807 -0.45156075298290188 0 -0.12750507033415631 -0.44988850150804383 0 -0.13120700905248381 -0.46770716865526812 0 -0.110088756177807 -0.45156075298290188 0 -0.13120700905248381 -0.46770716865526812 0 -0.1132090351185559 -0.47386640264690399 0 -0.110088756177807 -0.45156075298290188 0 -0.12750507033415631 -0.44988850150804383 0 -0.110088756177807 -0.45156075298290188 0 -0.1233111415474024 -0.43290217214824839 0 -0.10219231269041711 -0.44812101259322512 0 -0.110088756177807 -0.45156075298290188 0 -0.1233111415474024 -0.43290217214824839 0 -0.095614682884608185 -0.44132259548134739 0 -0.1233111415474024 -0.43290217214824839 0 -0.13115924457646219 -0.41981911781351028 0 -0.1233111415474024 -0.43290217214824839 0 -0.1193516847202129 -0.42054645645416622 0 -0.1233111415474024 -0.43290217214824839 0 -0.1080289097693504 -0.42661360662357001 0 -0.1193516847202129 -0.42054645645416622 0 -0.1233111415474024 -0.43290217214824839 0 -0.1080289097693504 -0.42661360662357001 0 -0.095614682884608185 -0.44132259548134739 0 -0.1233111415474024 -0.43290217214824839 0 -0.1080289097693504 -0.42661360662357001 0 -0.1080289097693504 -0.42661360662357001 0 -0.092746677991298876 -0.42032504109889052 0 -0.1080289097693504 -0.42661360662357001 0 -0.09713369496256663 -0.43092516601685349 0 -0.092746677991298876 -0.42032504109889052 0 -0.095614682884608185 -0.44132259548134739 0 -0.1080289097693504 -0.42661360662357001 0 -0.09713369496256663 -0.43092516601685349 0 -0.094917051665929203 -0.41159379536034568 0 -0.11090512431863229 -0.41322739550949777 0 -0.1176470443896992 -0.39744712592041681 0 -0.094917051665929203 -0.41159379536034568 0 -0.10258295589499571 -0.41813472496631149 0 -0.11090512431863229 -0.41322739550949777 0 -0.1080289097693504 -0.42661360662357001 0 -0.10258295589499571 -0.41813472496631149 0 -0.092746677991298876 -0.42032504109889052 0 -0.094917051665929203 -0.41159379536034568 0 -0.092746677991298876 -0.42032504109889052 0 -0.094917051665929203 -0.41159379536034568 0 -0.10258295589499571 -0.41813472496631149 0 -0.092746677991298876 -0.42032504109889052 0 -0.1080289097693504 -0.42661360662357001 0 -0.10258295589499571 -0.41813472496631149 0 -0.11090512431863229 -0.41322739550949777 0 -0.11090512431863229 -0.41322739550949777 0 -0.1249886909415846 -0.41044930346258102 0 -0.1176470443896992 -0.39744712592041681 0 -0.1080289097693504 -0.42661360662357001 0 -0.11090512431863229 -0.41322739550949777 0 -0.1193516847202129 -0.42054645645416622 0 -0.11090512431863229 -0.41322739550949777 0 -0.1193516847202129 -0.42054645645416622 0 -0.1249886909415846 -0.41044930346258102 0 -0.1176470443896992 -0.39744712592041681 0 -0.1229729419482984 -0.38896607702568009 0 -0.1121351700468099 -0.39008596307011473 0 -0.1176470443896992 -0.39744712592041681 0 -0.1121351700468099 -0.39008596307011473 0 -0.1064394293812701 -0.39650357565267558 0 -0.12378043572137661 -0.36788844558584788 0 -0.1229729419482984 -0.38896607702568009 0 -0.12378043572137661 -0.36788844558584788 0 -0.1229729419482984 -0.38896607702568009 0 -0.1135281488998206 -0.37886122845980819 0 -0.1229729419482984 -0.38896607702568009 0 -0.1121351700468099 -0.39008596307011473 0 -0.1135281488998206 -0.37886122845980819 0 -0.1071998511793521 -0.362181041159304 0 -0.1135281488998206 -0.37886122845980819 0 -0.1010584514226411 -0.38688741825982492 0 -0.1071998511793521 -0.362181041159304 0 -0.1010584514226411 -0.38688741825982492 0 -0.09633712716268375 -0.37610668925234869 0 -0.1121351700468099 -0.39008596307011473 0 -0.1135281488998206 -0.37886122845980819 0 -0.1010584514226411 -0.38688741825982492 0 -0.1010584514226411 -0.38688741825982492 0 -0.089159495755501486 -0.39148719011007121 0 -0.093510688448870963 -0.38376869837637662 0 -0.1010584514226411 -0.38688741825982492 0 -0.09633712716268375 -0.37610668925234869 0 -0.093510688448870963 -0.38376869837637662 0 -0.094917051665929203 -0.41159379536034568 0 -0.1176470443896992 -0.39744712592041681 0 -0.094917051665929203 -0.41159379536034568 0 -0.1010584514226411 -0.38688741825982492 0 -0.1064394293812701 -0.39650357565267558 0 -0.094917051665929203 -0.41159379536034568 0 -0.1176470443896992 -0.39744712592041681 0 -0.1064394293812701 -0.39650357565267558 0 -0.094917051665929203 -0.41159379536034568 0 -0.1010584514226411 -0.38688741825982492 0 -0.090957825981947904 -0.40006704340132349 0 -0.094917051665929203 -0.41159379536034568 0 -0.1010584514226411 -0.38688741825982492 0 -0.1121351700468099 -0.39008596307011473 0 -0.1010584514226411 -0.38688741825982492 0 -0.1064394293812701 -0.39650357565267558 0 -0.090957825981947904 -0.40006704340132349 0 -0.081018492408455975 -0.40229401207222859 0 -0.088635638657210886 -0.40807280120414691 0 -0.090957825981947904 -0.40006704340132349 0 -0.089159495755501486 -0.39148719011007121 0 -0.081018492408455975 -0.40229401207222859 0 -0.1010584514226411 -0.38688741825982492 0 -0.090957825981947904 -0.40006704340132349 0 -0.089159495755501486 -0.39148719011007121 0 -0.089159495755501486 -0.39148719011007121 0 -0.081018492408455975 -0.40229401207222859 0 -0.07668526712561656 -0.38881573598689351 0 -0.09633712716268375 -0.37610668925234869 0 -0.086377309284430381 -0.38349686779312481 0 -0.076193967929479189 -0.37730602523993412 0 -0.09633712716268375 -0.37610668925234869 0 -0.093510688448870963 -0.38376869837637662 0 -0.086377309284430381 -0.38349686779312481 0 -0.089159495755501486 -0.39148719011007121 0 -0.093510688448870963 -0.38376869837637662 0 -0.086377309284430381 -0.38349686779312481 0 -0.089159495755501486 -0.39148719011007121 0 -0.086377309284430381 -0.38349686779312481 0 -0.07668526712561656 -0.38881573598689351 0 -0.086377309284430381 -0.38349686779312481 0 -0.076193967929479189 -0.37730602523993412 0 -0.07668526712561656 -0.38881573598689351 0 -0.076193967929479189 -0.37730602523993412 0 -0.07668526712561656 -0.38881573598689351 0 -0.066034410415989148 -0.38261550152579732 0 -0.061808672072140948 -0.39406674996092722 0 -0.07668526712561656 -0.38881573598689351 0 -0.066034410415989148 -0.38261550152579732 0 -0.067654587367833696 -0.36722494408549061 0 -0.076193967929479189 -0.37730602523993412 0 -0.066034410415989148 -0.38261550152579732 0 -0.081018492408455975 -0.40229401207222859 0 -0.070892110820929707 -0.39842386667555141 0 -0.064056011677505298 -0.40851896868215631 0 -0.081018492408455975 -0.40229401207222859 0 -0.07668526712561656 -0.38881573598689351 0 -0.070892110820929707 -0.39842386667555141 0 -0.061808672072140948 -0.39406674996092722 0 -0.07668526712561656 -0.38881573598689351 0 -0.070892110820929707 -0.39842386667555141 0 -0.061808672072140948 -0.39406674996092722 0 -0.070892110820929707 -0.39842386667555141 0 -0.064056011677505298 -0.40851896868215631 0 -0.064056011677505298 -0.40851896868215631 0 -0.085608042755244501 -0.41738752672987028 0 -0.060844704671374442 -0.43279970755891711 0 -0.064056011677505298 -0.40851896868215631 0 -0.085608042755244501 -0.41738752672987028 0 -0.081018492408455975 -0.40229401207222859 0 -0.064056011677505298 -0.40851896868215631 0 -0.085608042755244501 -0.41738752672987028 0 -0.060844704671374442 -0.43279970755891711 0 -0.074489826837349199 -0.44104081783575799 0 -0.084699501207830097 -0.42973820624899811 0 -0.060844704671374442 -0.43279970755891711 0 -0.085608042755244501 -0.41738752672987028 0 -0.060844704671374442 -0.43279970755891711 0 -0.084699501207830097 -0.42973820624899811 0 -0.085608042755244501 -0.41738752672987028 0 -0.08740265335112174 -0.4418236396635607 0 -0.092746677991298876 -0.42032504109889052 0 -0.08740265335112174 -0.4418236396635607 0 -0.09713369496256663 -0.43092516601685349 0 -0.092746677991298876 -0.42032504109889052 0 -0.08740265335112174 -0.4418236396635607 0 -0.084699501207830097 -0.42973820624899811 0 -0.092746677991298876 -0.42032504109889052 0 -0.084699501207830097 -0.42973820624899811 0 -0.092746677991298876 -0.42032504109889052 0 -0.085608042755244501 -0.41738752672987028 0 -0.094917051665929203 -0.41159379536034568 0 -0.092746677991298876 -0.42032504109889052 0 -0.085608042755244501 -0.41738752672987028 0 -0.094917051665929203 -0.41159379536034568 0 -0.085608042755244501 -0.41738752672987028 0 -0.092746677991298876 -0.42032504109889052 0 -0.085608042755244501 -0.41738752672987028 0 -0.094917051665929203 -0.41159379536034568 0 -0.090957825981947904 -0.40006704340132349 0 -0.088635638657210886 -0.40807280120414691 0 -0.094917051665929203 -0.41159379536034568 0 -0.088635638657210886 -0.40807280120414691 0 -0.085608042755244501 -0.41738752672987028 0 -0.081018492408455975 -0.40229401207222859 0 -0.088635638657210886 -0.40807280120414691 0 -0.085608042755244501 -0.41738752672987028 0 -0.087734056568116198 -0.084654121948130268 0 -0.096494436482843907 -0.094553565132889178 0 -0.095940840408108435 -0.078886015079822513 0 -0.07857339548233315 -0.082284965709307489 0 -0.087734056568116198 -0.084654121948130268 0 -0.086269170674161136 -0.074897195855827658 0 -0.07857339548233315 -0.082284965709307489 0 -0.081752758009062287 -0.092460103186890213 0 -0.087734056568116198 -0.084654121948130268 0 -0.081752758009062287 -0.092460103186890213 0 -0.087734056568116198 -0.084654121948130268 0 -0.096494436482843907 -0.094553565132889178 0 -0.087734056568116198 -0.084654121948130268 0 -0.086269170674161136 -0.074897195855827658 0 -0.095940840408108435 -0.078886015079822513 0 -0.086269170674161136 -0.074897195855827658 0 -0.095940840408108435 -0.078886015079822513 0 -0.094154728809931254 -0.069247502290238169 0 -0.086269170674161136 -0.074897195855827658 0 -0.084005990504289044 -0.064481143661694315 0 -0.094154728809931254 -0.069247502290238169 0 -0.084005990504289044 -0.064481143661694315 0 -0.094154728809931254 -0.069247502290238169 0 -0.097417497817844839 -0.054569218923424777 0 -0.086269170674161136 -0.074897195855827658 0 -0.084005990504289044 -0.064481143661694315 0 -0.071472277272935439 -0.071456549610906639 0 -0.07857339548233315 -0.082284965709307489 0 -0.086269170674161136 -0.074897195855827658 0 -0.071472277272935439 -0.071456549610906639 0 -0.084005990504289044 -0.064481143661694315 0 -0.071472277272935439 -0.071456549610906639 0 -0.072184806028199336 -0.052773960720582727 0 -0.071472277272935439 -0.071456549610906639 0 -0.068780689730281938 -0.086310829098810715 0 -0.051553557496938442 -0.075465307600037834 0 -0.07857339548233315 -0.082284965709307489 0 -0.071472277272935439 -0.071456549610906639 0 -0.068780689730281938 -0.086310829098810715 0 -0.081752758009062287 -0.092460103186890213 0 -0.068780689730281938 -0.086310829098810715 0 -0.067375175556756137 -0.096926251389634052 0 -0.07857339548233315 -0.082284965709307489 0 -0.081752758009062287 -0.092460103186890213 0 -0.068780689730281938 -0.086310829098810715 0 -0.068780689730281938 -0.086310829098810715 0 -0.067375175556756137 -0.096926251389634052 0 -0.05725184503287295 -0.093436145430108059 0 -0.068780689730281938 -0.086310829098810715 0 -0.05725184503287295 -0.093436145430108059 0 -0.074192364188274337 -0.1029751933975956 0 -0.072961581770924641 -0.1094390247814436 0 -0.061842069196435007 -0.1079124549401073 0 -0.067375175556756137 -0.096926251389634052 0 -0.074192364188274337 -0.1029751933975956 0 -0.061842069196435007 -0.1079124549401073 0 -0.081752758009062287 -0.092460103186890213 0 -0.067375175556756137 -0.096926251389634052 0 -0.074192364188274337 -0.1029751933975956 0 -0.06643229336000292 -0.1223887644501047 0 -0.089379600338988952 -0.104479686337966 0 -0.06643229336000292 -0.1223887644501047 0 -0.072961581770924641 -0.1094390247814436 0 -0.089379600338988952 -0.104479686337966 0 -0.06643229336000292 -0.1223887644501047 0 -0.0861511705747985 -0.1143885697709555 0 -0.068738321639515529 -0.12966134590223791 0 -0.06643229336000292 -0.1223887644501047 0 -0.062375254211023988 -0.12555505455506771 0 -0.06643229336000292 -0.1223887644501047 0 -0.05976647898593606 -0.1180300387568318 0 -0.062375254211023988 -0.12555505455506771 0 -0.06643229336000292 -0.1223887644501047 0 -0.05976647898593606 -0.1180300387568318 0 -0.061842069196435007 -0.1079124549401073 0 -0.06643229336000292 -0.1223887644501047 0 -0.061842069196435007 -0.1079124549401073 0 -0.06643229336000292 -0.1223887644501047 0 -0.072961581770924641 -0.1094390247814436 0 -0.061842069196435007 -0.1079124549401073 0 -0.0861511705747985 -0.1143885697709555 0 -0.07580790466675319 -0.134223574409022 0 -0.06643229336000292 -0.1223887644501047 0 -0.0861511705747985 -0.1143885697709555 0 -0.089379600338988952 -0.104479686337966 0 -0.0861511705747985 -0.1143885697709555 0 -0.085657367727213191 -0.12719165871186591 0 -0.096473753305982804 -0.12558014194108899 0 -0.0861511705747985 -0.1143885697709555 0 -0.096494436482843907 -0.094553565132889178 0 -0.074192364188274337 -0.1029751933975956 0 -0.072961581770924641 -0.1094390247814436 0 -0.089379600338988952 -0.104479686337966 0 -0.0861511705747985 -0.1143885697709555 0 -0.089379600338988952 -0.104479686337966 0 -0.096494436482843907 -0.094553565132889178 0 -0.081752758009062287 -0.092460103186890213 0 -0.074192364188274337 -0.1029751933975956 0 -0.089379600338988952 -0.104479686337966 0 -0.081752758009062287 -0.092460103186890213 0 -0.089379600338988952 -0.104479686337966 0 -0.096494436482843907 -0.094553565132889178 0 -0.096494436482843907 -0.094553565132889178 0 -0.10827082545605719 -0.1012860141266152 0 -0.10095328517692601 -0.11031905602455321 0 -0.0861511705747985 -0.1143885697709555 0 -0.096494436482843907 -0.094553565132889178 0 -0.10095328517692601 -0.11031905602455321 0 -0.096494436482843907 -0.094553565132889178 0 -0.10827082545605719 -0.1012860141266152 0 -0.1056637291545101 -0.088147373483323022 0 -0.10095328517692601 -0.11031905602455321 0 -0.11467896899858961 -0.1174452021670632 0 -0.096473753305982804 -0.12558014194108899 0 -0.10827082545605719 -0.1012860141266152 0 -0.10095328517692601 -0.11031905602455321 0 -0.11467896899858961 -0.1174452021670632 0 -0.0861511705747985 -0.1143885697709555 0 -0.10095328517692601 -0.11031905602455321 0 -0.096473753305982804 -0.12558014194108899 0 -0.11467896899858961 -0.1174452021670632 0 -0.1220765994143196 -0.1008984570322134 0 -0.13285598427751799 -0.111430357147086 0 -0.10827082545605719 -0.1012860141266152 0 -0.11467896899858961 -0.1174452021670632 0 -0.1220765994143196 -0.1008984570322134 0 -0.10827082545605719 -0.1012860141266152 0 -0.1220765994143196 -0.1008984570322134 0 -0.1056637291545101 -0.088147373483323022 0 -0.1220765994143196 -0.1008984570322134 0 -0.1097470486160822 -0.077733837977819104 0 -0.12812466965229469 -0.084559942915758746 0 -0.1220765994143196 -0.1008984570322134 0 -0.1056637291545101 -0.088147373483323022 0 -0.1097470486160822 -0.077733837977819104 0 -0.1097470486160822 -0.077733837977819104 0 -0.1206116997250966 -0.075029136049232573 0 -0.12812466965229469 -0.084559942915758746 0 -0.1220765994143196 -0.1008984570322134 0 -0.1097470486160822 -0.077733837977819104 0 -0.096494436482843907 -0.094553565132889178 0 -0.1068377023908893 -0.074718560494822783 0 -0.096494436482843907 -0.094553565132889178 0 -0.095940840408108435 -0.078886015079822513 0 -0.1068377023908893 -0.074718560494822783 0 -0.096494436482843907 -0.094553565132889178 0 -0.1056637291545101 -0.088147373483323022 0 -0.1068377023908893 -0.074718560494822783 0 -0.1056637291545101 -0.088147373483323022 0 -0.1068377023908893 -0.074718560494822783 0 -0.1097470486160822 -0.077733837977819104 0 -0.094154728809931254 -0.069247502290238169 0 -0.1068377023908893 -0.074718560494822783 0 -0.097417497817844839 -0.054569218923424777 0 -0.1068377023908893 -0.074718560494822783 0 -0.1097470486160822 -0.077733837977819104 0 -0.097417497817844839 -0.054569218923424777 0 -0.1097470486160822 -0.077733837977819104 0 -0.097417497817844839 -0.054569218923424777 0 -0.1146554349822661 -0.064549548185460673 0 -0.1097470486160822 -0.077733837977819104 0 -0.097417497817844839 -0.054569218923424777 0 -0.095940840408108435 -0.078886015079822513 0 -0.094154728809931254 -0.069247502290238169 0 -0.1068377023908893 -0.074718560494822783 0 -0.1146554349822661 -0.064549548185460673 0 -0.1245952765854583 -0.053991827278248722 0 -0.12804580984603489 -0.069899659586637866 0 -0.1146554349822661 -0.064549548185460673 0 -0.1097470486160822 -0.077733837977819104 0 -0.1206116997250966 -0.075029136049232573 0 -0.1146554349822661 -0.064549548185460673 0 -0.1206116997250966 -0.075029136049232573 0 -0.12804580984603489 -0.069899659586637866 0 -0.1146554349822661 -0.064549548185460673 0 -0.1117956783605495 -0.0523029075526701 0 -0.1245952765854583 -0.053991827278248722 0 -0.1117956783605495 -0.0523029075526701 0 -0.1245952765854583 -0.053991827278248722 0 -0.1126696841781334 -0.034048309071617981 0 -0.1126696841781334 -0.034048309071617981 0 -0.097417497817844839 -0.054569218923424777 0 -0.085087947019607368 -0.031404599869030367 0 -0.1117956783605495 -0.0523029075526701 0 -0.1126696841781334 -0.034048309071617981 0 -0.097417497817844839 -0.054569218923424777 0 -0.1146554349822661 -0.064549548185460673 0 -0.1117956783605495 -0.0523029075526701 0 -0.097417497817844839 -0.054569218923424777 0 -0.1126696841781334 -0.034048309071617981 0 -0.1136104046283796 -0.012726262184012779 0 -0.1344870760500517 -0.011503851261303469 0 -0.1126696841781334 -0.034048309071617981 0 -0.1136104046283796 -0.012726262184012779 0 -0.095238350791709683 -0.01369776429763649 0 -0.1126696841781334 -0.034048309071617981 0 -0.095238350791709683 -0.01369776429763649 0 -0.085087947019607368 -0.031404599869030367 0 -0.095238350791709683 -0.01369776429763649 0 -0.10150418330331321 0.0025078213068508211 0 -0.085799489399454615 0.001724744846627279 0 -0.1136104046283796 -0.012726262184012779 0 -0.095238350791709683 -0.01369776429763649 0 -0.10150418330331321 0.0025078213068508211 0 -0.095238350791709683 -0.01369776429763649 0 -0.072758396221369898 -0.0082399808146359013 0 -0.085799489399454615 0.001724744846627279 0 -0.072758396221369898 -0.0082399808146359013 0 -0.085087947019607368 -0.031404599869030367 0 -0.095238350791709683 -0.01369776429763649 0 -0.072758396221369898 -0.0082399808146359013 0 -0.085087947019607368 -0.031404599869030367 0 -0.085087947019607368 -0.031404599869030367 0 -0.057884570861055917 -0.035836074736374027 0 -0.061520992456001032 -0.020431754555094071 0 -0.072758396221369898 -0.0082399808146359013 0 -0.085087947019607368 -0.031404599869030367 0 -0.061520992456001032 -0.020431754555094071 0 -0.084005990504289044 -0.064481143661694315 0 -0.097417497817844839 -0.054569218923424777 0 -0.072184806028199336 -0.052773960720582727 0 -0.097417497817844839 -0.054569218923424777 0 -0.085087947019607368 -0.031404599869030367 0 -0.072184806028199336 -0.052773960720582727 0 -0.097417497817844839 -0.054569218923424777 0 -0.085087947019607368 -0.031404599869030367 0 -0.085087947019607368 -0.031404599869030367 0 -0.072184806028199336 -0.052773960720582727 0 -0.057884570861055917 -0.035836074736374027 0 -0.071472277272935439 -0.071456549610906639 0 -0.072184806028199336 -0.052773960720582727 0 -0.058152321353328262 -0.060731359465292303 0 -0.072184806028199336 -0.052773960720582727 0 -0.058152321353328262 -0.060731359465292303 0 -0.052612197151131447 -0.049472434604510229 0 -0.058152321353328262 -0.060731359465292303 0 -0.052612197151131447 -0.049472434604510229 0 -0.04585526996100716 -0.057494469769966583 0 -0.072184806028199336 -0.052773960720582727 0 -0.052612197151131447 -0.049472434604510229 0 -0.057884570861055917 -0.035836074736374027 0 -0.052612197151131447 -0.049472434604510229 0 -0.057884570861055917 -0.035836074736374027 0 -0.042666266780929087 -0.040018803409649313 0 -0.057884570861055917 -0.035836074736374027 0 -0.042666266780929087 -0.040018803409649313 0 -0.040031376072549717 -0.022169137522868799 0 -0.042666266780929087 -0.040018803409649313 0 -0.040031376072549717 -0.022169137522868799 0 -0.03109000455167105 -0.039373637688818887 0 -0.052612197151131447 -0.049472434604510229 0 -0.042666266780929087 -0.040018803409649313 0 -0.038929947922268983 -0.049979939525196457 0 -0.042666266780929087 -0.040018803409649313 0 -0.038929947922268983 -0.049979939525196457 0 -0.02739267337791389 -0.046487840990173987 0 -0.042666266780929087 -0.040018803409649313 0 -0.02739267337791389 -0.046487840990173987 0 -0.03109000455167105 -0.039373637688818887 0 -0.038929947922268983 -0.049979939525196457 0 -0.02739267337791389 -0.046487840990173987 0 -0.03193389910011292 -0.063490403517630398 0 -0.038929947922268983 -0.049979939525196457 0 -0.04585526996100716 -0.057494469769966583 0 -0.03193389910011292 -0.063490403517630398 0 -0.052612197151131447 -0.049472434604510229 0 -0.038929947922268983 -0.049979939525196457 0 -0.04585526996100716 -0.057494469769966583 0 -0.072758396221369898 -0.0082399808146359013 0 -0.051842672105422212 -0.004508979832561268 0 -0.061520992456001032 -0.020431754555094071 0 -0.051842672105422212 -0.004508979832561268 0 -0.061520992456001032 -0.020431754555094071 0 -0.040031376072549717 -0.022169137522868799 0 -0.057884570861055917 -0.035836074736374027 0 -0.061520992456001032 -0.020431754555094071 0 -0.040031376072549717 -0.022169137522868799 0 -0.040031376072549717 -0.022169137522868799 0 -0.03109000455167105 -0.039373637688818887 0 -0.051842672105422212 -0.004508979832561268 0 -0.040031376072549717 -0.022169137522868799 0 -0.031740632205187157 0.0039567194184075994 0 -0.040031376072549717 -0.022169137522868799 0 -0.019176072344730209 -0.01387280406012348 0 -0.031740632205187157 0.0039567194184075994 0 -0.019176072344730209 -0.01387280406012348 0 -0.01941734266895 -0.037529385297350532 0 -0.009421053939786388 -0.035778929000125123 0 -0.019176072344730209 -0.01387280406012348 0 -0.03109000455167105 -0.039373637688818887 0 -0.01941734266895 -0.037529385297350532 0 -0.019176072344730209 -0.01387280406012348 0 -0.03109000455167105 -0.039373637688818887 0 -0.040031376072549717 -0.022169137522868799 0 -0.019176072344730209 -0.01387280406012348 0 -0.03109000455167105 -0.039373637688818887 0 -0.019176072344730209 -0.01387280406012348 0 -0.0027135244406232498 -0.02502109825273589 0 -0.009421053939786388 -0.035778929000125123 0 -0.019176072344730209 -0.01387280406012348 0 -0.0027135244406232498 -0.02502109825273589 0 0.001149502097097669 -0.011866962428013821 0 -0.019176072344730209 -0.01387280406012348 0 -0.0078299177893015933 0.0113329491608615 0 0.001149502097097669 -0.011866962428013821 0 -0.019176072344730209 -0.01387280406012348 0 -0.0078299177893015933 0.0113329491608615 0 -0.02739267337791389 -0.046487840990173987 0 -0.010574686782160701 -0.0524287951552216 0 -0.014753970683278061 -0.070806544457479179 0 -0.02739267337791389 -0.046487840990173987 0 -0.014753970683278061 -0.070806544457479179 0 -0.03193389910011292 -0.063490403517630398 0 -0.02739267337791389 -0.046487840990173987 0 -0.014753970683278061 -0.070806544457479179 0 -0.02739267337791389 -0.046487840990173987 0 -0.03109000455167105 -0.039373637688818887 0 -0.01941734266895 -0.037529385297350532 0 -0.02739267337791389 -0.046487840990173987 0 -0.01941734266895 -0.037529385297350532 0 -0.010574686782160701 -0.0524287951552216 0 -0.02739267337791389 -0.046487840990173987 0 -0.03109000455167105 -0.039373637688818887 0 -0.01941734266895 -0.037529385297350532 0 -0.009421053939786388 -0.035778929000125123 0 -0.010574686782160701 -0.0524287951552216 0 -0.009421053939786388 -0.035778929000125123 0 -0.0034884269796278751 -0.044449411372668432 0 -0.010574686782160701 -0.0524287951552216 0 -0.0027135244406232498 -0.02502109825273589 0 -0.009421053939786388 -0.035778929000125123 0 0.0038410275856185232 -0.037567189316250527 0 -0.009421053939786388 -0.035778929000125123 0 -0.0034884269796278751 -0.044449411372668432 0 0.0038410275856185232 -0.037567189316250527 0 -0.0034884269796278751 -0.044449411372668432 0 -0.010574686782160701 -0.0524287951552216 0 0.0070985228527581648 -0.053506951691642553 0 -0.010574686782160701 -0.0524287951552216 0 0.0016561558194555801 -0.070702517229202691 0 0.0070985228527581648 -0.053506951691642553 0 -0.010574686782160701 -0.0524287951552216 0 -0.014753970683278061 -0.070806544457479179 0 0.0016561558194555801 -0.070702517229202691 0 -0.014753970683278061 -0.070806544457479179 0 -0.02093712496682739 -0.094471857741580512 0 -0.0021152679886422242 -0.095125247924784342 0 -0.014753970683278061 -0.070806544457479179 0 -0.0021152679886422242 -0.095125247924784342 0 -0.014753970683278061 -0.070806544457479179 0 -0.0021152679886422242 -0.095125247924784342 0 0.0016561558194555801 -0.070702517229202691 0 -0.014753970683278061 -0.070806544457479179 0 -0.034834664691955522 -0.08414359838390402 0 -0.02093712496682739 -0.094471857741580512 0 -0.014753970683278061 -0.070806544457479179 0 -0.03193389910011292 -0.063490403517630398 0 -0.034834664691955522 -0.08414359838390402 0 -0.03193389910011292 -0.063490403517630398 0 -0.034834664691955522 -0.08414359838390402 0 -0.051553557496938442 -0.075465307600037834 0 -0.04585526996100716 -0.057494469769966583 0 -0.03193389910011292 -0.063490403517630398 0 -0.051553557496938442 -0.075465307600037834 0 -0.034834664691955522 -0.08414359838390402 0 -0.05725184503287295 -0.093436145430108059 0 -0.051553557496938442 -0.075465307600037834 0 -0.05725184503287295 -0.093436145430108059 0 -0.051553557496938442 -0.075465307600037834 0 -0.068780689730281938 -0.086310829098810715 0 -0.05725184503287295 -0.093436145430108059 0 -0.051553557496938442 -0.075465307600037834 0 -0.071472277272935439 -0.071456549610906639 0 -0.058152321353328262 -0.060731359465292303 0 -0.051553557496938442 -0.075465307600037834 0 -0.058152321353328262 -0.060731359465292303 0 -0.04585526996100716 -0.057494469769966583 0 -0.051553557496938442 -0.075465307600037834 0 -0.04585526996100716 -0.057494469769966583 0 -0.051553557496938442 -0.075465307600037834 0 -0.051834972677183837 -0.11875307306649691 0 -0.061842069196435007 -0.1079124549401073 0 -0.034595343088444183 -0.1074388271863314 0 -0.051834972677183837 -0.11875307306649691 0 -0.062375254211023988 -0.12555505455506771 0 -0.051834972677183837 -0.11875307306649691 0 -0.05976647898593606 -0.1180300387568318 0 -0.062375254211023988 -0.12555505455506771 0 -0.051834972677183837 -0.11875307306649691 0 -0.05976647898593606 -0.1180300387568318 0 -0.061842069196435007 -0.1079124549401073 0 -0.05725184503287295 -0.093436145430108059 0 -0.061842069196435007 -0.1079124549401073 0 -0.034595343088444183 -0.1074388271863314 0 -0.067375175556756137 -0.096926251389634052 0 -0.05725184503287295 -0.093436145430108059 0 -0.061842069196435007 -0.1079124549401073 0 -0.05725184503287295 -0.093436145430108059 0 -0.061842069196435007 -0.1079124549401073 0 -0.034834664691955522 -0.08414359838390402 0 -0.05725184503287295 -0.093436145430108059 0 -0.034595343088444183 -0.1074388271863314 0 -0.05725184503287295 -0.093436145430108059 0 -0.034595343088444183 -0.1074388271863314 0 -0.051834972677183837 -0.11875307306649691 0 -0.034595343088444183 -0.1074388271863314 0 -0.032577545341562583 -0.125543479754603 0 -0.034595343088444183 -0.1074388271863314 0 -0.01193884114401514 -0.121441508942554 0 -0.032577545341562583 -0.125543479754603 0 -0.034595343088444183 -0.1074388271863314 0 -0.01193884114401514 -0.121441508942554 0 -0.034834664691955522 -0.08414359838390402 0 -0.034595343088444183 -0.1074388271863314 0 -0.02093712496682739 -0.094471857741580512 0 -0.034595343088444183 -0.1074388271863314 0 -0.02093712496682739 -0.094471857741580512 0 -0.01193884114401514 -0.121441508942554 0 -0.02093712496682739 -0.094471857741580512 0 -0.0021152679886422242 -0.095125247924784342 0 -0.01193884114401514 -0.121441508942554 0 -0.0021152679886422242 -0.095125247924784342 0 -0.01193884114401514 -0.121441508942554 0 0.01205822537398484 -0.11017830551008739 0 -0.01193884114401514 -0.121441508942554 0 -0.022669311626688581 -0.1384877732401881 0 -0.0054802260051036583 -0.14638053372790891 0 -0.01193884114401514 -0.121441508942554 0 0.01071766080041377 -0.13544419069877681 0 -0.01193884114401514 -0.121441508942554 0 -0.0054802260051036583 -0.14638053372790891 0 0.01071766080041377 -0.13544419069877681 0 -0.01193884114401514 -0.121441508942554 0 -0.022669311626688581 -0.1384877732401881 0 -0.032577545341562583 -0.125543479754603 0 -0.022669311626688581 -0.1384877732401881 0 -0.0054802260051036583 -0.14638053372790891 0 -0.0216781128106227 -0.1573168767570387 0 -0.022669311626688581 -0.1384877732401881 0 -0.0216781128106227 -0.1573168767570387 0 -0.042026683510823018 -0.14143596565605279 0 -0.0054802260051036583 -0.14638053372790891 0 -0.0035093935166591859 -0.15804738012971131 0 -0.0216781128106227 -0.1573168767570387 0 -0.0054802260051036583 -0.14638053372790891 0 -0.0216781128106227 -0.1573168767570387 0 -0.0035093935166591859 -0.15804738012971131 0 -0.0084496614679015463 -0.16764093650907691 0 -0.0216781128106227 -0.1573168767570387 0 -0.0035093935166591859 -0.15804738012971131 0 -0.0084496614679015463 -0.16764093650907691 0 0.0032866020401578198 -0.16633692148475179 0 -0.0084496614679015463 -0.16764093650907691 0 0.0032866020401578198 -0.16633692148475179 0 0.004778789874819174 -0.17796499626111559 0 -0.0084496614679015463 -0.16764093650907691 0 -0.0216781128106227 -0.1573168767570387 0 -0.014460729452918991 -0.18160855319159641 0 0.0080627702558309297 -0.1896718368080367 0 -0.0025172076975426079 -0.17922158069245639 0 -0.014460729452918991 -0.18160855319159641 0 0.0080627702558309297 -0.1896718368080367 0 -0.014460729452918991 -0.18160855319159641 0 -0.005179268052130895 -0.19117181568058519 0 0.0080627702558309297 -0.1896718368080367 0 -0.0084496614679015463 -0.16764093650907691 0 -0.0025172076975426079 -0.17922158069245639 0 0.004778789874819174 -0.17796499626111559 0 -0.0084496614679015463 -0.16764093650907691 0 0.004778789874819174 -0.17796499626111559 0 -0.0084496614679015463 -0.16764093650907691 0 -0.014460729452918991 -0.18160855319159641 0 -0.020148532547769441 -0.16747745333395389 0 -0.0084496614679015463 -0.16764093650907691 0 -0.0025172076975426079 -0.17922158069245639 0 -0.014460729452918991 -0.18160855319159641 0 -0.014460729452918991 -0.18160855319159641 0 -0.036984229161668922 -0.17354526957515609 0 -0.014460729452918991 -0.18160855319159641 0 -0.036984229161668922 -0.17354526957515609 0 -0.027900395575099778 -0.187529757834586 0 -0.014460729452918991 -0.18160855319159641 0 -0.02705306386589448 -0.1695142494874641 0 -0.036984229161668922 -0.17354526957515609 0 -0.014460729452918991 -0.18160855319159641 0 -0.020148532547769441 -0.16747745333395389 0 -0.02705306386589448 -0.1695142494874641 0 -0.0216781128106227 -0.1573168767570387 0 -0.027211829180675981 -0.16105308143456831 0 -0.037591772648669822 -0.1562819144040595 0 -0.0216781128106227 -0.1573168767570387 0 -0.020148532547769441 -0.16747745333395389 0 -0.027211829180675981 -0.16105308143456831 0 -0.0084496614679015463 -0.16764093650907691 0 -0.0216781128106227 -0.1573168767570387 0 -0.020148532547769441 -0.16747745333395389 0 -0.020148532547769441 -0.16747745333395389 0 -0.02705306386589448 -0.1695142494874641 0 -0.027211829180675981 -0.16105308143456831 0 -0.02705306386589448 -0.1695142494874641 0 -0.027211829180675981 -0.16105308143456831 0 -0.036459998986439091 -0.16388688990204561 0 -0.0216781128106227 -0.1573168767570387 0 -0.027211829180675981 -0.16105308143456831 0 -0.027211829180675981 -0.16105308143456831 0 -0.036459998986439091 -0.16388688990204561 0 -0.037591772648669822 -0.1562819144040595 0 -0.02705306386589448 -0.1695142494874641 0 -0.036459998986439091 -0.16388688990204561 0 -0.036984229161668922 -0.17354526957515609 0 -0.036459998986439091 -0.16388688990204561 0 -0.045350341710537569 -0.16166731286843769 0 -0.036984229161668922 -0.17354526957515609 0 -0.036459998986439091 -0.16388688990204561 0 -0.037591772648669822 -0.1562819144040595 0 -0.045350341710537569 -0.16166731286843769 0 -0.037591772648669822 -0.1562819144040595 0 -0.045350341710537569 -0.16166731286843769 0 -0.052823669692921002 -0.15233135980621451 0 -0.036984229161668922 -0.17354526957515609 0 -0.027900395575099778 -0.187529757834586 0 -0.038389369917689153 -0.1876345084375235 0 -0.036984229161668922 -0.17354526957515609 0 -0.049802618476840921 -0.18322137154871909 0 -0.038389369917689153 -0.1876345084375235 0 -0.049802618476840921 -0.18322137154871909 0 -0.06574004843675775 -0.18520540287681109 0 -0.064281283695554761 -0.17249080603792 0 -0.036984229161668922 -0.17354526957515609 0 -0.049802618476840921 -0.18322137154871909 0 -0.057583671202881402 -0.1691716999328883 0 -0.049802618476840921 -0.18322137154871909 0 -0.057583671202881402 -0.1691716999328883 0 -0.064281283695554761 -0.17249080603792 0 -0.036984229161668922 -0.17354526957515609 0 -0.059507728870418601 -0.16548198595871549 0 -0.045350341710537569 -0.16166731286843769 0 -0.036984229161668922 -0.17354526957515609 0 -0.059507728870418601 -0.16548198595871549 0 -0.036984229161668922 -0.17354526957515609 0 -0.057583671202881402 -0.1691716999328883 0 -0.059507728870418601 -0.16548198595871549 0 -0.045350341710537569 -0.16166731286843769 0 -0.059507728870418601 -0.16548198595871549 0 -0.052823669692921002 -0.15233135980621451 0 -0.057583671202881402 -0.1691716999328883 0 -0.059507728870418601 -0.16548198595871549 0 -0.059507728870418601 -0.16548198595871549 0 -0.052823669692921002 -0.15233135980621451 0 -0.067657816768585718 -0.14985278018386861 0 -0.052823669692921002 -0.15233135980621451 0 -0.057217669755238808 -0.139399466852175 0 -0.042026683510823018 -0.14143596565605279 0 -0.052823669692921002 -0.15233135980621451 0 -0.057217669755238808 -0.139399466852175 0 -0.067657816768585718 -0.14985278018386861 0 -0.062375254211023988 -0.12555505455506771 0 -0.042026683510823018 -0.14143596565605279 0 -0.057217669755238808 -0.139399466852175 0 -0.062375254211023988 -0.12555505455506771 0 -0.042026683510823018 -0.14143596565605279 0 -0.051834972677183837 -0.11875307306649691 0 -0.062375254211023988 -0.12555505455506771 0 -0.042026683510823018 -0.14143596565605279 0 -0.057217669755238808 -0.139399466852175 0 -0.062375254211023988 -0.12555505455506771 0 -0.065479484344907329 -0.13335680924431989 0 -0.022669311626688581 -0.1384877732401881 0 -0.032577545341562583 -0.125543479754603 0 -0.042026683510823018 -0.14143596565605279 0 -0.051834972677183837 -0.11875307306649691 0 -0.032577545341562583 -0.125543479754603 0 -0.042026683510823018 -0.14143596565605279 0 -0.0216781128106227 -0.1573168767570387 0 -0.042026683510823018 -0.14143596565605279 0 -0.0216781128106227 -0.1573168767570387 0 -0.037591772648669822 -0.1562819144040595 0 -0.042026683510823018 -0.14143596565605279 0 -0.037591772648669822 -0.1562819144040595 0 -0.052823669692921002 -0.15233135980621451 0 -0.042026683510823018 -0.14143596565605279 0 -0.017469828598401758 -0.25688663138693307 0 -0.03122802391732607 -0.24207170577204351 0 -0.01075693259031375 -0.24228488697704789 0 -0.03122802391732607 -0.24207170577204351 0 -0.01075693259031375 -0.24228488697704789 0 -0.020691655366887721 -0.23164971503225959 0 -0.01075693259031375 -0.24228488697704789 0 0.0022157039987719608 -0.25103517629298772 0 0.0020586593896541501 -0.23538806153735661 0 -0.01075693259031375 -0.24228488697704789 0 -0.0098928821955848525 -0.23008105229597681 0 0.0020586593896541501 -0.23538806153735661 0 -0.01075693259031375 -0.24228488697704789 0 -0.0098928821955848525 -0.23008105229597681 0 -0.020691655366887721 -0.23164971503225959 0 -0.0098928821955848525 -0.23008105229597681 0 -0.001152381567331534 -0.2211555327351723 0 -0.018561965392139501 -0.22018438702458809 0 -0.0098928821955848525 -0.23008105229597681 0 -0.001152381567331534 -0.2211555327351723 0 0.0020586593896541501 -0.23538806153735661 0 -0.018561965392139501 -0.22018438702458809 0 -0.020691655366887721 -0.23164971503225959 0 -0.03095470244597422 -0.22698724252025509 0 -0.0098928821955848525 -0.23008105229597681 0 -0.018561965392139501 -0.22018438702458809 0 -0.020691655366887721 -0.23164971503225959 0 -0.03122802391732607 -0.24207170577204351 0 -0.020691655366887721 -0.23164971503225959 0 -0.03095470244597422 -0.22698724252025509 0 -0.018561965392139501 -0.22018438702458809 0 -0.03095470244597422 -0.22698724252025509 0 -0.031355769419989313 -0.2162346106028622 0 -0.018561965392139501 -0.22018438702458809 0 -0.02394386061028916 -0.20776443922509641 0 -0.031355769419989313 -0.2162346106028622 0 -0.02394386061028916 -0.20776443922509641 0 -0.035029814618555311 -0.20631898734460469 0 -0.031355769419989313 -0.2162346106028622 0 -0.02394386061028916 -0.20776443922509641 0 -0.031586381902810393 -0.196835207495905 0 -0.035029814618555311 -0.20631898734460469 0 -0.02394386061028916 -0.20776443922509641 0 -0.010707126097519009 -0.2094932368204149 0 -0.01810525766068392 -0.19732652756082111 0 -0.018561965392139501 -0.22018438702458809 0 -0.02394386061028916 -0.20776443922509641 0 -0.010707126097519009 -0.2094932368204149 0 -0.001152381567331534 -0.2211555327351723 0 -0.018561965392139501 -0.22018438702458809 0 -0.010707126097519009 -0.2094932368204149 0 -0.001152381567331534 -0.2211555327351723 0 -0.010707126097519009 -0.2094932368204149 0 0.0022390454428899008 -0.21166184794823081 0 -0.010707126097519009 -0.2094932368204149 0 -0.0074540719097852693 -0.19959137524155821 0 0.0007592833362599264 -0.20298356516784949 0 -0.010707126097519009 -0.2094932368204149 0 0.0007592833362599264 -0.20298356516784949 0 0.0022390454428899008 -0.21166184794823081 0 -0.0074540719097852693 -0.19959137524155821 0 -0.005179268052130895 -0.19117181568058519 0 -0.01810525766068392 -0.19732652756082111 0 -0.014460729452918991 -0.18160855319159641 0 -0.005179268052130895 -0.19117181568058519 0 -0.01810525766068392 -0.19732652756082111 0 -0.010707126097519009 -0.2094932368204149 0 -0.0074540719097852693 -0.19959137524155821 0 -0.01810525766068392 -0.19732652756082111 0 -0.0074540719097852693 -0.19959137524155821 0 0.00072783491096226538 -0.19632658387055249 0 0.0007592833362599264 -0.20298356516784949 0 -0.0074540719097852693 -0.19959137524155821 0 -0.005179268052130895 -0.19117181568058519 0 0.00072783491096226538 -0.19632658387055249 0 -0.014460729452918991 -0.18160855319159641 0 -0.01810525766068392 -0.19732652756082111 0 -0.027900395575099778 -0.187529757834586 0 -0.02394386061028916 -0.20776443922509641 0 -0.01810525766068392 -0.19732652756082111 0 -0.031586381902810393 -0.196835207495905 0 -0.01810525766068392 -0.19732652756082111 0 -0.027900395575099778 -0.187529757834586 0 -0.031586381902810393 -0.196835207495905 0 -0.027900395575099778 -0.187529757834586 0 -0.038389369917689153 -0.1876345084375235 0 -0.031586381902810393 -0.196835207495905 0 -0.038389369917689153 -0.1876345084375235 0 -0.031586381902810393 -0.196835207495905 0 -0.04567322447202575 -0.19704093573325121 0 -0.031586381902810393 -0.196835207495905 0 -0.04567322447202575 -0.19704093573325121 0 -0.035029814618555311 -0.20631898734460469 0 -0.049802618476840921 -0.18322137154871909 0 -0.038389369917689153 -0.1876345084375235 0 -0.04567322447202575 -0.19704093573325121 0 -0.04567322447202575 -0.19704093573325121 0 -0.054623955337210227 -0.20677130111350539 0 -0.06574004843675775 -0.18520540287681109 0 -0.049802618476840921 -0.18322137154871909 0 -0.04567322447202575 -0.19704093573325121 0 -0.06574004843675775 -0.18520540287681109 0 -0.054623955337210227 -0.20677130111350539 0 -0.06574004843675775 -0.18520540287681109 0 -0.04567322447202575 -0.19704093573325121 0 -0.054623955337210227 -0.20677130111350539 0 -0.042589836687661947 -0.21371974366590901 0 -0.054623955337210227 -0.20677130111350539 0 -0.054185140778566399 -0.23253519298144509 0 -0.068603866872908981 -0.20894092095852809 0 -0.054623955337210227 -0.20677130111350539 0 -0.042589836687661947 -0.21371974366590901 0 -0.043507862237662717 -0.22833719935019961 0 -0.054623955337210227 -0.20677130111350539 0 -0.043507862237662717 -0.22833719935019961 0 -0.04567322447202575 -0.19704093573325121 0 -0.042589836687661947 -0.21371974366590901 0 -0.035029814618555311 -0.20631898734460469 0 -0.042589836687661947 -0.21371974366590901 0 -0.035029814618555311 -0.20631898734460469 0 -0.031355769419989313 -0.2162346106028622 0 -0.042589836687661947 -0.21371974366590901 0 -0.031355769419989313 -0.2162346106028622 0 -0.037102042697822038 -0.2213196990348065 0 -0.03122802391732607 -0.24207170577204351 0 -0.043507862237662717 -0.22833719935019961 0 -0.054185140778566399 -0.23253519298144509 0 -0.03095470244597422 -0.22698724252025509 0 -0.031355769419989313 -0.2162346106028622 0 -0.037102042697822038 -0.2213196990348065 0 -0.03095470244597422 -0.22698724252025509 0 -0.037102042697822038 -0.2213196990348065 0 -0.043507862237662717 -0.22833719935019961 0 -0.03122802391732607 -0.24207170577204351 0 -0.03095470244597422 -0.22698724252025509 0 -0.043507862237662717 -0.22833719935019961 0 -0.042589836687661947 -0.21371974366590901 0 -0.037102042697822038 -0.2213196990348065 0 -0.043507862237662717 -0.22833719935019961 0 -0.054185140778566399 -0.23253519298144509 0 -0.068603866872908981 -0.20894092095852809 0 -0.054623955337210227 -0.20677130111350539 0 -0.043507862237662717 -0.22833719935019961 0 -0.054185140778566399 -0.23253519298144509 0 -0.039766414684223789 -0.25612946500436229 0 -0.054185140778566399 -0.23253519298144509 0 -0.039766414684223789 -0.25612946500436229 0 -0.062127327792707368 -0.25260410759681001 0 -0.054185140778566399 -0.23253519298144509 0 -0.062127327792707368 -0.25260410759681001 0 -0.054185140778566399 -0.23253519298144509 0 -0.066572666480736453 -0.2386320145602267 0 -0.039766414684223789 -0.25612946500436229 0 -0.03122802391732607 -0.24207170577204351 0 -0.054185140778566399 -0.23253519298144509 0 -0.062127327792707368 -0.25260410759681001 0 -0.079354248621226114 -0.2415659165720673 0 -0.066572666480736453 -0.2386320145602267 0 -0.079354248621226114 -0.2415659165720673 0 -0.066572666480736453 -0.2386320145602267 0 -0.07062394873044596 -0.22782284109058451 0 -0.054185140778566399 -0.23253519298144509 0 -0.07062394873044596 -0.22782284109058451 0 -0.068603866872908981 -0.20894092095852809 0 -0.054185140778566399 -0.23253519298144509 0 -0.066572666480736453 -0.2386320145602267 0 -0.07062394873044596 -0.22782284109058451 0 -0.079354248621226114 -0.2415659165720673 0 -0.07062394873044596 -0.22782284109058451 0 -0.084909297470425665 -0.21706370187972279 0 -0.079354248621226114 -0.2415659165720673 0 -0.084909297470425665 -0.21706370187972279 0 -0.1005973297319754 -0.2281032829273347 0 -0.079354248621226114 -0.2415659165720673 0 -0.084909297470425665 -0.21706370187972279 0 -0.084909297470425665 -0.21706370187972279 0 -0.090464346319625633 -0.19256148718737839 0 -0.10052671277757599 -0.20819862473257131 0 -0.084909297470425665 -0.21706370187972279 0 -0.068603866872908981 -0.20894092095852809 0 -0.083405482222637828 -0.19927693920250319 0 -0.084909297470425665 -0.21706370187972279 0 -0.090464346319625633 -0.19256148718737839 0 -0.07062394873044596 -0.22782284109058451 0 -0.084909297470425665 -0.21706370187972279 0 -0.068603866872908981 -0.20894092095852809 0 -0.054623955337210227 -0.20677130111350539 0 -0.068603866872908981 -0.20894092095852809 0 -0.06574004843675775 -0.18520540287681109 0 -0.068603866872908981 -0.20894092095852809 0 -0.06574004843675775 -0.18520540287681109 0 -0.083022592967251702 -0.18534664893561081 0 -0.068603866872908981 -0.20894092095852809 0 -0.083022592967251702 -0.18534664893561081 0 -0.083405482222637828 -0.19927693920250319 0 -0.090464346319625633 -0.19256148718737839 0 -0.083022592967251702 -0.18534664893561081 0 -0.084909297470425665 -0.21706370187972279 0 -0.083405482222637828 -0.19927693920250319 0 -0.090464346319625633 -0.19256148718737839 0 -0.068603866872908981 -0.20894092095852809 0 -0.083405482222637828 -0.19927693920250319 0 -0.083022592967251702 -0.18534664893561081 0 -0.090464346319625633 -0.19256148718737839 0 -0.1147012443135724 -0.1975276763039078 0 -0.10497992056281211 -0.18461115434973341 0 -0.090464346319625633 -0.19256148718737839 0 -0.1147012443135724 -0.1975276763039078 0 -0.090464346319625633 -0.19256148718737839 0 -0.1147012443135724 -0.1975276763039078 0 -0.10052671277757599 -0.20819862473257131 0 -0.1147012443135724 -0.1975276763039078 0 -0.11827748326350331 -0.21493246292812049 0 -0.13893814230751891 -0.20249386542043821 0 -0.1147012443135724 -0.1975276763039078 0 -0.11827748326350331 -0.21493246292812049 0 -0.10052671277757599 -0.20819862473257131 0 -0.084909297470425665 -0.21706370187972279 0 -0.10052671277757599 -0.20819862473257131 0 -0.1005973297319754 -0.2281032829273347 0 -0.11827748326350331 -0.21493246292812049 0 -0.10052671277757599 -0.20819862473257131 0 -0.1005973297319754 -0.2281032829273347 0 -0.11827748326350331 -0.21493246292812049 0 -0.1200170734220892 -0.23139547915405451 0 -0.134884397028288 -0.22187584903041729 0 -0.11827748326350331 -0.21493246292812049 0 -0.1005973297319754 -0.2281032829273347 0 -0.1200170734220892 -0.23139547915405451 0 -0.12160584249772299 -0.25215775347966563 0 -0.1200170734220892 -0.23139547915405451 0 -0.10273856262009171 -0.24839411363350219 0 -0.079354248621226114 -0.2415659165720673 0 -0.1005973297319754 -0.2281032829273347 0 -0.10273856262009171 -0.24839411363350219 0 -0.1005973297319754 -0.2281032829273347 0 -0.1200170734220892 -0.23139547915405451 0 -0.10273856262009171 -0.24839411363350219 0 -0.087972234635852478 -0.14207360640342251 0 -0.076856141536305267 -0.1636395046401169 0 -0.086436794522062155 -0.1549299988420737 0 -0.087972234635852478 -0.14207360640342251 0 -0.076856141536305267 -0.1636395046401169 0 -0.078546998746817323 -0.15254952245284581 0 -0.087972234635852478 -0.14207360640342251 0 -0.076856141536305267 -0.1636395046401169 0 -0.078546998746817323 -0.15254952245284581 0 -0.087972234635852478 -0.14207360640342251 0 -0.077496238704502174 -0.1446748708622897 0 -0.086436794522062155 -0.1549299988420737 0 -0.091992691224458828 -0.15043582904256911 0 -0.087972234635852478 -0.14207360640342251 0 -0.086436794522062155 -0.1549299988420737 0 -0.093706126644658744 -0.15531927221433811 0 -0.091992691224458828 -0.15043582904256911 0 -0.087972234635852478 -0.14207360640342251 0 -0.084790450337846865 -0.13397379079219071 0 -0.096473753305982804 -0.12558014194108899 0 -0.087972234635852478 -0.14207360640342251 0 -0.096473753305982804 -0.12558014194108899 0 -0.0861511705747985 -0.1143885697709555 0 -0.085657367727213191 -0.12719165871186591 0 -0.07580790466675319 -0.134223574409022 0 -0.085657367727213191 -0.12719165871186591 0 -0.084790450337846865 -0.13397379079219071 0 -0.096473753305982804 -0.12558014194108899 0 -0.085657367727213191 -0.12719165871186591 0 -0.084790450337846865 -0.13397379079219071 0 -0.07580790466675319 -0.134223574409022 0 -0.087972234635852478 -0.14207360640342251 0 -0.084790450337846865 -0.13397379079219071 0 -0.07580790466675319 -0.134223574409022 0 -0.087972234635852478 -0.14207360640342251 0 -0.07580790466675319 -0.134223574409022 0 -0.077496238704502174 -0.1446748708622897 0 -0.087972234635852478 -0.14207360640342251 0 -0.07580790466675319 -0.134223574409022 0 -0.07580790466675319 -0.134223574409022 0 -0.067652152213283523 -0.13977901581373839 0 -0.069484838864786069 -0.1344613553441221 0 -0.0861511705747985 -0.1143885697709555 0 -0.07580790466675319 -0.134223574409022 0 -0.068738321639515529 -0.12966134590223791 0 -0.07580790466675319 -0.134223574409022 0 -0.068738321639515529 -0.12966134590223791 0 -0.07580790466675319 -0.134223574409022 0 -0.068738321639515529 -0.12966134590223791 0 -0.069484838864786069 -0.1344613553441221 0 -0.06643229336000292 -0.1223887644501047 0 -0.068738321639515529 -0.12966134590223791 0 -0.068738321639515529 -0.12966134590223791 0 -0.069484838864786069 -0.1344613553441221 0 -0.065479484344907329 -0.13335680924431989 0 -0.062375254211023988 -0.12555505455506771 0 -0.068738321639515529 -0.12966134590223791 0 -0.065479484344907329 -0.13335680924431989 0 -0.06643229336000292 -0.1223887644501047 0 -0.062375254211023988 -0.12555505455506771 0 -0.068738321639515529 -0.12966134590223791 0 -0.062375254211023988 -0.12555505455506771 0 -0.068738321639515529 -0.12966134590223791 0 -0.057217669755238808 -0.139399466852175 0 -0.067652152213283523 -0.13977901581373839 0 -0.065479484344907329 -0.13335680924431989 0 -0.067652152213283523 -0.13977901581373839 0 -0.069484838864786069 -0.1344613553441221 0 -0.065479484344907329 -0.13335680924431989 0 -0.07580790466675319 -0.134223574409022 0 -0.077496238704502174 -0.1446748708622897 0 -0.067657816768585718 -0.14985278018386861 0 -0.07580790466675319 -0.134223574409022 0 -0.067657816768585718 -0.14985278018386861 0 -0.057217669755238808 -0.139399466852175 0 -0.067652152213283523 -0.13977901581373839 0 -0.067657816768585718 -0.14985278018386861 0 -0.07580790466675319 -0.134223574409022 0 -0.067652152213283523 -0.13977901581373839 0 -0.067657816768585718 -0.14985278018386861 0 -0.078546998746817323 -0.15254952245284581 0 -0.070598921970865883 -0.1557476346100142 0 -0.067657816768585718 -0.14985278018386861 0 -0.078546998746817323 -0.15254952245284581 0 -0.070598921970865883 -0.1557476346100142 0 -0.074382465589528698 -0.15813860108697811 0 -0.078546998746817323 -0.15254952245284581 0 -0.077496238704502174 -0.1446748708622897 0 -0.067657816768585718 -0.14985278018386861 0 -0.059507728870418601 -0.16548198595871549 0 -0.071423938824988459 -0.16121605119106441 0 -0.059507728870418601 -0.16548198595871549 0 -0.067657816768585718 -0.14985278018386861 0 -0.059507728870418601 -0.16548198595871549 0 -0.070598921970865883 -0.1557476346100142 0 -0.071423938824988459 -0.16121605119106441 0 -0.059507728870418601 -0.16548198595871549 0 -0.070598921970865883 -0.1557476346100142 0 -0.067657816768585718 -0.14985278018386861 0 -0.057583671202881402 -0.1691716999328883 0 -0.059507728870418601 -0.16548198595871549 0 -0.071423938824988459 -0.16121605119106441 0 -0.057583671202881402 -0.1691716999328883 0 -0.071423938824988459 -0.16121605119106441 0 -0.064281283695554761 -0.17249080603792 0 -0.076856141536305267 -0.1636395046401169 0 -0.071423938824988459 -0.16121605119106441 0 -0.064281283695554761 -0.17249080603792 0 -0.076856141536305267 -0.1636395046401169 0 -0.074382465589528698 -0.15813860108697811 0 -0.071423938824988459 -0.16121605119106441 0 -0.078546998746817323 -0.15254952245284581 0 -0.076856141536305267 -0.1636395046401169 0 -0.074382465589528698 -0.15813860108697811 0 -0.070598921970865883 -0.1557476346100142 0 -0.074382465589528698 -0.15813860108697811 0 -0.071423938824988459 -0.16121605119106441 0 -0.076856141536305267 -0.1636395046401169 0 -0.06574004843675775 -0.18520540287681109 0 -0.079667889497540806 -0.17459680495937291 0 -0.076856141536305267 -0.1636395046401169 0 -0.06574004843675775 -0.18520540287681109 0 -0.064281283695554761 -0.17249080603792 0 -0.06574004843675775 -0.18520540287681109 0 -0.083022592967251702 -0.18534664893561081 0 -0.079667889497540806 -0.17459680495937291 0 -0.076856141536305267 -0.1636395046401169 0 -0.06574004843675775 -0.18520540287681109 0 -0.083022592967251702 -0.18534664893561081 0 -0.097448302922758939 -0.16175664482912311 0 -0.093956324621192078 -0.17715906600825071 0 -0.083022592967251702 -0.18534664893561081 0 -0.097448302922758939 -0.16175664482912311 0 -0.083022592967251702 -0.18534664893561081 0 -0.079667889497540806 -0.17459680495937291 0 -0.085921957182659506 -0.1665237880613423 0 -0.090464346319625633 -0.19256148718737839 0 -0.083022592967251702 -0.18534664893561081 0 -0.093956324621192078 -0.17715906600825071 0 -0.090464346319625633 -0.19256148718737839 0 -0.093956324621192078 -0.17715906600825071 0 -0.083022592967251702 -0.18534664893561081 0 -0.085921957182659506 -0.1665237880613423 0 -0.097448302922758939 -0.16175664482912311 0 -0.086436794522062155 -0.1549299988420737 0 -0.076856141536305267 -0.1636395046401169 0 -0.085921957182659506 -0.1665237880613423 0 -0.076856141536305267 -0.1636395046401169 0 -0.079667889497540806 -0.17459680495937291 0 -0.085921957182659506 -0.1665237880613423 0 -0.085921957182659506 -0.1665237880613423 0 -0.090876549352743696 -0.15963135900761191 0 -0.097448302922758939 -0.16175664482912311 0 -0.086436794522062155 -0.1549299988420737 0 -0.085921957182659506 -0.1665237880613423 0 -0.090876549352743696 -0.15963135900761191 0 -0.086436794522062155 -0.1549299988420737 0 -0.093706126644658744 -0.15531927221433811 0 -0.090876549352743696 -0.15963135900761191 0 -0.093706126644658744 -0.15531927221433811 0 -0.097448302922758939 -0.16175664482912311 0 -0.1033878043145169 -0.1520217675842612 0 -0.097448302922758939 -0.16175664482912311 0 -0.10488620813027209 -0.17171364543022311 0 -0.1062985608913463 -0.15390017209269991 0 -0.093706126644658744 -0.15531927221433811 0 -0.090876549352743696 -0.15963135900761191 0 -0.097448302922758939 -0.16175664482912311 0 -0.097448302922758939 -0.16175664482912311 0 -0.1033878043145169 -0.1520217675842612 0 -0.097448302922758939 -0.16175664482912311 0 -0.093956324621192078 -0.17715906600825071 0 -0.097448302922758939 -0.16175664482912311 0 -0.10488620813027209 -0.17171364543022311 0 -0.093956324621192078 -0.17715906600825071 0 -0.090464346319625633 -0.19256148718737839 0 -0.093956324621192078 -0.17715906600825071 0 -0.10497992056281211 -0.18461115434973341 0 -0.10488620813027209 -0.17171364543022311 0 -0.093956324621192078 -0.17715906600825071 0 -0.10497992056281211 -0.18461115434973341 0 -0.10488620813027209 -0.17171364543022311 0 -0.10497992056281211 -0.18461115434973341 0 -0.12261835159943241 -0.17819701875656929 0 -0.1147012443135724 -0.1975276763039078 0 -0.10497992056281211 -0.18461115434973341 0 -0.12261835159943241 -0.17819701875656929 0 -0.12261835159943241 -0.17819701875656929 0 -0.1062985608913463 -0.15390017209269991 0 -0.1062985608913463 -0.15390017209269991 0 -0.1252999943799967 -0.15199820297137151 0 -0.1313950888414552 -0.1700957659196792 0 -0.1062985608913463 -0.15390017209269991 0 -0.1313950888414552 -0.1700957659196792 0 -0.10488620813027209 -0.17171364543022311 0 -0.12261835159943241 -0.17819701875656929 0 -0.1062985608913463 -0.15390017209269991 0 -0.12261835159943241 -0.17819701875656929 0 -0.1062985608913463 -0.15390017209269991 0 -0.1313950888414552 -0.1700957659196792 0 -0.11452187311709811 -0.1460810279626428 0 -0.1062985608913463 -0.15390017209269991 0 -0.1252999943799967 -0.15199820297137151 0 -0.11452187311709811 -0.1460810279626428 0 -0.1033878043145169 -0.1520217675842612 0 -0.1139437320853922 -0.13474843638629799 0 -0.11452187311709811 -0.1460810279626428 0 -0.12784043987596491 -0.1388455522903165 0 -0.1252999943799967 -0.15199820297137151 0 -0.1033878043145169 -0.1520217675842612 0 -0.1139437320853922 -0.13474843638629799 0 -0.097448302922758939 -0.16175664482912311 0 -0.1062985608913463 -0.15390017209269991 0 -0.1033878043145169 -0.1520217675842612 0 -0.11452187311709811 -0.1460810279626428 0 -0.1062985608913463 -0.15390017209269991 0 -0.1033878043145169 -0.1520217675842612 0 -0.1033878043145169 -0.1520217675842612 0 -0.096807636222346699 -0.1397701170260745 0 -0.1043028647808672 -0.1328026984946753 0 -0.1062985608913463 -0.15390017209269991 0 -0.1033878043145169 -0.1520217675842612 0 -0.087972234635852478 -0.14207360640342251 0 -0.1033878043145169 -0.1520217675842612 0 -0.096807636222346699 -0.1397701170260745 0 -0.087972234635852478 -0.14207360640342251 0 -0.1033878043145169 -0.1520217675842612 0 -0.091992691224458828 -0.15043582904256911 0 -0.087972234635852478 -0.14207360640342251 0 -0.1033878043145169 -0.1520217675842612 0 -0.1033878043145169 -0.1520217675842612 0 -0.096807636222346699 -0.1397701170260745 0 -0.093706126644658744 -0.15531927221433811 0 -0.091992691224458828 -0.15043582904256911 0 -0.1033878043145169 -0.1520217675842612 0 -0.087972234635852478 -0.14207360640342251 0 -0.096473753305982804 -0.12558014194108899 0 -0.096807636222346699 -0.1397701170260745 0 -0.1033878043145169 -0.1520217675842612 0 -0.1043028647808672 -0.1328026984946753 0 -0.1139437320853922 -0.13474843638629799 0 -0.11467896899858961 -0.1174452021670632 0 -0.096473753305982804 -0.12558014194108899 0 -0.1043028647808672 -0.1328026984946753 0 -0.096473753305982804 -0.12558014194108899 0 -0.096807636222346699 -0.1397701170260745 0 -0.1043028647808672 -0.1328026984946753 0 -0.1139437320853922 -0.13474843638629799 0 -0.13269474159079009 -0.12543633907749299 0 -0.12784043987596491 -0.1388455522903165 0 -0.11467896899858961 -0.1174452021670632 0 -0.1139437320853922 -0.13474843638629799 0 -0.13269474159079009 -0.12543633907749299 0 -0.11467896899858961 -0.1174452021670632 0 -0.1043028647808672 -0.1328026984946753 0 -0.1139437320853922 -0.13474843638629799 0 -0.11452187311709811 -0.1460810279626428 0 -0.1139437320853922 -0.13474843638629799 0 -0.12784043987596491 -0.1388455522903165 0 -0.13269474159079009 -0.12543633907749299 0 -0.12784043987596491 -0.1388455522903165 0 -0.1404945487064754 -0.14366098908030361 0 -0.13269474159079009 -0.12543633907749299 0 -0.1517804945288429 -0.13203373485823949 0 -0.1404945487064754 -0.14366098908030361 0 -0.1517804945288429 -0.13203373485823949 0 -0.1404945487064754 -0.14366098908030361 0 -0.1579848827330938 -0.1473374708372428 0 -0.1404945487064754 -0.14366098908030361 0 -0.14472818836263579 -0.1593052912149979 0 -0.1579848827330938 -0.1473374708372428 0 -0.1404945487064754 -0.14366098908030361 0 -0.1252999943799967 -0.15199820297137151 0 -0.13547945507264081 -0.1562650622965881 0 -0.1404945487064754 -0.14366098908030361 0 -0.13547945507264081 -0.1562650622965881 0 -0.14472818836263579 -0.1593052912149979 0 -0.12784043987596491 -0.1388455522903165 0 -0.1404945487064754 -0.14366098908030361 0 -0.1252999943799967 -0.15199820297137151 0 -0.1252999943799967 -0.15199820297137151 0 -0.1313950888414552 -0.1700957659196792 0 -0.13547945507264081 -0.1562650622965881 0 -0.1313950888414552 -0.1700957659196792 0 -0.13547945507264081 -0.1562650622965881 0 -0.14472818836263579 -0.1593052912149979 0 -0.12261835159943241 -0.17819701875656929 0 -0.1313950888414552 -0.1700957659196792 0 -0.13768002038922619 -0.18570963483563929 0 -0.1313950888414552 -0.1700957659196792 0 -0.152797277314906 -0.17188360453753329 0 -0.15649161679156459 -0.18629135974665789 0 -0.1313950888414552 -0.1700957659196792 0 -0.13768002038922619 -0.18570963483563929 0 -0.15649161679156459 -0.18629135974665789 0 -0.1313950888414552 -0.1700957659196792 0 -0.15649161679156459 -0.18629135974665789 0 -0.1313950888414552 -0.1700957659196792 0 -0.152797277314906 -0.17188360453753329 0 -0.14472818836263579 -0.1593052912149979 0 -0.152797277314906 -0.17188360453753329 0 -0.14472818836263579 -0.1593052912149979 0 -0.16318957535120171 -0.1634944506765843 0 -0.14472818836263579 -0.1593052912149979 0 -0.16318957535120171 -0.1634944506765843 0 -0.1579848827330938 -0.1473374708372428 0 -0.152797277314906 -0.17188360453753329 0 -0.16318957535120171 -0.1634944506765843 0 -0.1681819172276727 -0.1802311551297473 0 -0.16318957535120171 -0.1634944506765843 0 -0.1681819172276727 -0.1802311551297473 0 -0.1809524660020343 -0.17228826853763049 0 -0.15649161679156459 -0.18629135974665789 0 -0.1681819172276727 -0.1802311551297473 0 -0.16677033467665281 -0.19379399112570439 0 -0.152797277314906 -0.17188360453753329 0 -0.15649161679156459 -0.18629135974665789 0 -0.1681819172276727 -0.1802311551297473 0 -0.1681819172276727 -0.1802311551297473 0 -0.1809524660020343 -0.17228826853763049 0 -0.1816792585594342 -0.1927059780246391 0 -0.16318957535120171 -0.1634944506765843 0 -0.1809524660020343 -0.17228826853763049 0 -0.17806056775882759 -0.15347646270179521 0 -0.1809524660020343 -0.17228826853763049 0 -0.17806056775882759 -0.15347646270179521 0 -0.19203087901740759 -0.16362889506372269 0 -0.17806056775882759 -0.15347646270179521 0 -0.1706820701017035 -0.13675951769305761 0 -0.1881524424052512 -0.13807002477568531 0 -0.17806056775882759 -0.15347646270179521 0 -0.1881524424052512 -0.13807002477568531 0 -0.1926183790039056 -0.15235258414369721 0 -0.1706820701017035 -0.13675951769305761 0 -0.1881524424052512 -0.13807002477568531 0 -0.18276342685472879 -0.1169884598243857 0 -0.1706820701017035 -0.13675951769305761 0 -0.18276342685472879 -0.1169884598243857 0 -0.16666327681616691 -0.1216774687154121 0 -0.1517804945288429 -0.13203373485823949 0 -0.1706820701017035 -0.13675951769305761 0 -0.1579848827330938 -0.1473374708372428 0 -0.1517804945288429 -0.13203373485823949 0 -0.1706820701017035 -0.13675951769305761 0 -0.16666327681616691 -0.1216774687154121 0 -0.16318957535120171 -0.1634944506765843 0 -0.17806056775882759 -0.15347646270179521 0 -0.1579848827330938 -0.1473374708372428 0 -0.17806056775882759 -0.15347646270179521 0 -0.1706820701017035 -0.13675951769305761 0 -0.1579848827330938 -0.1473374708372428 0 -0.15868149439502019 -0.26183192607265171 0 -0.140756153879736 -0.24256588416855229 0 -0.1647284344901889 -0.2418583948049611 0 -0.140756153879736 -0.24256588416855229 0 -0.15354435673978889 -0.2242395457878151 0 -0.1647284344901889 -0.2418583948049611 0 -0.12160584249772299 -0.25215775347966563 0 -0.1200170734220892 -0.23139547915405451 0 -0.140756153879736 -0.24256588416855229 0 -0.1200170734220892 -0.23139547915405451 0 -0.140756153879736 -0.24256588416855229 0 -0.134884397028288 -0.22187584903041729 0 -0.140756153879736 -0.24256588416855229 0 -0.134884397028288 -0.22187584903041729 0 -0.15354435673978889 -0.2242395457878151 0 -0.15354435673978889 -0.2242395457878151 0 -0.15581009442850671 -0.21436313001715779 0 -0.13893814230751891 -0.20249386542043821 0 -0.134884397028288 -0.22187584903041729 0 -0.15354435673978889 -0.2242395457878151 0 -0.13893814230751891 -0.20249386542043821 0 -0.15354435673978889 -0.2242395457878151 0 -0.13893814230751891 -0.20249386542043821 0 -0.15581009442850671 -0.21436313001715779 0 -0.13893814230751891 -0.20249386542043821 0 -0.16118878756547941 -0.2070530673588796 0 -0.13893814230751891 -0.20249386542043821 0 -0.16118878756547941 -0.2070530673588796 0 -0.11827748326350331 -0.21493246292812049 0 -0.134884397028288 -0.22187584903041729 0 -0.13893814230751891 -0.20249386542043821 0 -0.12261835159943241 -0.17819701875656929 0 -0.13768002038922619 -0.18570963483563929 0 -0.13893814230751891 -0.20249386542043821 0 -0.12261835159943241 -0.17819701875656929 0 -0.13893814230751891 -0.20249386542043821 0 -0.1147012443135724 -0.1975276763039078 0 -0.12261835159943241 -0.17819701875656929 0 -0.13893814230751891 -0.20249386542043821 0 -0.1147012443135724 -0.1975276763039078 0 -0.13893814230751891 -0.20249386542043821 0 -0.13768002038922619 -0.18570963483563929 0 -0.15649161679156459 -0.18629135974665789 0 -0.15101095864621081 -0.19667921302230079 0 -0.13893814230751891 -0.20249386542043821 0 -0.15101095864621081 -0.19667921302230079 0 -0.16118878756547941 -0.2070530673588796 0 -0.13768002038922619 -0.18570963483563929 0 -0.13893814230751891 -0.20249386542043821 0 -0.15101095864621081 -0.19667921302230079 0 -0.15649161679156459 -0.18629135974665789 0 -0.15101095864621081 -0.19667921302230079 0 -0.1591962156028903 -0.19667754033807211 0 -0.1816792585594342 -0.1927059780246391 0 -0.16118878756547941 -0.2070530673588796 0 -0.16677033467665281 -0.19379399112570439 0 -0.1816792585594342 -0.1927059780246391 0 -0.16118878756547941 -0.2070530673588796 0 -0.15649161679156459 -0.18629135974665789 0 -0.1591962156028903 -0.19667754033807211 0 -0.16677033467665281 -0.19379399112570439 0 -0.15101095864621081 -0.19667921302230079 0 -0.1591962156028903 -0.19667754033807211 0 -0.16118878756547941 -0.2070530673588796 0 -0.1591962156028903 -0.19667754033807211 0 -0.16677033467665281 -0.19379399112570439 0 -0.16118878756547941 -0.2070530673588796 0 -0.1816792585594342 -0.1927059780246391 0 -0.17505033250736701 -0.2098933257799814 0 -0.1900846634821568 -0.20634222568190291 0 -0.1681819172276727 -0.1802311551297473 0 -0.16677033467665281 -0.19379399112570439 0 -0.1816792585594342 -0.1927059780246391 0 -0.1816792585594342 -0.1927059780246391 0 -0.17505033250736701 -0.2098933257799814 0 -0.16118878756547941 -0.2070530673588796 0 -0.17505033250736701 -0.2098933257799814 0 -0.171883886083294 -0.22582973563853101 0 -0.18736525771696869 -0.22003890725685579 0 -0.17505033250736701 -0.2098933257799814 0 -0.18736525771696869 -0.22003890725685579 0 -0.1900846634821568 -0.20634222568190291 0 -0.17505033250736701 -0.2098933257799814 0 -0.16335613189293149 -0.2157391179944792 0 -0.171883886083294 -0.22582973563853101 0 -0.17505033250736701 -0.2098933257799814 0 -0.16118878756547941 -0.2070530673588796 0 -0.16335613189293149 -0.2157391179944792 0 -0.17505033250736701 -0.2098933257799814 0 -0.16118878756547941 -0.2070530673588796 0 -0.15581009442850671 -0.21436313001715779 0 -0.16118878756547941 -0.2070530673588796 0 -0.16335613189293149 -0.2157391179944792 0 -0.15354435673978889 -0.2242395457878151 0 -0.15581009442850671 -0.21436313001715779 0 -0.16335613189293149 -0.2157391179944792 0 -0.15354435673978889 -0.2242395457878151 0 -0.16335613189293149 -0.2157391179944792 0 -0.171883886083294 -0.22582973563853101 0 -0.15354435673978889 -0.2242395457878151 0 -0.171883886083294 -0.22582973563853101 0 -0.1647284344901889 -0.2418583948049611 0 -0.171883886083294 -0.22582973563853101 0 -0.18601924465097899 -0.23487227782734321 0 -0.1647284344901889 -0.2418583948049611 0 -0.171883886083294 -0.22582973563853101 0 -0.18736525771696869 -0.22003890725685579 0 -0.18601924465097899 -0.23487227782734321 0 -0.17968295940511231 -0.25641413664057061 0 -0.18601924465097899 -0.23487227782734321 0 -0.1647284344901889 -0.2418583948049611 0 -0.17968295940511231 -0.25641413664057061 0 -0.18601924465097899 -0.23487227782734321 0 -0.20453724126946121 -0.25000242843059739 0 -0.22939152313381031 -0.24359072022062511 0 -0.20453724126946121 -0.25000242843059739 0 -0.19993241904129561 -0.2283893932598286 0 -0.21619737649212711 -0.2272601322511581 0 -0.20453724126946121 -0.25000242843059739 0 -0.21619737649212711 -0.2272601322511581 0 -0.22939152313381031 -0.24359072022062511 0 -0.20453724126946121 -0.25000242843059739 0 -0.18601924465097899 -0.23487227782734321 0 -0.19993241904129561 -0.2283893932598286 0 -0.20453724126946121 -0.25000242843059739 0 -0.17968295940511231 -0.25641413664057061 0 -0.18601924465097899 -0.23487227782734321 0 -0.18736525771696869 -0.22003890725685579 0 -0.19993241904129561 -0.2283893932598286 0 -0.20340179735264829 -0.21299548444737351 0 -0.18736525771696869 -0.22003890725685579 0 -0.18601924465097899 -0.23487227782734321 0 -0.19993241904129561 -0.2283893932598286 0 -0.19993241904129561 -0.2283893932598286 0 -0.21619737649212711 -0.2272601322511581 0 -0.20340179735264829 -0.21299548444737351 0 -0.20340179735264829 -0.21299548444737351 0 -0.20292667127436609 -0.19607743290066451 0 -0.22240199114192341 -0.20486396343015589 0 -0.21619737649212711 -0.2272601322511581 0 -0.20340179735264829 -0.21299548444737351 0 -0.22240199114192341 -0.20486396343015589 0 -0.20340179735264829 -0.21299548444737351 0 -0.1900846634821568 -0.20634222568190291 0 -0.20292667127436609 -0.19607743290066451 0 -0.18736525771696869 -0.22003890725685579 0 -0.20340179735264829 -0.21299548444737351 0 -0.1900846634821568 -0.20634222568190291 0 -0.1816792585594342 -0.1927059780246391 0 -0.20292667127436609 -0.19607743290066451 0 -0.2021697295533893 -0.1783588886903987 0 -0.1816792585594342 -0.1927059780246391 0 -0.1900846634821568 -0.20634222568190291 0 -0.20292667127436609 -0.19607743290066451 0 -0.20292667127436609 -0.19607743290066451 0 -0.22240199114192341 -0.20486396343015589 0 -0.220519867081548 -0.18276074138157219 0 -0.2366519888090246 -0.19054748329902479 0 -0.2417330138615848 -0.20747747701892849 0 -0.22240199114192341 -0.20486396343015589 0 -0.2366519888090246 -0.19054748329902479 0 -0.22240199114192341 -0.20486396343015589 0 -0.220519867081548 -0.18276074138157219 0 -0.2366519888090246 -0.19054748329902479 0 -0.2417330138615848 -0.20747747701892849 0 -0.25393282328321037 -0.19300403884003059 0 -0.2417330138615848 -0.20747747701892849 0 -0.25110359305318669 -0.22315728211605909 0 -0.25497842492385708 -0.21122352002450451 0 -0.2417330138615848 -0.20747747701892849 0 -0.23751928701362399 -0.22371880371836811 0 -0.25110359305318669 -0.22315728211605909 0 -0.21619737649212711 -0.2272601322511581 0 -0.22240199114192341 -0.20486396343015589 0 -0.23751928701362399 -0.22371880371836811 0 -0.2417330138615848 -0.20747747701892849 0 -0.22240199114192341 -0.20486396343015589 0 -0.23751928701362399 -0.22371880371836811 0 -0.21619737649212711 -0.2272601322511581 0 -0.23751928701362399 -0.22371880371836811 0 -0.22939152313381031 -0.24359072022062511 0 -0.23751928701362399 -0.22371880371836811 0 -0.25424580499815952 -0.23717901201065261 0 -0.25110359305318669 -0.22315728211605909 0 -0.22939152313381031 -0.24359072022062511 0 -0.25424580499815952 -0.23717901201065261 0 -0.25473520772639757 -0.25111225091949058 0 -0.22939152313381031 -0.24359072022062511 0 -0.25424580499815952 -0.23717901201065261 0 -0.23751928701362399 -0.22371880371836811 0 -0.22939152313381031 -0.24359072022062511 0 -0.25424580499815952 -0.23717901201065261 0 -0.20579160299691401 -0.1441312232590308 0 -0.21806298932826229 -0.13409207934749731 0 -0.21951925741913761 -0.15318210814925209 0 -0.20579160299691401 -0.1441312232590308 0 -0.206353252768881 -0.16166827124509181 0 -0.21951925741913761 -0.15318210814925209 0 -0.20579160299691401 -0.1441312232590308 0 -0.21806298932826229 -0.13409207934749731 0 -0.20130958720370021 -0.1253313041193764 0 -0.20130958720370021 -0.1253313041193764 0 -0.1881524424052512 -0.13807002477568531 0 -0.18276342685472879 -0.1169884598243857 0 -0.20579160299691401 -0.1441312232590308 0 -0.20130958720370021 -0.1253313041193764 0 -0.1881524424052512 -0.13807002477568531 0 -0.20579160299691401 -0.1441312232590308 0 -0.1926183790039056 -0.15235258414369721 0 -0.206353252768881 -0.16166827124509181 0 -0.20579160299691401 -0.1441312232590308 0 -0.1881524424052512 -0.13807002477568531 0 -0.1926183790039056 -0.15235258414369721 0 -0.1809524660020343 -0.17228826853763049 0 -0.19203087901740759 -0.16362889506372269 0 -0.2021697295533893 -0.1783588886903987 0 -0.17806056775882759 -0.15347646270179521 0 -0.1926183790039056 -0.15235258414369721 0 -0.19203087901740759 -0.16362889506372269 0 -0.19203087901740759 -0.16362889506372269 0 -0.2021697295533893 -0.1783588886903987 0 -0.206353252768881 -0.16166827124509181 0 -0.1926183790039056 -0.15235258414369721 0 -0.19203087901740759 -0.16362889506372269 0 -0.206353252768881 -0.16166827124509181 0 -0.1816792585594342 -0.1927059780246391 0 -0.2021697295533893 -0.1783588886903987 0 -0.1809524660020343 -0.17228826853763049 0 -0.1816792585594342 -0.1927059780246391 0 -0.2021697295533893 -0.1783588886903987 0 -0.20292667127436609 -0.19607743290066451 0 -0.2021697295533893 -0.1783588886903987 0 -0.220519867081548 -0.18276074138157219 0 -0.2021697295533893 -0.1783588886903987 0 -0.22266020054734431 -0.16401179935615839 0 -0.220519867081548 -0.18276074138157219 0 -0.2021697295533893 -0.1783588886903987 0 -0.22266020054734431 -0.16401179935615839 0 -0.2021697295533893 -0.1783588886903987 0 -0.206353252768881 -0.16166827124509181 0 -0.22266020054734431 -0.16401179935615839 0 -0.206353252768881 -0.16166827124509181 0 -0.22266020054734431 -0.16401179935615839 0 -0.21951925741913761 -0.15318210814925209 0 -0.22266020054734431 -0.16401179935615839 0 -0.23672604035117401 -0.1730930734946414 0 -0.21951925741913761 -0.15318210814925209 0 -0.2314065728079634 -0.15721684573341041 0 -0.23672604035117401 -0.1730930734946414 0 -0.21951925741913761 -0.15318210814925209 0 -0.23672604035117401 -0.1730930734946414 0 -0.21951925741913761 -0.15318210814925209 0 -0.22266020054734431 -0.16401179935615839 0 -0.22800868456319151 -0.17541663622075421 0 -0.23672604035117401 -0.1730930734946414 0 -0.22266020054734431 -0.16401179935615839 0 -0.220519867081548 -0.18276074138157219 0 -0.22800868456319151 -0.17541663622075421 0 -0.2366519888090246 -0.19054748329902479 0 -0.220519867081548 -0.18276074138157219 0 -0.23047664520123451 -0.1804544835989981 0 -0.220519867081548 -0.18276074138157219 0 -0.22800868456319151 -0.17541663622075421 0 -0.23047664520123451 -0.1804544835989981 0 -0.22800868456319151 -0.17541663622075421 0 -0.23047664520123451 -0.1804544835989981 0 -0.23672604035117401 -0.1730930734946414 0 -0.2366519888090246 -0.19054748329902479 0 -0.23047664520123451 -0.1804544835989981 0 -0.23672604035117401 -0.1730930734946414 0 -0.2366519888090246 -0.19054748329902479 0 -0.23672604035117401 -0.1730930734946414 0 -0.25393282328321037 -0.19300403884003059 0 -0.23672604035117401 -0.1730930734946414 0 -0.24416575260143589 -0.17760371941145711 0 -0.25393282328321037 -0.19300403884003059 0 -0.23672604035117401 -0.1730930734946414 0 -0.25393282328321037 -0.19300403884003059 0 -0.24416575260143589 -0.17760371941145711 0 -0.24601527248275429 -0.16578251500419569 0 -0.25439744610217901 -0.17272260323229979 0 -0.23672604035117401 -0.1730930734946414 0 -0.24416575260143589 -0.17760371941145711 0 -0.24601527248275429 -0.16578251500419569 0 -0.2314065728079634 -0.15721684573341041 0 -0.23672604035117401 -0.1730930734946414 0 -0.2375750786507636 -0.16253087349570911 0 -0.2375750786507636 -0.16253087349570911 0 -0.24601527248275429 -0.16578251500419569 0 -0.23864111136047039 -0.15404767993857421 0 -0.2314065728079634 -0.15721684573341041 0 -0.2375750786507636 -0.16253087349570911 0 -0.23864111136047039 -0.15404767993857421 0 -0.23672604035117401 -0.1730930734946414 0 -0.2375750786507636 -0.16253087349570911 0 -0.24601527248275429 -0.16578251500419569 0 -0.24601527248275429 -0.16578251500419569 0 -0.23864111136047039 -0.15404767993857421 0 -0.2504203735399923 -0.1550590829129613 0 -0.23864111136047039 -0.15404767993857421 0 -0.24498499433400001 -0.13926679191499999 0 -0.2504203735399923 -0.1550590829129613 0 -0.23864111136047039 -0.15404767993857421 0 -0.229548741056887 -0.1432637339648451 0 -0.24498499433400001 -0.13926679191499999 0 -0.21806298932826229 -0.13409207934749731 0 -0.229548741056887 -0.1432637339648451 0 -0.21951925741913761 -0.15318210814925209 0 -0.2314065728079634 -0.15721684573341041 0 -0.229548741056887 -0.1432637339648451 0 -0.21951925741913761 -0.15318210814925209 0 -0.2314065728079634 -0.15721684573341041 0 -0.23864111136047039 -0.15404767993857421 0 -0.229548741056887 -0.1432637339648451 0 -0.21806298932826229 -0.13409207934749731 0 -0.229548741056887 -0.1432637339648451 0 -0.23424310924753269 -0.1236182904788671 0 -0.24498499433400001 -0.13926679191499999 0 -0.23424310924753269 -0.1236182904788671 0 -0.25267264513587889 -0.1215588879498425 0 -0.229548741056887 -0.1432637339648451 0 -0.24498499433400001 -0.13926679191499999 0 -0.23424310924753269 -0.1236182904788671 0 -0.24392034912277019 -0.11188751890190519 0 -0.23424310924753269 -0.1236182904788671 0 -0.25267264513587889 -0.1215588879498425 0 -0.24392034912277019 -0.11188751890190519 0 -0.2336214094731085 -0.10135106749214989 0 -0.23424310924753269 -0.1236182904788671 0 -0.24392034912277019 -0.11188751890190519 0 -0.2336214094731085 -0.10135106749214989 0 -0.25838144714130901 -0.10034778712528671 0 -0.2336214094731085 -0.10135106749214989 0 -0.2440344711747133 -0.081694683756653619 0 -0.25838144714130901 -0.10034778712528671 0 -0.2336214094731085 -0.10135106749214989 0 -0.22453681937752029 -0.083374633007924456 0 -0.21189221374745049 -0.096592146535193407 0 -0.2336214094731085 -0.10135106749214989 0 -0.21696416757783499 -0.1149714046351514 0 -0.21189221374745049 -0.096592146535193407 0 -0.21806298932826229 -0.13409207934749731 0 -0.23424310924753269 -0.1236182904788671 0 -0.21696416757783499 -0.1149714046351514 0 -0.2336214094731085 -0.10135106749214989 0 -0.23424310924753269 -0.1236182904788671 0 -0.21696416757783499 -0.1149714046351514 0 -0.2440344711747133 -0.081694683756653619 0 -0.2296874952081176 -0.063041580388020491 0 -0.2440344711747133 -0.081694683756653619 0 -0.2296874952081176 -0.063041580388020491 0 -0.25005359115440562 -0.062222391408731488 0 -0.2336214094731085 -0.10135106749214989 0 -0.2440344711747133 -0.081694683756653619 0 -0.22453681937752029 -0.083374633007924456 0 -0.2440344711747133 -0.081694683756653619 0 -0.22453681937752029 -0.083374633007924456 0 -0.2296874952081176 -0.063041580388020491 0 -0.22453681937752029 -0.083374633007924456 0 -0.2296874952081176 -0.063041580388020491 0 -0.20344850728421171 -0.074193686867604844 0 -0.22453681937752029 -0.083374633007924456 0 -0.20344850728421171 -0.074193686867604844 0 -0.21189221374745049 -0.096592146535193407 0 -0.20344850728421171 -0.074193686867604844 0 -0.21189221374745049 -0.096592146535193407 0 -0.20344850728421171 -0.074193686867604844 0 -0.18951115305883981 -0.093035781067828116 0 -0.18021251353803869 -0.070590566895887719 0 -0.20344850728421171 -0.074193686867604844 0 -0.18951115305883981 -0.093035781067828116 0 -0.21189221374745049 -0.096592146535193407 0 -0.20344850728421171 -0.074193686867604844 0 -0.19500480082097291 -0.051795227200016239 0 -0.20344850728421171 -0.074193686867604844 0 -0.18021251353803869 -0.070590566895887719 0 -0.19500480082097291 -0.051795227200016239 0 -0.21806298932826229 -0.13409207934749731 0 -0.20130958720370021 -0.1253313041193764 0 -0.21696416757783499 -0.1149714046351514 0 -0.20130958720370021 -0.1253313041193764 0 -0.21696416757783499 -0.1149714046351514 0 -0.1997350239305192 -0.10917248222693671 0 -0.21696416757783499 -0.1149714046351514 0 -0.21189221374745049 -0.096592146535193407 0 -0.1997350239305192 -0.10917248222693671 0 -0.18951115305883981 -0.093035781067828116 0 -0.1997350239305192 -0.10917248222693671 0 -0.18276342685472879 -0.1169884598243857 0 -0.18951115305883981 -0.093035781067828116 0 -0.21189221374745049 -0.096592146535193407 0 -0.1997350239305192 -0.10917248222693671 0 -0.20130958720370021 -0.1253313041193764 0 -0.1997350239305192 -0.10917248222693671 0 -0.18276342685472879 -0.1169884598243857 0 -0.18276342685472879 -0.1169884598243857 0 -0.16666327681616691 -0.1216774687154121 0 -0.16734453206458619 -0.098376237775078271 0 -0.1517804945288429 -0.13203373485823949 0 -0.16666327681616691 -0.1216774687154121 0 -0.15102802700878129 -0.11631425199933761 0 -0.16666327681616691 -0.1216774687154121 0 -0.16734453206458619 -0.098376237775078271 0 -0.15102802700878129 -0.11631425199933761 0 -0.18951115305883981 -0.093035781067828116 0 -0.18276342685472879 -0.1169884598243857 0 -0.16734453206458619 -0.098376237775078271 0 -0.18951115305883981 -0.093035781067828116 0 -0.16734453206458619 -0.098376237775078271 0 -0.18021251353803869 -0.070590566895887719 0 -0.18021251353803869 -0.070590566895887719 0 -0.15829519029022071 -0.075748140275501419 0 -0.16182479270199271 -0.055088852331235977 0 -0.16734453206458619 -0.098376237775078271 0 -0.15829519029022071 -0.075748140275501419 0 -0.14380158437510909 -0.097057535459323052 0 -0.16734453206458619 -0.098376237775078271 0 -0.18021251353803869 -0.070590566895887719 0 -0.15829519029022071 -0.075748140275501419 0 -0.15829519029022071 -0.075748140275501419 0 -0.1399680700082255 -0.078644498114317229 0 -0.14380158437510909 -0.097057535459323052 0 -0.15829519029022071 -0.075748140275501419 0 -0.1399680700082255 -0.078644498114317229 0 -0.14222993503600831 -0.061213897047483777 0 -0.15829519029022071 -0.075748140275501419 0 -0.14222993503600831 -0.061213897047483777 0 -0.16182479270199271 -0.055088852331235977 0 -0.12804580984603489 -0.069899659586637866 0 -0.1399680700082255 -0.078644498114317229 0 -0.14222993503600831 -0.061213897047483777 0 -0.1206116997250966 -0.075029136049232573 0 -0.12804580984603489 -0.069899659586637866 0 -0.12812466965229469 -0.084559942915758746 0 -0.12804580984603489 -0.069899659586637866 0 -0.1399680700082255 -0.078644498114317229 0 -0.12812466965229469 -0.084559942915758746 0 -0.1399680700082255 -0.078644498114317229 0 -0.12812466965229469 -0.084559942915758746 0 -0.14380158437510909 -0.097057535459323052 0 -0.1220765994143196 -0.1008984570322134 0 -0.12812466965229469 -0.084559942915758746 0 -0.14380158437510909 -0.097057535459323052 0 -0.1220765994143196 -0.1008984570322134 0 -0.13285598427751799 -0.111430357147086 0 -0.14380158437510909 -0.097057535459323052 0 -0.11467896899858961 -0.1174452021670632 0 -0.13269474159079009 -0.12543633907749299 0 -0.13285598427751799 -0.111430357147086 0 -0.13269474159079009 -0.12543633907749299 0 -0.13285598427751799 -0.111430357147086 0 -0.15102802700878129 -0.11631425199933761 0 -0.13269474159079009 -0.12543633907749299 0 -0.1517804945288429 -0.13203373485823949 0 -0.15102802700878129 -0.11631425199933761 0 -0.16734453206458619 -0.098376237775078271 0 -0.15102802700878129 -0.11631425199933761 0 -0.14380158437510909 -0.097057535459323052 0 -0.13285598427751799 -0.111430357147086 0 -0.15102802700878129 -0.11631425199933761 0 -0.14380158437510909 -0.097057535459323052 0 -0.1344870760500517 -0.011503851261303469 0 -0.1570100872168648 -0.028134032129179521 0 -0.1607188529291948 -0.01096909999765038 0 -0.1344870760500517 -0.011503851261303469 0 -0.14064867681576401 -0.040430409744931013 0 -0.1570100872168648 -0.028134032129179521 0 -0.1344870760500517 -0.011503851261303469 0 -0.1607188529291948 -0.01096909999765038 0 -0.1481698996749144 0.0056299638759261337 0 -0.1136104046283796 -0.012726262184012779 0 -0.1344870760500517 -0.011503851261303469 0 -0.12832547528433949 0.017422707222324089 0 -0.1126696841781334 -0.034048309071617981 0 -0.1344870760500517 -0.011503851261303469 0 -0.14064867681576401 -0.040430409744931013 0 -0.1344870760500517 -0.011503851261303469 0 -0.14064867681576401 -0.040430409744931013 0 -0.1245952765854583 -0.053991827278248722 0 -0.1126696841781334 -0.034048309071617981 0 -0.14064867681576401 -0.040430409744931013 0 -0.1245952765854583 -0.053991827278248722 0 -0.12804580984603489 -0.069899659586637866 0 -0.14222993503600831 -0.061213897047483777 0 -0.1245952765854583 -0.053991827278248722 0 -0.14222993503600831 -0.061213897047483777 0 -0.14064867681576401 -0.040430409744931013 0 -0.14222993503600831 -0.061213897047483777 0 -0.14064867681576401 -0.040430409744931013 0 -0.16182479270199271 -0.055088852331235977 0 -0.14064867681576401 -0.040430409744931013 0 -0.1645928121484817 -0.04003133093480464 0 -0.1570100872168648 -0.028134032129179521 0 -0.14064867681576401 -0.040430409744931013 0 -0.1645928121484817 -0.04003133093480464 0 -0.16182479270199271 -0.055088852331235977 0 -0.1645928121484817 -0.04003133093480464 0 -0.17532293818526529 -0.02901953695014407 0 -0.1570100872168648 -0.028134032129179521 0 -0.1645928121484817 -0.04003133093480464 0 -0.16182479270199271 -0.055088852331235977 0 -0.17976246783382571 -0.044928090891007702 0 -0.18021251353803869 -0.070590566895887719 0 -0.17976246783382571 -0.044928090891007702 0 -0.19500480082097291 -0.051795227200016239 0 -0.18021251353803869 -0.070590566895887719 0 -0.16182479270199271 -0.055088852331235977 0 -0.17976246783382571 -0.044928090891007702 0 -0.17976246783382571 -0.044928090891007702 0 -0.1865610943577356 -0.029396767532427249 0 -0.17532293818526529 -0.02901953695014407 0 -0.17976246783382571 -0.044928090891007702 0 -0.1865610943577356 -0.029396767532427249 0 -0.19500480082097291 -0.051795227200016239 0 -0.1645928121484817 -0.04003133093480464 0 -0.17976246783382571 -0.044928090891007702 0 -0.17532293818526529 -0.02901953695014407 0 -0.1865610943577356 -0.029396767532427249 0 -0.17532293818526529 -0.02901953695014407 0 -0.1865610943577356 -0.029396767532427249 0 -0.18258147345254069 -0.018840102787467099 0 -0.17532293818526529 -0.02901953695014407 0 -0.1865610943577356 -0.029396767532427249 0 -0.18258147345254069 -0.018840102787467099 0 -0.18258147345254069 -0.018840102787467099 0 -0.17532293818526529 -0.02901953695014407 0 -0.17111099314004621 -0.018338574043338111 0 -0.1570100872168648 -0.028134032129179521 0 -0.17111099314004621 -0.018338574043338111 0 -0.1607188529291948 -0.01096909999765038 0 -0.17532293818526529 -0.02901953695014407 0 -0.1570100872168648 -0.028134032129179521 0 -0.17111099314004621 -0.018338574043338111 0 -0.1607188529291948 -0.01096909999765038 0 -0.17657546904089599 -0.007370569383024504 0 -0.1659019020419891 0.009198472863133994 0 -0.17111099314004621 -0.018338574043338111 0 -0.1607188529291948 -0.01096909999765038 0 -0.17657546904089599 -0.007370569383024504 0 -0.18258147345254069 -0.018840102787467099 0 -0.17111099314004621 -0.018338574043338111 0 -0.17657546904089599 -0.007370569383024504 0 -0.18258147345254069 -0.018840102787467099 0 -0.17657546904089599 -0.007370569383024504 0 -0.19015943417595019 -0.0077170535763698596 0 -0.17657546904089599 -0.007370569383024504 0 -0.19015943417595019 -0.0077170535763698596 0 -0.18474352935989971 0.0058366779918899298 0 -0.18258147345254069 -0.018840102787467099 0 -0.19015943417595019 -0.0077170535763698596 0 -0.19969439421001201 -0.016562192326126931 0 -0.19015943417595019 -0.0077170535763698596 0 -0.19969439421001201 -0.016562192326126931 0 -0.2044818012513058 -4.6211528709685131e-05 0 -0.19015943417595019 -0.0077170535763698596 0 -0.2044818012513058 -4.6211528709685131e-05 0 -0.18474352935989971 0.0058366779918899298 0 -0.1865610943577356 -0.029396767532427249 0 -0.19969439421001201 -0.016562192326126931 0 -0.21570204216233779 -0.030374940156110839 0 -0.1865610943577356 -0.029396767532427249 0 -0.21570204216233779 -0.030374940156110839 0 -0.1865610943577356 -0.029396767532427249 0 -0.18258147345254069 -0.018840102787467099 0 -0.19969439421001201 -0.016562192326126931 0 -0.19969439421001201 -0.016562192326126931 0 -0.21570204216233779 -0.030374940156110839 0 -0.21742702800692021 -0.012838699474975471 0 -0.19969439421001201 -0.016562192326126931 0 -0.21742702800692021 -0.012838699474975471 0 -0.2044818012513058 -4.6211528709685131e-05 0 -0.21742702800692021 -0.012838699474975471 0 -0.2044818012513058 -4.6211528709685131e-05 0 -0.23277801048404129 8.5799091976347663e-05 0 -0.1865610943577356 -0.029396767532427249 0 -0.21570204216233779 -0.030374940156110839 0 -0.19500480082097291 -0.051795227200016239 0 -0.1865610943577356 -0.029396767532427249 0 -0.19500480082097291 -0.051795227200016239 0 -0.21570204216233779 -0.030374940156110839 0 -0.19500480082097291 -0.051795227200016239 0 -0.2147106611255743 -0.050126467978621102 0 -0.2296874952081176 -0.063041580388020491 0 -0.20344850728421171 -0.074193686867604844 0 -0.2147106611255743 -0.050126467978621102 0 -0.20344850728421171 -0.074193686867604844 0 -0.19500480082097291 -0.051795227200016239 0 -0.2147106611255743 -0.050126467978621102 0 -0.2296874952081176 -0.063041580388020491 0 -0.2147106611255743 -0.050126467978621102 0 -0.23428570316928099 -0.047206706662482008 0 -0.21570204216233779 -0.030374940156110839 0 -0.23428570316928099 -0.047206706662482008 0 -0.24484298996694009 -0.031353112779794988 0 -0.21570204216233779 -0.030374940156110839 0 -0.2147106611255743 -0.050126467978621102 0 -0.23428570316928099 -0.047206706662482008 0 -0.23428570316928099 -0.047206706662482008 0 -0.24484298996694009 -0.031353112779794988 0 -0.25071743939831093 -0.046121747263613261 0 -0.2296874952081176 -0.063041580388020491 0 -0.23428570316928099 -0.047206706662482008 0 -0.25005359115440562 -0.062222391408731488 0 -0.23428570316928099 -0.047206706662482008 0 -0.25071743939831093 -0.046121747263613261 0 -0.25005359115440562 -0.062222391408731488 0 -0.21742702800692021 -0.012838699474975471 0 -0.2344788919269041 -0.017295952455906261 0 -0.23277801048404129 8.5799091976347663e-05 0 -0.21570204216233779 -0.030374940156110839 0 -0.24484298996694009 -0.031353112779794988 0 -0.2344788919269041 -0.017295952455906261 0 -0.21570204216233779 -0.030374940156110839 0 -0.24484298996694009 -0.031353112779794988 0 -0.21570204216233779 -0.030374940156110839 0 -0.21742702800692021 -0.012838699474975471 0 -0.2344788919269041 -0.017295952455906261 0 -0.24484298996694009 -0.031353112779794988 0 -0.2344788919269041 -0.017295952455906261 0 -0.25595663102513772 -0.017137938268312509 0 -0.26096182947410212 -0.000358506717774391 0 -0.25595663102513772 -0.017137938268312509 0 -0.23277801048404129 8.5799091976347663e-05 0 -0.25595663102513772 -0.017137938268312509 0 -0.23277801048404129 8.5799091976347663e-05 0 -0.2344788919269041 -0.017295952455906261 0 -0.25595663102513772 -0.017137938268312509 0 -0.23277801048404129 8.5799091976347663e-05 0 -0.26096182947410212 -0.000358506717774391 0 -0.25595663102513772 -0.017137938268312509 0 -0.26834443959111359 -0.01188835889596739 0 -0.24484298996694009 -0.031353112779794988 0 -0.25595663102513772 -0.017137938268312509 0 -0.2739839377715424 -0.03233128540347914 0 -0.25595663102513772 -0.017137938268312509 0 -0.27664390504178349 -0.02081863846659825 0 -0.27913525156623398 -0.034361675628601263 0 -0.25595663102513772 -0.017137938268312509 0 -0.27913525156623398 -0.034361675628601263 0 -0.25595663102513772 -0.017137938268312509 0 -0.2739839377715424 -0.03233128540347914 0 -0.27913525156623398 -0.034361675628601263 0 -0.25595663102513772 -0.017137938268312509 0 -0.27664390504178349 -0.02081863846659825 0 -0.26834443959111359 -0.01188835889596739 0 -0.27664390504178349 -0.02081863846659825 0 -0.28443571007868618 -0.02727816883973401 0 -0.27913525156623398 -0.034361675628601263 0 -0.26096182947410212 -0.000358506717774391 0 -0.26834443959111359 -0.01188835889596739 0 -0.27981539282343088 -0.009238352131184414 0 -0.26096182947410212 -0.000358506717774391 0 -0.27981539282343088 -0.009238352131184414 0 -0.2767705385078354 0.0043107152141013847 0 -0.27664390504178349 -0.02081863846659825 0 -0.26834443959111359 -0.01188835889596739 0 -0.27981539282343088 -0.009238352131184414 0 -0.27981539282343088 -0.009238352131184414 0 -0.29341118398778221 -3.8928658760805153e-05 0 -0.29073054649885649 -0.020906717018067289 0 -0.27981539282343088 -0.009238352131184414 0 -0.29341118398778221 -3.8928658760805153e-05 0 -0.2767705385078354 0.0043107152141013847 0 -0.27664390504178349 -0.02081863846659825 0 -0.28443571007868618 -0.02727816883973401 0 -0.29073054649885649 -0.020906717018067289 0 -0.27664390504178349 -0.02081863846659825 0 -0.27981539282343088 -0.009238352131184414 0 -0.29073054649885649 -0.020906717018067289 0 -0.29073054649885649 -0.020906717018067289 0 -0.30500834037350127 -0.029850251878582579 0 -0.29220345446747181 -0.032821911823540779 0 -0.28443571007868618 -0.02727816883973401 0 -0.29073054649885649 -0.020906717018067289 0 -0.29220345446747181 -0.032821911823540779 0 -0.30500834037350127 -0.029850251878582579 0 -0.30770280863967042 -0.008115090768276649 0 -0.29073054649885649 -0.020906717018067289 0 -0.30500834037350127 -0.029850251878582579 0 -0.30770280863967042 -0.008115090768276649 0 -0.30500834037350127 -0.029850251878582579 0 -0.30770280863967042 -0.008115090768276649 0 -0.32189083505985461 -0.022304422783467451 0 -0.29341118398778221 -3.8928658760805153e-05 0 -0.29073054649885649 -0.020906717018067289 0 -0.30770280863967042 -0.008115090768276649 0 -0.30231387210733141 -0.051585412988888468 0 -0.30101240358280629 -0.062083821307790277 0 -0.31969419502201518 -0.064500509320389948 0 -0.30231387210733141 -0.051585412988888468 0 -0.31969419502201518 -0.064500509320389948 0 -0.30231387210733141 -0.051585412988888468 0 -0.30101240358280629 -0.062083821307790277 0 -0.29293780719175089 -0.055561828653130897 0 -0.30231387210733141 -0.051585412988888468 0 -0.30101240358280629 -0.062083821307790277 0 -0.30500834037350127 -0.029850251878582579 0 -0.30231387210733141 -0.051585412988888468 0 -0.30500834037350127 -0.029850251878582579 0 -0.30231387210733141 -0.051585412988888468 0 -0.29220345446747181 -0.032821911823540779 0 -0.30500834037350127 -0.029850251878582579 0 -0.30231387210733141 -0.051585412988888468 0 -0.32059116910516611 -0.04381933631409228 0 -0.30231387210733141 -0.051585412988888468 0 -0.27913525156623398 -0.034361675628601263 0 -0.30231387210733141 -0.051585412988888468 0 -0.29220345446747181 -0.032821911823540779 0 -0.27913525156623398 -0.034361675628601263 0 -0.30231387210733141 -0.051585412988888468 0 -0.28728997268008821 -0.048222181006610992 0 -0.27913525156623398 -0.034361675628601263 0 -0.28443571007868618 -0.02727816883973401 0 -0.29220345446747181 -0.032821911823540779 0 -0.27913525156623398 -0.034361675628601263 0 -0.28728997268008821 -0.048222181006610992 0 -0.27913525156623398 -0.034361675628601263 0 -0.27833504291222971 -0.045658950389432698 0 -0.28728997268008821 -0.048222181006610992 0 -0.28372788962289469 -0.053943037373001608 0 -0.27833504291222971 -0.045658950389432698 0 -0.28728997268008821 -0.048222181006610992 0 -0.28372788962289469 -0.053943037373001608 0 -0.29293780719175089 -0.055561828653130897 0 -0.30231387210733141 -0.051585412988888468 0 -0.28728997268008821 -0.048222181006610992 0 -0.29293780719175089 -0.055561828653130897 0 -0.30101240358280629 -0.062083821307790277 0 -0.29293780719175089 -0.055561828653130897 0 -0.28932856681541758 -0.063133613122713969 0 -0.28372788962289469 -0.053943037373001608 0 -0.29293780719175089 -0.055561828653130897 0 -0.28932856681541758 -0.063133613122713969 0 -0.28372788962289469 -0.053943037373001608 0 -0.27720747115765049 -0.064557145316117059 0 -0.28932856681541758 -0.063133613122713969 0 -0.28372788962289469 -0.053943037373001608 0 -0.27312284517995439 -0.053691649461354081 0 -0.27720747115765049 -0.064557145316117059 0 -0.27312284517995439 -0.053691649461354081 0 -0.27833504291222971 -0.045658950389432698 0 -0.27073314304862017 -0.044317464940453292 0 -0.28372788962289469 -0.053943037373001608 0 -0.27312284517995439 -0.053691649461354081 0 -0.27833504291222971 -0.045658950389432698 0 -0.27312284517995439 -0.053691649461354081 0 -0.27073314304862017 -0.044317464940453292 0 -0.26201519531392181 -0.050997558396027688 0 -0.27312284517995439 -0.053691649461354081 0 -0.2657551680549019 -0.062493685921738949 0 -0.26201519531392181 -0.050997558396027688 0 -0.27312284517995439 -0.053691649461354081 0 -0.2657551680549019 -0.062493685921738949 0 -0.27720747115765049 -0.064557145316117059 0 -0.2739839377715424 -0.03233128540347914 0 -0.27913525156623398 -0.034361675628601263 0 -0.27421213561345231 -0.039302231319563882 0 -0.27913525156623398 -0.034361675628601263 0 -0.27421213561345231 -0.039302231319563882 0 -0.27833504291222971 -0.045658950389432698 0 -0.27421213561345231 -0.039302231319563882 0 -0.27833504291222971 -0.045658950389432698 0 -0.27073314304862017 -0.044317464940453292 0 -0.27073314304862017 -0.044317464940453292 0 -0.2701595503702382 -0.038272348260942848 0 -0.26170898504733808 -0.037138411380275099 0 -0.27421213561345231 -0.039302231319563882 0 -0.27073314304862017 -0.044317464940453292 0 -0.2701595503702382 -0.038272348260942848 0 -0.2739839377715424 -0.03233128540347914 0 -0.2701595503702382 -0.038272348260942848 0 -0.26170898504733808 -0.037138411380275099 0 -0.2739839377715424 -0.03233128540347914 0 -0.27421213561345231 -0.039302231319563882 0 -0.2701595503702382 -0.038272348260942848 0 -0.24484298996694009 -0.031353112779794988 0 -0.2739839377715424 -0.03233128540347914 0 -0.24484298996694009 -0.031353112779794988 0 -0.26170898504733808 -0.037138411380275099 0 -0.25071743939831093 -0.046121747263613261 0 -0.24484298996694009 -0.031353112779794988 0 -0.2739839377715424 -0.03233128540347914 0 -0.26170898504733808 -0.037138411380275099 0 -0.26170898504733808 -0.037138411380275099 0 -0.25071743939831093 -0.046121747263613261 0 -0.26201519531392181 -0.050997558396027688 0 -0.27073314304862017 -0.044317464940453292 0 -0.26170898504733808 -0.037138411380275099 0 -0.26201519531392181 -0.050997558396027688 0 -0.25071743939831093 -0.046121747263613261 0 -0.25005359115440562 -0.062222391408731488 0 -0.26201519531392181 -0.050997558396027688 0 -0.2657551680549019 -0.062493685921738949 0 -0.25005359115440562 -0.062222391408731488 0 -0.26201519531392181 -0.050997558396027688 0 -0.2657551680549019 -0.062493685921738949 0 -0.25005359115440562 -0.062222391408731488 0 -0.26655630166618088 -0.078375629052087045 0 -0.2440344711747133 -0.081694683756653619 0 -0.25005359115440562 -0.062222391408731488 0 -0.26655630166618088 -0.078375629052087045 0 -0.2440344711747133 -0.081694683756653619 0 -0.26655630166618088 -0.078375629052087045 0 -0.25838144714130901 -0.10034778712528671 0 -0.2440344711747133 -0.081694683756653619 0 -0.25838144714130901 -0.10034778712528671 0 -0.26655630166618088 -0.078375629052087045 0 -0.25838144714130901 -0.10034778712528671 0 -0.27400829604169358 -0.095555773482706871 0 -0.26655630166618088 -0.078375629052087045 0 -0.27920268912755131 -0.084672807166719932 0 -0.28398136699463511 -0.07443087182544475 0 -0.26655630166618088 -0.078375629052087045 0 -0.27920268912755131 -0.084672807166719932 0 -0.27400829604169358 -0.095555773482706871 0 -0.26655630166618088 -0.078375629052087045 0 -0.27720747115765049 -0.064557145316117059 0 -0.28398136699463511 -0.07443087182544475 0 -0.2657551680549019 -0.062493685921738949 0 -0.26655630166618088 -0.078375629052087045 0 -0.27720747115765049 -0.064557145316117059 0 -0.25838144714130901 -0.10034778712528671 0 -0.27272842310790468 -0.1190008904939199 0 -0.25267264513587889 -0.1215588879498425 0 -0.27272842310790468 -0.1190008904939199 0 -0.25882396804111618 -0.13366597894571081 0 -0.24392034912277019 -0.11188751890190519 0 -0.25267264513587889 -0.1215588879498425 0 -0.25838144714130901 -0.10034778712528671 0 -0.25267264513587889 -0.1215588879498425 0 -0.25838144714130901 -0.10034778712528671 0 -0.27272842310790468 -0.1190008904939199 0 -0.25838144714130901 -0.10034778712528671 0 -0.27400829604169358 -0.095555773482706871 0 -0.27272842310790468 -0.1190008904939199 0 -0.27400829604169358 -0.095555773482706871 0 -0.27272842310790468 -0.1190008904939199 0 -0.28600110699883341 -0.10792408110074039 0 -0.28967909008679588 -0.1211358467321744 0 -0.28600110699883341 -0.10792408110074039 0 -0.30271004751981251 -0.11029568512647681 0 -0.27272842310790468 -0.1190008904939199 0 -0.28967909008679588 -0.1211358467321744 0 -0.28600110699883341 -0.10792408110074039 0 -0.28600110699883341 -0.10792408110074039 0 -0.30271004751981251 -0.11029568512647681 0 -0.29226479180769588 -0.090328954306641104 0 -0.27400829604169358 -0.095555773482706871 0 -0.28600110699883341 -0.10792408110074039 0 -0.29226479180769588 -0.090328954306641104 0 -0.30738254564815343 -0.095978146312310053 0 -0.30271004751981251 -0.11029568512647681 0 -0.29226479180769588 -0.090328954306641104 0 -0.30271004751981251 -0.11029568512647681 0 -0.31799769838850861 -0.1126482052453201 0 -0.31355614934586162 -0.10370443408898911 0 -0.30738254564815343 -0.095978146312310053 0 -0.30271004751981251 -0.11029568512647681 0 -0.31355614934586162 -0.10370443408898911 0 -0.30271004751981251 -0.11029568512647681 0 -0.31065752594224622 -0.1193955704219906 0 -0.30314889797602618 -0.1269137262519188 0 -0.28967909008679588 -0.1211358467321744 0 -0.30271004751981251 -0.11029568512647681 0 -0.30314889797602618 -0.1269137262519188 0 -0.30271004751981251 -0.11029568512647681 0 -0.31065752594224622 -0.1193955704219906 0 -0.31799769838850861 -0.1126482052453201 0 -0.31065752594224622 -0.1193955704219906 0 -0.30314889797602618 -0.1269137262519188 0 -0.31624287369029958 -0.1274442202940835 0 -0.2962104828419867 -0.074033539212140523 0 -0.28932856681541758 -0.063133613122713969 0 -0.28398136699463511 -0.07443087182544475 0 -0.30101240358280629 -0.062083821307790277 0 -0.2962104828419867 -0.074033539212140523 0 -0.28932856681541758 -0.063133613122713969 0 -0.27720747115765049 -0.064557145316117059 0 -0.28932856681541758 -0.063133613122713969 0 -0.28398136699463511 -0.07443087182544475 0 -0.2962104828419867 -0.074033539212140523 0 -0.28398136699463511 -0.07443087182544475 0 -0.29226479180769588 -0.090328954306641104 0 -0.27920268912755131 -0.084672807166719932 0 -0.27400829604169358 -0.095555773482706871 0 -0.29226479180769588 -0.090328954306641104 0 -0.27920268912755131 -0.084672807166719932 0 -0.28398136699463511 -0.07443087182544475 0 -0.29226479180769588 -0.090328954306641104 0 -0.2962104828419867 -0.074033539212140523 0 -0.29226479180769588 -0.090328954306641104 0 -0.30432995925917711 -0.083003415264053179 0 -0.30738254564815343 -0.095978146312310053 0 -0.29226479180769588 -0.090328954306641104 0 -0.30432995925917711 -0.083003415264053179 0 -0.30738254564815343 -0.095978146312310053 0 -0.30432995925917711 -0.083003415264053179 0 -0.31939880719935693 -0.084696566706163004 0 -0.30432995925917711 -0.083003415264053179 0 -0.30725568664773939 -0.072466993586969064 0 -0.31939880719935693 -0.084696566706163004 0 -0.30101240358280629 -0.062083821307790277 0 -0.30725568664773939 -0.072466993586969064 0 -0.31969419502201518 -0.064500509320389948 0 -0.2962104828419867 -0.074033539212140523 0 -0.30432995925917711 -0.083003415264053179 0 -0.30725568664773939 -0.072466993586969064 0 -0.30101240358280629 -0.062083821307790277 0 -0.2962104828419867 -0.074033539212140523 0 -0.30725568664773939 -0.072466993586969064 0 -0.31969419502201518 -0.064500509320389948 0 -0.31939880719935693 -0.084696566706163004 0 -0.33242754071108782 -0.080421644080621815 0 -0.30725568664773939 -0.072466993586969064 0 -0.31969419502201518 -0.064500509320389948 0 -0.31939880719935693 -0.084696566706163004 0 -0.30738254564815343 -0.095978146312310053 0 -0.31939880719935693 -0.084696566706163004 0 -0.32059120538208069 -0.097687084313600125 0 -0.31939880719935693 -0.084696566706163004 0 -0.32059120538208069 -0.097687084313600125 0 -0.332850606010412 -0.09831538571399967 0 -0.31939880719935693 -0.084696566706163004 0 -0.33242754071108782 -0.080421644080621815 0 -0.332850606010412 -0.09831538571399967 0 -0.33242754071108782 -0.080421644080621815 0 -0.34260963442855957 -0.086534940740640234 0 -0.332850606010412 -0.09831538571399967 0 -0.33242754071108782 -0.080421644080621815 0 -0.34260963442855957 -0.086534940740640234 0 -0.34649422983786882 -0.070951685268953193 0 -0.31969419502201518 -0.064500509320389948 0 -0.33242754071108782 -0.080421644080621815 0 -0.33362395615735879 -0.06782643622297671 0 -0.33242754071108782 -0.080421644080621815 0 -0.33362395615735879 -0.06782643622297671 0 -0.34649422983786882 -0.070951685268953193 0 -0.31969419502201518 -0.064500509320389948 0 -0.33362395615735879 -0.06782643622297671 0 -0.33587985905846379 -0.055431906221941857 0 -0.33362395615735879 -0.06782643622297671 0 -0.34649422983786882 -0.070951685268953193 0 -0.33587985905846379 -0.055431906221941857 0 -0.32057327510607508 -0.1204362369815784 0 -0.32550806041687508 -0.11396543568465869 0 -0.33062075496055998 -0.1196119238244602 0 -0.32057327510607508 -0.1204362369815784 0 -0.32574439139689643 -0.12708692906384639 0 -0.31624287369029958 -0.1274442202940835 0 -0.32057327510607508 -0.1204362369815784 0 -0.33062075496055998 -0.1196119238244602 0 -0.32574439139689643 -0.12708692906384639 0 -0.31065752594224622 -0.1193955704219906 0 -0.32057327510607508 -0.1204362369815784 0 -0.31799769838850861 -0.1126482052453201 0 -0.31065752594224622 -0.1193955704219906 0 -0.32057327510607508 -0.1204362369815784 0 -0.31624287369029958 -0.1274442202940835 0 -0.31799769838850861 -0.1126482052453201 0 -0.32550806041687508 -0.11396543568465869 0 -0.32443184443728929 -0.10589941874564079 0 -0.32550806041687508 -0.11396543568465869 0 -0.32443184443728929 -0.10589941874564079 0 -0.33212006218198947 -0.1107770507344344 0 -0.32057327510607508 -0.1204362369815784 0 -0.31799769838850861 -0.1126482052453201 0 -0.32550806041687508 -0.11396543568465869 0 -0.32443184443728929 -0.10589941874564079 0 -0.31355614934586162 -0.10370443408898911 0 -0.32059120538208069 -0.097687084313600125 0 -0.31799769838850861 -0.1126482052453201 0 -0.32443184443728929 -0.10589941874564079 0 -0.31355614934586162 -0.10370443408898911 0 -0.30738254564815343 -0.095978146312310053 0 -0.31355614934586162 -0.10370443408898911 0 -0.32059120538208069 -0.097687084313600125 0 -0.32443184443728929 -0.10589941874564079 0 -0.32059120538208069 -0.097687084313600125 0 -0.332850606010412 -0.09831538571399967 0 -0.34260963442855957 -0.086534940740640234 0 -0.332850606010412 -0.09831538571399967 0 -0.34512557663409599 -0.097516745466498578 0 -0.332850606010412 -0.09831538571399967 0 -0.33995301844758929 -0.10751588409234961 0 -0.34512557663409599 -0.097516745466498578 0 -0.32443184443728929 -0.10589941874564079 0 -0.332850606010412 -0.09831538571399967 0 -0.33212006218198947 -0.1107770507344344 0 -0.332850606010412 -0.09831538571399967 0 -0.33995301844758929 -0.10751588409234961 0 -0.33212006218198947 -0.1107770507344344 0 -0.33212006218198947 -0.1107770507344344 0 -0.33753300898620459 -0.1156399962018064 0 -0.33062075496055998 -0.1196119238244602 0 -0.32550806041687508 -0.11396543568465869 0 -0.33212006218198947 -0.1107770507344344 0 -0.33062075496055998 -0.1196119238244602 0 -0.33995301844758929 -0.10751588409234961 0 -0.33212006218198947 -0.1107770507344344 0 -0.33753300898620459 -0.1156399962018064 0 -0.33995301844758929 -0.10751588409234961 0 -0.34285352773915939 -0.1144242840759131 0 -0.33753300898620459 -0.1156399962018064 0 -0.34285352773915939 -0.1144242840759131 0 -0.33753300898620459 -0.1156399962018064 0 -0.3412558374196184 -0.11899700506688821 0 -0.34207789646947578 -0.1235890023748014 0 -0.33663721539785862 -0.1213718268559543 0 -0.33359360987340408 -0.1264366553301487 0 -0.33753300898620459 -0.1156399962018064 0 -0.3412558374196184 -0.11899700506688821 0 -0.33663721539785862 -0.1213718268559543 0 -0.3412558374196184 -0.11899700506688821 0 -0.34207789646947578 -0.1235890023748014 0 -0.3461902440589707 -0.1197114208601076 0 -0.34285352773915939 -0.1144242840759131 0 -0.3412558374196184 -0.11899700506688821 0 -0.3461902440589707 -0.1197114208601076 0 -0.3412558374196184 -0.11899700506688821 0 -0.34207789646947578 -0.1235890023748014 0 -0.33663721539785862 -0.1213718268559543 0 -0.33062075496055998 -0.1196119238244602 0 -0.32574439139689643 -0.12708692906384639 0 -0.33359360987340408 -0.1264366553301487 0 -0.33663721539785862 -0.1213718268559543 0 -0.33062075496055998 -0.1196119238244602 0 -0.33359360987340408 -0.1264366553301487 0 -0.33753300898620459 -0.1156399962018064 0 -0.33663721539785862 -0.1213718268559543 0 -0.33062075496055998 -0.1196119238244602 0 -0.3461902440589707 -0.1197114208601076 0 -0.34923532913367461 -0.10842184236144529 0 -0.36356016976794192 -0.1107413706499813 0 -0.35874604557721962 -0.1231792152068535 0 -0.36356016976794192 -0.1107413706499813 0 -0.34736967540495078 -0.12522581123200011 0 -0.36356016976794192 -0.1107413706499813 0 -0.34736967540495078 -0.12522581123200011 0 -0.3461902440589707 -0.1197114208601076 0 -0.36356016976794192 -0.1107413706499813 0 -0.34736967540495078 -0.12522581123200011 0 -0.34285352773915939 -0.1144242840759131 0 -0.3461902440589707 -0.1197114208601076 0 -0.34923532913367461 -0.10842184236144529 0 -0.33995301844758929 -0.10751588409234961 0 -0.34285352773915939 -0.1144242840759131 0 -0.34923532913367461 -0.10842184236144529 0 -0.34923532913367461 -0.10842184236144529 0 -0.35646544760704918 -0.099603593945912144 0 -0.36356016976794192 -0.1107413706499813 0 -0.33995301844758929 -0.10751588409234961 0 -0.34923532913367461 -0.10842184236144529 0 -0.34512557663409599 -0.097516745466498578 0 -0.34923532913367461 -0.10842184236144529 0 -0.34512557663409599 -0.097516745466498578 0 -0.35646544760704918 -0.099603593945912144 0 -0.34512557663409599 -0.097516745466498578 0 -0.35646544760704918 -0.099603593945912144 0 -0.35615021894933319 -0.085469243173127929 0 -0.35646544760704918 -0.099603593945912144 0 -0.36356016976794192 -0.1107413706499813 0 -0.36629685303288162 -0.091825359721530816 0 -0.36356016976794192 -0.1107413706499813 0 -0.379750664130933 -0.096256930067962557 0 -0.36356016976794192 -0.1107413706499813 0 -0.36629685303288162 -0.091825359721530816 0 -0.379750664130933 -0.096256930067962557 0 -0.36356016976794192 -0.1107413706499813 0 -0.37856024804895327 -0.1018724666267241 0 -0.379750664130933 -0.096256930067962557 0 -0.36356016976794192 -0.1107413706499813 0 -0.37390116709331889 -0.1127885289638334 0 -0.37856024804895327 -0.1018724666267241 0 -0.36356016976794192 -0.1107413706499813 0 -0.37390116709331889 -0.1127885289638334 0 -0.36800375731069912 -0.1238998734332004 0 -0.37390116709331889 -0.1127885289638334 0 -0.36800375731069912 -0.1238998734332004 0 -0.37767647089691508 -0.12560686433188781 0 -0.35874604557721962 -0.1231792152068535 0 -0.36356016976794192 -0.1107413706499813 0 -0.36800375731069912 -0.1238998734332004 0 -0.34649422983786882 -0.070951685268953193 0 -0.36539552622304361 -0.069693691280915737 0 -0.36020672333593318 -0.048639626009838483 0 -0.34649422983786882 -0.070951685268953193 0 -0.35615021894933319 -0.085469243173127929 0 -0.36539552622304361 -0.069693691280915737 0 -0.34260963442855957 -0.086534940740640234 0 -0.34649422983786882 -0.070951685268953193 0 -0.35615021894933319 -0.085469243173127929 0 -0.34260963442855957 -0.086534940740640234 0 -0.34512557663409599 -0.097516745466498578 0 -0.35615021894933319 -0.085469243173127929 0 -0.35615021894933319 -0.085469243173127929 0 -0.37065313006040251 -0.081540442075944658 0 -0.36539552622304361 -0.069693691280915737 0 -0.35646544760704918 -0.099603593945912144 0 -0.35615021894933319 -0.085469243173127929 0 -0.36629685303288162 -0.091825359721530816 0 -0.35615021894933319 -0.085469243173127929 0 -0.36629685303288162 -0.091825359721530816 0 -0.37065313006040251 -0.081540442075944658 0 -0.36629685303288162 -0.091825359721530816 0 -0.37065313006040251 -0.081540442075944658 0 -0.38111900576340269 -0.08679892460373731 0 -0.36629685303288162 -0.091825359721530816 0 -0.38111900576340269 -0.08679892460373731 0 -0.37065313006040251 -0.081540442075944658 0 -0.36539552622304361 -0.069693691280915737 0 -0.38283367116001998 -0.072051919072457823 0 -0.36539552622304361 -0.069693691280915737 0 -0.37557305412645259 -0.058789206703612477 0 -0.38283367116001998 -0.072051919072457823 0 -0.36539552622304361 -0.069693691280915737 0 -0.36020672333593318 -0.048639626009838483 0 -0.37557305412645259 -0.058789206703612477 0 -0.36020672333593318 -0.048639626009838483 0 -0.38768267790402122 -0.038155544533734799 0 -0.37557305412645259 -0.058789206703612477 0 -0.34649422983786882 -0.070951685268953193 0 -0.36020672333593318 -0.048639626009838483 0 -0.33587985905846379 -0.055431906221941857 0 -0.36020672333593318 -0.048639626009838483 0 -0.35329718623978601 -0.02469219624504896 0 -0.33789297541277002 -0.036350012054751871 0 -0.36020672333593318 -0.048639626009838483 0 -0.33587985905846379 -0.055431906221941857 0 -0.33789297541277002 -0.036350012054751871 0 -0.36020672333593318 -0.048639626009838483 0 -0.37180473327973929 -0.030574317145678969 0 -0.35329718623978601 -0.02469219624504896 0 -0.36020672333593318 -0.048639626009838483 0 -0.37180473327973929 -0.030574317145678969 0 -0.38768267790402122 -0.038155544533734799 0 -0.37180473327973929 -0.030574317145678969 0 -0.361580774771527 -0.0043495437186238384 0 -0.37180473327973929 -0.030574317145678969 0 -0.361580774771527 -0.0043495437186238384 0 -0.35329718623978601 -0.02469219624504896 0 -0.37180473327973929 -0.030574317145678969 0 -0.361580774771527 -0.0043495437186238384 0 -0.37671714276837348 -0.0020527700837410161 0 -0.361580774771527 -0.0043495437186238384 0 -0.33878825992396772 -0.014544543532055121 0 -0.33911095629693389 0.00085089756377999598 0 -0.361580774771527 -0.0043495437186238384 0 -0.35329718623978601 -0.02469219624504896 0 -0.33878825992396772 -0.014544543532055121 0 -0.35329718623978601 -0.02469219624504896 0 -0.33878825992396772 -0.014544543532055121 0 -0.33789297541277002 -0.036350012054751871 0 -0.33878825992396772 -0.014544543532055121 0 -0.32189083505985461 -0.022304422783467451 0 -0.33789297541277002 -0.036350012054751871 0 -0.33878825992396772 -0.014544543532055121 0 -0.3243273320705421 -0.002975739998295202 0 -0.32189083505985461 -0.022304422783467451 0 -0.33878825992396772 -0.014544543532055121 0 -0.3243273320705421 -0.002975739998295202 0 -0.33911095629693389 0.00085089756377999598 0 -0.30770280863967042 -0.008115090768276649 0 -0.3243273320705421 -0.002975739998295202 0 -0.32189083505985461 -0.022304422783467451 0 -0.30500834037350127 -0.029850251878582579 0 -0.32189083505985461 -0.022304422783467451 0 -0.32059116910516611 -0.04381933631409228 0 -0.32189083505985461 -0.022304422783467451 0 -0.32059116910516611 -0.04381933631409228 0 -0.33789297541277002 -0.036350012054751871 0 -0.30231387210733141 -0.051585412988888468 0 -0.31969419502201518 -0.064500509320389948 0 -0.32059116910516611 -0.04381933631409228 0 -0.31969419502201518 -0.064500509320389948 0 -0.32059116910516611 -0.04381933631409228 0 -0.33587985905846379 -0.055431906221941857 0 -0.32059116910516611 -0.04381933631409228 0 -0.33587985905846379 -0.055431906221941857 0 -0.33789297541277002 -0.036350012054751871 0 -0.30618571126858501 -0.25346888261604072 0 -0.29085516855559562 -0.23572902352151739 0 -0.30618571126858501 -0.25346888261604072 0 -0.3036336784240482 -0.23604414271263591 0 -0.29085516855559562 -0.23572902352151739 0 -0.30618571126858501 -0.25346888261604072 0 -0.3036336784240482 -0.23604414271263591 0 -0.31277222751440781 -0.24313221912489119 0 -0.3036336784240482 -0.23604414271263591 0 -0.30565966870706912 -0.23011781534317591 0 -0.31277222751440781 -0.24313221912489119 0 -0.30565966870706912 -0.23011781534317591 0 -0.31014503401332899 -0.21699744482644659 0 -0.30565966870706912 -0.23011781534317591 0 -0.30096959082794972 -0.22228737681010999 0 -0.31014503401332899 -0.21699744482644659 0 -0.30565966870706912 -0.23011781534317591 0 -0.30096959082794972 -0.22228737681010999 0 -0.29456436015033771 -0.22677795465987671 0 -0.3036336784240482 -0.23604414271263591 0 -0.30565966870706912 -0.23011781534317591 0 -0.29085516855559562 -0.23572902352151739 0 -0.30565966870706912 -0.23011781534317591 0 -0.29456436015033771 -0.22677795465987671 0 -0.29085516855559562 -0.23572902352151739 0 -0.30565966870706912 -0.23011781534317591 0 -0.29085516855559562 -0.23572902352151739 0 -0.3036336784240482 -0.23604414271263591 0 -0.30565966870706912 -0.23011781534317591 0 -0.29456436015033771 -0.22677795465987671 0 -0.28520607490546351 -0.22919212999848851 0 -0.29085516855559562 -0.23572902352151739 0 -0.29456436015033771 -0.22677795465987671 0 -0.28520607490546351 -0.22919212999848851 0 -0.30096959082794972 -0.22228737681010999 0 -0.29456436015033771 -0.22677795465987671 0 -0.29350930044106499 -0.2152562924109416 0 -0.29456436015033771 -0.22677795465987671 0 -0.28296858539022202 -0.22660300125927851 0 -0.29350930044106499 -0.2152562924109416 0 -0.28296858539022202 -0.22660300125927851 0 -0.29350930044106499 -0.2152562924109416 0 -0.29456436015033771 -0.22677795465987671 0 -0.28520607490546351 -0.22919212999848851 0 -0.28296858539022202 -0.22660300125927851 0 -0.28520607490546351 -0.22919212999848851 0 -0.29085516855559562 -0.23572902352151739 0 -0.27910008686250848 -0.23076730380067911 0 -0.28520607490546351 -0.22919212999848851 0 -0.29085516855559562 -0.23572902352151739 0 -0.28520607490546351 -0.22919212999848851 0 -0.28296858539022202 -0.22660300125927851 0 -0.27910008686250848 -0.23076730380067911 0 -0.28520607490546351 -0.22919212999848851 0 -0.27910008686250848 -0.23076730380067911 0 -0.28520607490546351 -0.22919212999848851 0 -0.28296858539022202 -0.22660300125927851 0 -0.30618571126858501 -0.25346888261604072 0 -0.29085516855559562 -0.23572902352151739 0 -0.28458303065451579 -0.24802118311711149 0 -0.29085516855559562 -0.23572902352151739 0 -0.27261707502938121 -0.23774603791654059 0 -0.26712662972940088 -0.24472262477513351 0 -0.27261707502938121 -0.23774603791654059 0 -0.25424580499815952 -0.23717901201065261 0 -0.27910008686250848 -0.23076730380067911 0 -0.29085516855559562 -0.23572902352151739 0 -0.28458303065451579 -0.24802118311711149 0 -0.26712662972940088 -0.24472262477513351 0 -0.27539145014436323 -0.25229755620922312 0 -0.28458303065451579 -0.24802118311711149 0 -0.26712662972940088 -0.24472262477513351 0 -0.29085516855559562 -0.23572902352151739 0 -0.26712662972940088 -0.24472262477513351 0 -0.29085516855559562 -0.23572902352151739 0 -0.27261707502938121 -0.23774603791654059 0 -0.27910008686250848 -0.23076730380067911 0 -0.25473520772639757 -0.25111225091949058 0 -0.26712662972940088 -0.24472262477513351 0 -0.25424580499815952 -0.23717901201065261 0 -0.27261707502938121 -0.23774603791654059 0 -0.26712662972940088 -0.24472262477513351 0 -0.25424580499815952 -0.23717901201065261 0 -0.25424580499815952 -0.23717901201065261 0 -0.26221771071148708 -0.22324035625600461 0 -0.27910008686250848 -0.23076730380067911 0 -0.25110359305318669 -0.22315728211605909 0 -0.26221771071148708 -0.22324035625600461 0 -0.25497842492385708 -0.21122352002450451 0 -0.25424580499815952 -0.23717901201065261 0 -0.25110359305318669 -0.22315728211605909 0 -0.26221771071148708 -0.22324035625600461 0 -0.25424580499815952 -0.23717901201065261 0 -0.27910008686250848 -0.23076730380067911 0 -0.26221771071148708 -0.22324035625600461 0 -0.27910008686250848 -0.23076730380067911 0 -0.27113960621524141 -0.2129150041854245 0 -0.28296858539022202 -0.22660300125927851 0 -0.27910008686250848 -0.23076730380067911 0 -0.27113960621524141 -0.2129150041854245 0 -0.27261707502938121 -0.23774603791654059 0 -0.27910008686250848 -0.23076730380067911 0 -0.28296858539022202 -0.22660300125927851 0 -0.27910008686250848 -0.23076730380067911 0 -0.28296858539022202 -0.22660300125927851 0 -0.27113960621524141 -0.2129150041854245 0 -0.27113960621524141 -0.2129150041854245 0 -0.27955515667245689 -0.1963708483177988 0 -0.28410449073618349 -0.20605526383134851 0 -0.26221771071148708 -0.22324035625600461 0 -0.27113960621524141 -0.2129150041854245 0 -0.25497842492385708 -0.21122352002450451 0 -0.2417330138615848 -0.20747747701892849 0 -0.25497842492385708 -0.21122352002450451 0 -0.25393282328321037 -0.19300403884003059 0 -0.27113960621524141 -0.2129150041854245 0 -0.25497842492385708 -0.21122352002450451 0 -0.25393282328321037 -0.19300403884003059 0 -0.27113960621524141 -0.2129150041854245 0 -0.25497842492385708 -0.21122352002450451 0 -0.27113960621524141 -0.2129150041854245 0 -0.25393282328321037 -0.19300403884003059 0 -0.26840027521596138 -0.19586132911147119 0 -0.27113960621524141 -0.2129150041854245 0 -0.25393282328321037 -0.19300403884003059 0 -0.25393282328321037 -0.19300403884003059 0 -0.26840027521596138 -0.19586132911147119 0 -0.26897351469293163 -0.18115542510263591 0 -0.26840027521596138 -0.19586132911147119 0 -0.27955515667245689 -0.1963708483177988 0 -0.26897351469293163 -0.18115542510263591 0 -0.27113960621524141 -0.2129150041854245 0 -0.26840027521596138 -0.19586132911147119 0 -0.27955515667245689 -0.1963708483177988 0 -0.27955515667245689 -0.1963708483177988 0 -0.29221389961596578 -0.19967891041123431 0 -0.29378127678442739 -0.18470713079381479 0 -0.27955515667245689 -0.1963708483177988 0 -0.29221389961596578 -0.19967891041123431 0 -0.28410449073618349 -0.20605526383134851 0 -0.28296858539022202 -0.22660300125927851 0 -0.27113960621524141 -0.2129150041854245 0 -0.29350930044106499 -0.2152562924109416 0 -0.27113960621524141 -0.2129150041854245 0 -0.29350930044106499 -0.2152562924109416 0 -0.27113960621524141 -0.2129150041854245 0 -0.28410449073618349 -0.20605526383134851 0 -0.29350930044106499 -0.2152562924109416 0 -0.29221389961596578 -0.19967891041123431 0 -0.28410449073618349 -0.20605526383134851 0 -0.29350930044106499 -0.2152562924109416 0 -0.29350930044106499 -0.2152562924109416 0 -0.31014503401332899 -0.21699744482644659 0 -0.29350930044106499 -0.2152562924109416 0 -0.3060491696584931 -0.2017575644479658 0 -0.29221389961596578 -0.19967891041123431 0 -0.29350930044106499 -0.2152562924109416 0 -0.3060491696584931 -0.2017575644479658 0 -0.29350930044106499 -0.2152562924109416 0 -0.31014503401332899 -0.21699744482644659 0 -0.3060491696584931 -0.2017575644479658 0 -0.31014503401332899 -0.21699744482644659 0 -0.3060491696584931 -0.2017575644479658 0 -0.31623114886529441 -0.20122109694311999 0 -0.30096959082794972 -0.22228737681010999 0 -0.29350930044106499 -0.2152562924109416 0 -0.31014503401332899 -0.21699744482644659 0 -0.29221389961596578 -0.19967891041123431 0 -0.3060491696584931 -0.2017575644479658 0 -0.29378127678442739 -0.18470713079381479 0 -0.3060491696584931 -0.2017575644479658 0 -0.29378127678442739 -0.18470713079381479 0 -0.31858903887592349 -0.18825883648499231 0 -0.3060491696584931 -0.2017575644479658 0 -0.31858903887592349 -0.18825883648499231 0 -0.29378127678442739 -0.18470713079381479 0 -0.31858903887592349 -0.18825883648499231 0 -0.31145130088311479 -0.1814725814592128 0 -0.29378127678442739 -0.18470713079381479 0 -0.31858903887592349 -0.18825883648499231 0 -0.3031559290550585 -0.17392495880642869 0 -0.31145130088311479 -0.1814725814592128 0 -0.29378127678442739 -0.18470713079381479 0 -0.3031559290550585 -0.17392495880642869 0 -0.31145130088311479 -0.1814725814592128 0 -0.3165892644717106 -0.17808631878985659 0 -0.3031559290550585 -0.17392495880642869 0 -0.30350130301317663 -0.1613002280239498 0 -0.31464618494487429 -0.16245604007366149 0 -0.30350130301317663 -0.1613002280239498 0 -0.31101752771986452 -0.1551734461471794 0 -0.31464618494487429 -0.16245604007366149 0 -0.3031559290550585 -0.17392495880642869 0 -0.30350130301317663 -0.1613002280239498 0 -0.29256480670412138 -0.16639219244065259 0 -0.30350130301317663 -0.1613002280239498 0 -0.29256480670412138 -0.16639219244065259 0 -0.29192552113154657 -0.15620788517600409 0 -0.29256480670412138 -0.16639219244065259 0 -0.28356294230653928 -0.16436925787381079 0 -0.29192552113154657 -0.15620788517600409 0 -0.28356294230653928 -0.16436925787381079 0 -0.27813109396546848 -0.15470682618706519 0 -0.29192552113154657 -0.15620788517600409 0 -0.29256480670412138 -0.16639219244065259 0 -0.28356294230653928 -0.16436925787381079 0 -0.28067833801428621 -0.17615863232306939 0 -0.29378127678442739 -0.18470713079381479 0 -0.26897351469293163 -0.18115542510263591 0 -0.3031559290550585 -0.17392495880642869 0 -0.29378127678442739 -0.18470713079381479 0 -0.28067833801428621 -0.17615863232306939 0 -0.3031559290550585 -0.17392495880642869 0 -0.28067833801428621 -0.17615863232306939 0 -0.3031559290550585 -0.17392495880642869 0 -0.29256480670412138 -0.16639219244065259 0 -0.28067833801428621 -0.17615863232306939 0 -0.27955515667245689 -0.1963708483177988 0 -0.29378127678442739 -0.18470713079381479 0 -0.26897351469293163 -0.18115542510263591 0 -0.29378127678442739 -0.18470713079381479 0 -0.28067833801428621 -0.17615863232306939 0 -0.26897351469293163 -0.18115542510263591 0 -0.28067833801428621 -0.17615863232306939 0 -0.26897351469293163 -0.18115542510263591 0 -0.27261776014570349 -0.1666173931021904 0 -0.24416575260143589 -0.17760371941145711 0 -0.26897351469293163 -0.18115542510263591 0 -0.25439744610217901 -0.17272260323229979 0 -0.24416575260143589 -0.17760371941145711 0 -0.25393282328321037 -0.19300403884003059 0 -0.26897351469293163 -0.18115542510263591 0 -0.24416575260143589 -0.17760371941145711 0 -0.26897351469293163 -0.18115542510263591 0 -0.26897351469293163 -0.18115542510263591 0 -0.25439744610217901 -0.17272260323229979 0 -0.25843524463159429 -0.16634875341091049 0 -0.24601527248275429 -0.16578251500419569 0 -0.25843524463159429 -0.16634875341091049 0 -0.2504203735399923 -0.1550590829129613 0 -0.24601527248275429 -0.16578251500419569 0 -0.25439744610217901 -0.17272260323229979 0 -0.25843524463159429 -0.16634875341091049 0 -0.25843524463159429 -0.16634875341091049 0 -0.26485669812637808 -0.15667704764687129 0 -0.27261776014570349 -0.1666173931021904 0 -0.25843524463159429 -0.16634875341091049 0 -0.26485669812637808 -0.15667704764687129 0 -0.2504203735399923 -0.1550590829129613 0 -0.26485669812637808 -0.15667704764687129 0 -0.27261776014570349 -0.1666173931021904 0 -0.27813109396546848 -0.15470682618706519 0 -0.26897351469293163 -0.18115542510263591 0 -0.25843524463159429 -0.16634875341091049 0 -0.27261776014570349 -0.1666173931021904 0 -0.28356294230653928 -0.16436925787381079 0 -0.28067833801428621 -0.17615863232306939 0 -0.27261776014570349 -0.1666173931021904 0 -0.28356294230653928 -0.16436925787381079 0 -0.27261776014570349 -0.1666173931021904 0 -0.27813109396546848 -0.15470682618706519 0 -0.26485669812637808 -0.15667704764687129 0 -0.27813109396546848 -0.15470682618706519 0 -0.27107074665776409 -0.1403601570191271 0 -0.27813109396546848 -0.15470682618706519 0 -0.27107074665776409 -0.1403601570191271 0 -0.28707539907450053 -0.13765399386255309 0 -0.24498499433400001 -0.13926679191499999 0 -0.25700278284381439 -0.1459478531559083 0 -0.2504203735399923 -0.1550590829129613 0 -0.26485669812637808 -0.15667704764687129 0 -0.25700278284381439 -0.1459478531559083 0 -0.27107074665776409 -0.1403601570191271 0 -0.26485669812637808 -0.15667704764687129 0 -0.25700278284381439 -0.1459478531559083 0 -0.2504203735399923 -0.1550590829129613 0 -0.24498499433400001 -0.13926679191499999 0 -0.25267264513587889 -0.1215588879498425 0 -0.25882396804111618 -0.13366597894571081 0 -0.24498499433400001 -0.13926679191499999 0 -0.25700278284381439 -0.1459478531559083 0 -0.25882396804111618 -0.13366597894571081 0 -0.25700278284381439 -0.1459478531559083 0 -0.25882396804111618 -0.13366597894571081 0 -0.27107074665776409 -0.1403601570191271 0 -0.27272842310790468 -0.1190008904939199 0 -0.25882396804111618 -0.13366597894571081 0 -0.27107074665776409 -0.1403601570191271 0 -0.27272842310790468 -0.1190008904939199 0 -0.28707539907450053 -0.13765399386255309 0 -0.27272842310790468 -0.1190008904939199 0 -0.27107074665776409 -0.1403601570191271 0 -0.28707539907450053 -0.13765399386255309 0 -0.28967909008679588 -0.1211358467321744 0 -0.28707539907450053 -0.13765399386255309 0 -0.30314889797602618 -0.1269137262519188 0 -0.27272842310790468 -0.1190008904939199 0 -0.28967909008679588 -0.1211358467321744 0 -0.28707539907450053 -0.13765399386255309 0 -0.28707539907450053 -0.13765399386255309 0 -0.29192552113154657 -0.15620788517600409 0 -0.30228809249177702 -0.1499798586730276 0 -0.27813109396546848 -0.15470682618706519 0 -0.28707539907450053 -0.13765399386255309 0 -0.29192552113154657 -0.15620788517600409 0 -0.28707539907450053 -0.13765399386255309 0 -0.30228809249177702 -0.1499798586730276 0 -0.30389296922330289 -0.1388735675424316 0 -0.30350130301317663 -0.1613002280239498 0 -0.29192552113154657 -0.15620788517600409 0 -0.30228809249177702 -0.1499798586730276 0 -0.30228809249177702 -0.1499798586730276 0 -0.31101752771986452 -0.1551734461471794 0 -0.31180074421487203 -0.1461232077624566 0 -0.30350130301317663 -0.1613002280239498 0 -0.30228809249177702 -0.1499798586730276 0 -0.31101752771986452 -0.1551734461471794 0 -0.30228809249177702 -0.1499798586730276 0 -0.31180074421487203 -0.1461232077624566 0 -0.30389296922330289 -0.1388735675424316 0 -0.30314889797602618 -0.1269137262519188 0 -0.30389296922330289 -0.1388735675424316 0 -0.31344484832653002 -0.13617884973045491 0 -0.28707539907450053 -0.13765399386255309 0 -0.30314889797602618 -0.1269137262519188 0 -0.30389296922330289 -0.1388735675424316 0 -0.31180074421487203 -0.1461232077624566 0 -0.30389296922330289 -0.1388735675424316 0 -0.31344484832653002 -0.13617884973045491 0 -0.30314889797602618 -0.1269137262519188 0 -0.31624287369029958 -0.1274442202940835 0 -0.31344484832653002 -0.13617884973045491 0 -0.32292456406968473 -0.13488659222320071 0 -0.32208540413664688 -0.14398882217303741 0 -0.3285630124282648 -0.14015628409748171 0 -0.32292456406968473 -0.13488659222320071 0 -0.33051127068135472 -0.13370594572960701 0 -0.3285630124282648 -0.14015628409748171 0 -0.32292456406968473 -0.13488659222320071 0 -0.32574439139689643 -0.12708692906384639 0 -0.33051127068135472 -0.13370594572960701 0 -0.32292456406968473 -0.13488659222320071 0 -0.32574439139689643 -0.12708692906384639 0 -0.31624287369029958 -0.1274442202940835 0 -0.32292456406968473 -0.13488659222320071 0 -0.31624287369029958 -0.1274442202940835 0 -0.31344484832653002 -0.13617884973045491 0 -0.32292456406968473 -0.13488659222320071 0 -0.31344484832653002 -0.13617884973045491 0 -0.32208540413664688 -0.14398882217303741 0 -0.31180074421487203 -0.1461232077624566 0 -0.31807562339111112 -0.152544702308609 0 -0.32208540413664688 -0.14398882217303741 0 -0.31180074421487203 -0.1461232077624566 0 -0.31344484832653002 -0.13617884973045491 0 -0.32208540413664688 -0.14398882217303741 0 -0.31101752771986452 -0.1551734461471794 0 -0.31180074421487203 -0.1461232077624566 0 -0.31807562339111112 -0.152544702308609 0 -0.32491550064758329 -0.1505101042707703 0 -0.32730655455865593 -0.15481543200816919 0 -0.32871330173273489 -0.14606199535904821 0 -0.31807562339111112 -0.152544702308609 0 -0.32491550064758329 -0.1505101042707703 0 -0.32208540413664688 -0.14398882217303741 0 -0.31807562339111112 -0.152544702308609 0 -0.32491550064758329 -0.1505101042707703 0 -0.3234147420344784 -0.15817363128894771 0 -0.32491550064758329 -0.1505101042707703 0 -0.32730655455865593 -0.15481543200816919 0 -0.3234147420344784 -0.15817363128894771 0 -0.32491550064758329 -0.1505101042707703 0 -0.32208540413664688 -0.14398882217303741 0 -0.32871330173273489 -0.14606199535904821 0 -0.32208540413664688 -0.14398882217303741 0 -0.32871330173273489 -0.14606199535904821 0 -0.3285630124282648 -0.14015628409748171 0 -0.33115959282583513 -0.14296301500976311 0 -0.33385570828265287 -0.14764014383229371 0 -0.33255631618339759 -0.1390575383873501 0 -0.33385570828265287 -0.14764014383229371 0 -0.33675470632006371 -0.1456175988066819 0 -0.32731916858115617 -0.171523776753256 0 -0.33115959282583513 -0.14296301500976311 0 -0.32871330173273489 -0.14606199535904821 0 -0.3285630124282648 -0.14015628409748171 0 -0.33115959282583513 -0.14296301500976311 0 -0.33255631618339759 -0.1390575383873501 0 -0.3285630124282648 -0.14015628409748171 0 -0.33115959282583513 -0.14296301500976311 0 -0.32871330173273489 -0.14606199535904821 0 -0.33385570828265287 -0.14764014383229371 0 -0.32730655455865593 -0.15481543200816919 0 -0.32871330173273489 -0.14606199535904821 0 -0.33385570828265287 -0.14764014383229371 0 -0.34214539601882898 -0.15091729437367921 0 -0.33675470632006371 -0.1456175988066819 0 -0.33759067366197121 -0.1591091089344473 0 -0.34214539601882898 -0.15091729437367921 0 -0.34890008927473021 -0.15563005730786239 0 -0.33759067366197121 -0.1591091089344473 0 -0.33675470632006371 -0.1456175988066819 0 -0.34137605675171201 -0.14181612292074969 0 -0.34294819095520968 -0.13502758465579531 0 -0.34214539601882898 -0.15091729437367921 0 -0.33675470632006371 -0.1456175988066819 0 -0.34208283167352033 -0.14549416726752881 0 -0.34214539601882898 -0.15091729437367921 0 -0.34208283167352033 -0.14549416726752881 0 -0.34620247680680127 -0.14833062826910759 0 -0.33675470632006371 -0.1456175988066819 0 -0.34208283167352033 -0.14549416726752881 0 -0.34137605675171201 -0.14181612292074969 0 -0.34208283167352033 -0.14549416726752881 0 -0.34371849805805449 -0.14112514095299289 0 -0.34137605675171201 -0.14181612292074969 0 -0.34207789646947578 -0.1235890023748014 0 -0.33385570828265287 -0.14764014383229371 0 -0.33675470632006371 -0.1456175988066819 0 -0.34207789646947578 -0.1235890023748014 0 -0.33385570828265287 -0.14764014383229371 0 -0.3461902440589707 -0.1197114208601076 0 -0.33675470632006371 -0.1456175988066819 0 -0.34371849805805449 -0.14112514095299289 0 -0.34137605675171201 -0.14181612292074969 0 -0.34294819095520968 -0.13502758465579531 0 -0.3461902440589707 -0.1197114208601076 0 -0.33675470632006371 -0.1456175988066819 0 -0.34294819095520968 -0.13502758465579531 0 -0.34207789646947578 -0.1235890023748014 0 -0.3461902440589707 -0.1197114208601076 0 -0.33675470632006371 -0.1456175988066819 0 -0.34207789646947578 -0.1235890023748014 0 -0.33385570828265287 -0.14764014383229371 0 -0.3351683805975551 -0.13376135696255659 0 -0.33385570828265287 -0.14764014383229371 0 -0.33255631618339759 -0.1390575383873501 0 -0.3351683805975551 -0.13376135696255659 0 -0.33255631618339759 -0.1390575383873501 0 -0.3351683805975551 -0.13376135696255659 0 -0.33051127068135472 -0.13370594572960701 0 -0.33255631618339759 -0.1390575383873501 0 -0.33051127068135472 -0.13370594572960701 0 -0.3285630124282648 -0.14015628409748171 0 -0.32574439139689643 -0.12708692906384639 0 -0.33051127068135472 -0.13370594572960701 0 -0.33359360987340408 -0.1264366553301487 0 -0.3351683805975551 -0.13376135696255659 0 -0.33051127068135472 -0.13370594572960701 0 -0.33359360987340408 -0.1264366553301487 0 -0.34207789646947578 -0.1235890023748014 0 -0.3351683805975551 -0.13376135696255659 0 -0.33359360987340408 -0.1264366553301487 0 -0.34294819095520968 -0.13502758465579531 0 -0.34736967540495078 -0.12522581123200011 0 -0.34897228448658979 -0.13203285905000281 0 -0.3461902440589707 -0.1197114208601076 0 -0.34294819095520968 -0.13502758465579531 0 -0.34736967540495078 -0.12522581123200011 0 -0.34736967540495078 -0.12522581123200011 0 -0.34897228448658979 -0.13203285905000281 0 -0.35261516285617661 -0.12796608345369159 0 -0.34371849805805449 -0.14112514095299289 0 -0.34294819095520968 -0.13502758465579531 0 -0.34876023812405049 -0.13869648743480431 0 -0.34294819095520968 -0.13502758465579531 0 -0.34897228448658979 -0.13203285905000281 0 -0.34876023812405049 -0.13869648743480431 0 -0.34897228448658979 -0.13203285905000281 0 -0.34876023812405049 -0.13869648743480431 0 -0.35187878618866553 -0.1351832253890681 0 -0.34876023812405049 -0.13869648743480431 0 -0.35506187429618041 -0.1382005086133351 0 -0.35187878618866553 -0.1351832253890681 0 -0.34897228448658979 -0.13203285905000281 0 -0.35187878618866553 -0.1351832253890681 0 -0.35537264595594598 -0.13142644832590999 0 -0.35506187429618041 -0.1382005086133351 0 -0.35187878618866553 -0.1351832253890681 0 -0.35537264595594598 -0.13142644832590999 0 -0.35506187429618041 -0.1382005086133351 0 -0.35537264595594598 -0.13142644832590999 0 -0.36227388089114682 -0.13202976115014539 0 -0.35874604557721962 -0.1231792152068535 0 -0.35537264595594598 -0.13142644832590999 0 -0.36227388089114682 -0.13202976115014539 0 -0.35874604557721962 -0.1231792152068535 0 -0.34736967540495078 -0.12522581123200011 0 -0.35261516285617661 -0.12796608345369159 0 -0.35874604557721962 -0.1231792152068535 0 -0.35261516285617661 -0.12796608345369159 0 -0.35537264595594598 -0.13142644832590999 0 -0.34897228448658979 -0.13203285905000281 0 -0.35261516285617661 -0.12796608345369159 0 -0.35537264595594598 -0.13142644832590999 0 -0.36800375731069912 -0.1238998734332004 0 -0.36227388089114682 -0.13202976115014539 0 -0.36971254327551278 -0.13490805922041299 0 -0.35874604557721962 -0.1231792152068535 0 -0.36800375731069912 -0.1238998734332004 0 -0.36227388089114682 -0.13202976115014539 0 -0.35506187429618041 -0.1382005086133351 0 -0.36227388089114682 -0.13202976115014539 0 -0.36161187371198539 -0.13940907016974069 0 -0.36161187371198539 -0.13940907016974069 0 -0.36971254327551278 -0.13490805922041299 0 -0.36598637623674662 -0.1459169031642456 0 -0.36227388089114682 -0.13202976115014539 0 -0.36161187371198539 -0.13940907016974069 0 -0.36971254327551278 -0.13490805922041299 0 -0.36971254327551278 -0.13490805922041299 0 -0.37286342940633432 -0.14233207782336299 0 -0.3811389359611102 -0.1339080842108869 0 -0.36800375731069912 -0.1238998734332004 0 -0.36971254327551278 -0.13490805922041299 0 -0.37767647089691508 -0.12560686433188781 0 -0.36598637623674662 -0.1459169031642456 0 -0.36167084042242498 -0.1547324776079308 0 -0.37528303175864752 -0.15417168835971809 0 -0.36971254327551278 -0.13490805922041299 0 -0.37286342940633432 -0.14233207782336299 0 -0.36598637623674662 -0.1459169031642456 0 -0.37286342940633432 -0.14233207782336299 0 -0.36598637623674662 -0.1459169031642456 0 -0.37528303175864752 -0.15417168835971809 0 -0.36161187371198539 -0.13940907016974069 0 -0.36598637623674662 -0.1459169031642456 0 -0.35425314167812838 -0.14532977906571751 0 -0.36598637623674662 -0.1459169031642456 0 -0.36167084042242498 -0.1547324776079308 0 -0.35425314167812838 -0.14532977906571751 0 -0.36167084042242498 -0.1547324776079308 0 -0.35425314167812838 -0.14532977906571751 0 -0.34890008927473021 -0.15563005730786239 0 -0.35506187429618041 -0.1382005086133351 0 -0.36161187371198539 -0.13940907016974069 0 -0.35425314167812838 -0.14532977906571751 0 -0.34876023812405049 -0.13869648743480431 0 -0.35506187429618041 -0.1382005086133351 0 -0.35425314167812838 -0.14532977906571751 0 -0.35425314167812838 -0.14532977906571751 0 -0.34620247680680127 -0.14833062826910759 0 -0.34672222494439903 -0.14330662770962829 0 -0.34876023812405049 -0.13869648743480431 0 -0.35425314167812838 -0.14532977906571751 0 -0.34672222494439903 -0.14330662770962829 0 -0.34208283167352033 -0.14549416726752881 0 -0.34620247680680127 -0.14833062826910759 0 -0.34672222494439903 -0.14330662770962829 0 -0.34371849805805449 -0.14112514095299289 0 -0.34876023812405049 -0.13869648743480431 0 -0.34672222494439903 -0.14330662770962829 0 -0.34208283167352033 -0.14549416726752881 0 -0.34371849805805449 -0.14112514095299289 0 -0.34672222494439903 -0.14330662770962829 0 -0.35425314167812838 -0.14532977906571751 0 -0.34620247680680127 -0.14833062826910759 0 -0.34890008927473021 -0.15563005730786239 0 -0.34214539601882898 -0.15091729437367921 0 -0.34620247680680127 -0.14833062826910759 0 -0.34890008927473021 -0.15563005730786239 0 -0.34890008927473021 -0.15563005730786239 0 -0.35687809660383041 -0.168586407059822 0 -0.33482858052386838 -0.17077754133365231 0 -0.35687809660383041 -0.168586407059822 0 -0.33482858052386838 -0.17077754133365231 0 -0.36167084042242498 -0.1547324776079308 0 -0.34890008927473021 -0.15563005730786239 0 -0.35687809660383041 -0.168586407059822 0 -0.36167084042242498 -0.1547324776079308 0 -0.35687809660383041 -0.168586407059822 0 -0.36581477408527191 -0.1629814663840051 0 -0.36581477408527191 -0.1629814663840051 0 -0.36942712755618468 -0.17443529250854931 0 -0.37528303175864752 -0.15417168835971809 0 -0.36942712755618468 -0.17443529250854931 0 -0.37528303175864752 -0.15417168835971809 0 -0.36942712755618468 -0.17443529250854931 0 -0.37660310750009979 -0.17064686935447951 0 -0.37528303175864752 -0.15417168835971809 0 -0.35687809660383041 -0.168586407059822 0 -0.36581477408527191 -0.1629814663840051 0 -0.36942712755618468 -0.17443529250854931 0 -0.36167084042242498 -0.1547324776079308 0 -0.36581477408527191 -0.1629814663840051 0 -0.37528303175864752 -0.15417168835971809 0 -0.36942712755618468 -0.17443529250854931 0 -0.35729760952365808 -0.1817998505464333 0 -0.36357122335371722 -0.19469889665737911 0 -0.37275449283316142 -0.19601365735016421 0 -0.37660310750009979 -0.17064686935447951 0 -0.36942712755618468 -0.17443529250854931 0 -0.37275449283316142 -0.19601365735016421 0 -0.37660310750009979 -0.17064686935447951 0 -0.36942712755618468 -0.17443529250854931 0 -0.36357122335371722 -0.19469889665737911 0 -0.35687809660383041 -0.168586407059822 0 -0.36942712755618468 -0.17443529250854931 0 -0.35729760952365808 -0.1817998505464333 0 -0.35687809660383041 -0.168586407059822 0 -0.34520988401338071 -0.17908592767244369 0 -0.33482858052386838 -0.17077754133365231 0 -0.35687809660383041 -0.168586407059822 0 -0.35729760952365808 -0.1817998505464333 0 -0.34520988401338071 -0.17908592767244369 0 -0.35729760952365808 -0.1817998505464333 0 -0.34520988401338071 -0.17908592767244369 0 -0.34233228407687111 -0.19165813622014269 0 -0.34520988401338071 -0.17908592767244369 0 -0.33327746676923148 -0.18274644040594781 0 -0.34233228407687111 -0.19165813622014269 0 -0.33482858052386838 -0.17077754133365231 0 -0.32731916858115617 -0.171523776753256 0 -0.32292324043201198 -0.18359322102059289 0 -0.33482858052386838 -0.17077754133365231 0 -0.32292324043201198 -0.18359322102059289 0 -0.33327746676923148 -0.18274644040594781 0 -0.33482858052386838 -0.17077754133365231 0 -0.32292324043201198 -0.18359322102059289 0 -0.34520988401338071 -0.17908592767244369 0 -0.33327746676923148 -0.18274644040594781 0 -0.33482858052386838 -0.17077754133365231 0 -0.32730655455865593 -0.15481543200816919 0 -0.33385570828265287 -0.14764014383229371 0 -0.32563352009583069 -0.17169128528978619 0 -0.33385570828265287 -0.14764014383229371 0 -0.32563352009583069 -0.17169128528978619 0 -0.33675470632006371 -0.1456175988066819 0 -0.32731916858115617 -0.171523776753256 0 -0.33675470632006371 -0.1456175988066819 0 -0.33759067366197121 -0.1591091089344473 0 -0.32731916858115617 -0.171523776753256 0 -0.33385570828265287 -0.14764014383229371 0 -0.32731916858115617 -0.171523776753256 0 -0.32563352009583069 -0.17169128528978619 0 -0.34890008927473021 -0.15563005730786239 0 -0.33759067366197121 -0.1591091089344473 0 -0.33482858052386838 -0.17077754133365231 0 -0.34890008927473021 -0.15563005730786239 0 -0.33482858052386838 -0.17077754133365231 0 -0.33759067366197121 -0.1591091089344473 0 -0.33482858052386838 -0.17077754133365231 0 -0.32731916858115617 -0.171523776753256 0 -0.33482858052386838 -0.17077754133365231 0 -0.32731916858115617 -0.171523776753256 0 -0.32563352009583069 -0.17169128528978619 0 -0.3234147420344784 -0.15817363128894771 0 -0.31464618494487429 -0.16245604007366149 0 -0.3031559290550585 -0.17392495880642869 0 -0.32563352009583069 -0.17169128528978619 0 -0.31464618494487429 -0.16245604007366149 0 -0.32730655455865593 -0.15481543200816919 0 -0.32563352009583069 -0.17169128528978619 0 -0.3234147420344784 -0.15817363128894771 0 -0.32731916858115617 -0.171523776753256 0 -0.32563352009583069 -0.17169128528978619 0 -0.31807562339111112 -0.152544702308609 0 -0.3234147420344784 -0.15817363128894771 0 -0.31464618494487429 -0.16245604007366149 0 -0.31101752771986452 -0.1551734461471794 0 -0.31807562339111112 -0.152544702308609 0 -0.31464618494487429 -0.16245604007366149 0 -0.3031559290550585 -0.17392495880642869 0 -0.32563352009583069 -0.17169128528978619 0 -0.3165892644717106 -0.17808631878985659 0 -0.3031559290550585 -0.17392495880642869 0 -0.32563352009583069 -0.17169128528978619 0 -0.31145130088311479 -0.1814725814592128 0 -0.32077362801694209 -0.18590720314542461 0 -0.31858903887592349 -0.18825883648499231 0 -0.31145130088311479 -0.1814725814592128 0 -0.3165892644717106 -0.17808631878985659 0 -0.32077362801694209 -0.18590720314542461 0 -0.32077362801694209 -0.18590720314542461 0 -0.31858903887592349 -0.18825883648499231 0 -0.32563352009583069 -0.17169128528978619 0 -0.32292324043201198 -0.18359322102059289 0 -0.32077362801694209 -0.18590720314542461 0 -0.33327746676923148 -0.18274644040594781 0 -0.32292324043201198 -0.18359322102059289 0 -0.32109334480002483 -0.18861737578290691 0 -0.32292324043201198 -0.18359322102059289 0 -0.32109334480002483 -0.18861737578290691 0 -0.32292324043201198 -0.18359322102059289 0 -0.32077362801694209 -0.18590720314542461 0 -0.32109334480002483 -0.18861737578290691 0 -0.32077362801694209 -0.18590720314542461 0 -0.32109334480002483 -0.18861737578290691 0 -0.32292324043201198 -0.18359322102059289 0 -0.32077362801694209 -0.18590720314542461 0 -0.32563352009583069 -0.17169128528978619 0 -0.3165892644717106 -0.17808631878985659 0 -0.32077362801694209 -0.18590720314542461 0 -0.32563352009583069 -0.17169128528978619 0 -0.32077362801694209 -0.18590720314542461 0 -0.32731916858115617 -0.171523776753256 0 -0.32292324043201198 -0.18359322102059289 0 -0.32731916858115617 -0.171523776753256 0 -0.32563352009583069 -0.17169128528978619 0 -0.32292324043201198 -0.18359322102059289 0 -0.32109334480002483 -0.18861737578290691 0 -0.31623114886529441 -0.20122109694311999 0 -0.33149408263129909 -0.2016497658158671 0 -0.32109334480002483 -0.18861737578290691 0 -0.31623114886529441 -0.20122109694311999 0 -0.3060491696584931 -0.2017575644479658 0 -0.32109334480002483 -0.18861737578290691 0 -0.31858903887592349 -0.18825883648499231 0 -0.32109334480002483 -0.18861737578290691 0 -0.31858903887592349 -0.18825883648499231 0 -0.32077362801694209 -0.18590720314542461 0 -0.32109334480002483 -0.18861737578290691 0 -0.31858903887592349 -0.18825883648499231 0 -0.3060491696584931 -0.2017575644479658 0 -0.32109334480002483 -0.18861737578290691 0 -0.31623114886529441 -0.20122109694311999 0 -0.31014503401332899 -0.21699744482644659 0 -0.31623114886529441 -0.20122109694311999 0 -0.33375617095637378 -0.21946866666602891 0 -0.31623114886529441 -0.20122109694311999 0 -0.33149408263129909 -0.2016497658158671 0 -0.33375617095637378 -0.21946866666602891 0 -0.31014503401332899 -0.21699744482644659 0 -0.31623114886529441 -0.20122109694311999 0 -0.31014503401332899 -0.21699744482644659 0 -0.33375617095637378 -0.21946866666602891 0 -0.33149408263129909 -0.2016497658158671 0 -0.34607075337960769 -0.20346007969767241 0 -0.33375617095637378 -0.21946866666602891 0 -0.33327746676923148 -0.18274644040594781 0 -0.32109334480002483 -0.18861737578290691 0 -0.34233228407687111 -0.19165813622014269 0 -0.33149408263129909 -0.2016497658158671 0 -0.34233228407687111 -0.19165813622014269 0 -0.34607075337960769 -0.20346007969767241 0 -0.32109334480002483 -0.18861737578290691 0 -0.33149408263129909 -0.2016497658158671 0 -0.34233228407687111 -0.19165813622014269 0 -0.32109334480002483 -0.18861737578290691 0 -0.34233228407687111 -0.19165813622014269 0 -0.36357122335371722 -0.19469889665737911 0 -0.35920000587977918 -0.20982493312894679 0 -0.34607075337960769 -0.20346007969767241 0 -0.34233228407687111 -0.19165813622014269 0 -0.36357122335371722 -0.19469889665737911 0 -0.34607075337960769 -0.20346007969767241 0 -0.34233228407687111 -0.19165813622014269 0 -0.36357122335371722 -0.19469889665737911 0 -0.35729760952365808 -0.1817998505464333 0 -0.34233228407687111 -0.19165813622014269 0 -0.36357122335371722 -0.19469889665737911 0 -0.36942712755618468 -0.17443529250854931 0 -0.36357122335371722 -0.19469889665737911 0 -0.37275449283316142 -0.19601365735016421 0 -0.36357122335371722 -0.19469889665737911 0 -0.35920000587977918 -0.20982493312894679 0 -0.36357122335371722 -0.19469889665737911 0 -0.37275449283316142 -0.19601365735016421 0 -0.37275449283316142 -0.19601365735016421 0 -0.37135821621338427 -0.20521672288477169 0 -0.36357122335371722 -0.19469889665737911 0 -0.37275449283316142 -0.19601365735016421 0 -0.37135821621338427 -0.20521672288477169 0 -0.37135821621338427 -0.20521672288477169 0 -0.36736808451745862 -0.2315162705310593 0 -0.37135821621338427 -0.20521672288477169 0 -0.35855670613900581 -0.212050989233242 0 -0.36736808451745862 -0.2315162705310593 0 -0.36357122335371722 -0.19469889665737911 0 -0.37135821621338427 -0.20521672288477169 0 -0.35920000587977918 -0.20982493312894679 0 -0.37135821621338427 -0.20521672288477169 0 -0.35855670613900581 -0.212050989233242 0 -0.35920000587977918 -0.20982493312894679 0 -0.37135821621338427 -0.20521672288477169 0 -0.35920000587977918 -0.20982493312894679 0 -0.35855670613900581 -0.212050989233242 0 -0.35920000587977918 -0.20982493312894679 0 -0.33375617095637378 -0.21946866666602891 0 -0.35920000587977918 -0.20982493312894679 0 -0.33375617095637378 -0.21946866666602891 0 -0.35920000587977918 -0.20982493312894679 0 -0.34607075337960769 -0.20346007969767241 0 -0.33375617095637378 -0.21946866666602891 0 -0.35855670613900581 -0.212050989233242 0 -0.35087216494825912 -0.22126008476931541 0 -0.33375617095637378 -0.21946866666602891 0 -0.35855670613900581 -0.212050989233242 0 -0.35920000587977918 -0.20982493312894679 0 -0.35087216494825912 -0.22126008476931541 0 -0.35377629788439657 -0.23792667286237079 0 -0.34217456174296002 -0.23177668218629491 0 -0.35087216494825912 -0.22126008476931541 0 -0.36736808451745862 -0.2315162705310593 0 -0.35377629788439657 -0.23792667286237079 0 -0.35855670613900581 -0.212050989233242 0 -0.35087216494825912 -0.22126008476931541 0 -0.36736808451745862 -0.2315162705310593 0 -0.3633779528215354 -0.25781581817734728 0 -0.36736808451745862 -0.2315162705310593 0 -0.3633779528215354 -0.25781581817734728 0 -0.36736808451745862 -0.2315162705310593 0 -0.38731903233915838 -0.23842812602661409 0 -0.3633779528215354 -0.25781581817734728 0 -0.36736808451745862 -0.2315162705310593 0 -0.35377629788439657 -0.23792667286237079 0 -0.3633779528215354 -0.25781581817734728 0 -0.35377629788439657 -0.23792667286237079 0 -0.34508872539177032 -0.247264508647837 0 -0.35377629788439657 -0.23792667286237079 0 -0.34508872539177032 -0.247264508647837 0 -0.34217456174296002 -0.23177668218629491 0 -0.33411189979342348 -0.25865620679674789 0 -0.34508872539177032 -0.247264508647837 0 -0.32807514775026009 -0.2398334552598963 0 -0.34508872539177032 -0.247264508647837 0 -0.34217456174296002 -0.23177668218629491 0 -0.32807514775026009 -0.2398334552598963 0 -0.35087216494825912 -0.22126008476931541 0 -0.34217456174296002 -0.23177668218629491 0 -0.33375617095637378 -0.21946866666602891 0 -0.35087216494825912 -0.22126008476931541 0 -0.33375617095637378 -0.21946866666602891 0 -0.34217456174296002 -0.23177668218629491 0 -0.33375617095637378 -0.21946866666602891 0 -0.32807514775026009 -0.2398334552598963 0 -0.30565966870706912 -0.23011781534317591 0 -0.33375617095637378 -0.21946866666602891 0 -0.32807514775026009 -0.2398334552598963 0 -0.30565966870706912 -0.23011781534317591 0 -0.31014503401332899 -0.21699744482644659 0 -0.33375617095637378 -0.21946866666602891 0 -0.30565966870706912 -0.23011781534317591 0 -0.33375617095637378 -0.21946866666602891 0 -0.30565966870706912 -0.23011781534317591 0 -0.31277222751440781 -0.24313221912489119 0 -0.32807514775026009 -0.2398334552598963 0 -0.32053224806165032 -0.25325990110162788 0 -0.30618571126858501 -0.25346888261604072 0 -0.31277222751440781 -0.24313221912489119 0 -0.32053224806165032 -0.25325990110162788 0 -0.31277222751440781 -0.24313221912489119 0 -0.32807514775026009 -0.2398334552598963 0 -0.43236998789552678 -0.25452055740584512 0 -0.42352184515170987 -0.24085774664935489 0 -0.44191976938736238 -0.23655054701809791 0 -0.42352184515170987 -0.24085774664935489 0 -0.42027473402152599 -0.22873997645199731 0 -0.44191976938736238 -0.23655054701809791 0 -0.41679820476979329 -0.2507607630774138 0 -0.43236998789552678 -0.25452055740584512 0 -0.42352184515170987 -0.24085774664935489 0 -0.42926022969918232 -0.2194208131141745 0 -0.42027473402152599 -0.22873997645199731 0 -0.44191976938736238 -0.23655054701809791 0 -0.42926022969918232 -0.2194208131141745 0 -0.44191976938736238 -0.23655054701809791 0 -0.42027473402152599 -0.22873997645199731 0 -0.40314161083307648 -0.22453906749962499 0 -0.41433826622835679 -0.21695645975781419 0 -0.42027473402152599 -0.22873997645199731 0 -0.40897009565496761 -0.23923363928977129 0 -0.40314161083307648 -0.22453906749962499 0 -0.42926022969918232 -0.2194208131141745 0 -0.42027473402152599 -0.22873997645199731 0 -0.41433826622835679 -0.21695645975781419 0 -0.42352184515170987 -0.24085774664935489 0 -0.42027473402152599 -0.22873997645199731 0 -0.40897009565496761 -0.23923363928977129 0 -0.41679820476979329 -0.2507607630774138 0 -0.42352184515170987 -0.24085774664935489 0 -0.40897009565496761 -0.23923363928977129 0 -0.40263167937642541 -0.25474881847894387 0 -0.41679820476979329 -0.2507607630774138 0 -0.40897009565496761 -0.23923363928977129 0 -0.40263167937642541 -0.25474881847894387 0 -0.40897009565496761 -0.23923363928977129 0 -0.38731903233915838 -0.23842812602661409 0 -0.36736808451745862 -0.2315162705310593 0 -0.38731903233915838 -0.23842812602661409 0 -0.38671749196870991 -0.2178372963531755 0 -0.38731903233915838 -0.23842812602661409 0 -0.40314161083307648 -0.22453906749962499 0 -0.38671749196870991 -0.2178372963531755 0 -0.40897009565496761 -0.23923363928977129 0 -0.38731903233915838 -0.23842812602661409 0 -0.40314161083307648 -0.22453906749962499 0 -0.40220715525428807 -0.21192403527004591 0 -0.38671749196870991 -0.2178372963531755 0 -0.38936502787651212 -0.19839177318460921 0 -0.40314161083307648 -0.22453906749962499 0 -0.40220715525428807 -0.21192403527004591 0 -0.38671749196870991 -0.2178372963531755 0 -0.40220715525428807 -0.21192403527004591 0 -0.38936502787651212 -0.19839177318460921 0 -0.41660069001100231 -0.2022910792102508 0 -0.37135821621338427 -0.20521672288477169 0 -0.38671749196870991 -0.2178372963531755 0 -0.38936502787651212 -0.19839177318460921 0 -0.37135821621338427 -0.20521672288477169 0 -0.36736808451745862 -0.2315162705310593 0 -0.38671749196870991 -0.2178372963531755 0 -0.37275449283316142 -0.19601365735016421 0 -0.37135821621338427 -0.20521672288477169 0 -0.38936502787651212 -0.19839177318460921 0 -0.37135821621338427 -0.20521672288477169 0 -0.38936502787651212 -0.19839177318460921 0 -0.37275449283316142 -0.19601365735016421 0 -0.38936502787651212 -0.19839177318460921 0 -0.37275449283316142 -0.19601365735016421 0 -0.38936502787651212 -0.19839177318460921 0 -0.38341209647052171 -0.18501054296255889 0 -0.38936502787651212 -0.19839177318460921 0 -0.39488754681355742 -0.18621882617324251 0 -0.38341209647052171 -0.18501054296255889 0 -0.38936502787651212 -0.19839177318460921 0 -0.40838988287962058 -0.19118096424862119 0 -0.39488754681355742 -0.18621882617324251 0 -0.38936502787651212 -0.19839177318460921 0 -0.41660069001100231 -0.2022910792102508 0 -0.38936502787651212 -0.19839177318460921 0 -0.40838988287962058 -0.19118096424862119 0 -0.41660069001100231 -0.2022910792102508 0 -0.38936502787651212 -0.19839177318460921 0 -0.40838988287962058 -0.19118096424862119 0 -0.40838988287962058 -0.19118096424862119 0 -0.41660069001100231 -0.2022910792102508 0 -0.42620710851811022 -0.19470167693772181 0 -0.40838988287962058 -0.19118096424862119 0 -0.41660069001100231 -0.2022910792102508 0 -0.42926022969918232 -0.2194208131141745 0 -0.41660069001100231 -0.2022910792102508 0 -0.41433826622835679 -0.21695645975781419 0 -0.40220715525428807 -0.21192403527004591 0 -0.41660069001100231 -0.2022910792102508 0 -0.41433826622835679 -0.21695645975781419 0 -0.40314161083307648 -0.22453906749962499 0 -0.40220715525428807 -0.21192403527004591 0 -0.41433826622835679 -0.21695645975781419 0 -0.42926022969918232 -0.2194208131141745 0 -0.43249190987755443 -0.2045662113173565 0 -0.44639024606213162 -0.2210916591995665 0 -0.42926022969918232 -0.2194208131141745 0 -0.41660069001100231 -0.2022910792102508 0 -0.42926022969918232 -0.2194208131141745 0 -0.41660069001100231 -0.2022910792102508 0 -0.43249190987755443 -0.2045662113173565 0 -0.41660069001100231 -0.2022910792102508 0 -0.43249190987755443 -0.2045662113173565 0 -0.42620710851811022 -0.19470167693772181 0 -0.43129241215971692 -0.18250043749755371 0 -0.44226064766265649 -0.19296969241482731 0 -0.40838988287962058 -0.19118096424862119 0 -0.42620710851811022 -0.19470167693772181 0 -0.43129241215971692 -0.18250043749755371 0 -0.43249190987755443 -0.2045662113173565 0 -0.42620710851811022 -0.19470167693772181 0 -0.44226064766265649 -0.19296969241482731 0 -0.41660069001100231 -0.2022910792102508 0 -0.43249190987755443 -0.2045662113173565 0 -0.42620710851811022 -0.19470167693772181 0 -0.43129241215971692 -0.18250043749755371 0 -0.41576695877641717 -0.1694333077283921 0 -0.4385675898266988 -0.1671420692397203 0 -0.41576695877641717 -0.1694333077283921 0 -0.41933200961560352 -0.15149063391955081 0 -0.4385675898266988 -0.1671420692397203 0 -0.41576695877641717 -0.1694333077283921 0 -0.40297892321928491 -0.1525204641812174 0 -0.41933200961560352 -0.15149063391955081 0 -0.40838988287962058 -0.19118096424862119 0 -0.43129241215971692 -0.18250043749755371 0 -0.40838988287962058 -0.19118096424862119 0 -0.43129241215971692 -0.18250043749755371 0 -0.41576695877641717 -0.1694333077283921 0 -0.40838988287962058 -0.19118096424862119 0 -0.39488754681355742 -0.18621882617324251 0 -0.3940409349575783 -0.1717652772836889 0 -0.40838988287962058 -0.19118096424862119 0 -0.3940409349575783 -0.1717652772836889 0 -0.40838988287962058 -0.19118096424862119 0 -0.41576695877641717 -0.1694333077283921 0 -0.3940409349575783 -0.1717652772836889 0 -0.39488754681355742 -0.18621882617324251 0 -0.38546172165903708 -0.17545380845423181 0 -0.3940409349575783 -0.1717652772836889 0 -0.39488754681355742 -0.18621882617324251 0 -0.38341209647052171 -0.18501054296255889 0 -0.38546172165903708 -0.17545380845423181 0 -0.37275449283316142 -0.19601365735016421 0 -0.38341209647052171 -0.18501054296255889 0 -0.37660310750009979 -0.17064686935447951 0 -0.38546172165903708 -0.17545380845423181 0 -0.3855508649325477 -0.16924449579513989 0 -0.3940409349575783 -0.1717652772836889 0 -0.38341209647052171 -0.18501054296255889 0 -0.38546172165903708 -0.17545380845423181 0 -0.37660310750009979 -0.17064686935447951 0 -0.37660310750009979 -0.17064686935447951 0 -0.3804517221670381 -0.14528008135879469 0 -0.37660310750009979 -0.17064686935447951 0 -0.38609769561347568 -0.1591120280881595 0 -0.3804517221670381 -0.14528008135879469 0 -0.37660310750009979 -0.17064686935447951 0 -0.3804517221670381 -0.14528008135879469 0 -0.37528303175864752 -0.15417168835971809 0 -0.38546172165903708 -0.17545380845423181 0 -0.37660310750009979 -0.17064686935447951 0 -0.3855508649325477 -0.16924449579513989 0 -0.37660310750009979 -0.17064686935447951 0 -0.3855508649325477 -0.16924449579513989 0 -0.38609769561347568 -0.1591120280881595 0 -0.3855508649325477 -0.16924449579513989 0 -0.38609769561347568 -0.1591120280881595 0 -0.3940409349575783 -0.1717652772836889 0 -0.41576695877641717 -0.1694333077283921 0 -0.3940409349575783 -0.1717652772836889 0 -0.40297892321928491 -0.1525204641812174 0 -0.38609769561347568 -0.1591120280881595 0 -0.3940409349575783 -0.1717652772836889 0 -0.40297892321928491 -0.1525204641812174 0 -0.38609769561347568 -0.1591120280881595 0 -0.40297892321928491 -0.1525204641812174 0 -0.39114141026564608 -0.148358039958915 0 -0.40297892321928491 -0.1525204641812174 0 -0.39114141026564608 -0.148358039958915 0 -0.39784283890000349 -0.13595904426838479 0 -0.40297892321928491 -0.1525204641812174 0 -0.39784283890000349 -0.13595904426838479 0 -0.41702134744857761 -0.1336863998604666 0 -0.39114141026564608 -0.148358039958915 0 -0.3880677227368729 -0.1390452874093748 0 -0.39784283890000349 -0.13595904426838479 0 -0.37528303175864752 -0.15417168835971809 0 -0.3811389359611102 -0.1339080842108869 0 -0.37286342940633432 -0.14233207782336299 0 -0.37528303175864752 -0.15417168835971809 0 -0.3811389359611102 -0.1339080842108869 0 -0.38609769561347568 -0.1591120280881595 0 -0.39114141026564608 -0.148358039958915 0 -0.3804517221670381 -0.14528008135879469 0 -0.3804517221670381 -0.14528008135879469 0 -0.37528303175864752 -0.15417168835971809 0 -0.3811389359611102 -0.1339080842108869 0 -0.39114141026564608 -0.148358039958915 0 -0.3804517221670381 -0.14528008135879469 0 -0.3880677227368729 -0.1390452874093748 0 -0.36971254327551278 -0.13490805922041299 0 -0.37767647089691508 -0.12560686433188781 0 -0.3811389359611102 -0.1339080842108869 0 -0.37767647089691508 -0.12560686433188781 0 -0.3811389359611102 -0.1339080842108869 0 -0.38887582534854231 -0.1269238425870523 0 -0.3804517221670381 -0.14528008135879469 0 -0.3811389359611102 -0.1339080842108869 0 -0.3880677227368729 -0.1390452874093748 0 -0.3811389359611102 -0.1339080842108869 0 -0.3880677227368729 -0.1390452874093748 0 -0.38887582534854231 -0.1269238425870523 0 -0.39784283890000349 -0.13595904426838479 0 -0.41702134744857761 -0.1336863998604666 0 -0.39779079774876552 -0.1177794332435953 0 -0.38887582534854231 -0.1269238425870523 0 -0.39784283890000349 -0.13595904426838479 0 -0.39779079774876552 -0.1177794332435953 0 -0.3880677227368729 -0.1390452874093748 0 -0.38887582534854231 -0.1269238425870523 0 -0.39784283890000349 -0.13595904426838479 0 -0.41702134744857761 -0.1336863998604666 0 -0.39779079774876552 -0.1177794332435953 0 -0.40297892321928491 -0.1525204641812174 0 -0.41702134744857761 -0.1336863998604666 0 -0.41933200961560352 -0.15149063391955081 0 -0.41933200961560352 -0.15149063391955081 0 -0.43625189714838958 -0.14959336647733781 0 -0.4385675898266988 -0.1671420692397203 0 -0.41702134744857761 -0.1336863998604666 0 -0.41933200961560352 -0.15149063391955081 0 -0.43625189714838958 -0.14959336647733781 0 -0.41702134744857761 -0.1336863998604666 0 -0.43625189714838958 -0.14959336647733781 0 -0.41702134744857761 -0.1336863998604666 0 -0.43625189714838958 -0.14959336647733781 0 -0.44537481251130262 -0.13183034740928889 0 -0.41702134744857761 -0.1336863998604666 0 -0.44537481251130262 -0.13183034740928889 0 -0.42592089754740192 -0.1131702518453674 0 -0.43625189714838958 -0.14959336647733781 0 -0.45380470418354402 -0.14737174535523939 0 -0.45548244684820183 -0.16550033309420911 0 -0.43625189714838958 -0.14959336647733781 0 -0.44537481251130262 -0.13183034740928889 0 -0.45380470418354402 -0.14737174535523939 0 -0.45380470418354402 -0.14737174535523939 0 -0.46608313851972089 -0.15293466360813771 0 -0.45548244684820183 -0.16550033309420911 0 -0.45380470418354402 -0.14737174535523939 0 -0.46608313851972089 -0.15293466360813771 0 -0.46583122589010512 -0.13700001618722329 0 -0.44537481251130262 -0.13183034740928889 0 -0.45380470418354402 -0.14737174535523939 0 -0.46583122589010512 -0.13700001618722329 0 -0.44537481251130262 -0.13183034740928889 0 -0.46583122589010512 -0.13700001618722329 0 -0.46510782663091121 -0.1170467170076538 0 -0.46583122589010512 -0.13700001618722329 0 -0.48013977989342221 -0.12846100146184941 0 -0.46510782663091121 -0.1170467170076538 0 -0.46583122589010512 -0.13700001618722329 0 -0.48013977989342221 -0.12846100146184941 0 -0.48411017125018779 -0.14441252822313749 0 -0.48013977989342221 -0.12846100146184941 0 -0.4999999999999965 -0.12957771797013209 0 -0.48411017125018779 -0.14441252822313749 0 -0.48411017125018779 -0.14441252822313749 0 -0.47709747071990899 -0.16513938399541739 0 -0.50000000000000444 -0.1564588572443478 0 -0.4999999999999965 -0.12957771797013209 0 -0.48411017125018779 -0.14441252822313749 0 -0.50000000000000444 -0.1564588572443478 0 -0.46608313851972089 -0.15293466360813771 0 -0.46583122589010512 -0.13700001618722329 0 -0.48411017125018779 -0.14441252822313749 0 -0.46608313851972089 -0.15293466360813771 0 -0.48411017125018779 -0.14441252822313749 0 -0.47709747071990899 -0.16513938399541739 0 -0.47709747071990899 -0.16513938399541739 0 -0.50000000000000444 -0.1564588572443478 0 -0.5 -0.18588441688845089 0 -0.47709747071990899 -0.16513938399541739 0 -0.50000000000000444 -0.1564588572443478 0 -0.47709747071990899 -0.16513938399541739 0 -0.5 -0.18588441688845089 0 -0.47307849352928688 -0.18973839783579341 0 -0.45419494143981298 -0.17381991074648551 0 -0.45738558803635487 -0.19437844194596329 0 -0.47307849352928688 -0.18973839783579341 0 -0.47709747071990899 -0.16513938399541739 0 -0.45419494143981298 -0.17381991074648551 0 -0.47307849352928688 -0.18973839783579341 0 -0.46608313851972089 -0.15293466360813771 0 -0.47709747071990899 -0.16513938399541739 0 -0.45548244684820183 -0.16550033309420911 0 -0.47709747071990899 -0.16513938399541739 0 -0.45419494143981298 -0.17381991074648551 0 -0.47709747071990899 -0.16513938399541739 0 -0.45419494143981298 -0.17381991074648551 0 -0.45548244684820183 -0.16550033309420911 0 -0.43625189714838958 -0.14959336647733781 0 -0.45548244684820183 -0.16550033309420911 0 -0.4385675898266988 -0.1671420692397203 0 -0.43625189714838958 -0.14959336647733781 0 -0.45548244684820183 -0.16550033309420911 0 -0.45419494143981298 -0.17381991074648551 0 -0.45548244684820183 -0.16550033309420911 0 -0.4385675898266988 -0.1671420692397203 0 -0.43129241215971692 -0.18250043749755371 0 -0.45419494143981298 -0.17381991074648551 0 -0.4385675898266988 -0.1671420692397203 0 -0.43129241215971692 -0.18250043749755371 0 -0.45419494143981298 -0.17381991074648551 0 -0.44226064766265649 -0.19296969241482731 0 -0.45419494143981298 -0.17381991074648551 0 -0.44226064766265649 -0.19296969241482731 0 -0.45738558803635487 -0.19437844194596329 0 -0.43129241215971692 -0.18250043749755371 0 -0.45419494143981298 -0.17381991074648551 0 -0.43249190987755443 -0.2045662113173565 0 -0.44226064766265649 -0.19296969241482731 0 -0.44838312974410632 -0.20684134342446239 0 -0.44226064766265649 -0.19296969241482731 0 -0.44838312974410632 -0.20684134342446239 0 -0.45738558803635487 -0.19437844194596329 0 -0.43249190987755443 -0.2045662113173565 0 -0.44838312974410632 -0.20684134342446239 0 -0.43249190987755443 -0.2045662113173565 0 -0.44838312974410632 -0.20684134342446239 0 -0.44639024606213162 -0.2210916591995665 0 -0.44838312974410632 -0.20684134342446239 0 -0.46375498386411262 -0.20796455669053049 0 -0.44639024606213162 -0.2210916591995665 0 -0.46375498386411262 -0.20796455669053049 0 -0.47338549611760011 -0.2269928119755204 0 -0.44639024606213162 -0.2210916591995665 0 -0.46375498386411262 -0.20796455669053049 0 -0.45738558803635487 -0.19437844194596329 0 -0.47307849352928688 -0.18973839783579341 0 -0.44838312974410632 -0.20684134342446239 0 -0.46375498386411262 -0.20796455669053049 0 -0.45738558803635487 -0.19437844194596329 0 -0.46375498386411262 -0.20796455669053049 0 -0.47307849352928688 -0.18973839783579341 0 -0.48247043486867952 -0.20618584867235659 0 -0.5 -0.18588441688845089 0 -0.5 -0.21530997653255399 0 -0.48247043486867952 -0.20618584867235659 0 -0.5 -0.18588441688845089 0 -0.47307849352928688 -0.18973839783579341 0 -0.48247043486867952 -0.20618584867235659 0 -0.5 -0.21530997653255399 0 -0.48247043486867952 -0.20618584867235659 0 -0.47338549611760011 -0.2269928119755204 0 -0.46375498386411262 -0.20796455669053049 0 -0.48247043486867952 -0.20618584867235659 0 -0.47338549611760011 -0.2269928119755204 0 -0.5 -0.21530997653255399 0 -0.47338549611760011 -0.2269928119755204 0 -0.5 -0.244735536176657 0 -0.47338549611760011 -0.2269928119755204 0 -0.5 -0.244735536176657 0 -0.47321964036710051 -0.24693873317905721 0 -0.47338549611760011 -0.2269928119755204 0 -0.47321964036710051 -0.24693873317905721 0 -0.45789889220194752 -0.23705080645885271 0 -0.45457930907554273 -0.25368028092202127 0 -0.47321964036710051 -0.24693873317905721 0 -0.45789889220194752 -0.23705080645885271 0 -0.47338549611760011 -0.2269928119755204 0 -0.45789889220194752 -0.23705080645885271 0 -0.44639024606213162 -0.2210916591995665 0 -0.45789889220194752 -0.23705080645885271 0 -0.44639024606213162 -0.2210916591995665 0 -0.44191976938736238 -0.23655054701809791 0 -0.42926022969918232 -0.2194208131141745 0 -0.44639024606213162 -0.2210916591995665 0 -0.44191976938736238 -0.23655054701809791 0 -0.45457930907554273 -0.25368028092202127 0 -0.44191976938736238 -0.23655054701809791 0 -0.45457930907554273 -0.25368028092202127 0 -0.45789889220194752 -0.23705080645885271 0 -0.44191976938736238 -0.23655054701809791 0 -0.45457930907554273 -0.25368028092202127 0 -0.43236998789552678 -0.25452055740584512 0 -0.44191976938736238 -0.23655054701809791 0 -0.41831433674664931 -0.045200868151759971 0 -0.4066637312385204 -0.031096727058444171 0 -0.40304242046000149 -0.050132067877630582 0 -0.41831433674664931 -0.045200868151759971 0 -0.4243465974004062 -0.029807197055309289 0 -0.4066637312385204 -0.031096727058444171 0 -0.41831433674664931 -0.045200868151759971 0 -0.40304242046000149 -0.050132067877630582 0 -0.41589998062971578 -0.063916804117016668 0 -0.43155300244120409 -0.058234925655538103 0 -0.41589998062971578 -0.063916804117016668 0 -0.43007941505283842 -0.064046422822571156 0 -0.41831433674664931 -0.045200868151759971 0 -0.43585880276550748 -0.046061118748089533 0 -0.41589998062971578 -0.063916804117016668 0 -0.43155300244120409 -0.058234925655538103 0 -0.43585880276550748 -0.046061118748089533 0 -0.41589998062971578 -0.063916804117016668 0 -0.43585880276550748 -0.046061118748089533 0 -0.41589998062971578 -0.063916804117016668 0 -0.43155300244120409 -0.058234925655538103 0 -0.43703503179028452 -0.061186358969362323 0 -0.440266202412958 -0.055602141113773082 0 -0.43155300244120409 -0.058234925655538103 0 -0.43703503179028452 -0.061186358969362323 0 -0.43007941505283842 -0.064046422822571156 0 -0.43155300244120409 -0.058234925655538103 0 -0.43585880276550748 -0.046061118748089533 0 -0.440266202412958 -0.055602141113773082 0 -0.41831433674664931 -0.045200868151759971 0 -0.43585880276550748 -0.046061118748089533 0 -0.4243465974004062 -0.029807197055309289 0 -0.43585880276550748 -0.046061118748089533 0 -0.4243465974004062 -0.029807197055309289 0 -0.44456442111792882 -0.031181412104460311 0 -0.4243465974004062 -0.029807197055309289 0 -0.4308195675394802 -0.01261721723285365 0 -0.44456442111792882 -0.031181412104460311 0 -0.4243465974004062 -0.029807197055309289 0 -0.4308195675394802 -0.01261721723285365 0 -0.41082583077206508 -0.01351963411800217 0 -0.4308195675394802 -0.01261721723285365 0 -0.43416117075494842 0.0076872550631074546 0 -0.41300660837542441 0.0043770734228139561 0 -0.4308195675394802 -0.01261721723285365 0 -0.41082583077206508 -0.01351963411800217 0 -0.41300660837542441 0.0043770734228139561 0 -0.4243465974004062 -0.029807197055309289 0 -0.41082583077206508 -0.01351963411800217 0 -0.4066637312385204 -0.031096727058444171 0 -0.41082583077206508 -0.01351963411800217 0 -0.4066637312385204 -0.031096727058444171 0 -0.39303328819624789 -0.010300663187779681 0 -0.4066637312385204 -0.031096727058444171 0 -0.39303328819624789 -0.010300663187779681 0 -0.38768267790402122 -0.038155544533734799 0 -0.41082583077206508 -0.01351963411800217 0 -0.39303328819624789 -0.010300663187779681 0 -0.41300660837542441 0.0043770734228139561 0 -0.37180473327973929 -0.030574317145678969 0 -0.39303328819624789 -0.010300663187779681 0 -0.37671714276837348 -0.0020527700837410161 0 -0.37180473327973929 -0.030574317145678969 0 -0.39303328819624789 -0.010300663187779681 0 -0.38768267790402122 -0.038155544533734799 0 -0.4066637312385204 -0.031096727058444171 0 -0.38768267790402122 -0.038155544533734799 0 -0.40304242046000149 -0.050132067877630582 0 -0.40304242046000149 -0.050132067877630582 0 -0.3983112604852489 -0.065835037541574465 0 -0.41589998062971578 -0.063916804117016668 0 -0.40304242046000149 -0.050132067877630582 0 -0.39074349435375111 -0.057594837891610198 0 -0.3983112604852489 -0.065835037541574465 0 -0.38768267790402122 -0.038155544533734799 0 -0.40304242046000149 -0.050132067877630582 0 -0.39074349435375111 -0.057594837891610198 0 -0.38768267790402122 -0.038155544533734799 0 -0.39074349435375111 -0.057594837891610198 0 -0.37557305412645259 -0.058789206703612477 0 -0.39074349435375111 -0.057594837891610198 0 -0.37557305412645259 -0.058789206703612477 0 -0.38283367116001998 -0.072051919072457823 0 -0.39594115849392397 -0.081772489485943789 0 -0.379750664130933 -0.096256930067962557 0 -0.38758151629228521 -0.1002069097239634 0 -0.39594115849392397 -0.081772489485943789 0 -0.379750664130933 -0.096256930067962557 0 -0.37065313006040251 -0.081540442075944658 0 -0.38283367116001998 -0.072051919072457823 0 -0.38111900576340269 -0.08679892460373731 0 -0.38111900576340269 -0.08679892460373731 0 -0.39594115849392397 -0.081772489485943789 0 -0.379750664130933 -0.096256930067962557 0 -0.36629685303288162 -0.091825359721530816 0 -0.38111900576340269 -0.08679892460373731 0 -0.379750664130933 -0.096256930067962557 0 -0.38283367116001998 -0.072051919072457823 0 -0.38111900576340269 -0.08679892460373731 0 -0.39594115849392397 -0.081772489485943789 0 -0.38111900576340269 -0.08679892460373731 0 -0.39594115849392397 -0.081772489485943789 0 -0.39594115849392397 -0.081772489485943789 0 -0.39462137115851043 -0.099593867111307965 0 -0.41573879624777771 -0.093259472491883572 0 -0.39594115849392397 -0.081772489485943789 0 -0.3983112604852489 -0.065835037541574465 0 -0.41589998062971578 -0.063916804117016668 0 -0.38283367116001998 -0.072051919072457823 0 -0.39594115849392397 -0.081772489485943789 0 -0.3983112604852489 -0.065835037541574465 0 -0.39594115849392397 -0.081772489485943789 0 -0.41589998062971578 -0.063916804117016668 0 -0.39074349435375111 -0.057594837891610198 0 -0.38283367116001998 -0.072051919072457823 0 -0.3983112604852489 -0.065835037541574465 0 -0.37856024804895327 -0.1018724666267241 0 -0.39779079774876552 -0.1177794332435953 0 -0.38221049531737222 -0.1172972218527632 0 -0.37856024804895327 -0.1018724666267241 0 -0.39779079774876552 -0.1177794332435953 0 -0.37767647089691508 -0.12560686433188781 0 -0.38887582534854231 -0.1269238425870523 0 -0.38221049531737222 -0.1172972218527632 0 -0.38887582534854231 -0.1269238425870523 0 -0.38221049531737222 -0.1172972218527632 0 -0.39779079774876552 -0.1177794332435953 0 -0.37390116709331889 -0.1127885289638334 0 -0.37767647089691508 -0.12560686433188781 0 -0.38221049531737222 -0.1172972218527632 0 -0.37390116709331889 -0.1127885289638334 0 -0.38221049531737222 -0.1172972218527632 0 -0.37856024804895327 -0.1018724666267241 0 -0.37856024804895327 -0.1018724666267241 0 -0.38758151629228521 -0.1002069097239634 0 -0.39779079774876552 -0.1177794332435953 0 -0.37856024804895327 -0.1018724666267241 0 -0.379750664130933 -0.096256930067962557 0 -0.38758151629228521 -0.1002069097239634 0 -0.38758151629228521 -0.1002069097239634 0 -0.39462137115851043 -0.099593867111307965 0 -0.39779079774876552 -0.1177794332435953 0 -0.39462137115851043 -0.099593867111307965 0 -0.41573879624777771 -0.093259472491883572 0 -0.39594115849392397 -0.081772489485943789 0 -0.38758151629228521 -0.1002069097239634 0 -0.39462137115851043 -0.099593867111307965 0 -0.39462137115851043 -0.099593867111307965 0 -0.39779079774876552 -0.1177794332435953 0 -0.41021864203020658 -0.1114978849105242 0 -0.41702134744857761 -0.1336863998604666 0 -0.41021864203020658 -0.1114978849105242 0 -0.42592089754740192 -0.1131702518453674 0 -0.41702134744857761 -0.1336863998604666 0 -0.39779079774876552 -0.1177794332435953 0 -0.41021864203020658 -0.1114978849105242 0 -0.39462137115851043 -0.099593867111307965 0 -0.41021864203020658 -0.1114978849105242 0 -0.41573879624777771 -0.093259472491883572 0 -0.41021864203020658 -0.1114978849105242 0 -0.42592089754740192 -0.1131702518453674 0 -0.41573879624777771 -0.093259472491883572 0 -0.43682424355885591 -0.1022587969499032 0 -0.42592089754740192 -0.1131702518453674 0 -0.41573879624777771 -0.093259472491883572 0 -0.43682424355885591 -0.1022587969499032 0 -0.41573879624777771 -0.093259472491883572 0 -0.43685622133704488 -0.086925077872459178 0 -0.43682424355885591 -0.1022587969499032 0 -0.42592089754740192 -0.1131702518453674 0 -0.44828180765576908 -0.1134927738825304 0 -0.39594115849392397 -0.081772489485943789 0 -0.42036012033724512 -0.07349161898212099 0 -0.41589998062971578 -0.063916804117016668 0 -0.39594115849392397 -0.081772489485943789 0 -0.42036012033724512 -0.07349161898212099 0 -0.39594115849392397 -0.081772489485943789 0 -0.42036012033724512 -0.07349161898212099 0 -0.41573879624777771 -0.093259472491883572 0 -0.42036012033724512 -0.07349161898212099 0 -0.43685622133704488 -0.086925077872459178 0 -0.43999226757029231 -0.076554532146478727 0 -0.41573879624777771 -0.093259472491883572 0 -0.43685622133704488 -0.086925077872459178 0 -0.42036012033724512 -0.07349161898212099 0 -0.41573879624777771 -0.093259472491883572 0 -0.43685622133704488 -0.086925077872459178 0 -0.42036012033724512 -0.07349161898212099 0 -0.44477908218056689 -0.065210748478299996 0 -0.42036012033724512 -0.07349161898212099 0 -0.43007941505283842 -0.064046422822571156 0 -0.44477908218056689 -0.065210748478299996 0 -0.42036012033724512 -0.07349161898212099 0 -0.43999226757029231 -0.076554532146478727 0 -0.44477908218056689 -0.065210748478299996 0 -0.42036012033724512 -0.07349161898212099 0 -0.41589998062971578 -0.063916804117016668 0 -0.43007941505283842 -0.064046422822571156 0 -0.43703503179028452 -0.061186358969362323 0 -0.43007941505283842 -0.064046422822571156 0 -0.44477908218056689 -0.065210748478299996 0 -0.43703503179028452 -0.061186358969362323 0 -0.44477908218056689 -0.065210748478299996 0 -0.4417105090355069 -0.0616339380627733 0 -0.43999226757029231 -0.076554532146478727 0 -0.44477908218056689 -0.065210748478299996 0 -0.45797364642631228 -0.080590683253035506 0 -0.44477908218056689 -0.065210748478299996 0 -0.44973581302506238 -0.063529839743973651 0 -0.45797364642631228 -0.080590683253035506 0 -0.44477908218056689 -0.065210748478299996 0 -0.4417105090355069 -0.0616339380627733 0 -0.44581648523913192 -0.061844999286535057 0 -0.44477908218056689 -0.065210748478299996 0 -0.4417105090355069 -0.0616339380627733 0 -0.44477908218056689 -0.065210748478299996 0 -0.44973581302506238 -0.063529839743973651 0 -0.44477908218056689 -0.065210748478299996 0 -0.44973581302506238 -0.063529839743973651 0 -0.44581648523913192 -0.061844999286535057 0 -0.44477908218056689 -0.065210748478299996 0 -0.45797364642631228 -0.080590683253035506 0 -0.43685622133704488 -0.086925077872459178 0 -0.45797364642631228 -0.080590683253035506 0 -0.43685622133704488 -0.086925077872459178 0 -0.45797364642631228 -0.080590683253035506 0 -0.45123206726797122 -0.096483331562215904 0 -0.43685622133704488 -0.086925077872459178 0 -0.43999226757029231 -0.076554532146478727 0 -0.45797364642631228 -0.080590683253035506 0 -0.45797364642631228 -0.080590683253035506 0 -0.45123206726797122 -0.096483331562215904 0 -0.47198243095087211 -0.096919694825402414 0 -0.45797364642631228 -0.080590683253035506 0 -0.47198243095087211 -0.096919694825402414 0 -0.45797364642631228 -0.080590683253035506 0 -0.46301740709997169 -0.066475279566762913 0 -0.47898682321315578 -0.074287559012606169 0 -0.45797364642631228 -0.080590683253035506 0 -0.47898682321315578 -0.074287559012606169 0 -0.44973581302506238 -0.063529839743973651 0 -0.45797364642631228 -0.080590683253035506 0 -0.46301740709997169 -0.066475279566762913 0 -0.44537481251130262 -0.13183034740928889 0 -0.44828180765576908 -0.1134927738825304 0 -0.46510782663091121 -0.1170467170076538 0 -0.44537481251130262 -0.13183034740928889 0 -0.42592089754740192 -0.1131702518453674 0 -0.44828180765576908 -0.1134927738825304 0 -0.43682424355885591 -0.1022587969499032 0 -0.44828180765576908 -0.1134927738825304 0 -0.45123206726797122 -0.096483331562215904 0 -0.43682424355885591 -0.1022587969499032 0 -0.43685622133704488 -0.086925077872459178 0 -0.45123206726797122 -0.096483331562215904 0 -0.44828180765576908 -0.1134927738825304 0 -0.45123206726797122 -0.096483331562215904 0 -0.46510782663091121 -0.1170467170076538 0 -0.45123206726797122 -0.096483331562215904 0 -0.46510782663091121 -0.1170467170076538 0 -0.47198243095087211 -0.096919694825402414 0 -0.48013977989342221 -0.12846100146184941 0 -0.46510782663091121 -0.1170467170076538 0 -0.48599121547543328 -0.1132487063977681 0 -0.46510782663091121 -0.1170467170076538 0 -0.47198243095087211 -0.096919694825402414 0 -0.48599121547543328 -0.1132487063977681 0 -0.47198243095087211 -0.096919694825402414 0 -0.48739209392789218 -0.0964036225956173 0 -0.48599121547543328 -0.1132487063977681 0 -0.47198243095087211 -0.096919694825402414 0 -0.48599121547543328 -0.1132487063977681 0 -0.48739209392789218 -0.0964036225956173 0 -0.5 -0.109046623570814 0 -0.5 -0.088515529171495855 0 -0.48739209392789218 -0.0964036225956173 0 -0.5 -0.109046623570814 0 -0.48599121547543328 -0.1132487063977681 0 -0.4999999999999965 -0.12957771797013209 0 -0.5 -0.109046623570814 0 -0.48599121547543328 -0.1132487063977681 0 -0.4999999999999965 -0.12957771797013209 0 -0.48599121547543328 -0.1132487063977681 0 -0.48013977989342221 -0.12846100146184941 0 -0.4999999999999965 -0.12957771797013209 0 -0.48599121547543328 -0.1132487063977681 0 -0.46301740709997169 -0.066475279566762913 0 -0.47898682321315578 -0.074287559012606169 0 -0.47209129459208909 -0.057597048566794193 0 -0.47898682321315578 -0.074287559012606169 0 -0.48777907260932091 -0.062818349402251519 0 -0.47209129459208909 -0.057597048566794193 0 -0.45797364642631228 -0.080590683253035506 0 -0.47198243095087211 -0.096919694825402414 0 -0.47898682321315578 -0.074287559012606169 0 -0.47198243095087211 -0.096919694825402414 0 -0.48739209392789218 -0.0964036225956173 0 -0.47898682321315578 -0.074287559012606169 0 -0.48739209392789218 -0.0964036225956173 0 -0.47898682321315578 -0.074287559012606169 0 -0.5 -0.088515529171495855 0 -0.47898682321315578 -0.074287559012606169 0 -0.49999999999999939 -0.067984434772177735 0 -0.47898682321315578 -0.074287559012606169 0 -0.48777907260932091 -0.062818349402251519 0 -0.49999999999999939 -0.067984434772177735 0 -0.47898682321315578 -0.074287559012606169 0 -0.5 -0.088515529171495855 0 -0.49999999999999939 -0.067984434772177735 0 -0.48777907260932091 -0.062818349402251519 0 -0.49999999999999939 -0.067984434772177735 0 -0.499999999999999 -0.059154330192841227 0 -0.48777907260932091 -0.062818349402251519 0 -0.499999999999999 -0.059154330192841227 0 -0.48424455042738701 -0.053566308306322363 0 -0.499999999999999 -0.059154330192841227 0 -0.48496662750760711 -0.036864847755532698 0 -0.499999999999999 -0.059154330192841227 0 -0.48496662750760711 -0.036864847755532698 0 -0.48424455042738701 -0.053566308306322363 0 -0.499999999999999 -0.059154330192841227 0 -0.48496662750760711 -0.036864847755532698 0 -0.5 -0.032161352902661637 0 -0.48496662750760711 -0.036864847755532698 0 -0.47212866231005529 -0.043262010686486337 0 -0.48424455042738701 -0.053566308306322363 0 -0.48496662750760711 -0.036864847755532698 0 -0.47212866231005529 -0.043262010686486337 0 -0.46349551683905971 -0.029946296572678621 0 -0.48777907260932091 -0.062818349402251519 0 -0.48424455042738701 -0.053566308306322363 0 -0.47209129459208909 -0.057597048566794193 0 -0.47212866231005529 -0.043262010686486337 0 -0.48424455042738701 -0.053566308306322363 0 -0.47209129459208909 -0.057597048566794193 0 -0.46301740709997169 -0.066475279566762913 0 -0.47209129459208909 -0.057597048566794193 0 -0.45629945824323909 -0.05637126725740578 0 -0.47209129459208909 -0.057597048566794193 0 -0.45629945824323909 -0.05637126725740578 0 -0.45955301930303571 -0.042501246526317989 0 -0.44973581302506238 -0.063529839743973651 0 -0.46301740709997169 -0.066475279566762913 0 -0.45629945824323909 -0.05637126725740578 0 -0.45629945824323909 -0.05637126725740578 0 -0.45955301930303571 -0.042501246526317989 0 -0.44839933172985352 -0.049491034385781937 0 -0.47212866231005529 -0.043262010686486337 0 -0.47209129459208909 -0.057597048566794193 0 -0.45955301930303571 -0.042501246526317989 0 -0.45955301930303571 -0.042501246526317989 0 -0.44456442111792882 -0.031181412104460311 0 -0.46349551683905971 -0.029946296572678621 0 -0.47212866231005529 -0.043262010686486337 0 -0.45955301930303571 -0.042501246526317989 0 -0.46349551683905971 -0.029946296572678621 0 -0.43585880276550748 -0.046061118748089533 0 -0.44839933172985352 -0.049491034385781937 0 -0.44456442111792882 -0.031181412104460311 0 -0.45955301930303571 -0.042501246526317989 0 -0.44839933172985352 -0.049491034385781937 0 -0.44456442111792882 -0.031181412104460311 0 -0.440266202412958 -0.055602141113773082 0 -0.4470405367153914 -0.057005470861093303 0 -0.44839933172985352 -0.049491034385781937 0 -0.43585880276550748 -0.046061118748089533 0 -0.440266202412958 -0.055602141113773082 0 -0.44839933172985352 -0.049491034385781937 0 -0.43703503179028452 -0.061186358969362323 0 -0.440266202412958 -0.055602141113773082 0 -0.4417105090355069 -0.0616339380627733 0 -0.4417105090355069 -0.0616339380627733 0 -0.4470405367153914 -0.057005470861093303 0 -0.44581648523913192 -0.061844999286535057 0 -0.440266202412958 -0.055602141113773082 0 -0.4417105090355069 -0.0616339380627733 0 -0.4470405367153914 -0.057005470861093303 0 -0.44973581302506238 -0.063529839743973651 0 -0.45629945824323909 -0.05637126725740578 0 -0.4470405367153914 -0.057005470861093303 0 -0.44973581302506238 -0.063529839743973651 0 -0.4470405367153914 -0.057005470861093303 0 -0.44581648523913192 -0.061844999286535057 0 -0.45629945824323909 -0.05637126725740578 0 -0.4470405367153914 -0.057005470861093303 0 -0.44839933172985352 -0.049491034385781937 0 -0.4308195675394802 -0.01261721723285365 0 -0.44982711578051521 -0.01129289704505072 0 -0.43416117075494842 0.0076872550631074546 0 -0.44982711578051521 -0.01129289704505072 0 -0.44456442111792882 -0.031181412104460311 0 -0.46349551683905971 -0.029946296572678621 0 -0.4308195675394802 -0.01261721723285365 0 -0.44982711578051521 -0.01129289704505072 0 -0.44456442111792882 -0.031181412104460311 0 -0.44982711578051521 -0.01129289704505072 0 -0.46349551683905971 -0.029946296572678621 0 -0.46993325501521588 -0.014575365318223661 0 -0.46993325501521588 -0.014575365318223661 0 -0.45489988252282471 0.0077141171190853236 0 -0.44982711578051521 -0.01129289704505072 0 -0.46993325501521588 -0.014575365318223661 0 -0.45489988252282471 0.0077141171190853236 0 -0.46993325501521588 -0.014575365318223661 0 -0.48071054924880552 0.0038116768767204319 0 -0.45489988252282471 0.0077141171190853236 0 -0.46993325501521588 -0.014575365318223661 0 -0.48771769358170142 -0.018664864257571859 0 -0.48071054924880552 0.0038116768767204319 0 -0.48496662750760711 -0.036864847755532698 0 -0.46993325501521588 -0.014575365318223661 0 -0.48771769358170142 -0.018664864257571859 0 -0.48496662750760711 -0.036864847755532698 0 -0.46349551683905971 -0.029946296572678621 0 -0.46993325501521588 -0.014575365318223661 0 -0.48496662750760711 -0.036864847755532698 0 -0.46993325501521588 -0.014575365318223661 0 -0.48496662750760711 -0.036864847755532698 0 -0.5 -0.032161352902661637 0 -0.48771769358170142 -0.018664864257571859 0 -0.5 -0.032161352902661637 0 -0.48771769358170142 -0.018664864257571859 0 -0.5 -0.0051683756124820679 0 -0.48771769358170142 -0.018664864257571859 0 -0.5 -0.0051683756124820679 0 -0.48071054924880552 0.0038116768767204319 0 -0.5 -0.0051683756124820679 0 -0.5 0.021824601677697512 0 -0.48071054924880552 0.0038116768767204319 0 -0.5 0.021824601677697512 0 -0.47428959511627061 0.0248704995698984 0 -0.48071054924880552 0.0038116768767204319 0 -0.47428959511627061 0.0248704995698984 0 -0.48071054924880552 0.0038116768767204319 0 -0.45489988252282471 0.0077141171190853236 0 -0.5 0.048817578967877202 0 -0.46695795477329333 0.048937903245009927 0 -0.47739765385682059 0.070308510161642593 0 -0.47428959511627061 0.0248704995698984 0 -0.5 0.048817578967877202 0 -0.46695795477329333 0.048937903245009927 0 -0.5 0.021824601677697512 0 -0.47428959511627061 0.0248704995698984 0 -0.5 0.048817578967877202 0 -0.47428959511627061 0.0248704995698984 0 -0.46695795477329333 0.048937903245009927 0 -0.43986651003043348 0.03000359955639428 0 -0.46695795477329333 0.048937903245009927 0 -0.44640820659784253 0.060800671386501672 0 -0.47739765385682059 0.070308510161642593 0 -0.46695795477329333 0.048937903245009927 0 -0.44640820659784253 0.060800671386501672 0 -0.43986651003043348 0.03000359955639428 0 -0.47428959511627061 0.0248704995698984 0 -0.45489988252282471 0.0077141171190853236 0 -0.43986651003043348 0.03000359955639428 0 -0.45489988252282471 0.0077141171190853236 0 -0.43986651003043348 0.03000359955639428 0 -0.45489988252282471 0.0077141171190853236 0 -0.43986651003043348 0.03000359955639428 0 -0.43416117075494842 0.0076872550631074546 0 -0.44982711578051521 -0.01129289704505072 0 -0.45489988252282471 0.0077141171190853236 0 -0.43416117075494842 0.0076872550631074546 0 -0.43416117075494842 0.0076872550631074546 0 -0.41300660837542441 0.0043770734228139561 0 -0.41654734028101292 0.027938854558255531 0 -0.43986651003043348 0.03000359955639428 0 -0.43416117075494842 0.0076872550631074546 0 -0.41654734028101292 0.027938854558255531 0 -0.43986651003043348 0.03000359955639428 0 -0.4248331375380423 0.052293081993703347 0 -0.43986651003043348 0.03000359955639428 0 -0.41654734028101292 0.027938854558255531 0 -0.4248331375380423 0.052293081993703347 0 -0.44640820659784253 0.060800671386501672 0 -0.43986651003043348 0.03000359955639428 0 -0.4248331375380423 0.052293081993703347 0 -0.4248331375380423 0.052293081993703347 0 -0.39867185611142331 0.049303069258417487 0 -0.40979976504565102 0.074582564431012563 0 -0.41654734028101292 0.027938854558255531 0 -0.4248331375380423 0.052293081993703347 0 -0.39867185611142331 0.049303069258417487 0 -0.41654734028101292 0.027938854558255531 0 -0.39867185611142331 0.049303069258417487 0 -0.3884339313588816 0.021251925581626911 0 -0.39867185611142331 0.049303069258417487 0 -0.38282446198857562 0.070081134291422001 0 -0.37170791414445131 0.047833413394124197 0 -0.3884339313588816 0.021251925581626911 0 -0.36564136457868862 0.029822470763534389 0 -0.37170791414445131 0.047833413394124197 0 -0.39867185611142331 0.049303069258417487 0 -0.3884339313588816 0.021251925581626911 0 -0.37170791414445131 0.047833413394124197 0 -0.39303328819624789 -0.010300663187779681 0 -0.37671714276837348 -0.0020527700837410161 0 -0.3884339313588816 0.021251925581626911 0 -0.39303328819624789 -0.010300663187779681 0 -0.41300660837542441 0.0043770734228139561 0 -0.3884339313588816 0.021251925581626911 0 -0.37671714276837348 -0.0020527700837410161 0 -0.3884339313588816 0.021251925581626911 0 -0.36873298623547179 0.013708748051750491 0 -0.41300660837542441 0.0043770734228139561 0 -0.41654734028101292 0.027938854558255531 0 -0.3884339313588816 0.021251925581626911 0 -0.37779310226675261 0.096159919605369737 0 -0.40686841697469789 0.1001412582320695 0 -0.37779310226675261 0.096159919605369737 0 -0.39432143656891933 0.085241219139968447 0 -0.40686841697469789 0.1001412582320695 0 -0.40321110932650878 0.1221158237183847 0 -0.3850763322618882 0.11563577614832 0 -0.40686841697469789 0.1001412582320695 0 -0.40321110932650878 0.1221158237183847 0 -0.3850763322618882 0.11563577614832 0 -0.38628341669909089 0.133260155351516 0 -0.3850763322618882 0.11563577614832 0 -0.37779310226675261 0.096159919605369737 0 -0.36403770410201652 0.1132248559919246 0 -0.3850763322618882 0.11563577614832 0 -0.37779310226675261 0.096159919605369737 0 -0.40686841697469789 0.1001412582320695 0 -0.37779310226675261 0.096159919605369737 0 -0.38282446198857562 0.070081134291422001 0 -0.39432143656891933 0.085241219139968447 0 -0.39867185611142331 0.049303069258417487 0 -0.38282446198857562 0.070081134291422001 0 -0.40979976504565102 0.074582564431012563 0 -0.38282446198857562 0.070081134291422001 0 -0.39432143656891933 0.085241219139968447 0 -0.40979976504565102 0.074582564431012563 0 -0.39432143656891933 0.085241219139968447 0 -0.40979976504565102 0.074582564431012563 0 -0.40686841697469789 0.1001412582320695 0 -0.40979976504565102 0.074582564431012563 0 -0.43316589968784608 0.083442833654979551 0 -0.40686841697469789 0.1001412582320695 0 -0.4248331375380423 0.052293081993703347 0 -0.40979976504565102 0.074582564431012563 0 -0.44640820659784253 0.060800671386501672 0 -0.4248331375380423 0.052293081993703347 0 -0.43316589968784608 0.083442833654979551 0 -0.4248331375380423 0.052293081993703347 0 -0.40979976504565102 0.074582564431012563 0 -0.43316589968784608 0.083442833654979551 0 -0.43316589968784608 0.083442833654979551 0 -0.43073118362576118 0.1070437305128142 0 -0.40686841697469789 0.1001412582320695 0 -0.43073118362576118 0.1070437305128142 0 -0.40686841697469789 0.1001412582320695 0 -0.41930931648845199 0.1200958996229 0 -0.40321110932650878 0.1221158237183847 0 -0.40686841697469789 0.1001412582320695 0 -0.41930931648845199 0.1200958996229 0 -0.43073118362576118 0.1070437305128142 0 -0.41930931648845199 0.1200958996229 0 -0.43990370819093311 0.12796061345087159 0 -0.45307648504228809 0.10566022144910089 0 -0.43990370819093311 0.12796061345087159 0 -0.46241460868516021 0.1250849013493297 0 -0.43073118362576118 0.1070437305128142 0 -0.45307648504228809 0.10566022144910089 0 -0.43990370819093311 0.12796061345087159 0 -0.43316589968784608 0.083442833654979551 0 -0.43073118362576118 0.1070437305128142 0 -0.45307648504228809 0.10566022144910089 0 -0.45307648504228809 0.10566022144910089 0 -0.45929370725933988 0.083332064143697884 0 -0.47333601574430478 0.10289883349722299 0 -0.45307648504228809 0.10566022144910089 0 -0.47333601574430478 0.10289883349722299 0 -0.46241460868516021 0.1250849013493297 0 -0.44640820659784253 0.060800671386501672 0 -0.43316589968784608 0.083442833654979551 0 -0.45929370725933988 0.083332064143697884 0 -0.43316589968784608 0.083442833654979551 0 -0.45307648504228809 0.10566022144910089 0 -0.45929370725933988 0.083332064143697884 0 -0.44640820659784253 0.060800671386501672 0 -0.45929370725933988 0.083332064143697884 0 -0.47739765385682059 0.070308510161642593 0 -0.45929370725933988 0.083332064143697884 0 -0.48434277266059322 0.087433475811243708 0 -0.47333601574430478 0.10289883349722299 0 -0.45929370725933988 0.083332064143697884 0 -0.47739765385682059 0.070308510161642593 0 -0.48434277266059322 0.087433475811243708 0 -0.48434277266059322 0.087433475811243708 0 -0.5 0.075810556258056994 0 -0.5 0.10280353354823681 0 -0.5 0.048817578967877202 0 -0.47739765385682059 0.070308510161642593 0 -0.5 0.075810556258056994 0 -0.47739765385682059 0.070308510161642593 0 -0.48434277266059322 0.087433475811243708 0 -0.5 0.075810556258056994 0 -0.48079187806419588 0.122105683469096 0 -0.47333601574430478 0.10289883349722299 0 -0.46241460868516021 0.1250849013493297 0 -0.48434277266059322 0.087433475811243708 0 -0.47333601574430478 0.10289883349722299 0 -0.5 0.10280353354823681 0 -0.48079187806419588 0.122105683469096 0 -0.47333601574430478 0.10289883349722299 0 -0.5 0.10280353354823681 0 -0.48079187806419588 0.122105683469096 0 -0.5 0.10280353354823681 0 -0.5 0.12979651083841651 0 -0.5 0.12979651083841651 0 -0.48249426735400758 0.137191833124583 0 -0.48589763202192998 0.15036569192390919 0 -0.48079187806419588 0.122105683469096 0 -0.5 0.12979651083841651 0 -0.48249426735400758 0.137191833124583 0 -0.48079187806419588 0.122105683469096 0 -0.47367698382663792 0.1348592143507045 0 -0.46241460868516021 0.1250849013493297 0 -0.48079187806419588 0.122105683469096 0 -0.48249426735400758 0.137191833124583 0 -0.47367698382663792 0.1348592143507045 0 -0.48249426735400758 0.137191833124583 0 -0.47367698382663792 0.1348592143507045 0 -0.47679527656567627 0.1458305121372809 0 -0.47374565401080909 0.15118008417044629 0 -0.46588888846414972 0.1440831416732328 0 -0.46870839623115551 0.1554162838265363 0 -0.47374565401080909 0.15118008417044629 0 -0.47861440609786859 0.15838120170710451 0 -0.46870839623115551 0.1554162838265363 0 -0.47374565401080909 0.15118008417044629 0 -0.47679527656567627 0.1458305121372809 0 -0.47872130269519542 0.15218928150807701 0 -0.47367698382663792 0.1348592143507045 0 -0.47679527656567627 0.1458305121372809 0 -0.46588888846414972 0.1440831416732328 0 -0.47374565401080909 0.15118008417044629 0 -0.47679527656567627 0.1458305121372809 0 -0.46588888846414972 0.1440831416732328 0 -0.48249426735400758 0.137191833124583 0 -0.47679527656567627 0.1458305121372809 0 -0.48589763202192998 0.15036569192390919 0 -0.47872130269519542 0.15218928150807701 0 -0.48589763202192998 0.15036569192390919 0 -0.47861440609786859 0.15838120170710451 0 -0.47679527656567627 0.1458305121372809 0 -0.47872130269519542 0.15218928150807701 0 -0.48589763202192998 0.15036569192390919 0 -0.47374565401080909 0.15118008417044629 0 -0.47872130269519542 0.15218928150807701 0 -0.47861440609786859 0.15838120170710451 0 -0.48589763202192998 0.15036569192390919 0 -0.49999999999999939 0.1567894881285963 0 -0.47964939522448291 0.16018049705612639 0 -0.5 0.12979651083841651 0 -0.48589763202192998 0.15036569192390919 0 -0.49999999999999939 0.1567894881285963 0 -0.48982469761224162 0.17786993338971319 0 -0.47964939522448291 0.16018049705612639 0 -0.49999999999999939 0.1567894881285963 0 -0.47964939522448291 0.16018049705612639 0 -0.49999999999999939 0.1567894881285963 0 -0.49315603790368567 0.16648195852727221 0 -0.5 0.17617442892594809 0 -0.49315603790368567 0.16648195852727221 0 -0.48982469761224162 0.17786993338971319 0 -0.47964939522448291 0.16018049705612639 0 -0.49999999999999939 0.1567894881285963 0 -0.49315603790368567 0.16648195852727221 0 -0.47964939522448291 0.16018049705612639 0 -0.48982469761224162 0.17786993338971319 0 -0.50000000000000044 0.19555936972329979 0 -0.5 0.17617442892594809 0 -0.48982469761224162 0.17786993338971319 0 -0.50000000000000044 0.19555936972329979 0 -0.49315603790368567 0.16648195852727221 0 -0.5 0.17617442892594809 0 -0.48982469761224162 0.17786993338971319 0 -0.48982469761224162 0.17786993338971319 0 -0.46800517846426187 0.17751165975419 0 -0.47709934282301442 0.1946138115662073 0 -0.47964939522448291 0.16018049705612639 0 -0.45860547099883447 0.1636870333830118 0 -0.46870839623115551 0.1554162838265363 0 -0.48982469761224162 0.17786993338971319 0 -0.47964939522448291 0.16018049705612639 0 -0.46800517846426187 0.17751165975419 0 -0.47964939522448291 0.16018049705612639 0 -0.45860547099883447 0.1636870333830118 0 -0.47964939522448291 0.16018049705612639 0 -0.45860547099883447 0.1636870333830118 0 -0.46800517846426187 0.17751165975419 0 -0.48589763202192998 0.15036569192390919 0 -0.47964939522448291 0.16018049705612639 0 -0.47861440609786859 0.15838120170710451 0 -0.47964939522448291 0.16018049705612639 0 -0.47861440609786859 0.15838120170710451 0 -0.47964939522448291 0.16018049705612639 0 -0.47861440609786859 0.15838120170710451 0 -0.46870839623115551 0.1554162838265363 0 -0.45860547099883447 0.1636870333830118 0 -0.46870839623115551 0.1554162838265363 0 -0.45591432050629072 0.1519861088757293 0 -0.45860547099883447 0.1636870333830118 0 -0.4471456133185181 0.1600818381203509 0 -0.45591432050629072 0.1519861088757293 0 -0.46800517846426187 0.17751165975419 0 -0.44969874257656262 0.1746735809377071 0 -0.45062134881170618 0.1914920342132638 0 -0.45860547099883447 0.1636870333830118 0 -0.46800517846426187 0.17751165975419 0 -0.44969874257656262 0.1746735809377071 0 -0.45062134881170618 0.1914920342132638 0 -0.43333461142714891 0.17036919730891509 0 -0.44969874257656262 0.1746735809377071 0 -0.45062134881170618 0.1914920342132638 0 -0.43333461142714891 0.17036919730891509 0 -0.45860547099883447 0.1636870333830118 0 -0.44969874257656262 0.1746735809377071 0 -0.43756154677318609 0.16719356970989729 0 -0.45860547099883447 0.1636870333830118 0 -0.4471456133185181 0.1600818381203509 0 -0.43756154677318609 0.16719356970989729 0 -0.44969874257656262 0.1746735809377071 0 -0.43756154677318609 0.16719356970989729 0 -0.43333461142714891 0.17036919730891509 0 -0.45860547099883447 0.1636870333830118 0 -0.43756154677318609 0.16719356970989729 0 -0.43756154677318609 0.16719356970989729 0 -0.44028044194054938 0.16084385640995669 0 -0.43574333791661851 0.16134746455864371 0 -0.4471456133185181 0.1600818381203509 0 -0.43756154677318609 0.16719356970989729 0 -0.44028044194054938 0.16084385640995669 0 -0.4471456133185181 0.1600818381203509 0 -0.44028044194054938 0.16084385640995669 0 -0.43623527607928869 0.15524493838256481 0 -0.4471456133185181 0.1600818381203509 0 -0.44479970662629098 0.14671400078783431 0 -0.43623527607928869 0.15524493838256481 0 -0.4471456133185181 0.1600818381203509 0 -0.44479970662629098 0.14671400078783431 0 -0.45591432050629072 0.1519861088757293 0 -0.44479970662629098 0.14671400078783431 0 -0.45361025621536027 0.13747608765077629 0 -0.45591432050629072 0.1519861088757293 0 -0.44479970662629098 0.14671400078783431 0 -0.43286812696273791 0.14290302983302761 0 -0.43623527607928869 0.15524493838256481 0 -0.43990370819093311 0.12796061345087159 0 -0.46241460868516021 0.1250849013493297 0 -0.45361025621536027 0.13747608765077629 0 -0.44479970662629098 0.14671400078783431 0 -0.43990370819093311 0.12796061345087159 0 -0.45361025621536027 0.13747608765077629 0 -0.44479970662629098 0.14671400078783431 0 -0.43990370819093311 0.12796061345087159 0 -0.43286812696273791 0.14290302983302761 0 -0.47367698382663792 0.1348592143507045 0 -0.46241460868516021 0.1250849013493297 0 -0.46588888846414972 0.1440831416732328 0 -0.46241460868516021 0.1250849013493297 0 -0.45361025621536027 0.13747608765077629 0 -0.46588888846414972 0.1440831416732328 0 -0.46588888846414972 0.1440831416732328 0 -0.46870839623115551 0.1554162838265363 0 -0.45591432050629072 0.1519861088757293 0 -0.45361025621536027 0.13747608765077629 0 -0.46588888846414972 0.1440831416732328 0 -0.45591432050629072 0.1519861088757293 0 -0.46950612668954939 0.23685949832257541 0 -0.48519482358082072 0.233737708021961 0 -0.47717593892139021 0.25179324361900268 0 -0.46950612668954939 0.23685949832257541 0 -0.46342219189871742 0.2494556258641823 0 -0.47717593892139021 0.25179324361900268 0 -0.5 0.22473925687050131 0 -0.48519482358082072 0.233737708021961 0 -0.5 0.25391914401770282 0 -0.48519482358082072 0.233737708021961 0 -0.5 0.25391914401770282 0 -0.47717593892139021 0.25179324361900268 0 -0.5 0.22473925687050131 0 -0.48519482358082072 0.233737708021961 0 -0.48604045052001982 0.21225300345991641 0 -0.48519482358082072 0.233737708021961 0 -0.46790808619626351 0.2126148711176124 0 -0.46950612668954939 0.23685949832257541 0 -0.48519482358082072 0.233737708021961 0 -0.46786538881863482 0.2257617843651637 0 -0.48519482358082072 0.233737708021961 0 -0.46790808619626351 0.2126148711176124 0 -0.46786538881863482 0.2257617843651637 0 -0.48519482358082072 0.233737708021961 0 -0.48604045052001982 0.21225300345991641 0 -0.46790808619626351 0.2126148711176124 0 -0.48604045052001982 0.21225300345991641 0 -0.47709934282301442 0.1946138115662073 0 -0.46790808619626351 0.2126148711176124 0 -0.5 0.22473925687050131 0 -0.48604045052001982 0.21225300345991641 0 -0.50000000000000044 0.19555936972329979 0 -0.48604045052001982 0.21225300345991641 0 -0.50000000000000044 0.19555936972329979 0 -0.47709934282301442 0.1946138115662073 0 -0.48982469761224162 0.17786993338971319 0 -0.50000000000000044 0.19555936972329979 0 -0.47709934282301442 0.1946138115662073 0 -0.45062134881170618 0.1914920342132638 0 -0.46790808619626351 0.2126148711176124 0 -0.47709934282301442 0.1946138115662073 0 -0.45062134881170618 0.1914920342132638 0 -0.46790808619626351 0.2126148711176124 0 -0.46800517846426187 0.17751165975419 0 -0.47709934282301442 0.1946138115662073 0 -0.45062134881170618 0.1914920342132638 0 -0.45062134881170618 0.1914920342132638 0 -0.44927600106448262 0.21062476936475871 0 -0.4338543556515716 0.20335183090332151 0 -0.44927600106448262 0.21062476936475871 0 -0.45074070611215622 0.22205085117372281 0 -0.43479981521144268 0.218594308944808 0 -0.44927600106448262 0.21062476936475871 0 -0.43479981521144268 0.218594308944808 0 -0.4338543556515716 0.20335183090332151 0 -0.44927600106448262 0.21062476936475871 0 -0.45855472837510541 0.2197140460448988 0 -0.45074070611215622 0.22205085117372281 0 -0.45062134881170618 0.1914920342132638 0 -0.44927600106448262 0.21062476936475871 0 -0.46790808619626351 0.2126148711176124 0 -0.44927600106448262 0.21062476936475871 0 -0.46790808619626351 0.2126148711176124 0 -0.45855472837510541 0.2197140460448988 0 -0.46790808619626351 0.2126148711176124 0 -0.46786538881863482 0.2257617843651637 0 -0.45855472837510541 0.2197140460448988 0 -0.46786538881863482 0.2257617843651637 0 -0.4569834596839899 0.22751795420323639 0 -0.45855472837510541 0.2197140460448988 0 -0.46950612668954939 0.23685949832257541 0 -0.46786538881863482 0.2257617843651637 0 -0.4569834596839899 0.22751795420323639 0 -0.4569834596839899 0.22751795420323639 0 -0.45855472837510541 0.2197140460448988 0 -0.45074070611215622 0.22205085117372281 0 -0.45074070611215622 0.22205085117372281 0 -0.43065848058327971 0.2350861262233771 0 -0.45074070611215622 0.22205085117372281 0 -0.43065848058327971 0.2350861262233771 0 -0.43479981521144268 0.218594308944808 0 -0.4569834596839899 0.22751795420323639 0 -0.45074070611215622 0.22205085117372281 0 -0.43065848058327971 0.2350861262233771 0 -0.4569834596839899 0.22751795420323639 0 -0.43065848058327971 0.2350861262233771 0 -0.4569834596839899 0.22751795420323639 0 -0.44776935611995222 0.24423706133883999 0 -0.43065848058327971 0.2350861262233771 0 -0.44776935611995222 0.24423706133883999 0 -0.4594202835980522 0.23951753493220851 0 -0.46342219189871742 0.2494556258641823 0 -0.4569834596839899 0.22751795420323639 0 -0.44776935611995222 0.24423706133883999 0 -0.4594202835980522 0.23951753493220851 0 -0.46950612668954939 0.23685949832257541 0 -0.4594202835980522 0.23951753493220851 0 -0.46342219189871742 0.2494556258641823 0 -0.46950612668954939 0.23685949832257541 0 -0.4569834596839899 0.22751795420323639 0 -0.4594202835980522 0.23951753493220851 0 -0.41510607071126848 0.2395572907697516 0 -0.41508104439967403 0.24519736438917361 0 -0.3995536608392572 0.24402845531612569 0 -0.41510607071126848 0.2395572907697516 0 -0.4076374082001854 0.23415359849629749 0 -0.3995536608392572 0.24402845531612569 0 -0.41510607071126848 0.2395572907697516 0 -0.3995536608392572 0.24402845531612569 0 -0.41510607071126848 0.2395572907697516 0 -0.41508104439967403 0.24519736438917361 0 -0.43065848058327971 0.2350861262233771 0 -0.41508104439967403 0.24519736438917361 0 -0.43065848058327971 0.2350861262233771 0 -0.43034752120389669 0.25321385163389648 0 -0.44776935611995222 0.24423706133883999 0 -0.43065848058327971 0.2350861262233771 0 -0.43034752120389669 0.25321385163389648 0 -0.41510607071126848 0.2395572907697516 0 -0.43065848058327971 0.2350861262233771 0 -0.41508104439967403 0.24519736438917361 0 -0.43065848058327971 0.2350861262233771 0 -0.43065848058327971 0.2350861262233771 0 -0.42408470993524588 0.22346219067110529 0 -0.43479981521144268 0.218594308944808 0 -0.41510607071126848 0.2395572907697516 0 -0.43065848058327971 0.2350861262233771 0 -0.42408470993524588 0.22346219067110529 0 -0.41510607071126848 0.2395572907697516 0 -0.42408470993524588 0.22346219067110529 0 -0.41201731446462048 0.22673856953839289 0 -0.42408470993524588 0.22346219067110529 0 -0.41201731446462048 0.22673856953839289 0 -0.41569034194116439 0.21849834726160139 0 -0.41510607071126848 0.2395572907697516 0 -0.41201731446462048 0.22673856953839289 0 -0.4076374082001854 0.23415359849629749 0 -0.41201731446462048 0.22673856953839289 0 -0.4076374082001854 0.23415359849629749 0 -0.40499635850348481 0.22819292957224049 0 -0.41201731446462048 0.22673856953839289 0 -0.4083583979637796 0.22036217043822229 0 -0.40499635850348481 0.22819292957224049 0 -0.41201731446462048 0.22673856953839289 0 -0.4083583979637796 0.22036217043822229 0 -0.41569034194116439 0.21849834726160139 0 -0.4083583979637796 0.22036217043822229 0 -0.40999128523742912 0.21159856811361669 0 -0.41569034194116439 0.21849834726160139 0 -0.40999128523742912 0.21159856811361669 0 -0.41849665246571111 0.20011405782865729 0 -0.4058914666312366 0.19926526750009049 0 -0.40999128523742912 0.21159856811361669 0 -0.42288418829528929 0.21193477270311889 0 -0.41849665246571111 0.20011405782865729 0 -0.40999128523742912 0.21159856811361669 0 -0.41569034194116439 0.21849834726160139 0 -0.42288418829528929 0.21193477270311889 0 -0.42408470993524588 0.22346219067110529 0 -0.41569034194116439 0.21849834726160139 0 -0.42288418829528929 0.21193477270311889 0 -0.42408470993524588 0.22346219067110529 0 -0.42288418829528929 0.21193477270311889 0 -0.43479981521144268 0.218594308944808 0 -0.42288418829528929 0.21193477270311889 0 -0.43479981521144268 0.218594308944808 0 -0.4338543556515716 0.20335183090332151 0 -0.42288418829528929 0.21193477270311889 0 -0.4338543556515716 0.20335183090332151 0 -0.41849665246571111 0.20011405782865729 0 -0.4338543556515716 0.20335183090332151 0 -0.41849665246571111 0.20011405782865729 0 -0.42704812806079823 0.18735104236532199 0 -0.45062134881170618 0.1914920342132638 0 -0.4338543556515716 0.20335183090332151 0 -0.42704812806079823 0.18735104236532199 0 -0.41849665246571111 0.20011405782865729 0 -0.41331324445673651 0.1896170357110836 0 -0.42704812806079823 0.18735104236532199 0 -0.41849665246571111 0.20011405782865729 0 -0.41331324445673651 0.1896170357110836 0 -0.4058914666312366 0.19926526750009049 0 -0.41331324445673651 0.1896170357110836 0 -0.40252379791200582 0.19016352219916319 0 -0.4058914666312366 0.19926526750009049 0 -0.40252379791200582 0.19016352219916319 0 -0.4058914666312366 0.19926526750009049 0 -0.39460274494588948 0.197316724340522 0 -0.4058914666312366 0.19926526750009049 0 -0.39460274494588948 0.197316724340522 0 -0.39684865845690609 0.20908409295947711 0 -0.40252379791200582 0.19016352219916319 0 -0.39460274494588948 0.197316724340522 0 -0.39000065675388218 0.18631082923008399 0 -0.39460274494588948 0.197316724340522 0 -0.37835254707840432 0.2020966381718067 0 -0.39684865845690609 0.20908409295947711 0 -0.39460274494588948 0.197316724340522 0 -0.37835254707840432 0.2020966381718067 0 -0.39000065675388218 0.18631082923008399 0 -0.37835254707840432 0.2020966381718067 0 -0.39000065675388218 0.18631082923008399 0 -0.36391172255344201 0.17994551783924681 0 -0.37835254707840432 0.2020966381718067 0 -0.39684865845690609 0.20908409295947711 0 -0.39279337160336669 0.2242477585043666 0 -0.37835254707840432 0.2020966381718067 0 -0.39279337160336669 0.2242477585043666 0 -0.37835254707840432 0.2020966381718067 0 -0.39279337160336669 0.2242477585043666 0 -0.37412886577032622 0.2174879150622453 0 -0.39684865845690609 0.20908409295947711 0 -0.39966255448535981 0.21948755649480539 0 -0.39279337160336669 0.2242477585043666 0 -0.40999128523742912 0.21159856811361669 0 -0.4058914666312366 0.19926526750009049 0 -0.39684865845690609 0.20908409295947711 0 -0.40999128523742912 0.21159856811361669 0 -0.39684865845690609 0.20908409295947711 0 -0.39966255448535981 0.21948755649480539 0 -0.4083583979637796 0.22036217043822229 0 -0.40999128523742912 0.21159856811361669 0 -0.39966255448535981 0.21948755649480539 0 -0.39966255448535981 0.21948755649480539 0 -0.39279337160336669 0.2242477585043666 0 -0.3995536608392572 0.24402845531612569 0 -0.39966255448535981 0.21948755649480539 0 -0.40499635850348481 0.22819292957224049 0 -0.3995536608392572 0.24402845531612569 0 -0.39966255448535981 0.21948755649480539 0 -0.3995536608392572 0.24402845531612569 0 -0.4083583979637796 0.22036217043822229 0 -0.39966255448535981 0.21948755649480539 0 -0.40499635850348481 0.22819292957224049 0 -0.39279337160336669 0.2242477585043666 0 -0.3788154840395862 0.22847879429843729 0 -0.37412886577032622 0.2174879150622453 0 -0.39279337160336669 0.2242477585043666 0 -0.3788154840395862 0.22847879429843729 0 -0.38640486229655557 0.23646681778785569 0 -0.38640486229655557 0.23646681778785569 0 -0.38332481097124571 0.24869408969404011 0 -0.3995536608392572 0.24402845531612569 0 -0.38640486229655557 0.23646681778785569 0 -0.38332481097124571 0.24869408969404011 0 -0.37390551990050858 0.23968673785471609 0 -0.3788154840395862 0.22847879429843729 0 -0.38640486229655557 0.23646681778785569 0 -0.37390551990050858 0.23968673785471609 0 -0.38332481097124571 0.24869408969404011 0 -0.37390551990050858 0.23968673785471609 0 -0.3683119580287349 0.25512360104486692 0 -0.39279337160336669 0.2242477585043666 0 -0.38640486229655557 0.23646681778785569 0 -0.3995536608392572 0.24402845531612569 0 -0.38332481097124571 0.24869408969404011 0 -0.3995536608392572 0.24402845531612569 0 -0.39950360821606928 0.25530860255497162 0 -0.38332481097124571 0.24869408969404011 0 -0.3995536608392572 0.24402845531612569 0 -0.4076374082001854 0.23415359849629749 0 -0.40499635850348481 0.22819292957224049 0 -0.3995536608392572 0.24402845531612569 0 -0.41508104439967403 0.24519736438917361 0 -0.3995536608392572 0.24402845531612569 0 -0.39950360821606928 0.25530860255497162 0 -0.3995536608392572 0.24402845531612569 0 -0.39950360821606928 0.25530860255497162 0 -0.41285000163361452 0.14543690097292969 0 -0.42275491215196093 0.13601550944188401 0 -0.42440245543588923 0.15312052312862759 0 -0.41285000163361452 0.14543690097292969 0 -0.42440245543588923 0.15312052312862759 0 -0.41373410453973292 0.15887931586916351 0 -0.41285000163361452 0.14543690097292969 0 -0.41373410453973292 0.15887931586916351 0 -0.40174064007766752 0.15370289054601391 0 -0.40321110932650878 0.1221158237183847 0 -0.41930931648845199 0.1200958996229 0 -0.41095422902315998 0.1336513235695054 0 -0.41285000163361452 0.14543690097292969 0 -0.41095422902315998 0.1336513235695054 0 -0.40008303463905343 0.1400154312076918 0 -0.41930931648845199 0.1200958996229 0 -0.41095422902315998 0.1336513235695054 0 -0.42275491215196093 0.13601550944188401 0 -0.41285000163361452 0.14543690097292969 0 -0.41095422902315998 0.1336513235695054 0 -0.42275491215196093 0.13601550944188401 0 -0.43990370819093311 0.12796061345087159 0 -0.42275491215196093 0.13601550944188401 0 -0.43286812696273791 0.14290302983302761 0 -0.41930931648845199 0.1200958996229 0 -0.43990370819093311 0.12796061345087159 0 -0.42275491215196093 0.13601550944188401 0 -0.42275491215196093 0.13601550944188401 0 -0.43286812696273791 0.14290302983302761 0 -0.42440245543588923 0.15312052312862759 0 -0.43286812696273791 0.14290302983302761 0 -0.42440245543588923 0.15312052312862759 0 -0.43623527607928869 0.15524493838256481 0 -0.44028044194054938 0.16084385640995669 0 -0.43623527607928869 0.15524493838256481 0 -0.43574333791661851 0.16134746455864371 0 -0.43756154677318609 0.16719356970989729 0 -0.42889608687344988 0.16210749373215599 0 -0.41651762254753782 0.17070010603678279 0 -0.43756154677318609 0.16719356970989729 0 -0.43574333791661851 0.16134746455864371 0 -0.42889608687344988 0.16210749373215599 0 -0.43623527607928869 0.15524493838256481 0 -0.43574333791661851 0.16134746455864371 0 -0.42889608687344988 0.16210749373215599 0 -0.43756154677318609 0.16719356970989729 0 -0.41651762254753782 0.17070010603678279 0 -0.43756154677318609 0.16719356970989729 0 -0.43333461142714891 0.17036919730891509 0 -0.41651762254753782 0.17070010603678279 0 -0.42440245543588923 0.15312052312862759 0 -0.43623527607928869 0.15524493838256481 0 -0.42889608687344988 0.16210749373215599 0 -0.42889608687344988 0.16210749373215599 0 -0.42088756734915239 0.16120185969168249 0 -0.41651762254753782 0.17070010603678279 0 -0.42440245543588923 0.15312052312862759 0 -0.42889608687344988 0.16210749373215599 0 -0.42088756734915239 0.16120185969168249 0 -0.43333461142714891 0.17036919730891509 0 -0.42354993093388699 0.17747489809953629 0 -0.42704812806079823 0.18735104236532199 0 -0.43333461142714891 0.17036919730891509 0 -0.42354993093388699 0.17747489809953629 0 -0.41651762254753782 0.17070010603678279 0 -0.45062134881170618 0.1914920342132638 0 -0.43333461142714891 0.17036919730891509 0 -0.42704812806079823 0.18735104236532199 0 -0.42354993093388699 0.17747489809953629 0 -0.42704812806079823 0.18735104236532199 0 -0.41729936170006332 0.1814792466871254 0 -0.41331324445673651 0.1896170357110836 0 -0.42704812806079823 0.18735104236532199 0 -0.41729936170006332 0.1814792466871254 0 -0.41729936170006332 0.1814792466871254 0 -0.408810876772284 0.1783077542140355 0 -0.41651762254753782 0.17070010603678279 0 -0.42354993093388699 0.17747489809953629 0 -0.41729936170006332 0.1814792466871254 0 -0.41651762254753782 0.17070010603678279 0 -0.41331324445673651 0.1896170357110836 0 -0.41729936170006332 0.1814792466871254 0 -0.408810876772284 0.1783077542140355 0 -0.41331324445673651 0.1896170357110836 0 -0.40252379791200582 0.19016352219916319 0 -0.408810876772284 0.1783077542140355 0 -0.42088756734915239 0.16120185969168249 0 -0.41651762254753782 0.17070010603678279 0 -0.41373410453973292 0.15887931586916351 0 -0.42440245543588923 0.15312052312862759 0 -0.42088756734915239 0.16120185969168249 0 -0.41373410453973292 0.15887931586916351 0 -0.41651762254753782 0.17070010603678279 0 -0.41373410453973292 0.15887931586916351 0 -0.40435980283942108 0.16609130917364251 0 -0.408810876772284 0.1783077542140355 0 -0.41651762254753782 0.17070010603678279 0 -0.40435980283942108 0.16609130917364251 0 -0.41373410453973292 0.15887931586916351 0 -0.40435980283942108 0.16609130917364251 0 -0.40174064007766752 0.15370289054601391 0 -0.40435980283942108 0.16609130917364251 0 -0.39389969943251513 0.16001360462406269 0 -0.40174064007766752 0.15370289054601391 0 -0.408810876772284 0.1783077542140355 0 -0.40435980283942108 0.16609130917364251 0 -0.38332345433790349 0.16928827837290539 0 -0.40435980283942108 0.16609130917364251 0 -0.39389969943251513 0.16001360462406269 0 -0.38332345433790349 0.16928827837290539 0 -0.408810876772284 0.1783077542140355 0 -0.39000065675388218 0.18631082923008399 0 -0.38332345433790349 0.16928827837290539 0 -0.408810876772284 0.1783077542140355 0 -0.38332345433790349 0.16928827837290539 0 -0.40252379791200582 0.19016352219916319 0 -0.408810876772284 0.1783077542140355 0 -0.39000065675388218 0.18631082923008399 0 -0.39000065675388218 0.18631082923008399 0 -0.38332345433790349 0.16928827837290539 0 -0.36391172255344201 0.17994551783924681 0 -0.39389969943251513 0.16001360462406269 0 -0.38332345433790349 0.16928827837290539 0 -0.38617490047506853 0.1509719404036893 0 -0.38332345433790349 0.16928827837290539 0 -0.38617490047506853 0.1509719404036893 0 -0.37167558705295678 0.15422856428616191 0 -0.38617490047506853 0.1509719404036893 0 -0.37184596122581071 0.1415665508509277 0 -0.37167558705295678 0.15422856428616191 0 -0.38617490047506853 0.1509719404036893 0 -0.38628341669909089 0.133260155351516 0 -0.37184596122581071 0.1415665508509277 0 -0.39389969943251513 0.16001360462406269 0 -0.38617490047506853 0.1509719404036893 0 -0.40174064007766752 0.15370289054601391 0 -0.38617490047506853 0.1509719404036893 0 -0.40008303463905343 0.1400154312076918 0 -0.38628341669909089 0.133260155351516 0 -0.38617490047506853 0.1509719404036893 0 -0.40174064007766752 0.15370289054601391 0 -0.40008303463905343 0.1400154312076918 0 -0.41285000163361452 0.14543690097292969 0 -0.40174064007766752 0.15370289054601391 0 -0.40008303463905343 0.1400154312076918 0 -0.40321110932650878 0.1221158237183847 0 -0.40008303463905343 0.1400154312076918 0 -0.38628341669909089 0.133260155351516 0 -0.40321110932650878 0.1221158237183847 0 -0.41095422902315998 0.1336513235695054 0 -0.40008303463905343 0.1400154312076918 0 -0.3850763322618882 0.11563577614832 0 -0.38628341669909089 0.133260155351516 0 -0.37208893801186299 0.12686511546871371 0 -0.38628341669909089 0.133260155351516 0 -0.37208893801186299 0.12686511546871371 0 -0.37184596122581071 0.1415665508509277 0 -0.37208893801186299 0.12686511546871371 0 -0.35558166206678149 0.13247699391327519 0 -0.37184596122581071 0.1415665508509277 0 -0.35558166206678149 0.13247699391327519 0 -0.33790963352707659 0.13322136111861041 0 -0.34496840244600668 0.1160327498371988 0 -0.35558166206678149 0.13247699391327519 0 -0.34894052529516062 0.14583342747308331 0 -0.33790963352707659 0.13322136111861041 0 -0.35558166206678149 0.13247699391327519 0 -0.34894052529516062 0.14583342747308331 0 -0.36020695782572743 0.14793889138351829 0 -0.34894052529516062 0.14583342747308331 0 -0.36020695782572743 0.14793889138351829 0 -0.35783603190352298 0.16026880253177539 0 -0.34894052529516062 0.14583342747308331 0 -0.35783603190352298 0.16026880253177539 0 -0.3496236936293296 0.15736262451970001 0 -0.35558166206678149 0.13247699391327519 0 -0.36020695782572743 0.14793889138351829 0 -0.37184596122581071 0.1415665508509277 0 -0.36020695782572743 0.14793889138351829 0 -0.37167558705295678 0.15422856428616191 0 -0.35783603190352298 0.16026880253177539 0 -0.36020695782572743 0.14793889138351829 0 -0.37184596122581071 0.1415665508509277 0 -0.37167558705295678 0.15422856428616191 0 -0.38332345433790349 0.16928827837290539 0 -0.35783603190352298 0.16026880253177539 0 -0.38332345433790349 0.16928827837290539 0 -0.37167558705295678 0.15422856428616191 0 -0.35783603190352298 0.16026880253177539 0 -0.38332345433790349 0.16928827837290539 0 -0.36391172255344201 0.17994551783924681 0 -0.35783603190352298 0.16026880253177539 0 -0.36391172255344201 0.17994551783924681 0 -0.34528885741401277 0.17602832974413579 0 -0.34673789951674139 0.1931501901367447 0 -0.36391172255344201 0.17994551783924681 0 -0.3496236936293296 0.15736262451970001 0 -0.36391172255344201 0.17994551783924681 0 -0.34528885741401277 0.17602832974413579 0 -0.3496236936293296 0.15736262451970001 0 -0.36391172255344201 0.17994551783924681 0 -0.35783603190352298 0.16026880253177539 0 -0.3496236936293296 0.15736262451970001 0 -0.35783603190352298 0.16026880253177539 0 -0.3496236936293296 0.15736262451970001 0 -0.34528885741401277 0.17602832974413579 0 -0.3496236936293296 0.15736262451970001 0 -0.33562770438594419 0.16679517156532231 0 -0.3496236936293296 0.15736262451970001 0 -0.33562770438594419 0.16679517156532231 0 -0.33234860946914258 0.15124932669064539 0 -0.33562770438594419 0.16679517156532231 0 -0.32436010685923922 0.1617842322587239 0 -0.33234860946914258 0.15124932669064539 0 -0.33562770438594419 0.16679517156532231 0 -0.33069606258545708 0.1824563716726785 0 -0.32381901023930693 0.17186763938830579 0 -0.34528885741401277 0.17602832974413579 0 -0.33562770438594419 0.16679517156532231 0 -0.33069606258545708 0.1824563716726785 0 -0.34528885741401277 0.17602832974413579 0 -0.33069606258545708 0.1824563716726785 0 -0.34673789951674139 0.1931501901367447 0 -0.33069606258545708 0.1824563716726785 0 -0.31632019349860491 0.1796894910819028 0 -0.3151729417567361 0.19260452676140921 0 -0.33069606258545708 0.1824563716726785 0 -0.31632019349860491 0.1796894910819028 0 -0.32381901023930693 0.17186763938830579 0 -0.31632019349860491 0.1796894910819028 0 -0.32381901023930693 0.17186763938830579 0 -0.31351147959282072 0.1664735019455329 0 -0.32436010685923922 0.1617842322587239 0 -0.31608378838752321 0.15588573183824181 0 -0.33234860946914258 0.15124932669064539 0 -0.33562770438594419 0.16679517156532231 0 -0.32436010685923922 0.1617842322587239 0 -0.32381901023930693 0.17186763938830579 0 -0.32436010685923922 0.1617842322587239 0 -0.32381901023930693 0.17186763938830579 0 -0.31351147959282072 0.1664735019455329 0 -0.32436010685923922 0.1617842322587239 0 -0.31351147959282072 0.1664735019455329 0 -0.31608378838752321 0.15588573183824181 0 -0.32595973895906449 0.13915601531747329 0 -0.33234860946914258 0.15124932669064539 0 -0.30686118703476217 0.14222985084951539 0 -0.31608378838752321 0.15588573183824181 0 -0.33234860946914258 0.15124932669064539 0 -0.30686118703476217 0.14222985084951539 0 -0.33234860946914258 0.15124932669064539 0 -0.30686118703476217 0.14222985084951539 0 -0.32595973895906449 0.13915601531747329 0 -0.32280110590496308 0.1136766288347212 0 -0.32595973895906449 0.13915601531747329 0 -0.31319521497078462 0.12723917229786741 0 -0.30686118703476217 0.14222985084951539 0 -0.32595973895906449 0.13915601531747329 0 -0.31319521497078462 0.12723917229786741 0 -0.32280110590496308 0.1136766288347212 0 -0.32595973895906449 0.13915601531747329 0 -0.33790963352707659 0.13322136111861041 0 -0.32280110590496308 0.1136766288347212 0 -0.34894052529516062 0.14583342747308331 0 -0.33790963352707659 0.13322136111861041 0 -0.33234860946914258 0.15124932669064539 0 -0.34894052529516062 0.14583342747308331 0 -0.3496236936293296 0.15736262451970001 0 -0.33234860946914258 0.15124932669064539 0 -0.3496236936293296 0.15736262451970001 0 -0.33234860946914258 0.15124932669064539 0 -0.32595973895906449 0.13915601531747329 0 -0.33790963352707659 0.13322136111861041 0 -0.33234860946914258 0.15124932669064539 0 -0.34713503643075377 0.24967148756325119 0 -0.36066047318670608 0.24075503847177371 0 -0.3683119580287349 0.25512360104486692 0 -0.34713503643075377 0.24967148756325119 0 -0.36066047318670608 0.24075503847177371 0 -0.34968532661211632 0.22864106082410629 0 -0.37390551990050858 0.23968673785471609 0 -0.36066047318670608 0.24075503847177371 0 -0.3683119580287349 0.25512360104486692 0 -0.37390551990050858 0.23968673785471609 0 -0.36066047318670608 0.24075503847177371 0 -0.3663500061220139 0.22806255445221599 0 -0.3788154840395862 0.22847879429843729 0 -0.37390551990050858 0.23968673785471609 0 -0.3663500061220139 0.22806255445221599 0 -0.3788154840395862 0.22847879429843729 0 -0.3663500061220139 0.22806255445221599 0 -0.37412886577032622 0.2174879150622453 0 -0.3663500061220139 0.22806255445221599 0 -0.34968532661211632 0.22864106082410629 0 -0.35890533587147111 0.2094064987098829 0 -0.36066047318670608 0.24075503847177371 0 -0.3663500061220139 0.22806255445221599 0 -0.34968532661211632 0.22864106082410629 0 -0.34968532661211632 0.22864106082410629 0 -0.35890533587147111 0.2094064987098829 0 -0.33948054782591569 0.21290612946322671 0 -0.35890533587147111 0.2094064987098829 0 -0.34673789951674139 0.1931501901367447 0 -0.33948054782591569 0.21290612946322671 0 -0.3663500061220139 0.22806255445221599 0 -0.35890533587147111 0.2094064987098829 0 -0.37412886577032622 0.2174879150622453 0 -0.37835254707840432 0.2020966381718067 0 -0.35890533587147111 0.2094064987098829 0 -0.37412886577032622 0.2174879150622453 0 -0.37835254707840432 0.2020966381718067 0 -0.36391172255344201 0.17994551783924681 0 -0.37835254707840432 0.2020966381718067 0 -0.36391172255344201 0.17994551783924681 0 -0.35890533587147111 0.2094064987098829 0 -0.36391172255344201 0.17994551783924681 0 -0.35890533587147111 0.2094064987098829 0 -0.34673789951674139 0.1931501901367447 0 -0.34673789951674139 0.1931501901367447 0 -0.32718201240795719 0.20116992182651619 0 -0.33948054782591569 0.21290612946322671 0 -0.33069606258545708 0.1824563716726785 0 -0.34673789951674139 0.1931501901367447 0 -0.32718201240795719 0.20116992182651619 0 -0.32718201240795719 0.20116992182651619 0 -0.3151729417567361 0.19260452676140921 0 -0.30798069947201312 0.20935836464516239 0 -0.33069606258545708 0.1824563716726785 0 -0.32718201240795719 0.20116992182651619 0 -0.3151729417567361 0.19260452676140921 0 -0.32302392329088009 0.21654394827987561 0 -0.31236512788907578 0.2263907750667957 0 -0.30798069947201312 0.20935836464516239 0 -0.32718201240795719 0.20116992182651619 0 -0.32302392329088009 0.21654394827987561 0 -0.30798069947201312 0.20935836464516239 0 -0.32718201240795719 0.20116992182651619 0 -0.32302392329088009 0.21654394827987561 0 -0.33948054782591569 0.21290612946322671 0 -0.32302392329088009 0.21654394827987561 0 -0.33948054782591569 0.21290612946322671 0 -0.32919828209255297 0.23228248034877291 0 -0.34968532661211632 0.22864106082410629 0 -0.33948054782591569 0.21290612946322671 0 -0.32919828209255297 0.23228248034877291 0 -0.32919828209255297 0.23228248034877291 0 -0.30949841977280068 0.24163267491042209 0 -0.31236512788907578 0.2263907750667957 0 -0.32302392329088009 0.21654394827987561 0 -0.32919828209255297 0.23228248034877291 0 -0.31236512788907578 0.2263907750667957 0 -0.32919828209255297 0.23228248034877291 0 -0.30949841977280068 0.24163267491042209 0 -0.32877515114103262 0.25241493566753948 0 -0.34713503643075377 0.24967148756325119 0 -0.32919828209255297 0.23228248034877291 0 -0.32877515114103262 0.25241493566753948 0 -0.34713503643075377 0.24967148756325119 0 -0.34968532661211632 0.22864106082410629 0 -0.32919828209255297 0.23228248034877291 0 -0.28343699201108957 0.24494826123210689 0 -0.29212431481713241 0.23213640714974559 0 -0.2952209642644027 0.25782377508588661 0 -0.29212431481713241 0.23213640714974559 0 -0.2952209642644027 0.25782377508588661 0 -0.28343699201108957 0.24494826123210689 0 -0.29212431481713241 0.23213640714974559 0 -0.27253016419202281 0.23598340453657579 0 -0.30949841977280068 0.24163267491042209 0 -0.29212431481713241 0.23213640714974559 0 -0.2952209642644027 0.25782377508588661 0 -0.30949841977280068 0.24163267491042209 0 -0.31236512788907578 0.2263907750667957 0 -0.29212431481713241 0.23213640714974559 0 -0.31236512788907578 0.2263907750667957 0 -0.29212431481713241 0.23213640714974559 0 -0.30798069947201312 0.20935836464516239 0 -0.29212431481713241 0.23213640714974559 0 -0.28902766536986207 0.20644903921360461 0 -0.2733780820165278 0.21833304049898999 0 -0.29212431481713241 0.23213640714974559 0 -0.28902766536986207 0.20644903921360461 0 -0.29212431481713241 0.23213640714974559 0 -0.28902766536986207 0.20644903921360461 0 -0.30798069947201312 0.20935836464516239 0 -0.28902766536986207 0.20644903921360461 0 -0.30798069947201312 0.20935836464516239 0 -0.29911172118146911 0.18397570143290359 0 -0.3151729417567361 0.19260452676140921 0 -0.30798069947201312 0.20935836464516239 0 -0.29911172118146911 0.18397570143290359 0 -0.30798069947201312 0.20935836464516239 0 -0.29911172118146911 0.18397570143290359 0 -0.28902766536986207 0.20644903921360461 0 -0.28593101592259179 0.18076167127746351 0 -0.28902766536986207 0.20644903921360461 0 -0.27809701324461661 0.19334106701142609 0 -0.28593101592259179 0.18076167127746351 0 -0.28902766536986207 0.20644903921360461 0 -0.29911172118146911 0.18397570143290359 0 -0.28593101592259179 0.18076167127746351 0 -0.27809701324461661 0.19334106701142609 0 -0.26853014014394849 0.20207466576736791 0 -0.26889923154206369 0.18407889178726841 0 -0.28902766536986207 0.20644903921360461 0 -0.27809701324461661 0.19334106701142609 0 -0.26853014014394849 0.20207466576736791 0 -0.25732419851712929 0.19588902305044339 0 -0.26889923154206369 0.18407889178726841 0 -0.25449388519764998 0.1844284315031727 0 -0.26853014014394849 0.20207466576736791 0 -0.25732419851712929 0.19588902305044339 0 -0.26889923154206369 0.18407889178726841 0 -0.25732419851712929 0.19588902305044339 0 -0.25449388519764998 0.1844284315031727 0 -0.24655002503873369 0.19394753918537411 0 -0.25732419851712929 0.19588902305044339 0 -0.24636878037834131 0.2052805006327261 0 -0.24655002503873369 0.19394753918537411 0 -0.26853014014394849 0.20207466576736791 0 -0.25732419851712929 0.19588902305044339 0 -0.25788245103474039 0.21047150988724461 0 -0.25732419851712929 0.19588902305044339 0 -0.25788245103474039 0.21047150988724461 0 -0.24636878037834131 0.2052805006327261 0 -0.25788245103474039 0.21047150988724461 0 -0.24667485751449911 0.21894349547531761 0 -0.24636878037834131 0.2052805006327261 0 -0.25788245103474039 0.21047150988724461 0 -0.26049495513229559 0.2229190355589297 0 -0.24667485751449911 0.21894349547531761 0 -0.25788245103474039 0.21047150988724461 0 -0.2733780820165278 0.21833304049898999 0 -0.26049495513229559 0.2229190355589297 0 -0.28902766536986207 0.20644903921360461 0 -0.26853014014394849 0.20207466576736791 0 -0.2733780820165278 0.21833304049898999 0 -0.26853014014394849 0.20207466576736791 0 -0.25788245103474039 0.21047150988724461 0 -0.2733780820165278 0.21833304049898999 0 -0.29212431481713241 0.23213640714974559 0 -0.2733780820165278 0.21833304049898999 0 -0.27253016419202281 0.23598340453657579 0 -0.2733780820165278 0.21833304049898999 0 -0.26049495513229559 0.2229190355589297 0 -0.27253016419202281 0.23598340453657579 0 -0.26049495513229559 0.2229190355589297 0 -0.24741806503572619 0.2329767179432283 0 -0.24667485751449911 0.21894349547531761 0 -0.26049495513229559 0.2229190355589297 0 -0.25818398661920128 0.23487409093766501 0 -0.24741806503572619 0.2329767179432283 0 -0.26049495513229559 0.2229190355589297 0 -0.25818398661920128 0.23487409093766501 0 -0.27253016419202281 0.23598340453657579 0 -0.25818398661920128 0.23487409093766501 0 -0.26034797442575353 0.24604855555731669 0 -0.27253016419202281 0.23598340453657579 0 -0.25818398661920128 0.23487409093766501 0 -0.26034797442575353 0.24604855555731669 0 -0.24548244335966471 0.24286857053810521 0 -0.25818398661920128 0.23487409093766501 0 -0.24548244335966471 0.24286857053810521 0 -0.24741806503572619 0.2329767179432283 0 -0.26034797442575353 0.24604855555731669 0 -0.24759739790112481 0.25315441603119782 0 -0.24548244335966471 0.24286857053810521 0 -0.26034797442575353 0.24604855555731669 0 -0.27253016419202281 0.23598340453657579 0 -0.27387252477080049 0.25384945815621962 0 -0.28343699201108957 0.24494826123210689 0 -0.27253016419202281 0.23598340453657579 0 -0.27387252477080049 0.25384945815621962 0 -0.28137376460038149 0.1332103750083862 0 -0.30686118703476217 0.14222985084951539 0 -0.29024274289092511 0.15859303822064499 0 -0.28137376460038149 0.1332103750083862 0 -0.29024274289092511 0.15859303822064499 0 -0.28137376460038149 0.1332103750083862 0 -0.29024274289092511 0.15859303822064499 0 -0.27717328478901931 0.1452021838577936 0 -0.28137376460038149 0.1332103750083862 0 -0.29076314000174791 0.12908645867656821 0 -0.30686118703476217 0.14222985084951539 0 -0.28137376460038149 0.1332103750083862 0 -0.30686118703476217 0.14222985084951539 0 -0.28137376460038149 0.1332103750083862 0 -0.28408838181682022 0.12810872525283201 0 -0.29076314000174791 0.12908645867656821 0 -0.28408838181682022 0.12810872525283201 0 -0.27971977538919068 0.12847672365317719 0 -0.28449684727596058 0.12166134367319641 0 -0.28137376460038149 0.1332103750083862 0 -0.28408838181682022 0.12810872525283201 0 -0.27971977538919068 0.12847672365317719 0 -0.28408838181682022 0.12810872525283201 0 -0.29076314000174791 0.12908645867656821 0 -0.28449684727596058 0.12166134367319641 0 -0.31319521497078462 0.12723917229786741 0 -0.30686118703476217 0.14222985084951539 0 -0.29925309279529949 0.12216381251203549 0 -0.29076314000174791 0.12908645867656821 0 -0.30686118703476217 0.14222985084951539 0 -0.29925309279529949 0.12216381251203549 0 -0.31608378838752321 0.15588573183824181 0 -0.30686118703476217 0.14222985084951539 0 -0.30381252379731338 0.15866525260364681 0 -0.30686118703476217 0.14222985084951539 0 -0.30381252379731338 0.15866525260364681 0 -0.29024274289092511 0.15859303822064499 0 -0.31351147959282072 0.1664735019455329 0 -0.30381252379731338 0.15866525260364681 0 -0.29911172118146911 0.18397570143290359 0 -0.31351147959282072 0.1664735019455329 0 -0.31608378838752321 0.15588573183824181 0 -0.30381252379731338 0.15866525260364681 0 -0.30381252379731338 0.15866525260364681 0 -0.29911172118146911 0.18397570143290359 0 -0.29024274289092511 0.15859303822064499 0 -0.31632019349860491 0.1796894910819028 0 -0.31351147959282072 0.1664735019455329 0 -0.29911172118146911 0.18397570143290359 0 -0.31632019349860491 0.1796894910819028 0 -0.3151729417567361 0.19260452676140921 0 -0.29911172118146911 0.18397570143290359 0 -0.29911172118146911 0.18397570143290359 0 -0.28593101592259179 0.18076167127746351 0 -0.29024274289092511 0.15859303822064499 0 -0.29911172118146911 0.18397570143290359 0 -0.29024274289092511 0.15859303822064499 0 -0.28593101592259179 0.18076167127746351 0 -0.29024274289092511 0.15859303822064499 0 -0.27653231093628511 0.1757446013880743 0 -0.29024274289092511 0.15859303822064499 0 -0.27195885552753468 0.16649314816681951 0 -0.27653231093628511 0.1757446013880743 0 -0.29024274289092511 0.15859303822064499 0 -0.27195885552753468 0.16649314816681951 0 -0.27125434808953658 0.1515973993714313 0 -0.27195885552753468 0.16649314816681951 0 -0.26452393155726539 0.15937872534638739 0 -0.27125434808953658 0.1515973993714313 0 -0.27809701324461661 0.19334106701142609 0 -0.28593101592259179 0.18076167127746351 0 -0.26889923154206369 0.18407889178726841 0 -0.27195885552753468 0.16649314816681951 0 -0.27653231093628511 0.1757446013880743 0 -0.26889923154206369 0.18407889178726841 0 -0.27195885552753468 0.16649314816681951 0 -0.26889923154206369 0.18407889178726841 0 -0.25984499909027431 0.16903879761626961 0 -0.28593101592259179 0.18076167127746351 0 -0.27653231093628511 0.1757446013880743 0 -0.26889923154206369 0.18407889178726841 0 -0.25449388519764998 0.1844284315031727 0 -0.25984499909027431 0.16903879761626961 0 -0.2443225216379746 0.1685707376049525 0 -0.26889923154206369 0.18407889178726841 0 -0.25449388519764998 0.1844284315031727 0 -0.25984499909027431 0.16903879761626961 0 -0.25984499909027431 0.16903879761626961 0 -0.25459497834155942 0.15277834305232979 0 -0.2443225216379746 0.1685707376049525 0 -0.26452393155726539 0.15937872534638739 0 -0.25984499909027431 0.16903879761626961 0 -0.25459497834155942 0.15277834305232979 0 -0.27195885552753468 0.16649314816681951 0 -0.26452393155726539 0.15937872534638739 0 -0.25984499909027431 0.16903879761626961 0 -0.26452393155726539 0.15937872534638739 0 -0.25459497834155942 0.15277834305232979 0 -0.27125434808953658 0.1515973993714313 0 -0.25459497834155942 0.15277834305232979 0 -0.27125434808953658 0.1515973993714313 0 -0.26582228357523358 0.13740792283071199 0 -0.25459497834155942 0.15277834305232979 0 -0.26582228357523358 0.13740792283071199 0 -0.2515550936227457 0.13766665608924619 0 -0.29024274289092511 0.15859303822064499 0 -0.27125434808953658 0.1515973993714313 0 -0.27717328478901931 0.1452021838577936 0 -0.27125434808953658 0.1515973993714313 0 -0.27717328478901931 0.1452021838577936 0 -0.26582228357523358 0.13740792283071199 0 -0.28137376460038149 0.1332103750083862 0 -0.25619864571567158 0.1243014169855481 0 -0.28137376460038149 0.1332103750083862 0 -0.26582228357523358 0.13740792283071199 0 -0.25619864571567158 0.1243014169855481 0 -0.28137376460038149 0.1332103750083862 0 -0.27971977538919068 0.12847672365317719 0 -0.25619864571567158 0.1243014169855481 0 -0.28137376460038149 0.1332103750083862 0 -0.27971977538919068 0.12847672365317719 0 -0.28137376460038149 0.1332103750083862 0 -0.27717328478901931 0.1452021838577936 0 -0.26582228357523358 0.13740792283071199 0 -0.26582228357523358 0.13740792283071199 0 -0.2515550936227457 0.13766665608924619 0 -0.25619864571567158 0.1243014169855481 0 -0.25619864571567158 0.1243014169855481 0 -0.25801695806766872 0.1088815318780445 0 -0.24121356983117201 0.1082096431468671 0 -0.25619864571567158 0.1243014169855481 0 -0.25801695806766872 0.1088815318780445 0 -0.27286236340199133 0.11692158117250891 0 -0.25801695806766872 0.1088815318780445 0 -0.26483067543804722 0.097532450822340522 0 -0.2466704649685986 0.094137763570239424 0 -0.25801695806766872 0.1088815318780445 0 -0.26483067543804722 0.097532450822340522 0 -0.27265379736780732 0.1062347073291294 0 -0.26483067543804722 0.097532450822340522 0 -0.27265379736780732 0.1062347073291294 0 -0.27996000085461109 0.097551088578271189 0 -0.27265379736780732 0.1062347073291294 0 -0.27996000085461109 0.097551088578271189 0 -0.28674627542721792 0.1117355278443541 0 -0.27971977538919068 0.12847672365317719 0 -0.25619864571567158 0.1243014169855481 0 -0.27286236340199133 0.11692158117250891 0 -0.25801695806766872 0.1088815318780445 0 -0.27265379736780732 0.1062347073291294 0 -0.27286236340199133 0.11692158117250891 0 -0.27265379736780732 0.1062347073291294 0 -0.27286236340199133 0.11692158117250891 0 -0.28674627542721792 0.1117355278443541 0 -0.27971977538919068 0.12847672365317719 0 -0.27286236340199133 0.11692158117250891 0 -0.28449684727596058 0.12166134367319641 0 -0.28674627542721792 0.1117355278443541 0 -0.30327519711975842 0.10532666695681631 0 -0.29925309279529949 0.12216381251203549 0 -0.28449684727596058 0.12166134367319641 0 -0.28674627542721792 0.1117355278443541 0 -0.29925309279529949 0.12216381251203549 0 -0.29076314000174791 0.12908645867656821 0 -0.28449684727596058 0.12166134367319641 0 -0.29925309279529949 0.12216381251203549 0 -0.27286236340199133 0.11692158117250891 0 -0.28449684727596058 0.12166134367319641 0 -0.28674627542721792 0.1117355278443541 0 -0.27996000085461109 0.097551088578271189 0 -0.28674627542721792 0.1117355278443541 0 -0.30327519711975842 0.10532666695681631 0 -0.27996000085461109 0.097551088578271189 0 -0.30327519711975842 0.10532666695681631 0 -0.29063217754189918 0.084224806956319037 0 -0.30327519711975842 0.10532666695681631 0 -0.30963115269770142 0.1171015701503601 0 -0.29925309279529949 0.12216381251203549 0 -0.30327519711975842 0.10532666695681631 0 -0.30963115269770142 0.1171015701503601 0 -0.32280110590496308 0.1136766288347212 0 -0.31319521497078462 0.12723917229786741 0 -0.30963115269770142 0.1171015701503601 0 -0.29925309279529949 0.12216381251203549 0 -0.29063217754189918 0.084224806956319037 0 -0.29631519845445692 0.054543039961245723 0 -0.31656074086918762 0.063338185015322429 0 -0.29063217754189918 0.084224806956319037 0 -0.3196424728508615 0.088197242351969102 0 -0.29063217754189918 0.084224806956319037 0 -0.3196424728508615 0.088197242351969102 0 -0.31656074086918762 0.063338185015322429 0 -0.30327519711975842 0.10532666695681631 0 -0.29063217754189918 0.084224806956319037 0 -0.3196424728508615 0.088197242351969102 0 -0.29063217754189918 0.084224806956319037 0 -0.27691946452080812 0.066747243369380968 0 -0.29631519845445692 0.054543039961245723 0 -0.29063217754189918 0.084224806956319037 0 -0.27691946452080812 0.066747243369380968 0 -0.26162188223293692 0.080252371560667904 0 -0.29063217754189918 0.084224806956319037 0 -0.26162188223293692 0.080252371560667904 0 -0.27996000085461109 0.097551088578271189 0 -0.29063217754189918 0.084224806956319037 0 -0.26162188223293692 0.080252371560667904 0 -0.26483067543804722 0.097532450822340522 0 -0.27996000085461109 0.097551088578271189 0 -0.26162188223293692 0.080252371560667904 0 -0.26483067543804722 0.097532450822340522 0 -0.26162188223293692 0.080252371560667904 0 -0.2466704649685986 0.094137763570239424 0 -0.27691946452080812 0.066747243369380968 0 -0.26162188223293692 0.080252371560667904 0 -0.25420852008430622 0.057242051200783052 0 -0.25420852008430622 0.057242051200783052 0 -0.2574641548598442 0.035133979252333067 0 -0.27666223066809242 0.048556765709316413 0 -0.2574641548598442 0.035133979252333067 0 -0.27666223066809242 0.048556765709316413 0 -0.27557432804337789 0.028962327297865052 0 -0.27691946452080812 0.066747243369380968 0 -0.25420852008430622 0.057242051200783052 0 -0.27666223066809242 0.048556765709316413 0 -0.26096182947410212 -0.000358506717774391 0 -0.26297709853396151 0.0162528856048073 0 -0.24442310393583619 0.018904397669626871 0 -0.2574641548598442 0.035133979252333067 0 -0.26297709853396151 0.0162528856048073 0 -0.27557432804337789 0.028962327297865052 0 -0.2574641548598442 0.035133979252333067 0 -0.26297709853396151 0.0162528856048073 0 -0.24442310393583619 0.018904397669626871 0 -0.26297709853396151 0.0162528856048073 0 -0.27557432804337789 0.028962327297865052 0 -0.28668718771990043 0.014936477973419231 0 -0.26297709853396151 0.0162528856048073 0 -0.2767705385078354 0.0043107152141013847 0 -0.28668718771990043 0.014936477973419231 0 -0.26096182947410212 -0.000358506717774391 0 -0.26297709853396151 0.0162528856048073 0 -0.2767705385078354 0.0043107152141013847 0 -0.26297709853396151 0.0162528856048073 0 -0.28668718771990043 0.014936477973419231 0 -0.29341118398778221 -3.8928658760805153e-05 0 -0.28668718771990043 0.014936477973419231 0 -0.31039727690583918 0.013620070342029229 0 -0.29341118398778221 -3.8928658760805153e-05 0 -0.2767705385078354 0.0043107152141013847 0 -0.28668718771990043 0.014936477973419231 0 -0.27557432804337789 0.028962327297865052 0 -0.28668718771990043 0.014936477973419231 0 -0.29617216736891361 0.030457488595155541 0 -0.28668718771990043 0.014936477973419231 0 -0.29617216736891361 0.030457488595155541 0 -0.31039727690583918 0.013620070342029229 0 -0.29617216736891361 0.030457488595155541 0 -0.31039727690583918 0.013620070342029229 0 -0.31347900888751351 0.038479127678675812 0 -0.31039727690583918 0.013620070342029229 0 -0.31347900888751351 0.038479127678675812 0 -0.28668718771990043 0.014936477973419231 0 -0.31039727690583918 0.013620070342029229 0 -0.29341118398778221 -3.8928658760805153e-05 0 -0.30770280863967042 -0.008115090768276649 0 -0.31039727690583918 0.013620070342029229 0 -0.30770280863967042 -0.008115090768276649 0 -0.31039727690583918 0.013620070342029229 0 -0.27691946452080812 0.066747243369380968 0 -0.27666223066809242 0.048556765709316413 0 -0.29631519845445692 0.054543039961245723 0 -0.27666223066809242 0.048556765709316413 0 -0.29617216736891361 0.030457488595155541 0 -0.29631519845445692 0.054543039961245723 0 -0.27666223066809242 0.048556765709316413 0 -0.27557432804337789 0.028962327297865052 0 -0.29617216736891361 0.030457488595155541 0 -0.29617216736891361 0.030457488595155541 0 -0.29631519845445692 0.054543039961245723 0 -0.31347900888751351 0.038479127678675812 0 -0.29631519845445692 0.054543039961245723 0 -0.31347900888751351 0.038479127678675812 0 -0.31656074086918762 0.063338185015322429 0 -0.31347900888751351 0.038479127678675812 0 -0.34113285775510238 0.048100003135486381 0 -0.31656074086918762 0.063338185015322429 0 -0.31347900888751351 0.038479127678675812 0 -0.31656074086918762 0.063338185015322429 0 -0.31347900888751351 0.038479127678675812 0 -0.34113285775510238 0.048100003135486381 0 -0.3238014212030032 0.02689195126272249 0 -0.34113285775510238 0.048100003135486381 0 -0.3238014212030032 0.02689195126272249 0 -0.33750512832083918 0.022828284462793291 0 -0.34113285775510238 0.048100003135486381 0 -0.31656074086918762 0.063338185015322429 0 -0.33659904305991001 0.072917390245873084 0 -0.31039727690583918 0.013620070342029229 0 -0.32807385559698721 0.012638649188218779 0 -0.3243273320705421 -0.002975739998295202 0 -0.31039727690583918 0.013620070342029229 0 -0.32807385559698721 0.012638649188218779 0 -0.30770280863967042 -0.008115090768276649 0 -0.3243273320705421 -0.002975739998295202 0 -0.31039727690583918 0.013620070342029229 0 -0.31039727690583918 0.013620070342029229 0 -0.32807385559698721 0.012638649188218779 0 -0.3238014212030032 0.02689195126272249 0 -0.31039727690583918 0.013620070342029229 0 -0.31347900888751351 0.038479127678675812 0 -0.3238014212030032 0.02689195126272249 0 -0.34113285775510238 0.048100003135486381 0 -0.33750512832083918 0.022828284462793291 0 -0.35135681626331461 0.021875229708431389 0 -0.32807385559698721 0.012638649188218779 0 -0.33750512832083918 0.022828284462793291 0 -0.34575043428813501 0.0116572280344064 0 -0.32807385559698721 0.012638649188218779 0 -0.3238014212030032 0.02689195126272249 0 -0.33750512832083918 0.022828284462793291 0 -0.32807385559698721 0.012638649188218779 0 -0.34575043428813501 0.0116572280344064 0 -0.32807385559698721 0.012638649188218779 0 -0.33911095629693389 0.00085089756377999598 0 -0.34575043428813501 0.0116572280344064 0 -0.3243273320705421 -0.002975739998295202 0 -0.32807385559698721 0.012638649188218779 0 -0.33911095629693389 0.00085089756377999598 0 -0.361580774771527 -0.0043495437186238384 0 -0.33911095629693389 0.00085089756377999598 0 -0.34575043428813501 0.0116572280344064 0 -0.361580774771527 -0.0043495437186238384 0 -0.35135681626331461 0.021875229708431389 0 -0.361580774771527 -0.0043495437186238384 0 -0.34575043428813501 0.0116572280344064 0 -0.35135681626331461 0.021875229708431389 0 -0.33750512832083918 0.022828284462793291 0 -0.34575043428813501 0.0116572280344064 0 -0.35135681626331461 0.021875229708431389 0 -0.35135681626331461 0.021875229708431389 0 -0.36564136457868862 0.029822470763534389 0 -0.36873298623547179 0.013708748051750491 0 -0.3884339313588816 0.021251925581626911 0 -0.36564136457868862 0.029822470763534389 0 -0.36873298623547179 0.013708748051750491 0 -0.361580774771527 -0.0043495437186238384 0 -0.37671714276837348 -0.0020527700837410161 0 -0.36873298623547179 0.013708748051750491 0 -0.361580774771527 -0.0043495437186238384 0 -0.35135681626331461 0.021875229708431389 0 -0.36873298623547179 0.013708748051750491 0 -0.34113285775510238 0.048100003135486381 0 -0.37170791414445131 0.047833413394124197 0 -0.35957628383175289 0.071331832542292944 0 -0.34113285775510238 0.048100003135486381 0 -0.35135681626331461 0.021875229708431389 0 -0.36564136457868862 0.029822470763534389 0 -0.34113285775510238 0.048100003135486381 0 -0.35135681626331461 0.021875229708431389 0 -0.34113285775510238 0.048100003135486381 0 -0.36564136457868862 0.029822470763534389 0 -0.37170791414445131 0.047833413394124197 0 -0.38282446198857562 0.070081134291422001 0 -0.37170791414445131 0.047833413394124197 0 -0.35957628383175289 0.071331832542292944 0 -0.34113285775510238 0.048100003135486381 0 -0.35957628383175289 0.071331832542292944 0 -0.33659904305991001 0.072917390245873084 0 -0.35957628383175289 0.071331832542292944 0 -0.34871778755880689 0.092178580978669947 0 -0.33659904305991001 0.072917390245873084 0 -0.37779310226675261 0.096159919605369737 0 -0.35957628383175289 0.071331832542292944 0 -0.34871778755880689 0.092178580978669947 0 -0.37779310226675261 0.096159919605369737 0 -0.38282446198857562 0.070081134291422001 0 -0.35957628383175289 0.071331832542292944 0 -0.37779310226675261 0.096159919605369737 0 -0.34871778755880689 0.092178580978669947 0 -0.37779310226675261 0.096159919605369737 0 -0.34871778755880689 0.092178580978669947 0 -0.36403770410201652 0.1132248559919246 0 -0.37208893801186299 0.12686511546871371 0 -0.35558166206678149 0.13247699391327519 0 -0.36403770410201652 0.1132248559919246 0 -0.3850763322618882 0.11563577614832 0 -0.37208893801186299 0.12686511546871371 0 -0.36403770410201652 0.1132248559919246 0 -0.35558166206678149 0.13247699391327519 0 -0.36403770410201652 0.1132248559919246 0 -0.34496840244600668 0.1160327498371988 0 -0.34871778755880689 0.092178580978669947 0 -0.36403770410201652 0.1132248559919246 0 -0.34496840244600668 0.1160327498371988 0 -0.34871778755880689 0.092178580978669947 0 -0.32280110590496308 0.1136766288347212 0 -0.3196424728508615 0.088197242351969102 0 -0.34871778755880689 0.092178580978669947 0 -0.34496840244600668 0.1160327498371988 0 -0.32280110590496308 0.1136766288347212 0 -0.33790963352707659 0.13322136111861041 0 -0.34496840244600668 0.1160327498371988 0 -0.32280110590496308 0.1136766288347212 0 -0.31319521497078462 0.12723917229786741 0 -0.30963115269770142 0.1171015701503601 0 -0.32280110590496308 0.1136766288347212 0 -0.30327519711975842 0.10532666695681631 0 -0.32280110590496308 0.1136766288347212 0 -0.3196424728508615 0.088197242351969102 0 -0.32280110590496308 0.1136766288347212 0 -0.3196424728508615 0.088197242351969102 0 -0.3196424728508615 0.088197242351969102 0 -0.31656074086918762 0.063338185015322429 0 -0.33659904305991001 0.072917390245873084 0 -0.3196424728508615 0.088197242351969102 0 -0.31656074086918762 0.063338185015322429 0 -0.34871778755880689 0.092178580978669947 0 -0.3196424728508615 0.088197242351969102 0 -0.33659904305991001 0.072917390245873084 0 -0.34871778755880689 0.092178580978669947 0 -0.3196424728508615 0.088197242351969102 0 -0.39410683154265758 0.46554868405798072 0 -0.41310150245103722 0.4789910179889465 0 -0.39410683154265758 0.46554868405798072 0 -0.40864420876603641 0.4634523742361199 0 -0.41310150245103722 0.4789910179889465 0 -0.39809573829596712 0.47830206698595867 0 -0.39410683154265758 0.46554868405798072 0 -0.41310150245103722 0.4789910179889465 0 -0.39809573829596712 0.47830206698595867 0 -0.39456191513377409 0.48681299735340178 0 -0.38738202478612732 0.47886080778033752 0 -0.39809573829596712 0.47830206698595867 0 -0.38738202478612732 0.47886080778033752 0 -0.39410683154265758 0.46554868405798072 0 -0.39809573829596712 0.47830206698595867 0 -0.40377430924917102 0.48442153681183348 0 -0.39456191513377409 0.48681299735340178 0 -0.39809573829596712 0.47830206698595867 0 -0.40377430924917102 0.48442153681183348 0 -0.41310150245103722 0.4789910179889465 0 -0.40377430924917102 0.48442153681183348 0 -0.39456191513377409 0.48681299735340178 0 -0.40727692272062271 0.49031012847281558 0 -0.39456191513377409 0.48681299735340178 0 -0.38956591478489772 0.5 0 -0.40727692272062271 0.49031012847281558 0 -0.38956591478489772 0.5 0 -0.41617706474457311 0.5 0 -0.40727692272062271 0.49031012847281558 0 -0.38956591478489772 0.5 0 -0.38079650659006598 0.48924407819042209 0 -0.36295476482522232 0.5 0 -0.39456191513377409 0.48681299735340178 0 -0.38956591478489772 0.5 0 -0.38079650659006598 0.48924407819042209 0 -0.39456191513377409 0.48681299735340178 0 -0.38079650659006598 0.48924407819042209 0 -0.38738202478612732 0.47886080778033752 0 -0.38738202478612732 0.47886080778033752 0 -0.37416096470197768 0.46680368802108918 0 -0.36951791342030882 0.48054658581837162 0 -0.38079650659006598 0.48924407819042209 0 -0.38738202478612732 0.47886080778033752 0 -0.36951791342030882 0.48054658581837162 0 -0.38738202478612732 0.47886080778033752 0 -0.38464726459553539 0.46405996720213383 0 -0.39410683154265758 0.46554868405798072 0 -0.38738202478612732 0.47886080778033752 0 -0.38464726459553539 0.46405996720213383 0 -0.37416096470197768 0.46680368802108918 0 -0.38738202478612732 0.47886080778033752 0 -0.37416096470197768 0.46680368802108918 0 -0.37716961999912491 0.45699154953633009 0 -0.38464726459553539 0.46405996720213383 0 -0.37416096470197768 0.46680368802108918 0 -0.37716961999912491 0.45699154953633009 0 -0.38464726459553539 0.46405996720213383 0 -0.3904168819477899 0.45209510661493191 0 -0.38464726459553539 0.46405996720213383 0 -0.3904168819477899 0.45209510661493191 0 -0.39410683154265758 0.46554868405798072 0 -0.37716961999912491 0.45699154953633009 0 -0.38059372853355722 0.44367822023996739 0 -0.3904168819477899 0.45209510661493191 0 -0.37716961999912491 0.45699154953633009 0 -0.38059372853355722 0.44367822023996739 0 -0.36980970510421818 0.44604279731516833 0 -0.38059372853355722 0.44367822023996739 0 -0.3904168819477899 0.45209510661493191 0 -0.39368591456190122 0.4373832091535515 0 -0.3904168819477899 0.45209510661493191 0 -0.40014028191997209 0.44545042602062229 0 -0.39368591456190122 0.4373832091535515 0 -0.3904168819477899 0.45209510661493191 0 -0.40014028191997209 0.44545042602062229 0 -0.4012792061457407 0.45531981975913549 0 -0.40014028191997209 0.44545042602062229 0 -0.4012792061457407 0.45531981975913549 0 -0.41341565227962868 0.44804201522275999 0 -0.40014028191997209 0.44545042602062229 0 -0.40660405181864712 0.43667930711795372 0 -0.39368591456190122 0.4373832091535515 0 -0.3904168819477899 0.45209510661493191 0 -0.39410683154265758 0.46554868405798072 0 -0.4012792061457407 0.45531981975913549 0 -0.39410683154265758 0.46554868405798072 0 -0.4012792061457407 0.45531981975913549 0 -0.40864420876603641 0.4634523742361199 0 -0.40864420876603641 0.4634523742361199 0 -0.42131697534649681 0.46044880862852622 0 -0.41310150245103722 0.4789910179889465 0 -0.4012792061457407 0.45531981975913549 0 -0.40864420876603641 0.4634523742361199 0 -0.41341565227962868 0.44804201522275999 0 -0.40864420876603641 0.4634523742361199 0 -0.42131697534649681 0.46044880862852622 0 -0.41341565227962868 0.44804201522275999 0 -0.41341565227962868 0.44804201522275999 0 -0.4190758472896926 0.42900463632310848 0 -0.40660405181864712 0.43667930711795372 0 -0.40014028191997209 0.44545042602062229 0 -0.41341565227962868 0.44804201522275999 0 -0.40660405181864712 0.43667930711795372 0 -0.42131697534649681 0.46044880862852622 0 -0.41341565227962868 0.44804201522275999 0 -0.4357509489378123 0.44254997278943792 0 -0.42131697534649681 0.46044880862852622 0 -0.4357509489378123 0.44254997278943792 0 -0.43898036124025458 0.45561105838989208 0 -0.41341565227962868 0.44804201522275999 0 -0.4357509489378123 0.44254997278943792 0 -0.4190758472896926 0.42900463632310848 0 -0.42131697534649681 0.46044880862852622 0 -0.4327637765184848 0.46754316362235743 0 -0.43898036124025458 0.45561105838989208 0 -0.4327637765184848 0.46754316362235743 0 -0.41310150245103722 0.4789910179889465 0 -0.42794485857764353 0.48949550899447231 0 -0.4327637765184848 0.46754316362235743 0 -0.42794485857764353 0.48949550899447231 0 -0.44251464366883619 0.48464713199299209 0 -0.4327637765184848 0.46754316362235743 0 -0.41310150245103722 0.4789910179889465 0 -0.42131697534649681 0.46044880862852622 0 -0.4327637765184848 0.46754316362235743 0 -0.41310150245103722 0.4789910179889465 0 -0.41310150245103722 0.4789910179889465 0 -0.42794485857764353 0.48949550899447231 0 -0.40377430924917102 0.48442153681183348 0 -0.41310150245103722 0.4789910179889465 0 -0.41617706474457311 0.5 0 -0.40727692272062271 0.49031012847281558 0 -0.42794485857764353 0.48949550899447231 0 -0.41310150245103722 0.4789910179889465 0 -0.40727692272062271 0.49031012847281558 0 -0.42794485857764353 0.48949550899447231 0 -0.40377430924917102 0.48442153681183348 0 -0.41310150245103722 0.4789910179889465 0 -0.40727692272062271 0.49031012847281558 0 -0.41617706474457311 0.5 0 -0.42794485857764353 0.48949550899447231 0 -0.44278821470424828 0.49999999999999989 0 -0.42794485857764353 0.48949550899447231 0 -0.44278821470424828 0.49999999999999989 0 -0.44278821470424828 0.49999999999999989 0 -0.44251464366883619 0.48464713199299209 0 -0.44868093134460818 0.49221612697287892 0 -0.42794485857764353 0.48949550899447231 0 -0.44278821470424828 0.49999999999999989 0 -0.44251464366883619 0.48464713199299209 0 -0.44251464366883619 0.48464713199299209 0 -0.44868093134460818 0.49221612697287892 0 -0.45802089790958911 0.48172014347304259 0 -0.44278821470424828 0.49999999999999989 0 -0.44868093134460818 0.49221612697287892 0 -0.45457364798496758 0.49999999999999928 0 -0.4327637765184848 0.46754316362235743 0 -0.44251464366883619 0.48464713199299209 0 -0.44943870330341062 0.47068920705804912 0 -0.44251464366883619 0.48464713199299209 0 -0.44943870330341062 0.47068920705804912 0 -0.45802089790958911 0.48172014347304259 0 -0.45802089790958911 0.48172014347304259 0 -0.46146814783421142 0.46344028694608608 0 -0.44943870330341062 0.47068920705804912 0 -0.45802089790958911 0.48172014347304259 0 -0.46146814783421142 0.46344028694608608 0 -0.45802089790958911 0.48172014347304259 0 -0.46885729085803729 0.48926750289968018 0 -0.47906356748266249 0.47773320607988828 0 -0.45802089790958911 0.48172014347304259 0 -0.47906356748266249 0.47773320607988828 0 -0.46146814783421142 0.46344028694608608 0 -0.45802089790958911 0.48172014347304259 0 -0.45457364798496758 0.49999999999999928 0 -0.44868093134460818 0.49221612697287892 0 -0.45802089790958911 0.48172014347304259 0 -0.45457364798496758 0.49999999999999928 0 -0.45802089790958911 0.48172014347304259 0 -0.45457364798496758 0.49999999999999928 0 -0.46885729085803729 0.48926750289968018 0 -0.45457364798496758 0.49999999999999928 0 -0.47849090174953529 0.49999999999999911 0 -0.46885729085803729 0.48926750289968018 0 -0.47849090174953529 0.49999999999999911 0 -0.48924545087476867 0.47908917702405629 0 -0.47849090174953529 0.49999999999999911 0 -0.47906356748266249 0.47773320607988828 0 -0.48924545087476867 0.47908917702405629 0 -0.48924545087476867 0.47908917702405629 0 -0.5 0.5 0 -0.50000000000000133 0.4581783540481133 0 -0.47849090174953529 0.49999999999999911 0 -0.46885729085803729 0.48926750289968018 0 -0.47906356748266249 0.47773320607988828 0 -0.47906356748266249 0.47773320607988828 0 -0.46146814783421142 0.46344028694608608 0 -0.47906356748266249 0.47773320607988828 0 -0.47512166888633939 0.46566902986673608 0 -0.46146814783421142 0.46344028694608608 0 -0.47906356748266249 0.47773320607988828 0 -0.48545777912772098 0.4669361788944249 0 -0.47512166888633939 0.46566902986673608 0 -0.47906356748266249 0.47773320607988828 0 -0.48924545087476867 0.47908917702405629 0 -0.48545777912772098 0.4669361788944249 0 -0.47849090174953529 0.49999999999999911 0 -0.48924545087476867 0.47908917702405629 0 -0.5 0.5 0 -0.50000000000000133 0.4581783540481133 0 -0.5 0.42899846690091181 0 -0.49240263670046491 0.43685473331802438 0 -0.48878677953925409 0.44765838219580861 0 -0.50000000000000133 0.4581783540481133 0 -0.49240263670046491 0.43685473331802438 0 -0.48878677953925409 0.44765838219580861 0 -0.4889933212384146 0.45702338762630429 0 -0.47944247999569278 0.44840971000212693 0 -0.48878677953925409 0.44765838219580861 0 -0.48309545976169871 0.43782572598447389 0 -0.49240263670046491 0.43685473331802438 0 -0.48878677953925409 0.44765838219580861 0 -0.50000000000000133 0.4581783540481133 0 -0.4889933212384146 0.45702338762630429 0 -0.48924545087476867 0.47908917702405629 0 -0.50000000000000133 0.4581783540481133 0 -0.48924545087476867 0.47908917702405629 0 -0.50000000000000133 0.4581783540481133 0 -0.48545777912772098 0.4669361788944249 0 -0.48545777912772098 0.4669361788944249 0 -0.4889933212384146 0.45702338762630429 0 -0.47904840713826902 0.46032346947478092 0 -0.50000000000000133 0.4581783540481133 0 -0.48545777912772098 0.4669361788944249 0 -0.4889933212384146 0.45702338762630429 0 -0.47904840713826902 0.46032346947478092 0 -0.4724083552843934 0.45402727139493959 0 -0.47944247999569278 0.44840971000212693 0 -0.4889933212384146 0.45702338762630429 0 -0.47904840713826902 0.46032346947478092 0 -0.47944247999569278 0.44840971000212693 0 -0.48545777912772098 0.4669361788944249 0 -0.47904840713826902 0.46032346947478092 0 -0.47512166888633939 0.46566902986673608 0 -0.47512166888633939 0.46566902986673608 0 -0.47057044284883381 0.45991200793850068 0 -0.46146814783421142 0.46344028694608608 0 -0.47904840713826902 0.46032346947478092 0 -0.47512166888633939 0.46566902986673608 0 -0.47057044284883381 0.45991200793850068 0 -0.47057044284883381 0.45991200793850068 0 -0.4724083552843934 0.45402727139493959 0 -0.46353137595508409 0.45249953276329069 0 -0.47904840713826902 0.46032346947478092 0 -0.47057044284883381 0.45991200793850068 0 -0.4724083552843934 0.45402727139493959 0 -0.4724083552843934 0.45402727139493959 0 -0.46986652596715001 0.44594104014307961 0 -0.47944247999569278 0.44840971000212693 0 -0.48878677953925409 0.44765838219580861 0 -0.47944247999569278 0.44840971000212693 0 -0.48309545976169871 0.43782572598447389 0 -0.47944247999569278 0.44840971000212693 0 -0.48309545976169871 0.43782572598447389 0 -0.47449401827792959 0.43910639447366112 0 -0.46986652596715001 0.44594104014307961 0 -0.47944247999569278 0.44840971000212693 0 -0.47449401827792959 0.43910639447366112 0 -0.46986652596715001 0.44594104014307961 0 -0.47449401827792959 0.43910639447366112 0 -0.46762103711116543 0.43453603383207812 0 -0.46986652596715001 0.44594104014307961 0 -0.45242605058593188 0.45609530925576741 0 -0.46986652596715001 0.44594104014307961 0 -0.4554648131957354 0.44196729971139398 0 -0.46762103711116543 0.43453603383207812 0 -0.46986652596715001 0.44594104014307961 0 -0.4554648131957354 0.44196729971139398 0 -0.45242605058593188 0.45609530925576741 0 -0.46986652596715001 0.44594104014307961 0 -0.46353137595508409 0.45249953276329069 0 -0.45242605058593188 0.45609530925576741 0 -0.4724083552843934 0.45402727139493959 0 -0.46986652596715001 0.44594104014307961 0 -0.46353137595508409 0.45249953276329069 0 -0.47057044284883381 0.45991200793850068 0 -0.46353137595508409 0.45249953276329069 0 -0.46146814783421142 0.46344028694608608 0 -0.46353137595508409 0.45249953276329069 0 -0.46146814783421142 0.46344028694608608 0 -0.46353137595508409 0.45249953276329069 0 -0.46146814783421142 0.46344028694608608 0 -0.45242605058593188 0.45609530925576741 0 -0.46146814783421142 0.46344028694608608 0 -0.45242605058593188 0.45609530925576741 0 -0.44943870330341062 0.47068920705804912 0 -0.46146814783421142 0.46344028694608608 0 -0.45242605058593188 0.45609530925576741 0 -0.4327637765184848 0.46754316362235743 0 -0.43898036124025458 0.45561105838989208 0 -0.45242605058593188 0.45609530925576741 0 -0.4327637765184848 0.46754316362235743 0 -0.45242605058593188 0.45609530925576741 0 -0.4327637765184848 0.46754316362235743 0 -0.44943870330341062 0.47068920705804912 0 -0.45242605058593188 0.45609530925576741 0 -0.4357509489378123 0.44254997278943792 0 -0.4554648131957354 0.44196729971139398 0 -0.45242605058593188 0.45609530925576741 0 -0.4357509489378123 0.44254997278943792 0 -0.45242605058593188 0.45609530925576741 0 -0.4357509489378123 0.44254997278943792 0 -0.4554648131957354 0.44196729971139398 0 -0.44804671704470889 0.43215483068469362 0 -0.4357509489378123 0.44254997278943792 0 -0.43898036124025458 0.45561105838989208 0 -0.45242605058593188 0.45609530925576741 0 -0.4357509489378123 0.44254997278943792 0 -0.44804671704470889 0.43215483068469362 0 -0.43539009603250872 0.42672849827710091 0 -0.44804671704470889 0.43215483068469362 0 -0.44600668994632248 0.41499234881345748 0 -0.43539009603250872 0.42672849827710091 0 -0.44600668994632248 0.41499234881345748 0 -0.43122124061684231 0.41146187078157781 0 -0.44600668994632248 0.41499234881345748 0 -0.43122124061684231 0.41146187078157781 0 -0.43539009603250872 0.42672849827710091 0 -0.46940551406133157 0.42057953339398713 0 -0.47536252540488771 0.40705041217717042 0 -0.46066431043954542 0.4039699057174721 0 -0.44600668994632248 0.41499234881345748 0 -0.46940551406133157 0.42057953339398713 0 -0.44600668994632248 0.41499234881345748 0 -0.46940551406133157 0.42057953339398713 0 -0.46066431043954542 0.4039699057174721 0 -0.44600668994632248 0.41499234881345748 0 -0.46762103711116543 0.43453603383207812 0 -0.46940551406133157 0.42057953339398713 0 -0.4554648131957354 0.44196729971139398 0 -0.44804671704470889 0.43215483068469362 0 -0.46762103711116543 0.43453603383207812 0 -0.44804671704470889 0.43215483068469362 0 -0.44600668994632248 0.41499234881345748 0 -0.46762103711116543 0.43453603383207812 0 -0.44600668994632248 0.41499234881345748 0 -0.46762103711116543 0.43453603383207812 0 -0.48272613766230998 0.43074358566305282 0 -0.46940551406133157 0.42057953339398713 0 -0.49280433817634089 0.42616671797451627 0 -0.47449401827792959 0.43910639447366112 0 -0.46762103711116543 0.43453603383207812 0 -0.47592273961171422 0.43229121764426209 0 -0.46940551406133157 0.42057953339398713 0 -0.49280433817634089 0.42616671797451627 0 -0.48309545976169871 0.43782572598447389 0 -0.47449401827792959 0.43910639447366112 0 -0.47592273961171422 0.43229121764426209 0 -0.48309545976169871 0.43782572598447389 0 -0.47592273961171422 0.43229121764426209 0 -0.48272613766230998 0.43074358566305282 0 -0.47592273961171422 0.43229121764426209 0 -0.48272613766230998 0.43074358566305282 0 -0.46940551406133157 0.42057953339398713 0 -0.46762103711116543 0.43453603383207812 0 -0.47592273961171422 0.43229121764426209 0 -0.46940551406133157 0.42057953339398713 0 -0.46940551406133157 0.42057953339398713 0 -0.48177282574591462 0.4162759424918791 0 -0.49280433817634089 0.42616671797451627 0 -0.46940551406133157 0.42057953339398713 0 -0.47536252540488771 0.40705041217717042 0 -0.48177282574591462 0.4162759424918791 0 -0.47536252540488771 0.40705041217717042 0 -0.48177282574591462 0.4162759424918791 0 -0.48951892534109809 0.41130710642184282 0 -0.48177282574591462 0.4162759424918791 0 -0.48951892534109809 0.41130710642184282 0 -0.49280433817634089 0.42616671797451627 0 -0.48951892534109809 0.41130710642184282 0 -0.5 0.42899846690091181 0 -0.5 0.39981857975371021 0 -0.48951892534109809 0.41130710642184282 0 -0.5 0.42899846690091181 0 -0.49280433817634089 0.42616671797451627 0 -0.5 0.42899846690091181 0 -0.49280433817634089 0.42616671797451627 0 -0.49240263670046491 0.43685473331802438 0 -0.48309545976169871 0.43782572598447389 0 -0.48272613766230998 0.43074358566305282 0 -0.49240263670046491 0.43685473331802438 0 -0.48272613766230998 0.43074358566305282 0 -0.49280433817634089 0.42616671797451627 0 -0.49240263670046491 0.43685473331802438 0 -0.5 0.39981857975371021 0 -0.47823077794552687 0.38737361849649937 0 -0.5 0.37063869260650872 0 -0.48951892534109809 0.41130710642184282 0 -0.5 0.39981857975371021 0 -0.47823077794552687 0.38737361849649937 0 -0.47536252540488771 0.40705041217717042 0 -0.48951892534109809 0.41130710642184282 0 -0.47823077794552687 0.38737361849649937 0 -0.48951892534109809 0.41130710642184282 0 -0.47823077794552687 0.38737361849649937 0 -0.47536252540488771 0.40705041217717042 0 -0.47823077794552687 0.38737361849649937 0 -0.46066431043954542 0.4039699057174721 0 -0.47823077794552687 0.38737361849649937 0 -0.46694263054995561 0.36344013057115598 0 -0.47823077794552687 0.38737361849649937 0 -0.45239362105088232 0.38983623128310618 0 -0.45139534218645538 0.3721654298428495 0 -0.47823077794552687 0.38737361849649937 0 -0.46066431043954542 0.4039699057174721 0 -0.45239362105088232 0.38983623128310618 0 -0.44438435431940237 0.39888608476961662 0 -0.438524833325865 0.38323778580425899 0 -0.45239362105088232 0.38983623128310618 0 -0.46066431043954542 0.4039699057174721 0 -0.44438435431940237 0.39888608476961662 0 -0.45239362105088232 0.38983623128310618 0 -0.44600668994632248 0.41499234881345748 0 -0.46066431043954542 0.4039699057174721 0 -0.44438435431940237 0.39888608476961662 0 -0.44600668994632248 0.41499234881345748 0 -0.44438435431940237 0.39888608476961662 0 -0.42800555827735209 0.39871573196104892 0 -0.438524833325865 0.38323778580425899 0 -0.45239362105088232 0.38983623128310618 0 -0.45139534218645538 0.3721654298428495 0 -0.438524833325865 0.38323778580425899 0 -0.42420168739963843 0.37812183803155608 0 -0.43504780577367891 0.36400722339877589 0 -0.438524833325865 0.38323778580425899 0 -0.42420168739963843 0.37812183803155608 0 -0.42800555827735209 0.39871573196104892 0 -0.41000442660838138 0.38243911510864048 0 -0.42800555827735209 0.39871573196104892 0 -0.42420168739963843 0.37812183803155608 0 -0.41000442660838138 0.38243911510864048 0 -0.42800555827735209 0.39871573196104892 0 -0.41000442660838138 0.38243911510864048 0 -0.40743516536487601 0.39653339329919712 0 -0.42800555827735209 0.39871573196104892 0 -0.40743516536487601 0.39653339329919712 0 -0.42800555827735209 0.39871573196104892 0 -0.41643579128736219 0.4079313927496977 0 -0.40743516536487601 0.39653339329919712 0 -0.41643579128736219 0.4079313927496977 0 -0.40160758602125868 0.40729115375241048 0 -0.42800555827735209 0.39871573196104892 0 -0.43122124061684231 0.41146187078157781 0 -0.41643579128736219 0.4079313927496977 0 -0.44438435431940237 0.39888608476961662 0 -0.438524833325865 0.38323778580425899 0 -0.42800555827735209 0.39871573196104892 0 -0.43122124061684231 0.41146187078157781 0 -0.4190758472896926 0.42900463632310848 0 -0.41643579128736219 0.4079313927496977 0 -0.44600668994632248 0.41499234881345748 0 -0.42800555827735209 0.39871573196104892 0 -0.44600668994632248 0.41499234881345748 0 -0.42800555827735209 0.39871573196104892 0 -0.43122124061684231 0.41146187078157781 0 -0.43122124061684231 0.41146187078157781 0 -0.41643579128736219 0.4079313927496977 0 -0.4357509489378123 0.44254997278943792 0 -0.43539009603250872 0.42672849827710091 0 -0.4190758472896926 0.42900463632310848 0 -0.4357509489378123 0.44254997278943792 0 -0.4190758472896926 0.42900463632310848 0 -0.43122124061684231 0.41146187078157781 0 -0.43539009603250872 0.42672849827710091 0 -0.4190758472896926 0.42900463632310848 0 -0.4190758472896926 0.42900463632310848 0 -0.40660405181864712 0.43667930711795372 0 -0.40080995070622227 0.41998165432998108 0 -0.4190758472896926 0.42900463632310848 0 -0.41643579128736219 0.4079313927496977 0 -0.40080995070622227 0.41998165432998108 0 -0.41643579128736219 0.4079313927496977 0 -0.40160758602125868 0.40729115375241048 0 -0.40080995070622227 0.41998165432998108 0 -0.40080995070622227 0.41998165432998108 0 -0.38522211773756382 0.42724229760283422 0 -0.38925882942946177 0.41202159374996328 0 -0.40160758602125868 0.40729115375241048 0 -0.40080995070622227 0.41998165432998108 0 -0.38925882942946177 0.41202159374996328 0 -0.40160758602125868 0.40729115375241048 0 -0.38925882942946177 0.41202159374996328 0 -0.39409819331837148 0.39998773463321358 0 -0.40080995070622227 0.41998165432998108 0 -0.39368591456190122 0.4373832091535515 0 -0.38522211773756382 0.42724229760283422 0 -0.40660405181864712 0.43667930711795372 0 -0.40080995070622227 0.41998165432998108 0 -0.39368591456190122 0.4373832091535515 0 -0.38522211773756382 0.42724229760283422 0 -0.37677764599766111 0.41643405758377178 0 -0.37055177776791631 0.43404182432853999 0 -0.38059372853355722 0.44367822023996739 0 -0.39368591456190122 0.4373832091535515 0 -0.38522211773756382 0.42724229760283422 0 -0.38059372853355722 0.44367822023996739 0 -0.38522211773756382 0.42724229760283422 0 -0.37055177776791631 0.43404182432853999 0 -0.38522211773756382 0.42724229760283422 0 -0.38925882942946177 0.41202159374996328 0 -0.37677764599766111 0.41643405758377178 0 -0.38925882942946177 0.41202159374996328 0 -0.37677764599766111 0.41643405758377178 0 -0.37967285571403969 0.40222969171741269 0 -0.37967285571403969 0.40222969171741269 0 -0.39121030090981368 0.38239280066199721 0 -0.37153130942982238 0.38751575799215132 0 -0.37967285571403969 0.40222969171741269 0 -0.39121030090981368 0.38239280066199721 0 -0.39409819331837148 0.39998773463321358 0 -0.38925882942946177 0.41202159374996328 0 -0.37967285571403969 0.40222969171741269 0 -0.39409819331837148 0.39998773463321358 0 -0.39121030090981368 0.38239280066199721 0 -0.37292373606025409 0.37301457748705519 0 -0.37153130942982238 0.38751575799215132 0 -0.41000442660838138 0.38243911510864048 0 -0.40743516536487601 0.39653339329919712 0 -0.39121030090981368 0.38239280066199721 0 -0.41000442660838138 0.38243911510864048 0 -0.39121030090981368 0.38239280066199721 0 -0.40942581301291442 0.36220933388505622 0 -0.40743516536487601 0.39653339329919712 0 -0.39121030090981368 0.38239280066199721 0 -0.39409819331837148 0.39998773463321358 0 -0.40743516536487601 0.39653339329919712 0 -0.40160758602125868 0.40729115375241048 0 -0.39409819331837148 0.39998773463321358 0 -0.39750300350524681 0.34865270496614809 0 -0.38380382025214982 0.36041144437133638 0 -0.40942581301291442 0.36220933388505622 0 -0.39121030090981368 0.38239280066199721 0 -0.38380382025214982 0.36041144437133638 0 -0.40942581301291442 0.36220933388505622 0 -0.38380382025214982 0.36041144437133638 0 -0.40942581301291442 0.36220933388505622 0 -0.39121030090981368 0.38239280066199721 0 -0.38380382025214982 0.36041144437133638 0 -0.37292373606025409 0.37301457748705519 0 -0.38380382025214982 0.36041144437133638 0 -0.38113873886368788 0.33718811110940861 0 -0.37031899769323129 0.3486066317027437 0 -0.39750300350524681 0.34865270496614809 0 -0.38380382025214982 0.36041144437133638 0 -0.38113873886368788 0.33718811110940861 0 -0.38113873886368788 0.33718811110940861 0 -0.37867085570044068 0.31724355711412228 0 -0.36651981516399329 0.33008112182969668 0 -0.38113873886368788 0.33718811110940861 0 -0.37867085570044068 0.31724355711412228 0 -0.39924381899532091 0.31385619655616648 0 -0.38113873886368788 0.33718811110940861 0 -0.39924381899532091 0.31385619655616648 0 -0.40605412578146038 0.33275258289056892 0 -0.39750300350524681 0.34865270496614809 0 -0.38113873886368788 0.33718811110940861 0 -0.40605412578146038 0.33275258289056892 0 -0.38113873886368788 0.33718811110940861 0 -0.40605412578146038 0.33275258289056892 0 -0.39750300350524681 0.34865270496614809 0 -0.40605412578146038 0.33275258289056892 0 -0.41543143935262888 0.34660057510845033 0 -0.40605412578146038 0.33275258289056892 0 -0.43043469052917238 0.33921116698519271 0 -0.41543143935262888 0.34660057510845033 0 -0.40605412578146038 0.33275258289056892 0 -0.42131417358611861 0.31975703138652772 0 -0.43043469052917238 0.33921116698519271 0 -0.39924381899532091 0.31385619655616648 0 -0.40605412578146038 0.33275258289056892 0 -0.42131417358611861 0.31975703138652772 0 -0.42131417358611861 0.31975703138652772 0 -0.43043469052917238 0.33921116698519271 0 -0.44436633575881301 0.31557315472046921 0 -0.43043469052917238 0.33921116698519271 0 -0.41543143935262888 0.34660057510845033 0 -0.43504780577367891 0.36400722339877589 0 -0.39750300350524681 0.34865270496614809 0 -0.41543143935262888 0.34660057510845033 0 -0.40942581301291442 0.36220933388505622 0 -0.41543143935262888 0.34660057510845033 0 -0.40942581301291442 0.36220933388505622 0 -0.43504780577367891 0.36400722339877589 0 -0.42420168739963843 0.37812183803155608 0 -0.41000442660838138 0.38243911510864048 0 -0.40942581301291442 0.36220933388505622 0 -0.40942581301291442 0.36220933388505622 0 -0.43504780577367891 0.36400722339877589 0 -0.42420168739963843 0.37812183803155608 0 -0.40942581301291442 0.36220933388505622 0 -0.43504780577367891 0.36400722339877589 0 -0.45139534218645538 0.3721654298428495 0 -0.46694263054995561 0.36344013057115598 0 -0.45565448315438423 0.33950664264581248 0 -0.43504780577367891 0.36400722339877589 0 -0.45139534218645538 0.3721654298428495 0 -0.45565448315438423 0.33950664264581248 0 -0.438524833325865 0.38323778580425899 0 -0.43504780577367891 0.36400722339877589 0 -0.45139534218645538 0.3721654298428495 0 -0.43043469052917238 0.33921116698519271 0 -0.43504780577367891 0.36400722339877589 0 -0.45565448315438423 0.33950664264581248 0 -0.46694263054995561 0.36344013057115598 0 -0.45565448315438423 0.33950664264581248 0 -0.46694263054995561 0.36344013057115598 0 -0.4792000525155114 0.34602598306428251 0 -0.45565448315438423 0.33950664264581248 0 -0.47823077794552687 0.38737361849649937 0 -0.45139534218645538 0.3721654298428495 0 -0.46694263054995561 0.36344013057115598 0 -0.47823077794552687 0.38737361849649937 0 -0.46694263054995561 0.36344013057115598 0 -0.5 0.37063869260650872 0 -0.46694263054995561 0.36344013057115598 0 -0.4792000525155114 0.34602598306428251 0 -0.5 0.37063869260650872 0 -0.4792000525155114 0.34602598306428251 0 -0.5 0.37063869260650872 0 -0.5 0.34145880545930718 0 -0.5 0.34145880545930718 0 -0.47595380115210761 0.32567844839004079 0 -0.5 0.31227891831210569 0 -0.4792000525155114 0.34602598306428251 0 -0.5 0.34145880545930718 0 -0.47595380115210761 0.32567844839004079 0 -0.4792000525155114 0.34602598306428251 0 -0.47595380115210761 0.32567844839004079 0 -0.45565448315438423 0.33950664264581248 0 -0.47595380115210761 0.32567844839004079 0 -0.45565448315438423 0.33950664264581248 0 -0.44436633575881301 0.31557315472046921 0 -0.47595380115210761 0.32567844839004079 0 -0.44436633575881301 0.31557315472046921 0 -0.4765019354839371 0.29922718613826832 0 -0.43043469052917238 0.33921116698519271 0 -0.45565448315438423 0.33950664264581248 0 -0.44436633575881301 0.31557315472046921 0 -0.45565448315438423 0.33950664264581248 0 -0.44436633575881301 0.31557315472046921 0 -0.44436633575881301 0.31557315472046921 0 -0.44099009493231428 0.28837077795582938 0 -0.45833566804169751 0.28936105991203759 0 -0.44436633575881301 0.31557315472046921 0 -0.45833566804169751 0.28936105991203759 0 -0.4765019354839371 0.29922718613826832 0 -0.44099009493231428 0.28837077795582938 0 -0.45833566804169751 0.28936105991203759 0 -0.45545347355542848 0.2738174338300291 0 -0.47595380115210761 0.32567844839004079 0 -0.4765019354839371 0.29922718613826832 0 -0.5 0.31227891831210569 0 -0.45833566804169751 0.28936105991203759 0 -0.4765019354839371 0.29922718613826832 0 -0.47787934565231333 0.2725798425716372 0 -0.4765019354839371 0.29922718613826832 0 -0.5 0.2830990311649042 0 -0.47787934565231333 0.2725798425716372 0 -0.4765019354839371 0.29922718613826832 0 -0.5 0.2830990311649042 0 -0.5 0.31227891831210569 0 -0.5 0.25391914401770282 0 -0.47787934565231333 0.2725798425716372 0 -0.47717593892139021 0.25179324361900268 0 -0.5 0.2830990311649042 0 -0.5 0.25391914401770282 0 -0.47787934565231333 0.2725798425716372 0 -0.47787934565231333 0.2725798425716372 0 -0.47717593892139021 0.25179324361900268 0 -0.46622511875373518 0.26353118948426618 0 -0.46342219189871742 0.2494556258641823 0 -0.47717593892139021 0.25179324361900268 0 -0.46622511875373518 0.26353118948426618 0 -0.46342219189871742 0.2494556258641823 0 -0.46622511875373518 0.26353118948426618 0 -0.44543003678968002 0.26039875117901079 0 -0.47787934565231333 0.2725798425716372 0 -0.46622511875373518 0.26353118948426618 0 -0.45545347355542848 0.2738174338300291 0 -0.45833566804169751 0.28936105991203759 0 -0.47787934565231333 0.2725798425716372 0 -0.45545347355542848 0.2738174338300291 0 -0.46622511875373518 0.26353118948426618 0 -0.45545347355542848 0.2738174338300291 0 -0.44543003678968002 0.26039875117901079 0 -0.44229372173984549 0.27396288346787528 0 -0.44543003678968002 0.26039875117901079 0 -0.42866728306273483 0.27303910276259119 0 -0.44099009493231428 0.28837077795582938 0 -0.45545347355542848 0.2738174338300291 0 -0.44229372173984549 0.27396288346787528 0 -0.45545347355542848 0.2738174338300291 0 -0.44229372173984549 0.27396288346787528 0 -0.44543003678968002 0.26039875117901079 0 -0.44776935611995222 0.24423706133883999 0 -0.44543003678968002 0.26039875117901079 0 -0.43034752120389669 0.25321385163389648 0 -0.44776935611995222 0.24423706133883999 0 -0.46342219189871742 0.2494556258641823 0 -0.44543003678968002 0.26039875117901079 0 -0.44543003678968002 0.26039875117901079 0 -0.43034752120389669 0.25321385163389648 0 -0.42866728306273483 0.27303910276259119 0 -0.43034752120389669 0.25321385163389648 0 -0.41704845321265538 0.26055513977215849 0 -0.42866728306273483 0.27303910276259119 0 -0.41508104439967403 0.24519736438917361 0 -0.41704845321265538 0.26055513977215849 0 -0.39950360821606928 0.25530860255497162 0 -0.41704845321265538 0.26055513977215849 0 -0.41311134801625737 0.27388277245492698 0 -0.39950360821606928 0.25530860255497162 0 -0.41508104439967403 0.24519736438917361 0 -0.43034752120389669 0.25321385163389648 0 -0.41704845321265538 0.26055513977215849 0 -0.41508104439967403 0.24519736438917361 0 -0.39950360821606928 0.25530860255497162 0 -0.41311134801625737 0.27388277245492698 0 -0.42866728306273483 0.27303910276259119 0 -0.42096368198413109 0.29592861762934508 0 -0.41704845321265538 0.26055513977215849 0 -0.41311134801625737 0.27388277245492698 0 -0.42866728306273483 0.27303910276259119 0 -0.44099009493231428 0.28837077795582938 0 -0.44229372173984549 0.27396288346787528 0 -0.42866728306273483 0.27303910276259119 0 -0.44099009493231428 0.28837077795582938 0 -0.42866728306273483 0.27303910276259119 0 -0.42096368198413109 0.29592861762934508 0 -0.42131417358611861 0.31975703138652772 0 -0.44436633575881301 0.31557315472046921 0 -0.42096368198413109 0.29592861762934508 0 -0.44436633575881301 0.31557315472046921 0 -0.44099009493231428 0.28837077795582938 0 -0.42096368198413109 0.29592861762934508 0 -0.39924381899532091 0.31385619655616648 0 -0.42096368198413109 0.29592861762934508 0 -0.39937371360569551 0.28458239955556902 0 -0.39924381899532091 0.31385619655616648 0 -0.42131417358611861 0.31975703138652772 0 -0.42096368198413109 0.29592861762934508 0 -0.41311134801625737 0.27388277245492698 0 -0.42096368198413109 0.29592861762934508 0 -0.39937371360569551 0.28458239955556902 0 -0.39924381899532091 0.31385619655616648 0 -0.39937371360569551 0.28458239955556902 0 -0.39924381899532091 0.31385619655616648 0 -0.39937371360569551 0.28458239955556902 0 -0.37965908829212602 0.29429523952211017 0 -0.37867085570044068 0.31724355711412228 0 -0.39924381899532091 0.31385619655616648 0 -0.37965908829212602 0.29429523952211017 0 -0.37965908829212602 0.29429523952211017 0 -0.38328347491380432 0.27990483682637363 0 -0.36931071006725857 0.2749066660937946 0 -0.39937371360569551 0.28458239955556902 0 -0.37965908829212602 0.29429523952211017 0 -0.38328347491380432 0.27990483682637363 0 -0.39937371360569551 0.28458239955556902 0 -0.38328347491380432 0.27990483682637363 0 -0.38440715914166368 0.26510763432438261 0 -0.38440715914166368 0.26510763432438261 0 -0.36931071006725857 0.2749066660937946 0 -0.38328347491380432 0.27990483682637363 0 -0.38440715914166368 0.26510763432438261 0 -0.36931071006725857 0.2749066660937946 0 -0.38332481097124571 0.24869408969404011 0 -0.38440715914166368 0.26510763432438261 0 -0.3683119580287349 0.25512360104486692 0 -0.38332481097124571 0.24869408969404011 0 -0.38440715914166368 0.26510763432438261 0 -0.39950360821606928 0.25530860255497162 0 -0.38440715914166368 0.26510763432438261 0 -0.39950360821606928 0.25530860255497162 0 -0.39937371360569551 0.28458239955556902 0 -0.38440715914166368 0.26510763432438261 0 -0.39950360821606928 0.25530860255497162 0 -0.39937371360569551 0.28458239955556902 0 -0.39950360821606928 0.25530860255497162 0 -0.41311134801625737 0.27388277245492698 0 -0.39937371360569551 0.28458239955556902 0 -0.39950360821606928 0.25530860255497162 0 -0.35709346930803348 0.26763549968947581 0 -0.35623598870032802 0.2875270067957289 0 -0.34051824321497831 0.26927880230899798 0 -0.34713503643075377 0.24967148756325119 0 -0.35709346930803348 0.26763549968947581 0 -0.34051824321497831 0.26927880230899798 0 -0.34713503643075377 0.24967148756325119 0 -0.35709346930803348 0.26763549968947581 0 -0.3683119580287349 0.25512360104486692 0 -0.38440715914166368 0.26510763432438261 0 -0.3683119580287349 0.25512360104486692 0 -0.36931071006725857 0.2749066660937946 0 -0.35709346930803348 0.26763549968947581 0 -0.3683119580287349 0.25512360104486692 0 -0.36931071006725857 0.2749066660937946 0 -0.35709346930803348 0.26763549968947581 0 -0.36931071006725857 0.2749066660937946 0 -0.35623598870032802 0.2875270067957289 0 -0.37965908829212602 0.29429523952211017 0 -0.36931071006725857 0.2749066660937946 0 -0.35623598870032802 0.2875270067957289 0 -0.37965908829212602 0.29429523952211017 0 -0.36326795595698719 0.31061774892059379 0 -0.35623598870032802 0.2875270067957289 0 -0.37867085570044068 0.31724355711412228 0 -0.37965908829212602 0.29429523952211017 0 -0.36326795595698719 0.31061774892059379 0 -0.36326795595698719 0.31061774892059379 0 -0.3448810664641056 0.30857928481437491 0 -0.35623598870032802 0.2875270067957289 0 -0.35623598870032802 0.2875270067957289 0 -0.33892138759880691 0.28737580622075548 0 -0.34051824321497831 0.26927880230899798 0 -0.3448810664641056 0.30857928481437491 0 -0.35623598870032802 0.2875270067957289 0 -0.33892138759880691 0.28737580622075548 0 -0.3448810664641056 0.30857928481437491 0 -0.33892138759880691 0.28737580622075548 0 -0.32555312861535418 0.29678579150208501 0 -0.32555312861535418 0.29678579150208501 0 -0.33358048303663101 0.32436234979791628 0 -0.3448810664641056 0.30857928481437491 0 -0.32555312861535418 0.29678579150208501 0 -0.33358048303663101 0.32436234979791628 0 -0.32555312861535418 0.29678579150208501 0 -0.30141426315894332 0.30919851095816869 0 -0.31644546382994582 0.32244138273027922 0 -0.33892138759880691 0.28737580622075548 0 -0.32555312861535418 0.29678579150208501 0 -0.31752577419407751 0.26920923320625362 0 -0.32555312861535418 0.29678579150208501 0 -0.31752577419407751 0.26920923320625362 0 -0.29831761371167298 0.28351114302202762 0 -0.32555312861535418 0.29678579150208501 0 -0.31752577419407751 0.26920923320625362 0 -0.33892138759880691 0.28737580622075548 0 -0.31752577419407751 0.26920923320625362 0 -0.34051824321497831 0.26927880230899798 0 -0.31752577419407751 0.26920923320625362 0 -0.34051824321497831 0.26927880230899798 0 -0.32877515114103262 0.25241493566753948 0 -0.34713503643075377 0.24967148756325119 0 -0.34051824321497831 0.26927880230899798 0 -0.32877515114103262 0.25241493566753948 0 -0.30949841977280068 0.24163267491042209 0 -0.31752577419407751 0.26920923320625362 0 -0.30949841977280068 0.24163267491042209 0 -0.31752577419407751 0.26920923320625362 0 -0.32877515114103262 0.25241493566753948 0 -0.30949841977280068 0.24163267491042209 0 -0.31752577419407751 0.26920923320625362 0 -0.2952209642644027 0.25782377508588661 0 -0.31752577419407751 0.26920923320625362 0 -0.2952209642644027 0.25782377508588661 0 -0.29831761371167298 0.28351114302202762 0 -0.2952209642644027 0.25782377508588661 0 -0.29831761371167298 0.28351114302202762 0 -0.2952209642644027 0.25782377508588661 0 -0.27780393759258548 0.27056794148965269 0 -0.29831761371167298 0.28351114302202762 0 -0.27780393759258548 0.27056794148965269 0 -0.27535813169036422 0.28807666738101312 0 -0.29831761371167298 0.28351114302202762 0 -0.28343699201108957 0.24494826123210689 0 -0.2952209642644027 0.25782377508588661 0 -0.27387252477080049 0.25384945815621962 0 -0.2952209642644027 0.25782377508588661 0 -0.27387252477080049 0.25384945815621962 0 -0.27780393759258548 0.27056794148965269 0 -0.27387252477080049 0.25384945815621962 0 -0.27780393759258548 0.27056794148965269 0 -0.26315723479924519 0.26643717930770289 0 -0.27780393759258548 0.27056794148965269 0 -0.26315723479924519 0.26643717930770289 0 -0.26135843833802591 0.28087390606931828 0 -0.27780393759258548 0.27056794148965269 0 -0.26135843833802591 0.28087390606931828 0 -0.27535813169036422 0.28807666738101312 0 -0.26315723479924519 0.26643717930770289 0 -0.26135843833802591 0.28087390606931828 0 -0.25027870342817993 0.27348509089476652 0 -0.26135843833802591 0.28087390606931828 0 -0.25027870342817993 0.27348509089476652 0 -0.24600045521931049 0.28593154543727778 0 -0.26315723479924519 0.26643717930770289 0 -0.25027870342817993 0.27348509089476652 0 -0.25255672097802823 0.26278996840377622 0 -0.25255672097802823 0.26278996840377622 0 -0.25950637057499037 0.25645591549124258 0 -0.24759739790112481 0.25315441603119782 0 -0.26034797442575353 0.24604855555731669 0 -0.25950637057499037 0.25645591549124258 0 -0.24759739790112481 0.25315441603119782 0 -0.26034797442575353 0.24604855555731669 0 -0.27387252477080049 0.25384945815621962 0 -0.25950637057499037 0.25645591549124258 0 -0.26315723479924519 0.26643717930770289 0 -0.25255672097802823 0.26278996840377622 0 -0.25950637057499037 0.25645591549124258 0 -0.27387252477080049 0.25384945815621962 0 -0.26315723479924519 0.26643717930770289 0 -0.25950637057499037 0.25645591549124258 0 -0.25597075036591121 0.29696193378846469 0 -0.27222525914630519 0.30789467516027991 0 -0.25694910642793961 0.31363538248303702 0 -0.25597075036591121 0.29696193378846469 0 -0.25694910642793961 0.31363538248303702 0 -0.24506209967329479 0.30886558668515401 0 -0.26135843833802591 0.28087390606931828 0 -0.25597075036591121 0.29696193378846469 0 -0.27535813169036422 0.28807666738101312 0 -0.26135843833802591 0.28087390606931828 0 -0.25597075036591121 0.29696193378846469 0 -0.24600045521931049 0.28593154543727778 0 -0.27535813169036422 0.28807666738101312 0 -0.27222525914630519 0.30789467516027991 0 -0.28735935211237013 0.29912948948135498 0 -0.25597075036591121 0.29696193378846469 0 -0.27535813169036422 0.28807666738101312 0 -0.27222525914630519 0.30789467516027991 0 -0.28735935211237013 0.29912948948135498 0 -0.30141426315894332 0.30919851095816869 0 -0.28701027084984299 0.31753397022355828 0 -0.27222525914630519 0.30789467516027991 0 -0.28735935211237013 0.29912948948135498 0 -0.28701027084984299 0.31753397022355828 0 -0.28735935211237013 0.29912948948135498 0 -0.29831761371167298 0.28351114302202762 0 -0.30141426315894332 0.30919851095816869 0 -0.27535813169036422 0.28807666738101312 0 -0.28735935211237013 0.29912948948135498 0 -0.29831761371167298 0.28351114302202762 0 -0.29831761371167298 0.28351114302202762 0 -0.30141426315894332 0.30919851095816869 0 -0.32555312861535418 0.29678579150208501 0 -0.29831761371167298 0.28351114302202762 0 -0.30141426315894332 0.30919851095816869 0 -0.30141426315894332 0.30919851095816869 0 -0.30451091260621532 0.33488587889430949 0 -0.30141426315894332 0.30919851095816869 0 -0.30451091260621532 0.33488587889430949 0 -0.31644546382994582 0.32244138273027922 0 -0.30141426315894332 0.30919851095816869 0 -0.30451091260621532 0.33488587889430949 0 -0.28701027084984299 0.31753397022355828 0 -0.30451091260621532 0.33488587889430949 0 -0.30639257811037129 0.35049469576593112 0 -0.30451091260621532 0.33488587889430949 0 -0.30639257811037129 0.35049469576593112 0 -0.31606276380091358 0.342039013998509 0 -0.30451091260621532 0.33488587889430949 0 -0.29588720779928268 0.34384330619990522 0 -0.30639257811037129 0.35049469576593112 0 -0.30451091260621532 0.33488587889430949 0 -0.28651846820265098 0.33273184812681061 0 -0.30451091260621532 0.33488587889430949 0 -0.28651846820265098 0.33273184812681061 0 -0.29588720779928268 0.34384330619990522 0 -0.30451091260621532 0.33488587889430949 0 -0.28651846820265098 0.33273184812681061 0 -0.28701027084984299 0.31753397022355828 0 -0.28651846820265098 0.33273184812681061 0 -0.28033629863483028 0.34261434572846078 0 -0.29588720779928268 0.34384330619990522 0 -0.28651846820265098 0.33273184812681061 0 -0.28701027084984299 0.31753397022355828 0 -0.26852602379908591 0.33057781735931868 0 -0.27222525914630519 0.30789467516027991 0 -0.26852602379908591 0.33057781735931868 0 -0.25694910642793961 0.31363538248303702 0 -0.27222525914630519 0.30789467516027991 0 -0.28701027084984299 0.31753397022355828 0 -0.26852602379908591 0.33057781735931868 0 -0.28651846820265098 0.33273184812681061 0 -0.26852602379908591 0.33057781735931868 0 -0.28651846820265098 0.33273184812681061 0 -0.28033629863483028 0.34261434572846078 0 -0.26852602379908591 0.33057781735931868 0 -0.28033629863483028 0.34261434572846078 0 -0.27002081724391991 0.34233875731118801 0 -0.26852602379908591 0.33057781735931868 0 -0.27002081724391991 0.34233875731118801 0 -0.26852602379908591 0.33057781735931868 0 -0.2590222026346477 0.34358272508480392 0 -0.26852602379908591 0.33057781735931868 0 -0.2590222026346477 0.34358272508480392 0 -0.24515466658146171 0.325618700264869 0 -0.26852602379908591 0.33057781735931868 0 -0.25694910642793961 0.31363538248303702 0 -0.24515466658146171 0.325618700264869 0 -0.25193422489448369 0.368596584172802 0 -0.26216403037483549 0.35836842344299308 0 -0.23600533649031241 0.36302528971104198 0 -0.26316811568406728 0.37240942770973401 0 -0.25193422489448369 0.368596584172802 0 -0.26216403037483549 0.35836842344299308 0 -0.26316811568406728 0.37240942770973401 0 -0.25193422489448369 0.368596584172802 0 -0.25178122254076452 0.38222546314694161 0 -0.2590222026346477 0.34358272508480392 0 -0.26216403037483549 0.35836842344299308 0 -0.24944289275892051 0.35232460830669848 0 -0.2590222026346477 0.34358272508480392 0 -0.26216403037483549 0.35836842344299308 0 -0.27219874390711563 0.35258014107216867 0 -0.26216403037483549 0.35836842344299308 0 -0.27219874390711563 0.35258014107216867 0 -0.28832272425935829 0.35371155717494362 0 -0.26216403037483549 0.35836842344299308 0 -0.28832272425935829 0.35371155717494362 0 -0.27219874390711563 0.35258014107216867 0 -0.28832272425935829 0.35371155717494362 0 -0.28033629863483028 0.34261434572846078 0 -0.27219874390711563 0.35258014107216867 0 -0.28832272425935829 0.35371155717494362 0 -0.27002081724391991 0.34233875731118801 0 -0.2590222026346477 0.34358272508480392 0 -0.27219874390711563 0.35258014107216867 0 -0.28033629863483028 0.34261434572846078 0 -0.27002081724391991 0.34233875731118801 0 -0.27219874390711563 0.35258014107216867 0 -0.26316811568406728 0.37240942770973401 0 -0.26216403037483549 0.35836842344299308 0 -0.27909272739465552 0.37014505527249242 0 -0.26216403037483549 0.35836842344299308 0 -0.27909272739465552 0.37014505527249242 0 -0.28832272425935829 0.35371155717494362 0 -0.27909272739465552 0.37014505527249242 0 -0.29665282166164109 0.36393865851796842 0 -0.29821730352905118 0.37946100811929911 0 -0.27909272739465552 0.37014505527249242 0 -0.29665282166164109 0.36393865851796842 0 -0.28832272425935829 0.35371155717494362 0 -0.28832272425935829 0.35371155717494362 0 -0.29588720779928268 0.34384330619990522 0 -0.30639257811037129 0.35049469576593112 0 -0.28033629863483028 0.34261434572846078 0 -0.28832272425935829 0.35371155717494362 0 -0.29588720779928268 0.34384330619990522 0 -0.29665282166164109 0.36393865851796842 0 -0.28832272425935829 0.35371155717494362 0 -0.30693784196985652 0.35501777583017241 0 -0.28832272425935829 0.35371155717494362 0 -0.30639257811037129 0.35049469576593112 0 -0.28832272425935829 0.35371155717494362 0 -0.30693784196985652 0.35501777583017241 0 -0.28832272425935829 0.35371155717494362 0 -0.30693784196985652 0.35501777583017241 0 -0.30639257811037129 0.35049469576593112 0 -0.30693784196985652 0.35501777583017241 0 -0.30639257811037129 0.35049469576593112 0 -0.29665282166164109 0.36393865851796842 0 -0.30861812429542729 0.36895607626374533 0 -0.29821730352905118 0.37946100811929911 0 -0.29665282166164109 0.36393865851796842 0 -0.30693784196985652 0.35501777583017241 0 -0.30861812429542729 0.36895607626374533 0 -0.30693784196985652 0.35501777583017241 0 -0.30861812429542729 0.36895607626374533 0 -0.31903148572345058 0.36363788040536638 0 -0.30693784196985652 0.35501777583017241 0 -0.30861812429542729 0.36895607626374533 0 -0.30861812429542729 0.36895607626374533 0 -0.3196700440316842 0.37293764439472021 0 -0.31903148572345058 0.36363788040536638 0 -0.31903148572345058 0.36363788040536638 0 -0.32815917750510848 0.36852983330287448 0 -0.33255983473062067 0.35681566534389703 0 -0.3196700440316842 0.37293764439472021 0 -0.31903148572345058 0.36363788040536638 0 -0.32815917750510848 0.36852983330287448 0 -0.3196700440316842 0.37293764439472021 0 -0.32815917750510848 0.36852983330287448 0 -0.32851837053387051 0.37989813042492071 0 -0.32815917750510848 0.36852983330287448 0 -0.34184664903869622 0.37130890357054003 0 -0.32851837053387051 0.37989813042492071 0 -0.32815917750510848 0.36852983330287448 0 -0.34184664903869622 0.37130890357054003 0 -0.33255983473062067 0.35681566534389703 0 -0.33255983473062067 0.35681566534389703 0 -0.33130796502814308 0.34605916754708788 0 -0.34470640164435629 0.35036469888618671 0 -0.30693784196985652 0.35501777583017241 0 -0.31903148572345058 0.36363788040536638 0 -0.33255983473062067 0.35681566534389703 0 -0.30639257811037129 0.35049469576593112 0 -0.33130796502814308 0.34605916754708788 0 -0.31606276380091358 0.342039013998509 0 -0.30693784196985652 0.35501777583017241 0 -0.30639257811037129 0.35049469576593112 0 -0.33130796502814308 0.34605916754708788 0 -0.30639257811037129 0.35049469576593112 0 -0.33130796502814308 0.34605916754708788 0 -0.30693784196985652 0.35501777583017241 0 -0.33255983473062067 0.35681566534389703 0 -0.33130796502814308 0.34605916754708788 0 -0.30693784196985652 0.35501777583017241 0 -0.33255983473062067 0.35681566534389703 0 -0.30451091260621532 0.33488587889430949 0 -0.31606276380091358 0.342039013998509 0 -0.32510517079183832 0.33735139523941399 0 -0.30451091260621532 0.33488587889430949 0 -0.32510517079183832 0.33735139523941399 0 -0.30451091260621532 0.33488587889430949 0 -0.32510517079183832 0.33735139523941399 0 -0.31644546382994582 0.32244138273027922 0 -0.33130796502814308 0.34605916754708788 0 -0.31606276380091358 0.342039013998509 0 -0.32510517079183832 0.33735139523941399 0 -0.32555312861535418 0.29678579150208501 0 -0.31644546382994582 0.32244138273027922 0 -0.33358048303663101 0.32436234979791628 0 -0.32510517079183832 0.33735139523941399 0 -0.31644546382994582 0.32244138273027922 0 -0.33358048303663101 0.32436234979791628 0 -0.3448810664641056 0.30857928481437491 0 -0.33358048303663101 0.32436234979791628 0 -0.34378890298218368 0.32883616645216213 0 -0.33130796502814308 0.34605916754708788 0 -0.32510517079183832 0.33735139523941399 0 -0.34569942897746059 0.33981691158452559 0 -0.32510517079183832 0.33735139523941399 0 -0.34569942897746059 0.33981691158452559 0 -0.32510517079183832 0.33735139523941399 0 -0.33358048303663101 0.32436234979791628 0 -0.34378890298218368 0.32883616645216213 0 -0.32510517079183832 0.33735139523941399 0 -0.34569942897746059 0.33981691158452559 0 -0.34378890298218368 0.32883616645216213 0 -0.33130796502814308 0.34605916754708788 0 -0.34569942897746059 0.33981691158452559 0 -0.35622335194591548 0.34162363932824819 0 -0.34569942897746059 0.33981691158452559 0 -0.34378890298218368 0.32883616645216213 0 -0.35324326735671918 0.33250367370756018 0 -0.35324326735671918 0.33250367370756018 0 -0.35398483771404238 0.32216052934316841 0 -0.36651981516399329 0.33008112182969668 0 -0.35324326735671918 0.33250367370756018 0 -0.35622335194591548 0.34162363932824819 0 -0.36651981516399329 0.33008112182969668 0 -0.34569942897746059 0.33981691158452559 0 -0.35324326735671918 0.33250367370756018 0 -0.35622335194591548 0.34162363932824819 0 -0.36326795595698719 0.31061774892059379 0 -0.3448810664641056 0.30857928481437491 0 -0.35398483771404238 0.32216052934316841 0 -0.3448810664641056 0.30857928481437491 0 -0.34378890298218368 0.32883616645216213 0 -0.35398483771404238 0.32216052934316841 0 -0.34378890298218368 0.32883616645216213 0 -0.35324326735671918 0.33250367370756018 0 -0.35398483771404238 0.32216052934316841 0 -0.36326795595698719 0.31061774892059379 0 -0.35398483771404238 0.32216052934316841 0 -0.36651981516399329 0.33008112182969668 0 -0.37867085570044068 0.31724355711412228 0 -0.36326795595698719 0.31061774892059379 0 -0.36651981516399329 0.33008112182969668 0 -0.38113873886368788 0.33718811110940861 0 -0.35622335194591548 0.34162363932824819 0 -0.38113873886368788 0.33718811110940861 0 -0.35622335194591548 0.34162363932824819 0 -0.37031899769323129 0.3486066317027437 0 -0.38113873886368788 0.33718811110940861 0 -0.35622335194591548 0.34162363932824819 0 -0.36651981516399329 0.33008112182969668 0 -0.35622335194591548 0.34162363932824819 0 -0.37031899769323129 0.3486066317027437 0 -0.35818182749138527 0.3586135548576167 0 -0.38380382025214982 0.36041144437133638 0 -0.37031899769323129 0.3486066317027437 0 -0.35818182749138527 0.3586135548576167 0 -0.38380382025214982 0.36041144437133638 0 -0.35818182749138527 0.3586135548576167 0 -0.38380382025214982 0.36041144437133638 0 -0.37292373606025409 0.37301457748705519 0 -0.35818182749138527 0.3586135548576167 0 -0.37292373606025409 0.37301457748705519 0 -0.35818182749138527 0.3586135548576167 0 -0.35989142221809939 0.37613932955217422 0 -0.34184664903869622 0.37130890357054003 0 -0.35818182749138527 0.3586135548576167 0 -0.35989142221809939 0.37613932955217422 0 -0.34184664903869622 0.37130890357054003 0 -0.33255983473062067 0.35681566534389703 0 -0.35818182749138527 0.3586135548576167 0 -0.35622335194591548 0.34162363932824819 0 -0.35818182749138527 0.3586135548576167 0 -0.34470640164435629 0.35036469888618671 0 -0.33130796502814308 0.34605916754708788 0 -0.35622335194591548 0.34162363932824819 0 -0.33255983473062067 0.35681566534389703 0 -0.35818182749138527 0.3586135548576167 0 -0.33255983473062067 0.35681566534389703 0 -0.35818182749138527 0.3586135548576167 0 -0.34470640164435629 0.35036469888618671 0 -0.33130796502814308 0.34605916754708788 0 -0.35622335194591548 0.34162363932824819 0 -0.34470640164435629 0.35036469888618671 0 -0.35830478571062829 0.39291216171201299 0 -0.35194363720999622 0.41074542492000771 0 -0.34304610577838202 0.39084461902991519 0 -0.35830478571062829 0.39291216171201299 0 -0.36610305523348019 0.40392071752730357 0 -0.35194363720999622 0.41074542492000771 0 -0.35194363720999622 0.41074542492000771 0 -0.33725184787705881 0.40823108976311578 0 -0.34304610577838202 0.39084461902991519 0 -0.34184664903869622 0.37130890357054003 0 -0.35989142221809939 0.37613932955217422 0 -0.34304610577838202 0.39084461902991519 0 -0.35830478571062829 0.39291216171201299 0 -0.35989142221809939 0.37613932955217422 0 -0.34304610577838202 0.39084461902991519 0 -0.35830478571062829 0.39291216171201299 0 -0.35989142221809939 0.37613932955217422 0 -0.37153130942982238 0.38751575799215132 0 -0.37292373606025409 0.37301457748705519 0 -0.35989142221809939 0.37613932955217422 0 -0.37153130942982238 0.38751575799215132 0 -0.35830478571062829 0.39291216171201299 0 -0.37153130942982238 0.38751575799215132 0 -0.36610305523348019 0.40392071752730357 0 -0.37967285571403969 0.40222969171741269 0 -0.37153130942982238 0.38751575799215132 0 -0.36610305523348019 0.40392071752730357 0 -0.37677764599766111 0.41643405758377178 0 -0.36610305523348019 0.40392071752730357 0 -0.36395861277120739 0.41911271047558618 0 -0.37677764599766111 0.41643405758377178 0 -0.37967285571403969 0.40222969171741269 0 -0.36610305523348019 0.40392071752730357 0 -0.36610305523348019 0.40392071752730357 0 -0.36395861277120739 0.41911271047558618 0 -0.35194363720999622 0.41074542492000771 0 -0.37677764599766111 0.41643405758377178 0 -0.36395861277120739 0.41911271047558618 0 -0.37055177776791631 0.43404182432853999 0 -0.36395861277120739 0.41911271047558618 0 -0.37055177776791631 0.43404182432853999 0 -0.35522752088127058 0.42839567407450868 0 -0.37055177776791631 0.43404182432853999 0 -0.35522752088127058 0.42839567407450868 0 -0.35979349460266491 0.44075582420916293 0 -0.35522752088127058 0.42839567407450868 0 -0.34223094411588001 0.43768468548487133 0 -0.35979349460266491 0.44075582420916293 0 -0.35522752088127058 0.42839567407450868 0 -0.34231696521638633 0.42113740240576858 0 -0.34223094411588001 0.43768468548487133 0 -0.36395861277120739 0.41911271047558618 0 -0.35522752088127058 0.42839567407450868 0 -0.35194363720999622 0.41074542492000771 0 -0.35522752088127058 0.42839567407450868 0 -0.35194363720999622 0.41074542492000771 0 -0.34231696521638633 0.42113740240576858 0 -0.35194363720999622 0.41074542492000771 0 -0.33725184787705881 0.40823108976311578 0 -0.34231696521638633 0.42113740240576858 0 -0.33725184787705881 0.40823108976311578 0 -0.32352198361393181 0.42062280270790159 0 -0.32543054756659751 0.39780519975198619 0 -0.33725184787705881 0.40823108976311578 0 -0.34231696521638633 0.42113740240576858 0 -0.32352198361393181 0.42062280270790159 0 -0.34231696521638633 0.42113740240576858 0 -0.32352198361393181 0.42062280270790159 0 -0.34223094411588001 0.43768468548487133 0 -0.32352198361393181 0.42062280270790159 0 -0.34223094411588001 0.43768468548487133 0 -0.32352198361393181 0.42062280270790159 0 -0.32413507494797311 0.43756826150304251 0 -0.34223094411588001 0.43768468548487133 0 -0.32352198361393181 0.42062280270790159 0 -0.30300927390836901 0.42971884315273973 0 -0.32413507494797311 0.43756826150304251 0 -0.32352198361393181 0.42062280270790159 0 -0.32543054756659751 0.39780519975198619 0 -0.30481302311198383 0.40356091993093202 0 -0.32352198361393181 0.42062280270790159 0 -0.30481302311198383 0.40356091993093202 0 -0.32543054756659751 0.39780519975198619 0 -0.31402306210056369 0.38366630157669401 0 -0.30481302311198383 0.40356091993093202 0 -0.33725184787705881 0.40823108976311578 0 -0.32543054756659751 0.39780519975198619 0 -0.34304610577838202 0.39084461902991519 0 -0.32543054756659751 0.39780519975198619 0 -0.34304610577838202 0.39084461902991519 0 -0.32851837053387051 0.37989813042492071 0 -0.34184664903869622 0.37130890357054003 0 -0.34304610577838202 0.39084461902991519 0 -0.32851837053387051 0.37989813042492071 0 -0.32543054756659751 0.39780519975198619 0 -0.32851837053387051 0.37989813042492071 0 -0.31402306210056369 0.38366630157669401 0 -0.3196700440316842 0.37293764439472021 0 -0.32851837053387051 0.37989813042492071 0 -0.31402306210056369 0.38366630157669401 0 -0.30861812429542729 0.36895607626374533 0 -0.3196700440316842 0.37293764439472021 0 -0.31402306210056369 0.38366630157669401 0 -0.31402306210056369 0.38366630157669401 0 -0.29821730352905118 0.37946100811929911 0 -0.30481302311198383 0.40356091993093202 0 -0.30861812429542729 0.36895607626374533 0 -0.31402306210056369 0.38366630157669401 0 -0.29821730352905118 0.37946100811929911 0 -0.30481302311198383 0.40356091993093202 0 -0.28610406261003568 0.38649903715396239 0 -0.30481302311198383 0.40356091993093202 0 -0.28610406261003568 0.38649903715396239 0 -0.27862014895604442 0.4010092345993157 0 -0.29821730352905118 0.37946100811929911 0 -0.30481302311198383 0.40356091993093202 0 -0.28610406261003568 0.38649903715396239 0 -0.27909272739465552 0.37014505527249242 0 -0.29821730352905118 0.37946100811929911 0 -0.28610406261003568 0.38649903715396239 0 -0.26316811568406728 0.37240942770973401 0 -0.27909272739465552 0.37014505527249242 0 -0.26932383122158049 0.38488294097204889 0 -0.27909272739465552 0.37014505527249242 0 -0.28610406261003568 0.38649903715396239 0 -0.26932383122158049 0.38488294097204889 0 -0.26932383122158049 0.38488294097204889 0 -0.27862014895604442 0.4010092345993157 0 -0.25917154070788262 0.39927618038945378 0 -0.28610406261003568 0.38649903715396239 0 -0.26932383122158049 0.38488294097204889 0 -0.27862014895604442 0.4010092345993157 0 -0.27862014895604442 0.4010092345993157 0 -0.25917154070788262 0.39927618038945378 0 -0.26774547272770288 0.41535610355363872 0 -0.25917154070788262 0.39927618038945378 0 -0.25178122254076452 0.38222546314694161 0 -0.24585321203617869 0.40099826428649521 0 -0.25917154070788262 0.39927618038945378 0 -0.25361375985589152 0.41393761394372941 0 -0.24585321203617869 0.40099826428649521 0 -0.26932383122158049 0.38488294097204889 0 -0.25917154070788262 0.39927618038945378 0 -0.25178122254076452 0.38222546314694161 0 -0.26316811568406728 0.37240942770973401 0 -0.26932383122158049 0.38488294097204889 0 -0.25178122254076452 0.38222546314694161 0 -0.25777189149644131 0.42941294108035599 0 -0.27562435196470969 0.43362050477174618 0 -0.25871821780968152 0.44475405229027382 0 -0.25777189149644131 0.42941294108035599 0 -0.2474167164462632 0.43967662104223409 0 -0.24655496897617671 0.42526261189166659 0 -0.25777189149644131 0.42941294108035599 0 -0.25361375985589152 0.41393761394372941 0 -0.24655496897617671 0.42526261189166659 0 -0.25917154070788262 0.39927618038945378 0 -0.25361375985589152 0.41393761394372941 0 -0.26774547272770288 0.41535610355363872 0 -0.25777189149644131 0.42941294108035599 0 -0.25361375985589152 0.41393761394372941 0 -0.26774547272770288 0.41535610355363872 0 -0.27862014895604442 0.4010092345993157 0 -0.26774547272770288 0.41535610355363872 0 -0.28456296335708131 0.41648022559585818 0 -0.26774547272770288 0.41535610355363872 0 -0.27562435196470969 0.43362050477174618 0 -0.28456296335708131 0.41648022559585818 0 -0.25777189149644131 0.42941294108035599 0 -0.26774547272770288 0.41535610355363872 0 -0.27562435196470969 0.43362050477174618 0 -0.27562435196470969 0.43362050477174618 0 -0.30300927390836901 0.42971884315273973 0 -0.29097326848385718 0.44506840790785779 0 -0.27562435196470969 0.43362050477174618 0 -0.28456296335708131 0.41648022559585818 0 -0.30300927390836901 0.42971884315273973 0 -0.30481302311198383 0.40356091993093202 0 -0.27862014895604442 0.4010092345993157 0 -0.28456296335708131 0.41648022559585818 0 -0.30481302311198383 0.40356091993093202 0 -0.28456296335708131 0.41648022559585818 0 -0.30300927390836901 0.42971884315273973 0 -0.32352198361393181 0.42062280270790159 0 -0.30481302311198383 0.40356091993093202 0 -0.30300927390836901 0.42971884315273973 0 -0.30460344347052731 0.46218959614426441 0 -0.29097326848385718 0.44506840790785779 0 -0.31429548052851403 0.44829446135918571 0 -0.30300927390836901 0.42971884315273973 0 -0.29097326848385718 0.44506840790785779 0 -0.31429548052851403 0.44829446135918571 0 -0.29097326848385718 0.44506840790785779 0 -0.31429548052851403 0.44829446135918571 0 -0.30460344347052731 0.46218959614426441 0 -0.2836400909029228 0.46369174787830592 0 -0.29097326848385718 0.44506840790785779 0 -0.30460344347052731 0.46218959614426441 0 -0.2836400909029228 0.46369174787830592 0 -0.29571328992402213 0.48014961015422608 0 -0.2836400909029228 0.46369174787830592 0 -0.29097326848385718 0.44506840790785779 0 -0.27346005911790439 0.44978807062444248 0 -0.27562435196470969 0.43362050477174618 0 -0.27346005911790439 0.44978807062444248 0 -0.25871821780968152 0.44475405229027382 0 -0.27562435196470969 0.43362050477174618 0 -0.29097326848385718 0.44506840790785779 0 -0.27346005911790439 0.44978807062444248 0 -0.2836400909029228 0.46369174787830592 0 -0.27346005911790439 0.44978807062444248 0 -0.26138738602010758 0.4619788403067725 0 -0.2836400909029228 0.46369174787830592 0 -0.26138738602010758 0.4619788403067725 0 -0.27311298830455599 0.48047711462575232 0 -0.26138738602010758 0.4619788403067725 0 -0.25871821780968152 0.44475405229027382 0 -0.24634807081902499 0.45334107014676289 0 -0.26138738602010758 0.4619788403067725 0 -0.24634807081902499 0.45334107014676289 0 -0.2443934969042979 0.46780468588750451 0 -0.25871821780968152 0.44475405229027382 0 -0.2474167164462632 0.43967662104223409 0 -0.24634807081902499 0.45334107014676289 0 -0.27346005911790439 0.44978807062444248 0 -0.26138738602010758 0.4619788403067725 0 -0.25871821780968152 0.44475405229027382 0 -0.25777189149644131 0.42941294108035599 0 -0.25871821780968152 0.44475405229027382 0 -0.2474167164462632 0.43967662104223409 0 -0.25651016498652102 0.5 0 -0.25572140450957842 0.47759694734280073 0 -0.24038034144793111 0.48336014465996902 0 -0.25651016498652102 0.5 0 -0.25572140450957842 0.47759694734280073 0 -0.27311298830455599 0.48047711462575232 0 -0.26138738602010758 0.4619788403067725 0 -0.25572140450957842 0.47759694734280073 0 -0.27311298830455599 0.48047711462575232 0 -0.26138738602010758 0.4619788403067725 0 -0.25572140450957842 0.47759694734280073 0 -0.2443934969042979 0.46780468588750451 0 -0.25651016498652102 0.5 0 -0.27311298830455599 0.48047711462575232 0 -0.2831213149461963 0.5 0 -0.2831213149461963 0.5 0 -0.29571328992402213 0.48014961015422608 0 -0.30973246490587159 0.5 0 -0.27311298830455599 0.48047711462575232 0 -0.2831213149461963 0.5 0 -0.29571328992402213 0.48014961015422608 0 -0.2836400909029228 0.46369174787830592 0 -0.27311298830455599 0.48047711462575232 0 -0.29571328992402213 0.48014961015422608 0 -0.30460344347052731 0.46218959614426441 0 -0.29571328992402213 0.48014961015422608 0 -0.31853354595315342 0.47517492551681878 0 -0.29571328992402213 0.48014961015422608 0 -0.30973246490587159 0.5 0 -0.31853354595315342 0.47517492551681878 0 -0.30973246490587159 0.5 0 -0.33172269166175572 0.48465633161123162 0 -0.33634361486554698 0.5 0 -0.30973246490587159 0.5 0 -0.33172269166175572 0.48465633161123162 0 -0.31853354595315342 0.47517492551681878 0 -0.33172269166175572 0.48465633161123162 0 -0.33634361486554698 0.5 0 -0.35038358791439311 0.4806183504409936 0 -0.33172269166175572 0.48465633161123162 0 -0.33595776440154662 0.46856627278050228 0 -0.35038358791439311 0.4806183504409936 0 -0.33172269166175572 0.48465633161123162 0 -0.31853354595315342 0.47517492551681878 0 -0.33595776440154662 0.46856627278050228 0 -0.32446498503069449 0.46075842404919198 0 -0.31429548052851403 0.44829446135918571 0 -0.33761769257317081 0.4515205148105137 0 -0.30460344347052731 0.46218959614426441 0 -0.31853354595315342 0.47517492551681878 0 -0.32446498503069449 0.46075842404919198 0 -0.30460344347052731 0.46218959614426441 0 -0.32446498503069449 0.46075842404919198 0 -0.31429548052851403 0.44829446135918571 0 -0.31853354595315342 0.47517492551681878 0 -0.32446498503069449 0.46075842404919198 0 -0.33595776440154662 0.46856627278050228 0 -0.32413507494797311 0.43756826150304251 0 -0.31429548052851403 0.44829446135918571 0 -0.33761769257317081 0.4515205148105137 0 -0.30300927390836901 0.42971884315273973 0 -0.32413507494797311 0.43756826150304251 0 -0.31429548052851403 0.44829446135918571 0 -0.31429548052851403 0.44829446135918571 0 -0.33761769257317081 0.4515205148105137 0 -0.32413507494797311 0.43756826150304251 0 -0.33761769257317081 0.4515205148105137 0 -0.34223094411588001 0.43768468548487133 0 -0.33761769257317081 0.4515205148105137 0 -0.33595776440154662 0.46856627278050228 0 -0.34911454625905392 0.46478809193422171 0 -0.32446498503069449 0.46075842404919198 0 -0.33761769257317081 0.4515205148105137 0 -0.33595776440154662 0.46856627278050228 0 -0.33761769257317081 0.4515205148105137 0 -0.36093990461782771 0.45474656826184118 0 -0.33761769257317081 0.4515205148105137 0 -0.34911454625905392 0.46478809193422171 0 -0.36093990461782771 0.45474656826184118 0 -0.34911454625905392 0.46478809193422171 0 -0.36067378178833132 0.46848875337725743 0 -0.36093990461782771 0.45474656826184118 0 -0.34223094411588001 0.43768468548487133 0 -0.35979349460266491 0.44075582420916293 0 -0.36093990461782771 0.45474656826184118 0 -0.33761769257317081 0.4515205148105137 0 -0.34223094411588001 0.43768468548487133 0 -0.36093990461782771 0.45474656826184118 0 -0.34223094411588001 0.43768468548487133 0 -0.36093990461782771 0.45474656826184118 0 -0.37716961999912491 0.45699154953633009 0 -0.36980970510421818 0.44604279731516833 0 -0.36093990461782771 0.45474656826184118 0 -0.37055177776791631 0.43404182432853999 0 -0.35979349460266491 0.44075582420916293 0 -0.36980970510421818 0.44604279731516833 0 -0.35979349460266491 0.44075582420916293 0 -0.36980970510421818 0.44604279731516833 0 -0.36093990461782771 0.45474656826184118 0 -0.38059372853355722 0.44367822023996739 0 -0.37055177776791631 0.43404182432853999 0 -0.36980970510421818 0.44604279731516833 0 -0.37716961999912491 0.45699154953633009 0 -0.36093990461782771 0.45474656826184118 0 -0.37716961999912491 0.45699154953633009 0 -0.36093990461782771 0.45474656826184118 0 -0.37416096470197768 0.46680368802108918 0 -0.36067378178833132 0.46848875337725743 0 -0.36093990461782771 0.45474656826184118 0 -0.37416096470197768 0.46680368802108918 0 -0.36093990461782771 0.45474656826184118 0 -0.37416096470197768 0.46680368802108918 0 -0.36067378178833132 0.46848875337725743 0 -0.36951791342030882 0.48054658581837162 0 -0.35038358791439311 0.4806183504409936 0 -0.36067378178833132 0.46848875337725743 0 -0.37416096470197768 0.46680368802108918 0 -0.36951791342030882 0.48054658581837162 0 -0.38079650659006598 0.48924407819042209 0 -0.36951791342030882 0.48054658581837162 0 -0.36295476482522232 0.5 0 -0.36951791342030882 0.48054658581837162 0 -0.36295476482522232 0.5 0 -0.35038358791439311 0.4806183504409936 0 -0.33634361486554698 0.5 0 -0.36295476482522232 0.5 0 -0.35038358791439311 0.4806183504409936 0 -0.34911454625905392 0.46478809193422171 0 -0.36067378178833132 0.46848875337725743 0 -0.35038358791439311 0.4806183504409936 0 -0.33595776440154662 0.46856627278050228 0 -0.34911454625905392 0.46478809193422171 0 -0.35038358791439311 0.4806183504409936 0 -0.14853400669719311 0.4792559497749328 0 -0.13284143777672811 0.4752551213533639 0 -0.14853400669719311 0.4792559497749328 0 -0.13389896894147801 0.47209623318514737 0 -0.15191760418789019 0.45899994155092161 0 -0.14853400669719311 0.4792559497749328 0 -0.15191760418789019 0.45899994155092161 0 -0.1599108570439465 0.47018706224465828 0 -0.13926624175885149 0.48924393762480528 0 -0.12843441774398759 0.5 0 -0.15674152586708609 0.50000000000000278 0 -0.14853400669719311 0.4792559497749328 0 -0.13926624175885149 0.48924393762480528 0 -0.15674152586708609 0.50000000000000278 0 -0.13926624175885149 0.48924393762480528 0 -0.13040011397142359 0.48822360686611838 0 -0.13163323501550611 0.47886407164670558 0 -0.12843441774398759 0.5 0 -0.13040011397142359 0.48822360686611838 0 -0.1235264836517066 0.49047184491401669 0 -0.13926624175885149 0.48924393762480528 0 -0.12843441774398759 0.5 0 -0.13040011397142359 0.48822360686611838 0 -0.13040011397142359 0.48822360686611838 0 -0.1248663799293558 0.48456971051795861 0 -0.1235264836517066 0.49047184491401669 0 -0.14853400669719311 0.4792559497749328 0 -0.13284143777672811 0.4752551213533639 0 -0.13389896894147801 0.47209623318514737 0 -0.14853400669719311 0.4792559497749328 0 -0.13926624175885149 0.48924393762480528 0 -0.13163323501550611 0.47886407164670558 0 -0.13163323501550611 0.47886407164670558 0 -0.13040679970736199 0.47463440914024269 0 -0.1248663799293558 0.48456971051795861 0 -0.14853400669719311 0.4792559497749328 0 -0.13163323501550611 0.47886407164670558 0 -0.13284143777672811 0.4752551213533639 0 -0.13040011397142359 0.48822360686611838 0 -0.13163323501550611 0.47886407164670558 0 -0.1248663799293558 0.48456971051795861 0 -0.13163323501550611 0.47886407164670558 0 -0.13284143777672811 0.4752551213533639 0 -0.13284143777672811 0.4752551213533639 0 -0.13389896894147801 0.47209623318514737 0 -0.13389896894147801 0.47209623318514737 0 -0.1291906232461513 0.46966240593357411 0 -0.1302317767833322 0.47230793069012228 0 -0.1302317767833322 0.47230793069012228 0 -0.13040679970736199 0.47463440914024269 0 -0.12609227434380951 0.47353441870607321 0 -0.13163323501550611 0.47886407164670558 0 -0.13284143777672811 0.4752551213533639 0 -0.13040679970736199 0.47463440914024269 0 -0.13284143777672811 0.4752551213533639 0 -0.13040679970736199 0.47463440914024269 0 -0.13389896894147801 0.47209623318514737 0 -0.1302317767833322 0.47230793069012228 0 -0.13040679970736199 0.47463440914024269 0 -0.13284143777672811 0.4752551213533639 0 -0.13389896894147801 0.47209623318514737 0 -0.13040679970736199 0.47463440914024269 0 -0.13389896894147801 0.47209623318514737 0 -0.13040679970736199 0.47463440914024269 0 -0.13040679970736199 0.47463440914024269 0 -0.12609227434380951 0.47353441870607321 0 -0.1291906232461513 0.46966240593357411 0 -0.12609227434380951 0.47353441870607321 0 -0.12422274044664861 0.46877912371349689 0 -0.1291906232461513 0.46966240593357411 0 -0.1302317767833322 0.47230793069012228 0 -0.12609227434380951 0.47353441870607321 0 -0.13389896894147801 0.47209623318514737 0 -0.1291906232461513 0.46966240593357411 0 -0.128378859872812 0.46350859241118109 0 -0.128378859872812 0.46350859241118109 0 -0.1270902450669299 0.45549879668012078 0 -0.11990732776734039 0.46500732942905232 0 -0.1291906232461513 0.46966240593357411 0 -0.128378859872812 0.46350859241118109 0 -0.12422274044664861 0.46877912371349689 0 -0.13389896894147801 0.47209623318514737 0 -0.128378859872812 0.46350859241118109 0 -0.14141293498669619 0.44965171407515198 0 -0.13389896894147801 0.47209623318514737 0 -0.14141293498669619 0.44965171407515198 0 -0.128378859872812 0.46350859241118109 0 -0.1270902450669299 0.45549879668012078 0 -0.14141293498669619 0.44965171407515198 0 -0.12646158318117309 0.44043125541057793 0 -0.13118659628666721 0.44695320744293232 0 -0.1362617756886402 0.43547013341476037 0 -0.12646158318117309 0.44043125541057793 0 -0.13118659628666721 0.44695320744293232 0 -0.1214208300975589 0.44882109333831971 0 -0.1270902450669299 0.45549879668012078 0 -0.13118659628666721 0.44695320744293232 0 -0.1214208300975589 0.44882109333831971 0 -0.1270902450669299 0.45549879668012078 0 -0.13118659628666721 0.44695320744293232 0 -0.14141293498669619 0.44965171407515198 0 -0.13118659628666721 0.44695320744293232 0 -0.14141293498669619 0.44965171407515198 0 -0.1362617756886402 0.43547013341476037 0 -0.14141293498669619 0.44965171407515198 0 -0.14892690103191339 0.42720719496515619 0 -0.14141293498669619 0.44965171407515198 0 -0.15557102719913371 0.44356949706965992 0 -0.14892690103191339 0.42720719496515619 0 -0.14141293498669619 0.44965171407515198 0 -0.15557102719913371 0.44356949706965992 0 -0.15191760418789019 0.45899994155092161 0 -0.13389896894147801 0.47209623318514737 0 -0.15191760418789019 0.45899994155092161 0 -0.13389896894147801 0.47209623318514737 0 -0.14141293498669619 0.44965171407515198 0 -0.15191760418789019 0.45899994155092161 0 -0.15191760418789019 0.45899994155092161 0 -0.16993623943430311 0.44590364991669662 0 -0.17496524167304461 0.45923557945627752 0 -0.15191760418789019 0.45899994155092161 0 -0.17496524167304461 0.45923557945627752 0 -0.1599108570439465 0.47018706224465828 0 -0.15191760418789019 0.45899994155092161 0 -0.16993623943430311 0.44590364991669662 0 -0.15557102719913371 0.44356949706965992 0 -0.15191760418789019 0.45899994155092161 0 -0.16993623943430311 0.44590364991669662 0 -0.15557102719913371 0.44356949706965992 0 -0.16993623943430311 0.44590364991669662 0 -0.16832843072832221 0.42655795750186343 0 -0.16993623943430311 0.44590364991669662 0 -0.17496524167304461 0.45923557945627752 0 -0.18570390772842851 0.43521438071605151 0 -0.17496524167304461 0.45923557945627752 0 -0.18570390772842851 0.43521438071605151 0 -0.17496524167304461 0.45923557945627752 0 -0.1910285578438988 0.45496712974665898 0 -0.18570390772842851 0.43521438071605151 0 -0.17496524167304461 0.45923557945627752 0 -0.18774787866501361 0.4713217669637822 0 -0.1910285578438988 0.45496712974665898 0 -0.17496524167304461 0.45923557945627752 0 -0.16422657561765791 0.48325677819650231 0 -0.18774787866501361 0.4713217669637822 0 -0.16422657561765791 0.48325677819650231 0 -0.18611738875405401 0.48883785213100162 0 -0.18774787866501361 0.4713217669637822 0 -0.14853400669719311 0.4792559497749328 0 -0.1599108570439465 0.47018706224465828 0 -0.16422657561765791 0.48325677819650231 0 -0.17496524167304461 0.45923557945627752 0 -0.16422657561765791 0.48325677819650231 0 -0.17496524167304461 0.45923557945627752 0 -0.1599108570439465 0.47018706224465828 0 -0.16422657561765791 0.48325677819650231 0 -0.14853400669719311 0.4792559497749328 0 -0.16422657561765791 0.48325677819650231 0 -0.16422657561765791 0.48325677819650231 0 -0.15674152586708609 0.50000000000000278 0 -0.14853400669719311 0.4792559497749328 0 -0.16422657561765791 0.48325677819650231 0 -0.15674152586708609 0.50000000000000278 0 -0.16422657561765791 0.48325677819650231 0 -0.15674152586708609 0.50000000000000278 0 -0.18112735558700599 0.5 0 -0.16422657561765791 0.48325677819650231 0 -0.18611738875405401 0.48883785213100162 0 -0.16422657561765791 0.48325677819650231 0 -0.18611738875405401 0.48883785213100162 0 -0.18112735558700599 0.5 0 -0.18611738875405401 0.48883785213100162 0 -0.20048366317270749 0.47854582314671767 0 -0.2080082018904498 0.49441892606550131 0 -0.18611738875405401 0.48883785213100162 0 -0.18112735558700599 0.5 0 -0.20551318530692589 0.5 0 -0.18611738875405401 0.48883785213100162 0 -0.2080082018904498 0.49441892606550131 0 -0.18611738875405401 0.48883785213100162 0 -0.20551318530692589 0.5 0 -0.2080082018904498 0.49441892606550131 0 -0.20048366317270749 0.47854582314671767 0 -0.18774787866501361 0.4713217669637822 0 -0.20463103104941369 0.46232226586744019 0 -0.18611738875405401 0.48883785213100162 0 -0.20048366317270749 0.47854582314671767 0 -0.18774787866501361 0.4713217669637822 0 -0.20048366317270749 0.47854582314671767 0 -0.21591381550460631 0.47582830470586279 0 -0.20463103104941369 0.46232226586744019 0 -0.20048366317270749 0.47854582314671767 0 -0.21591381550460631 0.47582830470586279 0 -0.2080082018904498 0.49441892606550131 0 -0.20551318530692589 0.5 0 -0.2080082018904498 0.49441892606550131 0 -0.2298990150268457 0.50000000000000056 0 -0.21591381550460631 0.47582830470586279 0 -0.2080082018904498 0.49441892606550131 0 -0.2265231320969355 0.48517837078251053 0 -0.2080082018904498 0.49441892606550131 0 -0.2298990150268457 0.50000000000000056 0 -0.2265231320969355 0.48517837078251053 0 -0.2080082018904498 0.49441892606550131 0 -0.2298990150268457 0.50000000000000056 0 -0.2298990150268457 0.50000000000000056 0 -0.2265231320969355 0.48517837078251053 0 -0.24038034144793111 0.48336014465996902 0 -0.21591381550460631 0.47582830470586279 0 -0.2265231320969355 0.48517837078251053 0 -0.23015200374013881 0.47222510288636421 0 -0.21591381550460631 0.47582830470586279 0 -0.23015200374013881 0.47222510288636421 0 -0.21906454296265179 0.46222147015463572 0 -0.2265231320969355 0.48517837078251053 0 -0.23015200374013881 0.47222510288636421 0 -0.24038034144793111 0.48336014465996902 0 -0.23015200374013881 0.47222510288636421 0 -0.24038034144793111 0.48336014465996902 0 -0.2443934969042979 0.46780468588750451 0 -0.25572140450957842 0.47759694734280073 0 -0.24038034144793111 0.48336014465996902 0 -0.2443934969042979 0.46780468588750451 0 -0.25651016498652102 0.5 0 -0.2298990150268457 0.50000000000000056 0 -0.24038034144793111 0.48336014465996902 0 -0.2363295857698757 0.44609734349880997 0 -0.24634807081902499 0.45334107014676289 0 -0.23291538459218011 0.45894527121210787 0 -0.2363295857698757 0.44609734349880997 0 -0.2474167164462632 0.43967662104223409 0 -0.23660573742890759 0.43182247913315491 0 -0.2363295857698757 0.44609734349880997 0 -0.2474167164462632 0.43967662104223409 0 -0.24634807081902499 0.45334107014676289 0 -0.23015200374013881 0.47222510288636421 0 -0.2443934969042979 0.46780468588750451 0 -0.23291538459218011 0.45894527121210787 0 -0.24634807081902499 0.45334107014676289 0 -0.2443934969042979 0.46780468588750451 0 -0.23291538459218011 0.45894527121210787 0 -0.23015200374013881 0.47222510288636421 0 -0.23291538459218011 0.45894527121210787 0 -0.21906454296265179 0.46222147015463572 0 -0.23291538459218011 0.45894527121210787 0 -0.21906454296265179 0.46222147015463572 0 -0.22515435453629351 0.44949081103515431 0 -0.21906454296265179 0.46222147015463572 0 -0.22515435453629351 0.44949081103515431 0 -0.2138884391275564 0.45147916919338371 0 -0.2363295857698757 0.44609734349880997 0 -0.23291538459218011 0.45894527121210787 0 -0.22515435453629351 0.44949081103515431 0 -0.2363295857698757 0.44609734349880997 0 -0.2281751274446428 0.43886548522001412 0 -0.23660573742890759 0.43182247913315491 0 -0.2363295857698757 0.44609734349880997 0 -0.22515435453629351 0.44949081103515431 0 -0.2281751274446428 0.43886548522001412 0 -0.22515435453629351 0.44949081103515431 0 -0.2281751274446428 0.43886548522001412 0 -0.2170837219221394 0.4397364651426815 0 -0.22515435453629351 0.44949081103515431 0 -0.2170837219221394 0.4397364651426815 0 -0.2138884391275564 0.45147916919338371 0 -0.2170837219221394 0.4397364651426815 0 -0.2138884391275564 0.45147916919338371 0 -0.20209473010359341 0.44674165572974339 0 -0.2170837219221394 0.4397364651426815 0 -0.20209473010359341 0.44674165572974339 0 -0.20715587474560199 0.43452317333271789 0 -0.21591381550460631 0.47582830470586279 0 -0.21906454296265179 0.46222147015463572 0 -0.20463103104941369 0.46232226586744019 0 -0.21906454296265179 0.46222147015463572 0 -0.2138884391275564 0.45147916919338371 0 -0.20463103104941369 0.46232226586744019 0 -0.2138884391275564 0.45147916919338371 0 -0.20463103104941369 0.46232226586744019 0 -0.20209473010359341 0.44674165572974339 0 -0.18774787866501361 0.4713217669637822 0 -0.20463103104941369 0.46232226586744019 0 -0.1910285578438988 0.45496712974665898 0 -0.20463103104941369 0.46232226586744019 0 -0.1910285578438988 0.45496712974665898 0 -0.20209473010359341 0.44674165572974339 0 -0.1910285578438988 0.45496712974665898 0 -0.20209473010359341 0.44674165572974339 0 -0.18570390772842851 0.43521438071605151 0 -0.20209473010359341 0.44674165572974339 0 -0.20715587474560199 0.43452317333271789 0 -0.18570390772842851 0.43521438071605151 0 -0.19644257378381241 0.41119318197582572 0 -0.18179447281252659 0.42013423413854678 0 -0.18570390772842851 0.43521438071605151 0 -0.20715587474560199 0.43452317333271789 0 -0.20534020017138199 0.42227356188806298 0 -0.18570390772842851 0.43521438071605151 0 -0.19644257378381241 0.41119318197582572 0 -0.20534020017138199 0.42227356188806298 0 -0.18570390772842851 0.43521438071605151 0 -0.19644257378381241 0.41119318197582572 0 -0.18570390772842851 0.43521438071605151 0 -0.19644257378381241 0.41119318197582572 0 -0.2124675641000828 0.41303007662631502 0 -0.20534020017138199 0.42227356188806298 0 -0.19644257378381241 0.41119318197582572 0 -0.2124675641000828 0.41303007662631502 0 -0.21340591455514171 0.40080792523891462 0 -0.21437326925773961 0.42060333439189668 0 -0.2124675641000828 0.41303007662631502 0 -0.20534020017138199 0.42227356188806298 0 -0.21437326925773961 0.42060333439189668 0 -0.2124675641000828 0.41303007662631502 0 -0.22224979772874009 0.41926413845066302 0 -0.2124675641000828 0.41303007662631502 0 -0.22446730390069949 0.41019797271585579 0 -0.21340591455514171 0.40080792523891462 0 -0.20715587474560199 0.43452317333271789 0 -0.20534020017138199 0.42227356188806298 0 -0.21614630892276049 0.42832150933805518 0 -0.21437326925773961 0.42060333439189668 0 -0.20534020017138199 0.42227356188806298 0 -0.21614630892276049 0.42832150933805518 0 -0.21437326925773961 0.42060333439189668 0 -0.21614630892276049 0.42832150933805518 0 -0.2219950194653518 0.42527256315250378 0 -0.2170837219221394 0.4397364651426815 0 -0.20715587474560199 0.43452317333271789 0 -0.21614630892276049 0.42832150933805518 0 -0.2170837219221394 0.4397364651426815 0 -0.21614630892276049 0.42832150933805518 0 -0.22592569047525751 0.43029141243967362 0 -0.2281751274446428 0.43886548522001412 0 -0.2170837219221394 0.4397364651426815 0 -0.22592569047525751 0.43029141243967362 0 -0.2281751274446428 0.43886548522001412 0 -0.22592569047525751 0.43029141243967362 0 -0.23660573742890759 0.43182247913315491 0 -0.22592569047525751 0.43029141243967362 0 -0.23301013635147599 0.42531968008975413 0 -0.23660573742890759 0.43182247913315491 0 -0.23301013635147599 0.42531968008975413 0 -0.22733468209463251 0.42273963471715292 0 -0.23232489289347971 0.41827424148184822 0 -0.22592569047525751 0.43029141243967362 0 -0.23301013635147599 0.42531968008975413 0 -0.22733468209463251 0.42273963471715292 0 -0.21614630892276049 0.42832150933805518 0 -0.22592569047525751 0.43029141243967362 0 -0.2219950194653518 0.42527256315250378 0 -0.22733468209463251 0.42273963471715292 0 -0.2219950194653518 0.42527256315250378 0 -0.22224979772874009 0.41926413845066302 0 -0.22592569047525751 0.43029141243967362 0 -0.22733468209463251 0.42273963471715292 0 -0.2219950194653518 0.42527256315250378 0 -0.21437326925773961 0.42060333439189668 0 -0.2219950194653518 0.42527256315250378 0 -0.22224979772874009 0.41926413845066302 0 -0.22224979772874009 0.41926413845066302 0 -0.22446730390069949 0.41019797271585579 0 -0.22224979772874009 0.41926413845066302 0 -0.2246889261909169 0.41282971420276632 0 -0.22446730390069949 0.41019797271585579 0 -0.2124675641000828 0.41303007662631502 0 -0.22224979772874009 0.41926413845066302 0 -0.22446730390069949 0.41019797271585579 0 -0.22224979772874009 0.41926413845066302 0 -0.2246889261909169 0.41282971420276632 0 -0.2272548900729692 0.41726022297819748 0 -0.22733468209463251 0.42273963471715292 0 -0.22224979772874009 0.41926413845066302 0 -0.2272548900729692 0.41726022297819748 0 -0.2246889261909169 0.41282971420276632 0 -0.22446730390069949 0.41019797271585579 0 -0.22885595073220069 0.4135547574194382 0 -0.2246889261909169 0.41282971420276632 0 -0.22446730390069949 0.41019797271585579 0 -0.22885595073220069 0.4135547574194382 0 -0.23232489289347971 0.41827424148184822 0 -0.2355437406029379 0.40921163571852331 0 -0.22446730390069949 0.41019797271585579 0 -0.22885595073220069 0.4135547574194382 0 -0.2355437406029379 0.40921163571852331 0 -0.22733468209463251 0.42273963471715292 0 -0.2272548900729692 0.41726022297819748 0 -0.23232489289347971 0.41827424148184822 0 -0.2246889261909169 0.41282971420276632 0 -0.22885595073220069 0.4135547574194382 0 -0.2272548900729692 0.41726022297819748 0 -0.22885595073220069 0.4135547574194382 0 -0.2272548900729692 0.41726022297819748 0 -0.23232489289347971 0.41827424148184822 0 -0.23232489289347971 0.41827424148184822 0 -0.2355437406029379 0.40921163571852331 0 -0.2391490203154662 0.42199895484365169 0 -0.23301013635147599 0.42531968008975413 0 -0.23232489289347971 0.41827424148184822 0 -0.2391490203154662 0.42199895484365169 0 -0.2355437406029379 0.40921163571852331 0 -0.2441429403573302 0.41428181613681331 0 -0.2391490203154662 0.42199895484365169 0 -0.2355437406029379 0.40921163571852331 0 -0.2441429403573302 0.41428181613681331 0 -0.24585321203617869 0.40099826428649521 0 -0.25361375985589152 0.41393761394372941 0 -0.2441429403573302 0.41428181613681331 0 -0.24585321203617869 0.40099826428649521 0 -0.2441429403573302 0.41428181613681331 0 -0.24655496897617671 0.42526261189166659 0 -0.2391490203154662 0.42199895484365169 0 -0.25361375985589152 0.41393761394372941 0 -0.2441429403573302 0.41428181613681331 0 -0.24655496897617671 0.42526261189166659 0 -0.2474167164462632 0.43967662104223409 0 -0.24655496897617671 0.42526261189166659 0 -0.23660573742890759 0.43182247913315491 0 -0.23301013635147599 0.42531968008975413 0 -0.23660573742890759 0.43182247913315491 0 -0.2391490203154662 0.42199895484365169 0 -0.24655496897617671 0.42526261189166659 0 -0.23660573742890759 0.43182247913315491 0 -0.2391490203154662 0.42199895484365169 0 -0.25178122254076452 0.38222546314694161 0 -0.2424892760302664 0.37511474206105849 0 -0.23023632019550549 0.38661163121344883 0 -0.25178122254076452 0.38222546314694161 0 -0.24585321203617869 0.40099826428649521 0 -0.23023632019550549 0.38661163121344883 0 -0.25193422489448369 0.368596584172802 0 -0.25178122254076452 0.38222546314694161 0 -0.2424892760302664 0.37511474206105849 0 -0.2355437406029379 0.40921163571852331 0 -0.24585321203617869 0.40099826428649521 0 -0.23023632019550549 0.38661163121344883 0 -0.22446730390069949 0.41019797271585579 0 -0.23023632019550549 0.38661163121344883 0 -0.22446730390069949 0.41019797271585579 0 -0.22259561453856069 0.38797185755330388 0 -0.22446730390069949 0.41019797271585579 0 -0.2355437406029379 0.40921163571852331 0 -0.23023632019550549 0.38661163121344883 0 -0.22446730390069949 0.41019797271585579 0 -0.22259561453856069 0.38797185755330388 0 -0.21340591455514171 0.40080792523891462 0 -0.22446730390069949 0.41019797271585579 0 -0.23023632019550549 0.38661163121344883 0 -0.22259561453856069 0.38797185755330388 0 -0.22259561453856069 0.38797185755330388 0 -0.21306437125900621 0.37519321133080658 0 -0.2207239251764217 0.36574574239075208 0 -0.22259561453856069 0.38797185755330388 0 -0.2207239251764217 0.36574574239075208 0 -0.23023632019550549 0.38661163121344883 0 -0.22259561453856069 0.38797185755330388 0 -0.2207239251764217 0.36574574239075208 0 -0.22259561453856069 0.38797185755330388 0 -0.21306437125900621 0.37519321133080658 0 -0.2071812398391962 0.38717198323559981 0 -0.21306437125900621 0.37519321133080658 0 -0.2071812398391962 0.38717198323559981 0 -0.20207252178755589 0.37342564855104349 0 -0.19644257378381241 0.41119318197582572 0 -0.2071812398391962 0.38717198323559981 0 -0.21340591455514171 0.40080792523891462 0 -0.22259561453856069 0.38797185755330388 0 -0.2071812398391962 0.38717198323559981 0 -0.21340591455514171 0.40080792523891462 0 -0.19644257378381241 0.41119318197582572 0 -0.19616457919744501 0.38788248383391999 0 -0.1853566108647986 0.3921670892465477 0 -0.19644257378381241 0.41119318197582572 0 -0.2071812398391962 0.38717198323559981 0 -0.19644257378381241 0.41119318197582572 0 -0.2071812398391962 0.38717198323559981 0 -0.19616457919744501 0.38788248383391999 0 -0.19616457919744501 0.38788248383391999 0 -0.19108277199053719 0.37808213392651641 0 -0.20207252178755589 0.37342564855104349 0 -0.2071812398391962 0.38717198323559981 0 -0.19616457919744501 0.38788248383391999 0 -0.20207252178755589 0.37342564855104349 0 -0.19616457919744501 0.38788248383391999 0 -0.19108277199053719 0.37808213392651641 0 -0.1853566108647986 0.3921670892465477 0 -0.179706325288222 0.37524567766738087 0 -0.17213285287964911 0.39367142796751781 0 -0.1853566108647986 0.3921670892465477 0 -0.179706325288222 0.37524567766738087 0 -0.16395483312234779 0.38231815674516512 0 -0.17213285287964911 0.39367142796751781 0 -0.19108277199053719 0.37808213392651641 0 -0.179706325288222 0.37524567766738087 0 -0.1853566108647986 0.3921670892465477 0 -0.16395483312234779 0.38231815674516512 0 -0.14937977076881351 0.377710993289261 0 -0.16683150484713 0.36958416129455152 0 -0.179706325288222 0.37524567766738087 0 -0.16395483312234779 0.38231815674516512 0 -0.16683150484713 0.36958416129455152 0 -0.16395483312234779 0.38231815674516512 0 -0.15644086707713059 0.40476267585516068 0 -0.16395483312234779 0.38231815674516512 0 -0.15644086707713059 0.40476267585516068 0 -0.17213285287964911 0.39367142796751781 0 -0.16395483312234779 0.38231815674516512 0 -0.15644086707713059 0.40476267585516068 0 -0.15313880874530489 0.39117719360026659 0 -0.15644086707713059 0.40476267585516068 0 -0.17213285287964911 0.39367142796751781 0 -0.1767029790095434 0.40757141636044658 0 -0.19644257378381241 0.41119318197582572 0 -0.1853566108647986 0.3921670892465477 0 -0.1767029790095434 0.40757141636044658 0 -0.17213285287964911 0.39367142796751781 0 -0.1853566108647986 0.3921670892465477 0 -0.1767029790095434 0.40757141636044658 0 -0.19644257378381241 0.41119318197582572 0 -0.18179447281252659 0.42013423413854678 0 -0.1767029790095434 0.40757141636044658 0 -0.18179447281252659 0.42013423413854678 0 -0.1767029790095434 0.40757141636044658 0 -0.16832843072832221 0.42655795750186343 0 -0.18179447281252659 0.42013423413854678 0 -0.18570390772842851 0.43521438071605151 0 -0.16832843072832221 0.42655795750186343 0 -0.16993623943430311 0.44590364991669662 0 -0.18570390772842851 0.43521438071605151 0 -0.16832843072832221 0.42655795750186343 0 -0.15557102719913371 0.44356949706965992 0 -0.16832843072832221 0.42655795750186343 0 -0.14892690103191339 0.42720719496515619 0 -0.15644086707713059 0.40476267585516068 0 -0.16832843072832221 0.42655795750186343 0 -0.14892690103191339 0.42720719496515619 0 -0.15644086707713059 0.40476267585516068 0 -0.1767029790095434 0.40757141636044658 0 -0.16832843072832221 0.42655795750186343 0 -0.15644086707713059 0.40476267585516068 0 -0.14892690103191339 0.42720719496515619 0 -0.13859346792163441 0.41841260385292001 0 -0.15644086707713059 0.40476267585516068 0 -0.14892690103191339 0.42720719496515619 0 -0.15644086707713059 0.40476267585516068 0 -0.13859346792163441 0.41841260385292001 0 -0.13662129785865729 0.40205964601565541 0 -0.14892690103191339 0.42720719496515619 0 -0.1362617756886402 0.43547013341476037 0 -0.13859346792163441 0.41841260385292001 0 -0.14141293498669619 0.44965171407515198 0 -0.14892690103191339 0.42720719496515619 0 -0.1362617756886402 0.43547013341476037 0 -0.1362617756886402 0.43547013341476037 0 -0.13859346792163441 0.41841260385292001 0 -0.1238628249485012 0.42640829874204977 0 -0.12646158318117309 0.44043125541057793 0 -0.1362617756886402 0.43547013341476037 0 -0.1238628249485012 0.42640829874204977 0 -0.13859346792163441 0.41841260385292001 0 -0.13662129785865729 0.40205964601565541 0 -0.1238628249485012 0.42640829874204977 0 -0.13662129785865729 0.40205964601565541 0 -0.1238628249485012 0.42640829874204977 0 -0.13662129785865729 0.40205964601565541 0 -0.12064699510279819 0.41141043511993952 0 -0.1238628249485012 0.42640829874204977 0 -0.13662129785865729 0.40205964601565541 0 -0.1326230197812206 0.38578317979234023 0 -0.11938697336984549 0.39593056612221672 0 -0.13662129785865729 0.40205964601565541 0 -0.11938697336984549 0.39593056612221672 0 -0.12064699510279819 0.41141043511993952 0 -0.13662129785865729 0.40205964601565541 0 -0.1326230197812206 0.38578317979234023 0 -0.14937977076881351 0.377710993289261 0 -0.1326230197812206 0.38578317979234023 0 -0.14937977076881351 0.377710993289261 0 -0.13214598057342289 0.37070553122603661 0 -0.1326230197812206 0.38578317979234023 0 -0.13214598057342289 0.37070553122603661 0 -0.1216364771498149 0.37964542288782621 0 -0.13662129785865729 0.40205964601565541 0 -0.14937977076881351 0.377710993289261 0 -0.13662129785865729 0.40205964601565541 0 -0.14937977076881351 0.377710993289261 0 -0.15313880874530489 0.39117719360026659 0 -0.16395483312234779 0.38231815674516512 0 -0.14937977076881351 0.377710993289261 0 -0.15313880874530489 0.39117719360026659 0 -0.15644086707713059 0.40476267585516068 0 -0.13662129785865729 0.40205964601565541 0 -0.15313880874530489 0.39117719360026659 0 -0.14742718697475229 0.34542615826375 0 -0.14105181501636141 0.35743975868026162 0 -0.16213824367896959 0.35336234056286658 0 -0.14937977076881351 0.377710993289261 0 -0.14105181501636141 0.35743975868026162 0 -0.16213824367896959 0.35336234056286658 0 -0.14937977076881351 0.377710993289261 0 -0.16213824367896959 0.35336234056286658 0 -0.14937977076881351 0.377710993289261 0 -0.14105181501636141 0.35743975868026162 0 -0.13214598057342289 0.37070553122603661 0 -0.14105181501636141 0.35743975868026162 0 -0.13214598057342289 0.37070553122603661 0 -0.12735311119068521 0.35737863321314151 0 -0.13214598057342289 0.37070553122603661 0 -0.12735311119068521 0.35737863321314151 0 -0.12030727828528601 0.36679067336604781 0 -0.14742718697475229 0.34542615826375 0 -0.14105181501636141 0.35743975868026162 0 -0.12911066663652779 0.33926403678419192 0 -0.14105181501636141 0.35743975868026162 0 -0.12735311119068521 0.35737863321314151 0 -0.12911066663652779 0.33926403678419192 0 -0.12911066663652779 0.33926403678419192 0 -0.13626560058604301 0.32042771339523279 0 -0.1124361943185265 0.33058449174930271 0 -0.12522219782980251 0.31680644889930942 0 -0.1426586023416811 0.31353869197023632 0 -0.13626560058604301 0.32042771339523279 0 -0.12522219782980251 0.31680644889930942 0 -0.1426586023416811 0.31353869197023632 0 -0.13626560058604301 0.32042771339523279 0 -0.1600950068535596 0.3102709350411631 0 -0.13626560058604301 0.32042771339523279 0 -0.1574080225671505 0.33163849702767978 0 -0.1600950068535596 0.3102709350411631 0 -0.13626560058604301 0.32042771339523279 0 -0.1426586023416811 0.31353869197023632 0 -0.1600950068535596 0.3102709350411631 0 -0.12911066663652779 0.33926403678419192 0 -0.13626560058604301 0.32042771339523279 0 -0.1574080225671505 0.33163849702767978 0 -0.12911066663652779 0.33926403678419192 0 -0.1574080225671505 0.33163849702767978 0 -0.14742718697475229 0.34542615826375 0 -0.12911066663652779 0.33926403678419192 0 -0.1574080225671505 0.33163849702767978 0 -0.14742718697475229 0.34542615826375 0 -0.1574080225671505 0.33163849702767978 0 -0.16213824367896959 0.35336234056286658 0 -0.1574080225671505 0.33163849702767978 0 -0.1757215243848404 0.32427799344157721 0 -0.17567592398060961 0.34244449265575561 0 -0.1574080225671505 0.33163849702767978 0 -0.17567592398060961 0.34244449265575561 0 -0.16213824367896959 0.35336234056286658 0 -0.1757215243848404 0.32427799344157721 0 -0.1791447939976725 0.30670081403971861 0 -0.1600950068535596 0.3102709350411631 0 -0.1574080225671505 0.33163849702767978 0 -0.1757215243848404 0.32427799344157721 0 -0.1600950068535596 0.3102709350411631 0 -0.1757215243848404 0.32427799344157721 0 -0.1896360500388875 0.33450462982868612 0 -0.1942285581697912 0.31939368128804302 0 -0.1757215243848404 0.32427799344157721 0 -0.1942285581697912 0.31939368128804302 0 -0.1791447939976725 0.30670081403971861 0 -0.1757215243848404 0.32427799344157721 0 -0.17567592398060961 0.34244449265575561 0 -0.1896360500388875 0.33450462982868612 0 -0.17567592398060961 0.34244449265575561 0 -0.19017335183651299 0.35159985686564021 0 -0.1896360500388875 0.33450462982868612 0 -0.17567592398060961 0.34244449265575561 0 -0.1768770894338989 0.35965345117144709 0 -0.19017335183651299 0.35159985686564021 0 -0.1768770894338989 0.35965345117144709 0 -0.18673718697194949 0.3656841779824882 0 -0.19017335183651299 0.35159985686564021 0 -0.17567592398060961 0.34244449265575561 0 -0.16213824367896959 0.35336234056286658 0 -0.1768770894338989 0.35965345117144709 0 -0.14937977076881351 0.377710993289261 0 -0.16213824367896959 0.35336234056286658 0 -0.16683150484713 0.36958416129455152 0 -0.16213824367896959 0.35336234056286658 0 -0.16683150484713 0.36958416129455152 0 -0.1768770894338989 0.35965345117144709 0 -0.179706325288222 0.37524567766738087 0 -0.16683150484713 0.36958416129455152 0 -0.1768770894338989 0.35965345117144709 0 -0.179706325288222 0.37524567766738087 0 -0.1768770894338989 0.35965345117144709 0 -0.18673718697194949 0.3656841779824882 0 -0.19108277199053719 0.37808213392651641 0 -0.179706325288222 0.37524567766738087 0 -0.18673718697194949 0.3656841779824882 0 -0.19108277199053719 0.37808213392651641 0 -0.18673718697194949 0.3656841779824882 0 -0.1969169179089402 0.36448632145153359 0 -0.18673718697194949 0.3656841779824882 0 -0.1969169179089402 0.36448632145153359 0 -0.19017335183651299 0.35159985686564021 0 -0.1969169179089402 0.36448632145153359 0 -0.20204285702101829 0.35479268306608591 0 -0.20643927152868599 0.3638637614154796 0 -0.1969169179089402 0.36448632145153359 0 -0.20207252178755589 0.37342564855104349 0 -0.20643927152868599 0.3638637614154796 0 -0.19108277199053719 0.37808213392651641 0 -0.1969169179089402 0.36448632145153359 0 -0.20207252178755589 0.37342564855104349 0 -0.1969169179089402 0.36448632145153359 0 -0.19017335183651299 0.35159985686564021 0 -0.20204285702101829 0.35479268306608591 0 -0.19017335183651299 0.35159985686564021 0 -0.20204285702101829 0.35479268306608591 0 -0.20308538485551711 0.33928814409843111 0 -0.21344412984408109 0.35742010636320121 0 -0.2207239251764217 0.36574574239075208 0 -0.21939745313549311 0.3499940258196404 0 -0.2093059019308347 0.34800321767789172 0 -0.21939745313549311 0.3499940258196404 0 -0.2180709810945646 0.3342423092485286 0 -0.20204285702101829 0.35479268306608591 0 -0.2093059019308347 0.34800321767789172 0 -0.20308538485551711 0.33928814409843111 0 -0.20204285702101829 0.35479268306608591 0 -0.21344412984408109 0.35742010636320121 0 -0.20643927152868599 0.3638637614154796 0 -0.20204285702101829 0.35479268306608591 0 -0.2093059019308347 0.34800321767789172 0 -0.21344412984408109 0.35742010636320121 0 -0.2093059019308347 0.34800321767789172 0 -0.21344412984408109 0.35742010636320121 0 -0.21939745313549311 0.3499940258196404 0 -0.20207252178755589 0.37342564855104349 0 -0.20939800823182411 0.36976662729174797 0 -0.20643927152868599 0.3638637614154796 0 -0.21306437125900621 0.37519321133080658 0 -0.20207252178755589 0.37342564855104349 0 -0.20939800823182411 0.36976662729174797 0 -0.20939800823182411 0.36976662729174797 0 -0.20643927152868599 0.3638637614154796 0 -0.21601586835204839 0.36658388786966228 0 -0.21344412984408109 0.35742010636320121 0 -0.21601586835204839 0.36658388786966228 0 -0.2207239251764217 0.36574574239075208 0 -0.21344412984408109 0.35742010636320121 0 -0.20643927152868599 0.3638637614154796 0 -0.21601586835204839 0.36658388786966228 0 -0.21601586835204839 0.36658388786966228 0 -0.2207239251764217 0.36574574239075208 0 -0.21306437125900621 0.37519321133080658 0 -0.21601586835204839 0.36658388786966228 0 -0.2207239251764217 0.36574574239075208 0 -0.21306437125900621 0.37519321133080658 0 -0.20939800823182411 0.36976662729174797 0 -0.21601586835204839 0.36658388786966228 0 -0.23023632019550549 0.38661163121344883 0 -0.2207239251764217 0.36574574239075208 0 -0.23600533649031241 0.36302528971104198 0 -0.23023632019550549 0.38661163121344883 0 -0.23600533649031241 0.36302528971104198 0 -0.2207239251764217 0.36574574239075208 0 -0.22902550111378731 0.35287790038272432 0 -0.23600533649031241 0.36302528971104198 0 -0.2207239251764217 0.36574574239075208 0 -0.23600533649031241 0.36302528971104198 0 -0.2207239251764217 0.36574574239075208 0 -0.21939745313549311 0.3499940258196404 0 -0.22902550111378731 0.35287790038272432 0 -0.2207239251764217 0.36574574239075208 0 -0.21939745313549311 0.3499940258196404 0 -0.21939745313549311 0.3499940258196404 0 -0.22902550111378731 0.35287790038272432 0 -0.22762635332795009 0.34192473927908767 0 -0.22902550111378731 0.35287790038272432 0 -0.24058000153588679 0.34432199498795552 0 -0.22762635332795009 0.34192473927908767 0 -0.26216403037483549 0.35836842344299308 0 -0.24944289275892051 0.35232460830669848 0 -0.23600533649031241 0.36302528971104198 0 -0.24058000153588679 0.34432199498795552 0 -0.24944289275892051 0.35232460830669848 0 -0.23600533649031241 0.36302528971104198 0 -0.2590222026346477 0.34358272508480392 0 -0.24058000153588679 0.34432199498795552 0 -0.24944289275892051 0.35232460830669848 0 -0.24058000153588679 0.34432199498795552 0 -0.23600533649031241 0.36302528971104198 0 -0.22902550111378731 0.35287790038272432 0 -0.24058000153588679 0.34432199498795552 0 -0.23600533649031241 0.36302528971104198 0 -0.25193422489448369 0.368596584172802 0 -0.2424892760302664 0.37511474206105849 0 -0.23600533649031241 0.36302528971104198 0 -0.2424892760302664 0.37511474206105849 0 -0.23023632019550549 0.38661163121344883 0 -0.23600533649031241 0.36302528971104198 0 -0.26216403037483549 0.35836842344299308 0 -0.23600533649031241 0.36302528971104198 0 -0.24515466658146171 0.325618700264869 0 -0.23114806355022141 0.31202185689149009 0 -0.24506209967329479 0.30886558668515401 0 -0.24515466658146171 0.325618700264869 0 -0.23105782976001879 0.3281874659565896 0 -0.23114806355022141 0.31202185689149009 0 -0.25694910642793961 0.31363538248303702 0 -0.24515466658146171 0.325618700264869 0 -0.24506209967329479 0.30886558668515401 0 -0.24058000153588679 0.34432199498795552 0 -0.24515466658146171 0.325618700264869 0 -0.2590222026346477 0.34358272508480392 0 -0.24058000153588679 0.34432199498795552 0 -0.24515466658146171 0.325618700264869 0 -0.24058000153588679 0.34432199498795552 0 -0.24515466658146171 0.325618700264869 0 -0.23105782976001879 0.3281874659565896 0 -0.24058000153588679 0.34432199498795552 0 -0.23105782976001879 0.3281874659565896 0 -0.22762635332795009 0.34192473927908767 0 -0.21939745313549311 0.3499940258196404 0 -0.22762635332795009 0.34192473927908767 0 -0.2180709810945646 0.3342423092485286 0 -0.23105782976001879 0.3281874659565896 0 -0.22762635332795009 0.34192473927908767 0 -0.2180709810945646 0.3342423092485286 0 -0.23105782976001879 0.3281874659565896 0 -0.21114412042558389 0.31507038025301243 0 -0.23114806355022141 0.31202185689149009 0 -0.23105782976001879 0.3281874659565896 0 -0.21114412042558389 0.31507038025301243 0 -0.2180709810945646 0.3342423092485286 0 -0.21114412042558389 0.31507038025301243 0 -0.20438359886144369 0.32760322431594752 0 -0.2180709810945646 0.3342423092485286 0 -0.21114412042558389 0.31507038025301243 0 -0.20438359886144369 0.32760322431594752 0 -0.1942285581697912 0.31939368128804302 0 -0.21939745313549311 0.3499940258196404 0 -0.2180709810945646 0.3342423092485286 0 -0.20438359886144369 0.32760322431594752 0 -0.2180709810945646 0.3342423092485286 0 -0.20308538485551711 0.33928814409843111 0 -0.2093059019308347 0.34800321767789172 0 -0.2180709810945646 0.3342423092485286 0 -0.20308538485551711 0.33928814409843111 0 -0.19017335183651299 0.35159985686564021 0 -0.20308538485551711 0.33928814409843111 0 -0.1896360500388875 0.33450462982868612 0 -0.20438359886144369 0.32760322431594752 0 -0.20308538485551711 0.33928814409843111 0 -0.1896360500388875 0.33450462982868612 0 -0.21114412042558389 0.31507038025301243 0 -0.1942285581697912 0.31939368128804302 0 -0.1981945811417852 0.30313069303827261 0 -0.20438359886144369 0.32760322431594752 0 -0.1896360500388875 0.33450462982868612 0 -0.1942285581697912 0.31939368128804302 0 -0.1981945811417852 0.30313069303827261 0 -0.1791447939976725 0.30670081403971861 0 -0.19144588820368219 0.29690828766744198 0 -0.1981945811417852 0.30313069303827261 0 -0.1791447939976725 0.30670081403971861 0 -0.1942285581697912 0.31939368128804302 0 -0.1981945811417852 0.30313069303827261 0 -0.1791447939976725 0.30670081403971861 0 -0.19144588820368219 0.29690828766744198 0 -0.1981945811417852 0.30313069303827261 0 -0.19144588820368219 0.29690828766744198 0 -0.21021801587891001 0.28890706691141022 0 -0.19144588820368219 0.29690828766744198 0 -0.21021801587891001 0.28890706691141022 0 -0.19434491742757021 0.27806761522520751 0 -0.19144588820368219 0.29690828766744198 0 -0.1981945811417852 0.30313069303827261 0 -0.21021801587891001 0.28890706691141022 0 -0.1981945811417852 0.30313069303827261 0 -0.21960257022371771 0.29911862136304151 0 -0.1981945811417852 0.30313069303827261 0 -0.21021801587891001 0.28890706691141022 0 -0.21960257022371771 0.29911862136304151 0 -0.21114412042558389 0.31507038025301243 0 -0.1981945811417852 0.30313069303827261 0 -0.21960257022371771 0.29911862136304151 0 -0.21114412042558389 0.31507038025301243 0 -0.1981945811417852 0.30313069303827261 0 -0.21114412042558389 0.31507038025301243 0 -0.21960257022371771 0.29911862136304151 0 -0.23114806355022141 0.31202185689149009 0 -0.21960257022371771 0.29911862136304151 0 -0.23114806355022141 0.31202185689149009 0 -0.23608791144094021 0.29609005999790861 0 -0.21021801587891001 0.28890706691141022 0 -0.22899014355413769 0.2809058461553775 0 -0.21021801587891001 0.28890706691141022 0 -0.22667579139496941 0.29123868693044291 0 -0.22899014355413769 0.2809058461553775 0 -0.21021801587891001 0.28890706691141022 0 -0.21960257022371771 0.29911862136304151 0 -0.22667579139496941 0.29123868693044291 0 -0.21960257022371771 0.29911862136304151 0 -0.22667579139496941 0.29123868693044291 0 -0.23608791144094021 0.29609005999790861 0 -0.22667579139496941 0.29123868693044291 0 -0.2353918746837865 0.28635815190471758 0 -0.22899014355413769 0.2809058461553775 0 -0.22667579139496941 0.29123868693044291 0 -0.23608791144094021 0.29609005999790861 0 -0.2353918746837865 0.28635815190471758 0 -0.23608791144094021 0.29609005999790861 0 -0.2353918746837865 0.28635815190471758 0 -0.24600045521931049 0.28593154543727778 0 -0.25597075036591121 0.29696193378846469 0 -0.23608791144094021 0.29609005999790861 0 -0.24600045521931049 0.28593154543727778 0 -0.2353918746837865 0.28635815190471758 0 -0.24600045521931049 0.28593154543727778 0 -0.23920507180957479 0.27762462100258128 0 -0.2353918746837865 0.28635815190471758 0 -0.23920507180957479 0.27762462100258128 0 -0.22899014355413769 0.2809058461553775 0 -0.25597075036591121 0.29696193378846469 0 -0.23608791144094021 0.29609005999790861 0 -0.24506209967329479 0.30886558668515401 0 -0.23114806355022141 0.31202185689149009 0 -0.23608791144094021 0.29609005999790861 0 -0.24506209967329479 0.30886558668515401 0 -0.23659851017468231 0.25432161507005241 0 -0.24194075848194749 0.26599630648722322 0 -0.23198574286962201 0.26286080198979062 0 -0.23659851017468231 0.25432161507005241 0 -0.24759739790112481 0.25315441603119782 0 -0.24194075848194749 0.26599630648722322 0 -0.23659851017468231 0.25432161507005241 0 -0.24759739790112481 0.25315441603119782 0 -0.23552086690955309 0.2444055720541079 0 -0.25255672097802823 0.26278996840377622 0 -0.24759739790112481 0.25315441603119782 0 -0.24194075848194749 0.26599630648722322 0 -0.25027870342817993 0.27348509089476652 0 -0.23920507180957479 0.27762462100258128 0 -0.24194075848194749 0.26599630648722322 0 -0.25027870342817993 0.27348509089476652 0 -0.25255672097802823 0.26278996840377622 0 -0.24194075848194749 0.26599630648722322 0 -0.25027870342817993 0.27348509089476652 0 -0.24600045521931049 0.28593154543727778 0 -0.23920507180957479 0.27762462100258128 0 -0.24194075848194749 0.26599630648722322 0 -0.23367834001033891 0.2718987690731125 0 -0.23198574286962201 0.26286080198979062 0 -0.23920507180957479 0.27762462100258128 0 -0.24194075848194749 0.26599630648722322 0 -0.23367834001033891 0.2718987690731125 0 -0.23367834001033891 0.2718987690731125 0 -0.22363781420963161 0.27341351830091531 0 -0.23198574286962201 0.26286080198979062 0 -0.21021801587891001 0.28890706691141022 0 -0.22899014355413769 0.2809058461553775 0 -0.22363781420963161 0.27341351830091531 0 -0.23367834001033891 0.2718987690731125 0 -0.22899014355413769 0.2809058461553775 0 -0.22363781420963161 0.27341351830091531 0 -0.23920507180957479 0.27762462100258128 0 -0.23367834001033891 0.2718987690731125 0 -0.22899014355413769 0.2809058461553775 0 -0.22363781420963161 0.27341351830091531 0 -0.21741549794635109 0.26424221677719872 0 -0.2240732914715097 0.24867380101764949 0 -0.22363781420963161 0.27341351830091531 0 -0.2240732914715097 0.24867380101764949 0 -0.22363781420963161 0.27341351830091531 0 -0.23198574286962201 0.26286080198979062 0 -0.2240732914715097 0.24867380101764949 0 -0.23659851017468231 0.25432161507005241 0 -0.23198574286962201 0.26286080198979062 0 -0.2240732914715097 0.24867380101764949 0 -0.21222572633593059 0.25042384699120041 0 -0.21249252163638499 0.26019103592160697 0 -0.2240732914715097 0.24867380101764949 0 -0.21741549794635109 0.26424221677719872 0 -0.21249252163638499 0.26019103592160697 0 -0.2240732914715097 0.24867380101764949 0 -0.21249252163638499 0.26019103592160697 0 -0.2094583644678783 0.27469051186862292 0 -0.1998555116210283 0.25891194290682518 0 -0.21222572633593059 0.25042384699120041 0 -0.21249252163638499 0.26019103592160697 0 -0.1998555116210283 0.25891194290682518 0 -0.21021801587891001 0.28890706691141022 0 -0.2094583644678783 0.27469051186862292 0 -0.19434491742757021 0.27806761522520751 0 -0.21021801587891001 0.28890706691141022 0 -0.22363781420963161 0.27341351830091531 0 -0.2094583644678783 0.27469051186862292 0 -0.21741549794635109 0.26424221677719872 0 -0.21249252163638499 0.26019103592160697 0 -0.2094583644678783 0.27469051186862292 0 -0.22363781420963161 0.27341351830091531 0 -0.21741549794635109 0.26424221677719872 0 -0.2094583644678783 0.27469051186862292 0 -0.2094583644678783 0.27469051186862292 0 -0.19434491742757021 0.27806761522520751 0 -0.1998555116210283 0.25891194290682518 0 -0.1998555116210283 0.25891194290682518 0 -0.17653414283731059 0.25896614820827052 0 -0.18780594399135009 0.2432222609189009 0 -0.19434491742757021 0.27806761522520751 0 -0.1998555116210283 0.25891194290682518 0 -0.17653414283731059 0.25896614820827052 0 -0.17653414283731059 0.25896614820827052 0 -0.153448837031642 0.26187438444246253 0 -0.15921749235545729 0.24728948044781751 0 -0.17244736261766219 0.27939133605495209 0 -0.15656323555280829 0.28269012713256769 0 -0.153448837031642 0.26187438444246253 0 -0.17244736261766219 0.27939133605495209 0 -0.153448837031642 0.26187438444246253 0 -0.17653414283731059 0.25896614820827052 0 -0.17244736261766219 0.27939133605495209 0 -0.153448837031642 0.26187438444246253 0 -0.19434491742757021 0.27806761522520751 0 -0.17653414283731059 0.25896614820827052 0 -0.17244736261766219 0.27939133605495209 0 -0.19144588820368219 0.29690828766744198 0 -0.17244736261766219 0.27939133605495209 0 -0.19144588820368219 0.29690828766744198 0 -0.19434491742757021 0.27806761522520751 0 -0.17244736261766219 0.27939133605495209 0 -0.19144588820368219 0.29690828766744198 0 -0.17244736261766219 0.27939133605495209 0 -0.175770447528621 0.30358961135430279 0 -0.19144588820368219 0.29690828766744198 0 -0.175770447528621 0.30358961135430279 0 -0.1791447939976725 0.30670081403971861 0 -0.19144588820368219 0.29690828766744198 0 -0.175770447528621 0.30358961135430279 0 -0.1600950068535596 0.3102709350411631 0 -0.16261403203449371 0.29403005013853428 0 -0.14791851907636269 0.29345176862658662 0 -0.175770447528621 0.30358961135430279 0 -0.1791447939976725 0.30670081403971861 0 -0.1600950068535596 0.3102709350411631 0 -0.175770447528621 0.30358961135430279 0 -0.1600950068535596 0.3102709350411631 0 -0.1791447939976725 0.30670081403971861 0 -0.1600950068535596 0.3102709350411631 0 -0.175770447528621 0.30358961135430279 0 -0.1600950068535596 0.3102709350411631 0 -0.16261403203449371 0.29403005013853428 0 -0.17244736261766219 0.27939133605495209 0 -0.175770447528621 0.30358961135430279 0 -0.16261403203449371 0.29403005013853428 0 -0.17244736261766219 0.27939133605495209 0 -0.16261403203449371 0.29403005013853428 0 -0.15656323555280829 0.28269012713256769 0 -0.15656323555280829 0.28269012713256769 0 -0.14791851907636269 0.29345176862658662 0 -0.14398429490495279 0.2781066563476764 0 -0.16261403203449371 0.29403005013853428 0 -0.15656323555280829 0.28269012713256769 0 -0.14791851907636269 0.29345176862658662 0 -0.1600950068535596 0.3102709350411631 0 -0.14791851907636269 0.29345176862658662 0 -0.14393776692921459 0.30377600958425871 0 -0.14791851907636269 0.29345176862658662 0 -0.14393776692921459 0.30377600958425871 0 -0.1314624863067114 0.30195068522895252 0 -0.1426586023416811 0.31353869197023632 0 -0.1600950068535596 0.3102709350411631 0 -0.1426586023416811 0.31353869197023632 0 -0.1600950068535596 0.3102709350411631 0 -0.14393776692921459 0.30377600958425871 0 -0.12522219782980251 0.31680644889930942 0 -0.1426586023416811 0.31353869197023632 0 -0.1314624863067114 0.30195068522895252 0 -0.1426586023416811 0.31353869197023632 0 -0.14393776692921459 0.30377600958425871 0 -0.1314624863067114 0.30195068522895252 0 -0.12522219782980251 0.31680644889930942 0 -0.1314624863067114 0.30195068522895252 0 -0.11928910735618781 0.30134428255610779 0 -0.14791851907636269 0.29345176862658662 0 -0.1314624863067114 0.30195068522895252 0 -0.12849438665656759 0.28611322018648577 0 -0.1314624863067114 0.30195068522895252 0 -0.12849438665656759 0.28611322018648577 0 -0.11928910735618781 0.30134428255610779 0 -0.14791851907636269 0.29345176862658662 0 -0.12849438665656759 0.28611322018648577 0 -0.14398429490495279 0.2781066563476764 0 -0.12849438665656759 0.28611322018648577 0 -0.13322090766392841 0.26564730886718019 0 -0.14398429490495279 0.2781066563476764 0 -0.12849438665656759 0.28611322018648577 0 -0.13322090766392841 0.26564730886718019 0 -0.11959959930457249 0.26932993010046868 0 -0.13322090766392841 0.26564730886718019 0 -0.12612077033089619 0.25508176695385482 0 -0.11959959930457249 0.26932993010046868 0 -0.13322090766392841 0.26564730886718019 0 -0.153448837031642 0.26187438444246253 0 -0.13445031144562181 0.24435743282997291 0 -0.13322090766392841 0.26564730886718019 0 -0.12612077033089619 0.25508176695385482 0 -0.13445031144562181 0.24435743282997291 0 -0.153448837031642 0.26187438444246253 0 -0.15921749235545729 0.24728948044781751 0 -0.1448195272638477 0.24358016940887259 0 -0.153448837031642 0.26187438444246253 0 -0.13445031144562181 0.24435743282997291 0 -0.15656323555280829 0.28269012713256769 0 -0.153448837031642 0.26187438444246253 0 -0.14398429490495279 0.2781066563476764 0 -0.13322090766392841 0.26564730886718019 0 -0.153448837031642 0.26187438444246253 0 -0.14398429490495279 0.2781066563476764 0 -0.1005896630950656 0.27291822448766612 0 -0.1142226619099411 0.25036030802506137 0 -0.1005896630950656 0.27291822448766612 0 -0.1142226619099411 0.25036030802506137 0 -0.088205846149722877 0.25713272569092332 0 -0.12612077033089619 0.25508176695385482 0 -0.1142226619099411 0.25036030802506137 0 -0.11959959930457249 0.26932993010046868 0 -0.1005896630950656 0.27291822448766612 0 -0.1142226619099411 0.25036030802506137 0 -0.11959959930457249 0.26932993010046868 0 -0.1005896630950656 0.27291822448766612 0 -0.11959959930457249 0.26932993010046868 0 -0.1122545250915182 0.28674567034227472 0 -0.12849438665656759 0.28611322018648577 0 -0.11959959930457249 0.26932993010046868 0 -0.1122545250915182 0.28674567034227472 0 -0.12849438665656759 0.28611322018648577 0 -0.1122545250915182 0.28674567034227472 0 -0.11928910735618781 0.30134428255610779 0 -0.1122545250915182 0.28674567034227472 0 -0.11928910735618781 0.30134428255610779 0 -0.1061537785082669 0.30127433766211759 0 -0.12522219782980251 0.31680644889930942 0 -0.11928910735618781 0.30134428255610779 0 -0.1097156095860123 0.31523807546013688 0 -0.11928910735618781 0.30134428255610779 0 -0.1061537785082669 0.30127433766211759 0 -0.1097156095860123 0.31523807546013688 0 -0.1061537785082669 0.30127433766211759 0 -0.090870879529236184 0.3087773128140579 0 -0.1097156095860123 0.31523807546013688 0 -0.1061537785082669 0.30127433766211759 0 -0.093564631248653135 0.28964460892311422 0 -0.090870879529236184 0.3087773128140579 0 -0.1005896630950656 0.27291822448766612 0 -0.1122545250915182 0.28674567034227472 0 -0.093564631248653135 0.28964460892311422 0 -0.1122545250915182 0.28674567034227472 0 -0.1061537785082669 0.30127433766211759 0 -0.093564631248653135 0.28964460892311422 0 -0.093564631248653135 0.28964460892311422 0 -0.075165433846140939 0.29504231370845829 0 -0.073921847263442794 0.2731725369667406 0 -0.090870879529236184 0.3087773128140579 0 -0.075165433846140939 0.29504231370845829 0 -0.070253574126565688 0.31266229765776998 0 -0.093564631248653135 0.28964460892311422 0 -0.090870879529236184 0.3087773128140579 0 -0.075165433846140939 0.29504231370845829 0 -0.075165433846140939 0.29504231370845829 0 -0.050191775724699413 0.29532726032528461 0 -0.070253574126565688 0.31266229765776998 0 -0.075165433846140939 0.29504231370845829 0 -0.073921847263442794 0.2731725369667406 0 -0.050191775724699413 0.29532726032528461 0 -0.073921847263442794 0.2731725369667406 0 -0.069459292058931837 0.25840191753036401 0 -0.047481969384000393 0.26968399374835578 0 -0.1005896630950656 0.27291822448766612 0 -0.093564631248653135 0.28964460892311422 0 -0.073921847263442794 0.2731725369667406 0 -0.1005896630950656 0.27291822448766612 0 -0.073921847263442794 0.2731725369667406 0 -0.088205846149722877 0.25713272569092332 0 -0.088205846149722877 0.25713272569092332 0 -0.069459292058931837 0.25840191753036401 0 -0.076867143983894576 0.2466666451067244 0 -0.069459292058931837 0.25840191753036401 0 -0.076867143983894576 0.2466666451067244 0 -0.060819653513598478 0.2453536861390756 0 -0.073921847263442794 0.2731725369667406 0 -0.088205846149722877 0.25713272569092332 0 -0.069459292058931837 0.25840191753036401 0 -0.069459292058931837 0.25840191753036401 0 -0.047481969384000393 0.26968399374835578 0 -0.060819653513598478 0.2453536861390756 0 -0.047481969384000393 0.26968399374835578 0 -0.044772163043302393 0.24404072717142691 0 -0.060819653513598478 0.2453536861390756 0 -0.073921847263442794 0.2731725369667406 0 -0.047481969384000393 0.26968399374835578 0 -0.050191775724699413 0.29532726032528461 0 -0.047481969384000393 0.26968399374835578 0 -0.02497579542961845 0.27103883677574059 0 -0.031821046770050841 0.28916586204638772 0 -0.047481969384000393 0.26968399374835578 0 -0.03548396145915636 0.25798705152301848 0 -0.02497579542961845 0.27103883677574059 0 -0.047481969384000393 0.26968399374835578 0 -0.044772163043302393 0.24404072717142691 0 -0.047481969384000393 0.26968399374835578 0 -0.03548396145915636 0.25798705152301848 0 -0.044772163043302393 0.24404072717142691 0 -0.02497579542961845 0.27103883677574059 0 -0.0086125766329941504 0.2681582996035754 0 -0.014966429343546131 0.2416021087830322 0 -0.03548396145915636 0.25798705152301848 0 -0.02497579542961845 0.27103883677574059 0 -0.014966429343546131 0.2416021087830322 0 -0.02497579542961845 0.27103883677574059 0 -0.0086125766329941504 0.2681582996035754 0 -0.01387783576021002 0.29647938990458911 0 -0.0086125766329941504 0.2681582996035754 0 0.001783118853633629 0.26687294430706471 0 0.00032744538039224569 0.28084305500771939 0 -0.0086125766329941504 0.2681582996035754 0 3.4036501383808038e-05 0.25211346284330632 0 0.001783118853633629 0.26687294430706471 0 -0.0086125766329941504 0.2681582996035754 0 -0.014966429343546131 0.2416021087830322 0 3.4036501383808038e-05 0.25211346284330632 0 -0.01387783576021002 0.29647938990458911 0 -0.002779876090803129 0.3219199430334384 0 -0.01387783576021002 0.29647938990458911 0 -0.027813116511714149 0.31125587507130659 0 -0.002779876090803129 0.3219199430334384 0 -0.01387783576021002 0.29647938990458911 0 -0.002779876090803129 0.3219199430334384 0 0.01095689844870875 0.30401128476579459 0 -0.0086125766329941504 0.2681582996035754 0 -0.01387783576021002 0.29647938990458911 0 0.00032744538039224569 0.28084305500771939 0 -0.01387783576021002 0.29647938990458911 0 0.010041311326242889 0.29266434618374332 0 0.00032744538039224569 0.28084305500771939 0 -0.02497579542961845 0.27103883677574059 0 -0.01387783576021002 0.29647938990458911 0 -0.031821046770050841 0.28916586204638772 0 -0.02497579542961845 0.27103883677574059 0 -0.01387783576021002 0.29647938990458911 0 -0.01387783576021002 0.29647938990458911 0 -0.027813116511714149 0.31125587507130659 0 -0.031821046770050841 0.28916586204638772 0 -0.027813116511714149 0.31125587507130659 0 -0.031821046770050841 0.28916586204638772 0 -0.050191775724699413 0.29532726032528461 0 -0.027813116511714149 0.31125587507130659 0 -0.050191775724699413 0.29532726032528461 0 -0.052901582065398439 0.32097052690221339 0 -0.047481969384000393 0.26968399374835578 0 -0.031821046770050841 0.28916586204638772 0 -0.050191775724699413 0.29532726032528461 0 -0.047481969384000393 0.26968399374835578 0 -0.050191775724699413 0.29532726032528461 0 -0.050191775724699413 0.29532726032528461 0 -0.052901582065398439 0.32097052690221339 0 -0.050191775724699413 0.29532726032528461 0 -0.052901582065398439 0.32097052690221339 0 -0.070253574126565688 0.31266229765776998 0 -0.052901582065398439 0.32097052690221339 0 -0.055611388406097743 0.34661379347914217 0 -0.052901582065398439 0.32097052690221339 0 -0.055611388406097743 0.34661379347914217 0 -0.065475399686112629 0.33888580458489997 0 -0.02919563224845052 0.33426686825629032 0 -0.033595733692541693 0.34652904084142089 0 -0.055611388406097743 0.34661379347914217 0 -0.052901582065398439 0.32097052690221339 0 -0.02919563224845052 0.33426686825629032 0 -0.055611388406097743 0.34661379347914217 0 -0.02919563224845052 0.33426686825629032 0 -0.055611388406097743 0.34661379347914217 0 -0.027813116511714149 0.31125587507130659 0 -0.052901582065398439 0.32097052690221339 0 -0.02919563224845052 0.33426686825629032 0 -0.027813116511714149 0.31125587507130659 0 -0.02919563224845052 0.33426686825629032 0 -0.002779876090803129 0.3219199430334384 0 -0.02919563224845052 0.33426686825629032 0 -0.002779876090803129 0.3219199430334384 0 -0.02919563224845052 0.33426686825629032 0 -0.002779876090803129 0.3219199430334384 0 -0.020697810644934238 0.34403759133798628 0 -0.02919563224845052 0.33426686825629032 0 -0.020697810644934238 0.34403759133798628 0 -0.033595733692541693 0.34652904084142089 0 -0.002779876090803129 0.3219199430334384 0 -0.0077270399645133223 0.34787393807981482 0 -0.020697810644934238 0.34403759133798628 0 -0.002779876090803129 0.3219199430334384 0 -0.0077270399645133223 0.34787393807981482 0 0.0079430069714572782 0.34650068439185039 0 -0.0045112187503786819 0.3654230608970287 0 -0.026285228190691321 0.35455031176188151 0 -0.014888848242480591 0.36411658674528702 0 -0.0045112187503786819 0.3654230608970287 0 -0.026285228190691321 0.35455031176188151 0 -0.014888848242480591 0.36411658674528702 0 -0.0075547196922330362 0.37202079710967162 0 -0.0045112187503786819 0.3654230608970287 0 -0.014888848242480591 0.36411658674528702 0 -0.0075547196922330362 0.37202079710967162 0 -0.021204226336619319 0.36447217721256647 0 -0.0075547196922330362 0.37202079710967162 0 -0.0045112187503786819 0.3654230608970287 0 0.0037288652009876042 0.37408999224015083 0 -0.0075547196922330362 0.37202079710967162 0 0.003161894288261895 0.37876248276422902 0 0.0037288652009876042 0.37408999224015083 0 -0.0045112187503786819 0.3654230608970287 0 -0.0077270399645133223 0.34787393807981482 0 -0.026285228190691321 0.35455031176188151 0 -0.0045112187503786819 0.3654230608970287 0 -0.0077270399645133223 0.34787393807981482 0 0.00045783537429429209 0.35545048756526998 0 -0.0077270399645133223 0.34787393807981482 0 -0.020697810644934238 0.34403759133798628 0 -0.026285228190691321 0.35455031176188151 0 -0.020697810644934238 0.34403759133798628 0 -0.026285228190691321 0.35455031176188151 0 -0.033595733692541693 0.34652904084142089 0 -0.026285228190691321 0.35455031176188151 0 -0.033595733692541693 0.34652904084142089 0 -0.032018725347256957 0.35756817741597452 0 -0.026285228190691321 0.35455031176188151 0 -0.02675854010756018 0.36079087528092801 0 -0.032018725347256957 0.35756817741597452 0 -0.036878012102860062 0.3702413112501472 0 -0.01626707458050064 0.37610121141200897 0 -0.0075547196922330362 0.37202079710967162 0 -0.032493319394356672 0.36465844443098422 0 -0.0075547196922330362 0.37202079710967162 0 -0.032493319394356672 0.36465844443098422 0 -0.01626707458050064 0.37610121141200897 0 -0.026285228190691321 0.35455031176188151 0 -0.02675854010756018 0.36079087528092801 0 -0.021204226336619319 0.36447217721256647 0 -0.0075547196922330362 0.37202079710967162 0 -0.021204226336619319 0.36447217721256647 0 -0.032493319394356672 0.36465844443098422 0 -0.028993601410399659 0.36344461470249029 0 -0.032493319394356672 0.36465844443098422 0 -0.032018725347256957 0.35756817741597452 0 -0.028993601410399659 0.36344461470249029 0 -0.02675854010756018 0.36079087528092801 0 -0.032018725347256957 0.35756817741597452 0 -0.028993601410399659 0.36344461470249029 0 -0.021204226336619319 0.36447217721256647 0 -0.032493319394356672 0.36465844443098422 0 -0.036878012102860062 0.3702413112501472 0 -0.032493319394356672 0.36465844443098422 0 -0.01626707458050064 0.37610121141200897 0 -0.028993601410399659 0.36344461470249029 0 -0.02675854010756018 0.36079087528092801 0 -0.021204226336619319 0.36447217721256647 0 -0.014888848242480591 0.36411658674528702 0 -0.026285228190691321 0.35455031176188151 0 -0.021204226336619319 0.36447217721256647 0 -0.032493319394356672 0.36465844443098422 0 -0.056439658471632868 0.35445182595006919 0 -0.036878012102860062 0.3702413112501472 0 -0.057488949625219422 0.36438141108828481 0 -0.043962560233343578 0.38463674560388911 0 -0.036878012102860062 0.3702413112501472 0 -0.032493319394356672 0.36465844443098422 0 -0.056891285562835257 0.35872563464225132 0 -0.032493319394356672 0.36465844443098422 0 -0.056891285562835257 0.35872563464225132 0 -0.032493319394356672 0.36465844443098422 0 -0.046049403859521942 0.3521259083013607 0 -0.056439658471632868 0.35445182595006919 0 -0.033595733692541693 0.34652904084142089 0 -0.046049403859521942 0.3521259083013607 0 -0.055611388406097743 0.34661379347914217 0 -0.032493319394356672 0.36465844443098422 0 -0.038009034613011562 0.35399231221839123 0 -0.032018725347256957 0.35756817741597452 0 -0.032493319394356672 0.36465844443098422 0 -0.038009034613011562 0.35399231221839123 0 -0.046049403859521942 0.3521259083013607 0 -0.033595733692541693 0.34652904084142089 0 -0.038009034613011562 0.35399231221839123 0 -0.032018725347256957 0.35756817741597452 0 -0.033595733692541693 0.34652904084142089 0 -0.038009034613011562 0.35399231221839123 0 -0.046049403859521942 0.3521259083013607 0 -0.032493319394356672 0.36465844443098422 0 -0.056891285562835257 0.35872563464225132 0 -0.056439658471632868 0.35445182595006919 0 -0.046049403859521942 0.3521259083013607 0 -0.056439658471632868 0.35445182595006919 0 -0.055611388406097743 0.34661379347914217 0 -0.056891285562835257 0.35872563464225132 0 -0.057488949625219422 0.36438141108828481 0 -0.072515954775281971 0.35451511629721549 0 -0.056439658471632868 0.35445182595006919 0 -0.064777381783492766 0.35089804845743988 0 -0.056891285562835257 0.35872563464225132 0 -0.056439658471632868 0.35445182595006919 0 -0.064777381783492766 0.35089804845743988 0 -0.056891285562835257 0.35872563464225132 0 -0.056439658471632868 0.35445182595006919 0 -0.055611388406097743 0.34661379347914217 0 -0.064777381783492766 0.35089804845743988 0 -0.065475399686112629 0.33888580458489997 0 -0.056439658471632868 0.35445182595006919 0 -0.055611388406097743 0.34661379347914217 0 -0.056439658471632868 0.35445182595006919 0 -0.055611388406097743 0.34661379347914217 0 -0.064777381783492766 0.35089804845743988 0 -0.055611388406097743 0.34661379347914217 0 -0.064777381783492766 0.35089804845743988 0 -0.036878012102860062 0.3702413112501472 0 -0.056891285562835257 0.35872563464225132 0 -0.057488949625219422 0.36438141108828481 0 -0.036878012102860062 0.3702413112501472 0 -0.057488949625219422 0.36438141108828481 0 -0.056891285562835257 0.35872563464225132 0 -0.057488949625219422 0.36438141108828481 0 -0.057488949625219422 0.36438141108828481 0 -0.078437189439954411 0.37225423709352412 0 -0.059859021993269632 0.38680972879785369 0 -0.057488949625219422 0.36438141108828481 0 -0.079957528612573325 0.35799336447459063 0 -0.057488949625219422 0.36438141108828481 0 -0.078437189439954411 0.37225423709352412 0 -0.079957528612573325 0.35799336447459063 0 -0.088403040866133986 0.36194086109899543 0 -0.079957528612573325 0.35799336447459063 0 -0.078437189439954411 0.37225423709352412 0 -0.088403040866133986 0.36194086109899543 0 -0.079957528612573325 0.35799336447459063 0 -0.088403040866133986 0.36194086109899543 0 -0.093000958697218999 0.37127140208609932 0 -0.096853972872007907 0.36259833126286461 0 -0.078437189439954411 0.37225423709352412 0 -0.088403040866133986 0.36194086109899543 0 -0.093000958697218999 0.37127140208609932 0 -0.072515954775281971 0.35451511629721549 0 -0.088606788051010132 0.34074127010337252 0 -0.100813310705905 0.34688957654070413 0 -0.072515954775281971 0.35451511629721549 0 -0.095521569989836769 0.35356834846127583 0 -0.100813310705905 0.34688957654070413 0 -0.072515954775281971 0.35451511629721549 0 -0.100813310705905 0.34688957654070413 0 -0.079957528612573325 0.35799336447459063 0 -0.072515954775281971 0.35451511629721549 0 -0.095521569989836769 0.35356834846127583 0 -0.088403040866133986 0.36194086109899543 0 -0.079957528612573325 0.35799336447459063 0 -0.095521569989836769 0.35356834846127583 0 -0.079957528612573325 0.35799336447459063 0 -0.095521569989836769 0.35356834846127583 0 -0.088403040866133986 0.36194086109899543 0 -0.096853972872007907 0.36259833126286461 0 -0.095521569989836769 0.35356834846127583 0 -0.072515954775281971 0.35451511629721549 0 -0.064777381783492766 0.35089804845743988 0 -0.088606788051010132 0.34074127010337252 0 -0.064777381783492766 0.35089804845743988 0 -0.088606788051010132 0.34074127010337252 0 -0.057488949625219422 0.36438141108828481 0 -0.079957528612573325 0.35799336447459063 0 -0.072515954775281971 0.35451511629721549 0 -0.079957528612573325 0.35799336447459063 0 -0.072515954775281971 0.35451511629721549 0 -0.056891285562835257 0.35872563464225132 0 -0.072515954775281971 0.35451511629721549 0 -0.056891285562835257 0.35872563464225132 0 -0.072515954775281971 0.35451511629721549 0 -0.064777381783492766 0.35089804845743988 0 -0.072515954775281971 0.35451511629721549 0 -0.064777381783492766 0.35089804845743988 0 -0.052901582065398439 0.32097052690221339 0 -0.071422801311392073 0.32934703513679658 0 -0.065475399686112629 0.33888580458489997 0 -0.064777381783492766 0.35089804845743988 0 -0.065475399686112629 0.33888580458489997 0 -0.088606788051010132 0.34074127010337252 0 -0.071422801311392073 0.32934703513679658 0 -0.065475399686112629 0.33888580458489997 0 -0.088606788051010132 0.34074127010337252 0 -0.071422801311392073 0.32934703513679658 0 -0.070253574126565688 0.31266229765776998 0 -0.083523078614957835 0.32316514053642048 0 -0.052901582065398439 0.32097052690221339 0 -0.071422801311392073 0.32934703513679658 0 -0.070253574126565688 0.31266229765776998 0 -0.090870879529236184 0.3087773128140579 0 -0.070253574126565688 0.31266229765776998 0 -0.083523078614957835 0.32316514053642048 0 -0.090870879529236184 0.3087773128140579 0 -0.083523078614957835 0.32316514053642048 0 -0.096461350056585057 0.32429778697010531 0 -0.071422801311392073 0.32934703513679658 0 -0.083523078614957835 0.32316514053642048 0 -0.088606788051010132 0.34074127010337252 0 -0.083523078614957835 0.32316514053642048 0 -0.088606788051010132 0.34074127010337252 0 -0.096461350056585057 0.32429778697010531 0 -0.088606788051010132 0.34074127010337252 0 -0.096461350056585057 0.32429778697010531 0 -0.1124361943185265 0.33058449174930271 0 -0.088606788051010132 0.34074127010337252 0 -0.1124361943185265 0.33058449174930271 0 -0.100813310705905 0.34688957654070413 0 -0.088606788051010132 0.34074127010337252 0 -0.1124361943185265 0.33058449174930271 0 -0.096461350056585057 0.32429778697010531 0 -0.1097156095860123 0.31523807546013688 0 -0.1124361943185265 0.33058449174930271 0 -0.090870879529236184 0.3087773128140579 0 -0.096461350056585057 0.32429778697010531 0 -0.1097156095860123 0.31523807546013688 0 -0.13626560058604301 0.32042771339523279 0 -0.12522219782980251 0.31680644889930942 0 -0.1124361943185265 0.33058449174930271 0 -0.13626560058604301 0.32042771339523279 0 -0.1124361943185265 0.33058449174930271 0 -0.12522219782980251 0.31680644889930942 0 -0.1097156095860123 0.31523807546013688 0 -0.1124361943185265 0.33058449174930271 0 -0.12911066663652779 0.33926403678419192 0 -0.1124361943185265 0.33058449174930271 0 -0.100813310705905 0.34688957654070413 0 -0.12911066663652779 0.33926403678419192 0 -0.100813310705905 0.34688957654070413 0 -0.12911066663652779 0.33926403678419192 0 -0.11291580241631741 0.35586745509001311 0 -0.100813310705905 0.34688957654070413 0 -0.12735311119068521 0.35737863321314151 0 -0.12911066663652779 0.33926403678419192 0 -0.11291580241631741 0.35586745509001311 0 -0.12735311119068521 0.35737863321314151 0 -0.11291580241631741 0.35586745509001311 0 -0.12030727828528601 0.36679067336604781 0 -0.13214598057342289 0.37070553122603661 0 -0.12030727828528601 0.36679067336604781 0 -0.1216364771498149 0.37964542288782621 0 -0.12030727828528601 0.36679067336604781 0 -0.11258702206112051 0.37433135473297041 0 -0.1216364771498149 0.37964542288782621 0 -0.12030727828528601 0.36679067336604781 0 -0.11258702206112051 0.37433135473297041 0 -0.1113104176231926 0.36480403467726802 0 -0.11291580241631741 0.35586745509001311 0 -0.12030727828528601 0.36679067336604781 0 -0.1113104176231926 0.36480403467726802 0 -0.11291580241631741 0.35586745509001311 0 -0.1113104176231926 0.36480403467726802 0 -0.10388966454216091 0.35861831246614329 0 -0.10396630206901721 0.36804792963601352 0 -0.096853972872007907 0.36259833126286461 0 -0.10388966454216091 0.35861831246614329 0 -0.1113104176231926 0.36480403467726802 0 -0.10396630206901721 0.36804792963601352 0 -0.10388966454216091 0.35861831246614329 0 -0.11258702206112051 0.37433135473297041 0 -0.10396630206901721 0.36804792963601352 0 -0.10169512219332059 0.37962229962684851 0 -0.11258702206112051 0.37433135473297041 0 -0.1113104176231926 0.36480403467726802 0 -0.10396630206901721 0.36804792963601352 0 -0.093000958697218999 0.37127140208609932 0 -0.10396630206901721 0.36804792963601352 0 -0.096853972872007907 0.36259833126286461 0 -0.093000958697218999 0.37127140208609932 0 -0.10396630206901721 0.36804792963601352 0 -0.10169512219332059 0.37962229962684851 0 -0.096853972872007907 0.36259833126286461 0 -0.095521569989836769 0.35356834846127583 0 -0.10388966454216091 0.35861831246614329 0 -0.095521569989836769 0.35356834846127583 0 -0.100813310705905 0.34688957654070413 0 -0.10388966454216091 0.35861831246614329 0 -0.11291580241631741 0.35586745509001311 0 -0.100813310705905 0.34688957654070413 0 -0.10388966454216091 0.35861831246614329 0 -0.1006885010439178 0.39533122885653521 0 -0.10169512219332059 0.37962229962684851 0 -0.1115100018319394 0.38556836938172701 0 -0.1006885010439178 0.39533122885653521 0 -0.10169512219332059 0.37962229962684851 0 -0.0884179474567095 0.38318351306774567 0 -0.093000958697218999 0.37127140208609932 0 -0.10169512219332059 0.37962229962684851 0 -0.0884179474567095 0.38318351306774567 0 -0.11258702206112051 0.37433135473297041 0 -0.10169512219332059 0.37962229962684851 0 -0.1115100018319394 0.38556836938172701 0 -0.1326230197812206 0.38578317979234023 0 -0.1216364771498149 0.37964542288782621 0 -0.11938697336984549 0.39593056612221672 0 -0.1115100018319394 0.38556836938172701 0 -0.1216364771498149 0.37964542288782621 0 -0.11938697336984549 0.39593056612221672 0 -0.11258702206112051 0.37433135473297041 0 -0.1115100018319394 0.38556836938172701 0 -0.1216364771498149 0.37964542288782621 0 -0.1006885010439178 0.39533122885653521 0 -0.11938697336984549 0.39593056612221672 0 -0.1090442391948616 0.41148530843012238 0 -0.1006885010439178 0.39533122885653521 0 -0.1115100018319394 0.38556836938172701 0 -0.11938697336984549 0.39593056612221672 0 -0.12064699510279819 0.41141043511993952 0 -0.1143196401421251 0.42116835628965349 0 -0.1238628249485012 0.42640829874204977 0 -0.12064699510279819 0.41141043511993952 0 -0.1143196401421251 0.42116835628965349 0 -0.1090442391948616 0.41148530843012238 0 -0.11938697336984549 0.39593056612221672 0 -0.12064699510279819 0.41141043511993952 0 -0.1090442391948616 0.41148530843012238 0 -0.12646158318117309 0.44043125541057793 0 -0.1238628249485012 0.42640829874204977 0 -0.1153750205342354 0.4409930649252245 0 -0.1143196401421251 0.42116835628965349 0 -0.1238628249485012 0.42640829874204977 0 -0.1120549684768552 0.43204525842648922 0 -0.1143196401421251 0.42116835628965349 0 -0.1120549684768552 0.43204525842648922 0 -0.10321461368879679 0.42212069990009848 0 -0.1238628249485012 0.42640829874204977 0 -0.1120549684768552 0.43204525842648922 0 -0.1153750205342354 0.4409930649252245 0 -0.1120549684768552 0.43204525842648922 0 -0.088327067603114359 0.4318558113217405 0 -0.1004351676289809 0.44134690211153121 0 -0.1120549684768552 0.43204525842648922 0 -0.10321461368879679 0.42212069990009848 0 -0.088327067603114359 0.4318558113217405 0 -0.10321461368879679 0.42212069990009848 0 -0.092146808566297908 0.4132357977397173 0 -0.088327067603114359 0.4318558113217405 0 -0.1120549684768552 0.43204525842648922 0 -0.088327067603114359 0.4318558113217405 0 -0.1006885010439178 0.39533122885653521 0 -0.1090442391948616 0.41148530843012238 0 -0.092146808566297908 0.4132357977397173 0 -0.10321461368879679 0.42212069990009848 0 -0.1090442391948616 0.41148530843012238 0 -0.092146808566297908 0.4132357977397173 0 -0.1143196401421251 0.42116835628965349 0 -0.10321461368879679 0.42212069990009848 0 -0.1090442391948616 0.41148530843012238 0 -0.092146808566297908 0.4132357977397173 0 -0.076154432410223752 0.41846060747859792 0 -0.078168814748084361 0.39664221148919693 0 -0.092146808566297908 0.4132357977397173 0 -0.088327067603114359 0.4318558113217405 0 -0.076154432410223752 0.41846060747859792 0 -0.088327067603114359 0.4318558113217405 0 -0.064599166729373395 0.43166636421699139 0 -0.076154432410223752 0.41846060747859792 0 -0.088327067603114359 0.4318558113217405 0 -0.064599166729373395 0.43166636421699139 0 -0.064599166729373395 0.43166636421699139 0 -0.062229094361322852 0.40923804650742251 0 -0.076154432410223752 0.41846060747859792 0 -0.078168814748084361 0.39664221148919693 0 -0.062229094361322852 0.40923804650742251 0 -0.064599166729373395 0.43166636421699139 0 -0.076154432410223752 0.41846060747859792 0 -0.062229094361322852 0.40923804650742251 0 -0.078168814748084361 0.39664221148919693 0 -0.059859021993269632 0.38680972879785369 0 -0.062229094361322852 0.40923804650742251 0 -0.1006885010439178 0.39533122885653521 0 -0.078168814748084361 0.39664221148919693 0 -0.0884179474567095 0.38318351306774567 0 -0.1006885010439178 0.39533122885653521 0 -0.092146808566297908 0.4132357977397173 0 -0.078168814748084361 0.39664221148919693 0 -0.078437189439954411 0.37225423709352412 0 -0.093000958697218999 0.37127140208609932 0 -0.0884179474567095 0.38318351306774567 0 -0.078168814748084361 0.39664221148919693 0 -0.0884179474567095 0.38318351306774567 0 -0.078796593135918996 0.38445365595787062 0 -0.078437189439954411 0.37225423709352412 0 -0.0884179474567095 0.38318351306774567 0 -0.078796593135918996 0.38445365595787062 0 -0.078437189439954411 0.37225423709352412 0 -0.078796593135918996 0.38445365595787062 0 -0.059859021993269632 0.38680972879785369 0 -0.078168814748084361 0.39664221148919693 0 -0.078796593135918996 0.38445365595787062 0 -0.059859021993269632 0.38680972879785369 0 -0.057488949625219422 0.36438141108828481 0 -0.059859021993269632 0.38680972879785369 0 -0.059859021993269632 0.38680972879785369 0 -0.040179649601050707 0.40022869671958111 0 -0.043962560233343578 0.38463674560388911 0 -0.057488949625219422 0.36438141108828481 0 -0.059859021993269632 0.38680972879785369 0 -0.043962560233343578 0.38463674560388911 0 -0.059859021993269632 0.38680972879785369 0 -0.040179649601050707 0.40022869671958111 0 -0.062229094361322852 0.40923804650742251 0 -0.059859021993269632 0.38680972879785369 0 -0.062229094361322852 0.40923804650742251 0 -0.040179649601050707 0.40022869671958111 0 -0.043962560233343578 0.38463674560388911 0 -0.026499846558001281 0.38987311776172789 0 -0.036878012102860062 0.3702413112501472 0 -0.043962560233343578 0.38463674560388911 0 -0.026499846558001281 0.38987311776172789 0 -0.026499846558001281 0.38987311776172789 0 -0.01626707458050064 0.37610121141200897 0 -0.0065706072671127469 0.39434828954426082 0 -0.036878012102860062 0.3702413112501472 0 -0.026499846558001281 0.38987311776172789 0 -0.01626707458050064 0.37610121141200897 0 -0.026499846558001281 0.38987311776172789 0 -0.018096234520370839 0.40340099140209068 0 -0.0065706072671127469 0.39434828954426082 0 -0.040179649601050707 0.40022869671958111 0 -0.026499846558001281 0.38987311776172789 0 -0.018096234520370839 0.40340099140209068 0 -0.018096234520370839 0.40340099140209068 0 -0.0065706072671127469 0.39434828954426082 0 -0.0072436027832006112 0.4123364379025341 0 -0.0065706072671127469 0.39434828954426082 0 -0.0072436027832006112 0.4123364379025341 0 0.01089180108124084 0.39997252845066772 0 -0.01626707458050064 0.37610121141200897 0 0.0043438629418587676 0.38196111157387103 0 -0.01626707458050064 0.37610121141200897 0 0.0043438629418587676 0.38196111157387103 0 0.003161894288261895 0.37876248276422902 0 -0.01626707458050064 0.37610121141200897 0 -0.0065706072671127469 0.39434828954426082 0 0.0043438629418587676 0.38196111157387103 0 -0.0075547196922330362 0.37202079710967162 0 -0.01626707458050064 0.37610121141200897 0 0.003161894288261895 0.37876248276422902 0 -0.011394810215588989 0.43124157268759389 0 -0.0025660179154935459 0.44998626422533278 0 0.0041628915828715758 0.42497939633799958 0 -0.011394810215588989 0.43124157268759389 0 -0.0072436027832006112 0.4123364379025341 0 0.0041628915828715758 0.42497939633799958 0 -0.011394810215588989 0.43124157268759389 0 -0.0072436027832006112 0.4123364379025341 0 -0.02555646458780644 0.41826112054656428 0 -0.040179649601050707 0.40022869671958111 0 -0.018096234520370839 0.40340099140209068 0 -0.02555646458780644 0.41826112054656428 0 -0.018096234520370839 0.40340099140209068 0 -0.0072436027832006112 0.4123364379025341 0 -0.02555646458780644 0.41826112054656428 0 -0.011394810215588989 0.43124157268759389 0 -0.02555646458780644 0.41826112054656428 0 -0.037996988472481168 0.43145396845229278 0 -0.011394810215588989 0.43124157268759389 0 -0.037996988472481168 0.43145396845229278 0 -0.024555823784448962 0.4488919763634131 0 -0.011394810215588989 0.43124157268759389 0 -0.037996988472481168 0.43145396845229278 0 -0.02555646458780644 0.41826112054656428 0 -0.037996988472481168 0.43145396845229278 0 -0.046455277113793748 0.41635628640821842 0 -0.040179649601050707 0.40022869671958111 0 -0.02555646458780644 0.41826112054656428 0 -0.046455277113793748 0.41635628640821842 0 -0.064599166729373395 0.43166636421699139 0 -0.046455277113793748 0.41635628640821842 0 -0.062229094361322852 0.40923804650742251 0 -0.040179649601050707 0.40022869671958111 0 -0.046455277113793748 0.41635628640821842 0 -0.062229094361322852 0.40923804650742251 0 -0.064599166729373395 0.43166636421699139 0 -0.037996988472481168 0.43145396845229278 0 -0.046455277113793748 0.41635628640821842 0 -0.064599166729373395 0.43166636421699139 0 -0.037996988472481168 0.43145396845229278 0 -0.046710906172838018 0.44762097489496588 0 -0.064599166729373395 0.43166636421699139 0 -0.037996988472481168 0.43145396845229278 0 -0.064599166729373395 0.43166636421699139 0 -0.046710906172838018 0.44762097489496588 0 -0.067006178318848073 0.45444424281132112 0 -0.038665370728233742 0.46730105838875968 0 -0.051703996542649983 0.48305618961746721 0 -0.067006178318848073 0.45444424281132112 0 -0.038665370728233742 0.46730105838875968 0 -0.046710906172838018 0.44762097489496588 0 -0.067006178318848073 0.45444424281132112 0 -0.038665370728233742 0.46730105838875968 0 -0.046710906172838018 0.44762097489496588 0 -0.024555823784448962 0.4488919763634131 0 -0.037996988472481168 0.43145396845229278 0 -0.046710906172838018 0.44762097489496588 0 -0.024555823784448962 0.4488919763634131 0 -0.038665370728233742 0.46730105838875968 0 -0.024555823784448962 0.4488919763634131 0 -0.0092949274138586589 0.47499313211266581 0 -0.0025660179154935459 0.44998626422533278 0 -0.0092949274138586589 0.47499313211266581 0 -0.0025660179154935459 0.44998626422533278 0 -0.0092949274138586589 0.47499313211266581 0 0.01118748516252247 0.4598761781804801 0 -0.024555823784448962 0.4488919763634131 0 -0.0025660179154935459 0.44998626422533278 0 -0.0092949274138586589 0.47499313211266581 0 -0.011394810215588989 0.43124157268759389 0 -0.024555823784448962 0.4488919763634131 0 -0.0025660179154935459 0.44998626422533278 0 -0.0092949274138586589 0.47499313211266581 0 -0.016023836912223529 0.499999999999999 0 -0.016023836912223529 0.499999999999999 0 0.0041546557958673912 0.4884928686158212 0 0.0080784329589246306 0.5 0 -0.0092949274138586589 0.47499313211266581 0 -0.016023836912223529 0.499999999999999 0 0.0041546557958673912 0.4884928686158212 0 -0.038665370728233742 0.46730105838875968 0 -0.0092949274138586589 0.47499313211266581 0 -0.028162121279770639 0.48404265571054839 0 -0.0092949274138586589 0.47499313211266581 0 -0.028162121279770639 0.48404265571054839 0 -0.016023836912223529 0.499999999999999 0 -0.028162121279770639 0.48404265571054839 0 -0.016023836912223529 0.499999999999999 0 -0.043922019205006817 0.5 0 -0.028162121279770639 0.48404265571054839 0 -0.043922019205006817 0.5 0 -0.051703996542649983 0.48305618961746721 0 -0.038665370728233742 0.46730105838875968 0 -0.028162121279770639 0.48404265571054839 0 -0.051703996542649983 0.48305618961746721 0 -0.043922019205006817 0.5 0 -0.051703996542649983 0.48305618961746721 0 -0.071820201497790143 0.49999999999998129 0 -0.051703996542649983 0.48305618961746721 0 -0.071820201497790143 0.49999999999998129 0 -0.069413189908320086 0.47722212140565112 0 -0.071820201497790143 0.49999999999998129 0 -0.08300942923932414 0.48653258802607779 0 -0.069413189908320086 0.47722212140565112 0 -0.071820201497790143 0.49999999999998129 0 -0.069413189908320086 0.47722212140565112 0 -0.071820201497790143 0.49999999999998129 0 -0.08300942923932414 0.48653258802607779 0 -0.1001273096208888 0.5 0 -0.08300942923932414 0.48653258802607779 0 -0.1001273096208888 0.5 0 -0.098112805223081856 0.48690198399208312 0 -0.08300942923932414 0.48653258802607779 0 -0.08242809231950507 0.46707985915381378 0 -0.095139485564518025 0.47535129642757762 0 -0.08300942923932414 0.48653258802607779 0 -0.069413189908320086 0.47722212140565112 0 -0.08242809231950507 0.46707985915381378 0 -0.08300942923932414 0.48653258802607779 0 -0.098112805223081856 0.48690198399208312 0 -0.095139485564518025 0.47535129642757762 0 -0.051703996542649983 0.48305618961746721 0 -0.069413189908320086 0.47722212140565112 0 -0.067006178318848073 0.45444424281132112 0 -0.069413189908320086 0.47722212140565112 0 -0.067006178318848073 0.45444424281132112 0 -0.08242809231950507 0.46707985915381378 0 -0.069413189908320086 0.47722212140565112 0 -0.067006178318848073 0.45444424281132112 0 -0.067006178318848073 0.45444424281132112 0 -0.08480061421116715 0.449181050934015 0 -0.08242809231950507 0.46707985915381378 0 -0.064599166729373395 0.43166636421699139 0 -0.067006178318848073 0.45444424281132112 0 -0.064599166729373395 0.43166636421699139 0 -0.067006178318848073 0.45444424281132112 0 -0.08480061421116715 0.449181050934015 0 -0.088327067603114359 0.4318558113217405 0 -0.08480061421116715 0.449181050934015 0 -0.1004351676289809 0.44134690211153121 0 -0.088327067603114359 0.4318558113217405 0 -0.064599166729373395 0.43166636421699139 0 -0.08480061421116715 0.449181050934015 0 -0.08242809231950507 0.46707985915381378 0 -0.096972275300819546 0.4587916442939533 0 -0.095139485564518025 0.47535129642757762 0 -0.08480061421116715 0.449181050934015 0 -0.08242809231950507 0.46707985915381378 0 -0.096972275300819546 0.4587916442939533 0 -0.096972275300819546 0.4587916442939533 0 -0.109118598601992 0.46758899834073547 0 -0.095139485564518025 0.47535129642757762 0 -0.096972275300819546 0.4587916442939533 0 -0.109118598601992 0.46758899834073547 0 -0.1103885665623538 0.45202802086287902 0 -0.08480061421116715 0.449181050934015 0 -0.096972275300819546 0.4587916442939533 0 -0.1004351676289809 0.44134690211153121 0 -0.096972275300819546 0.4587916442939533 0 -0.1004351676289809 0.44134690211153121 0 -0.1103885665623538 0.45202802086287902 0 -0.1120549684768552 0.43204525842648922 0 -0.1004351676289809 0.44134690211153121 0 -0.1153750205342354 0.4409930649252245 0 -0.1004351676289809 0.44134690211153121 0 -0.1153750205342354 0.4409930649252245 0 -0.1103885665623538 0.45202802086287902 0 -0.1103885665623538 0.45202802086287902 0 -0.1214208300975589 0.44882109333831971 0 -0.118022968953994 0.45702221470818361 0 -0.1153750205342354 0.4409930649252245 0 -0.1103885665623538 0.45202802086287902 0 -0.1214208300975589 0.44882109333831971 0 -0.12646158318117309 0.44043125541057793 0 -0.1153750205342354 0.4409930649252245 0 -0.1214208300975589 0.44882109333831971 0 -0.109118598601992 0.46758899834073547 0 -0.118022968953994 0.45702221470818361 0 -0.11990732776734039 0.46500732942905232 0 -0.109118598601992 0.46758899834073547 0 -0.1103885665623538 0.45202802086287902 0 -0.118022968953994 0.45702221470818361 0 -0.1270902450669299 0.45549879668012078 0 -0.118022968953994 0.45702221470818361 0 -0.11990732776734039 0.46500732942905232 0 -0.1270902450669299 0.45549879668012078 0 -0.1214208300975589 0.44882109333831971 0 -0.118022968953994 0.45702221470818361 0 -0.128378859872812 0.46350859241118109 0 -0.11990732776734039 0.46500732942905232 0 -0.12422274044664861 0.46877912371349689 0 -0.13040679970736199 0.47463440914024269 0 -0.1248663799293558 0.48456971051795861 0 -0.1083652673007809 0.49065462002270782 0 -0.12609227434380951 0.47353441870607321 0 -0.12422274044664861 0.46877912371349689 0 -0.1169731060961134 0.47382163298241747 0 -0.11990732776734039 0.46500732942905232 0 -0.12422274044664861 0.46877912371349689 0 -0.1169731060961134 0.47382163298241747 0 -0.12609227434380951 0.47353441870607321 0 -0.1169731060961134 0.47382163298241747 0 -0.1083652673007809 0.49065462002270782 0 -0.13040679970736199 0.47463440914024269 0 -0.1083652673007809 0.49065462002270782 0 -0.13040679970736199 0.47463440914024269 0 -0.12609227434380951 0.47353441870607321 0 -0.1083652673007809 0.49065462002270782 0 -0.1169731060961134 0.47382163298241747 0 -0.1098239937318793 0.4780498551683956 0 -0.1083652673007809 0.49065462002270782 0 -0.109118598601992 0.46758899834073547 0 -0.11990732776734039 0.46500732942905232 0 -0.1169731060961134 0.47382163298241747 0 -0.109118598601992 0.46758899834073547 0 -0.1169731060961134 0.47382163298241747 0 -0.1098239937318793 0.4780498551683956 0 -0.12843441774398759 0.5 0 -0.1083652673007809 0.49065462002270782 0 -0.1001273096208888 0.5 0 -0.1248663799293558 0.48456971051795861 0 -0.1235264836517066 0.49047184491401669 0 -0.1083652673007809 0.49065462002270782 0 -0.12843441774398759 0.5 0 -0.1235264836517066 0.49047184491401669 0 -0.1083652673007809 0.49065462002270782 0 -0.1083652673007809 0.49065462002270782 0 -0.098112805223081856 0.48690198399208312 0 -0.1041120300844504 0.47970935079029992 0 -0.1083652673007809 0.49065462002270782 0 -0.1001273096208888 0.5 0 -0.098112805223081856 0.48690198399208312 0 -0.098112805223081856 0.48690198399208312 0 -0.095139485564518025 0.47535129642757762 0 -0.1041120300844504 0.47970935079029992 0 -0.109118598601992 0.46758899834073547 0 -0.1098239937318793 0.4780498551683956 0 -0.1041120300844504 0.47970935079029992 0 -0.109118598601992 0.46758899834073547 0 -0.095139485564518025 0.47535129642757762 0 -0.1041120300844504 0.47970935079029992 0 -0.1098239937318793 0.4780498551683956 0 -0.1083652673007809 0.49065462002270782 0 -0.1041120300844504 0.47970935079029992 0 -0.1634756310438169 0.092246185644673545 0 -0.1613076166594444 0.078338667319227534 0 -0.18081373669588249 0.088080455692086584 0 -0.1634756310438169 0.092246185644673545 0 -0.1613076166594444 0.078338667319227534 0 -0.15181714043583239 0.087717765224677002 0 -0.1613076166594444 0.078338667319227534 0 -0.17459099630605041 0.068335065373714532 0 -0.15528995027968939 0.065924726380977378 0 -0.17459099630605041 0.068335065373714532 0 -0.18081373669588249 0.088080455692086584 0 -0.20360129161501259 0.072307500769365665 0 -0.1634756310438169 0.092246185644673545 0 -0.18081373669588249 0.088080455692086584 0 -0.17345520808240031 0.10012962196636251 0 -0.1613076166594444 0.078338667319227534 0 -0.17459099630605041 0.068335065373714532 0 -0.18081373669588249 0.088080455692086584 0 -0.18081373669588249 0.088080455692086584 0 -0.18711890302695519 0.1057160371235651 0 -0.17345520808240031 0.10012962196636251 0 -0.17345520808240031 0.10012962196636251 0 -0.17749934873145909 0.1103497586724054 0 -0.16889736020855889 0.1070864081317011 0 -0.18711890302695519 0.1057160371235651 0 -0.17345520808240031 0.10012962196636251 0 -0.17749934873145909 0.1103497586724054 0 -0.18711890302695519 0.1057160371235651 0 -0.17749934873145909 0.1103497586724054 0 -0.18893276410175591 0.1151021439971843 0 -0.18085132658360689 0.1195279332587393 0 -0.17749934873145909 0.1103497586724054 0 -0.18893276410175591 0.1151021439971843 0 -0.17749934873145909 0.1103497586724054 0 -0.1734796300358285 0.1189485231901475 0 -0.1683432863445132 0.1137206857876383 0 -0.18085132658360689 0.1195279332587393 0 -0.17749934873145909 0.1103497586724054 0 -0.1734796300358285 0.1189485231901475 0 -0.18085132658360689 0.1195279332587393 0 -0.1734796300358285 0.1189485231901475 0 -0.1743120616679292 0.12636079750236859 0 -0.1734796300358285 0.1189485231901475 0 -0.16515571909500801 0.12260505305778591 0 -0.1743120616679292 0.12636079750236859 0 -0.16515571909500801 0.12260505305778591 0 -0.1683432863445132 0.1137206857876383 0 -0.160327981317819 0.1157583570506046 0 -0.1734796300358285 0.1189485231901475 0 -0.16515571909500801 0.12260505305778591 0 -0.1683432863445132 0.1137206857876383 0 -0.17749934873145909 0.1103497586724054 0 -0.1683432863445132 0.1137206857876383 0 -0.16889736020855889 0.1070864081317011 0 -0.1683432863445132 0.1137206857876383 0 -0.16294122323156751 0.10968199197180301 0 -0.16889736020855889 0.1070864081317011 0 -0.1683432863445132 0.1137206857876383 0 -0.16294122323156751 0.10968199197180301 0 -0.160327981317819 0.1157583570506046 0 -0.16294122323156751 0.10968199197180301 0 -0.160327981317819 0.1157583570506046 0 -0.15536832690851529 0.1097457230705657 0 -0.160327981317819 0.1157583570506046 0 -0.15638423188120451 0.1238317290894369 0 -0.15256646079046579 0.1175743947290525 0 -0.16515571909500801 0.12260505305778591 0 -0.160327981317819 0.1157583570506046 0 -0.15638423188120451 0.1238317290894369 0 -0.1634756310438169 0.092246185644673545 0 -0.17345520808240031 0.10012962196636251 0 -0.16129058810400809 0.10264758937671439 0 -0.17345520808240031 0.10012962196636251 0 -0.16889736020855889 0.1070864081317011 0 -0.16129058810400809 0.10264758937671439 0 -0.16294122323156751 0.10968199197180301 0 -0.16889736020855889 0.1070864081317011 0 -0.16129058810400809 0.10264758937671439 0 -0.16294122323156751 0.10968199197180301 0 -0.16129058810400809 0.10264758937671439 0 -0.15536832690851529 0.1097457230705657 0 -0.1634756310438169 0.092246185644673545 0 -0.16129058810400809 0.10264758937671439 0 -0.15288630033359549 0.097193982719750299 0 -0.16129058810400809 0.10264758937671439 0 -0.15288630033359549 0.097193982719750299 0 -0.15147119583804289 0.10478154927543661 0 -0.15288630033359549 0.097193982719750299 0 -0.15147119583804289 0.10478154927543661 0 -0.14614149523025519 0.1023149168094591 0 -0.16129058810400809 0.10264758937671439 0 -0.15147119583804289 0.10478154927543661 0 -0.15536832690851529 0.1097457230705657 0 -0.15147119583804289 0.10478154927543661 0 -0.15536832690851529 0.1097457230705657 0 -0.14917736198678541 0.1112798298710464 0 -0.15147119583804289 0.10478154927543661 0 -0.14733145945022619 0.106445347136364 0 -0.14917736198678541 0.1112798298710464 0 -0.14614149523025519 0.1023149168094591 0 -0.14733145945022619 0.106445347136364 0 -0.14340743951751261 0.10605201458290291 0 -0.15147119583804289 0.10478154927543661 0 -0.14614149523025519 0.1023149168094591 0 -0.14733145945022619 0.106445347136364 0 -0.14733145945022619 0.106445347136364 0 -0.14340743951751261 0.10605201458290291 0 -0.14336402898051109 0.1110839732129914 0 -0.14340743951751261 0.10605201458290291 0 -0.1407228601539795 0.1036880388658393 0 -0.13900277255170351 0.1069011278919723 0 -0.14340743951751261 0.10605201458290291 0 -0.14336402898051109 0.1110839732129914 0 -0.13900277255170351 0.1069011278919723 0 -0.14614149523025519 0.1023149168094591 0 -0.14340743951751261 0.10605201458290291 0 -0.1407228601539795 0.1036880388658393 0 -0.14614149523025519 0.1023149168094591 0 -0.1407228601539795 0.1036880388658393 0 -0.14102523676799969 0.1001094180881712 0 -0.14614149523025519 0.1023149168094591 0 -0.14102523676799969 0.1001094180881712 0 -0.14508403652236471 0.095071039692081 0 -0.14102523676799969 0.1001094180881712 0 -0.14508403652236471 0.095071039692081 0 -0.1373562005554797 0.096558202524110862 0 -0.15288630033359549 0.097193982719750299 0 -0.14614149523025519 0.1023149168094591 0 -0.14508403652236471 0.095071039692081 0 -0.15638423188120451 0.1238317290894369 0 -0.15256646079046579 0.1175743947290525 0 -0.14771333824842281 0.12544886910463199 0 -0.15256646079046579 0.1175743947290525 0 -0.14521575766649181 0.11909484549006701 0 -0.14771333824842281 0.12544886910463199 0 -0.15256646079046579 0.1175743947290525 0 -0.14917736198678541 0.1112798298710464 0 -0.14521575766649181 0.11909484549006701 0 -0.15256646079046579 0.1175743947290525 0 -0.15536832690851529 0.1097457230705657 0 -0.14917736198678541 0.1112798298710464 0 -0.160327981317819 0.1157583570506046 0 -0.15256646079046579 0.1175743947290525 0 -0.15536832690851529 0.1097457230705657 0 -0.14917736198678541 0.1112798298710464 0 -0.14336402898051109 0.1110839732129914 0 -0.14521575766649181 0.11909484549006701 0 -0.14336402898051109 0.1110839732129914 0 -0.14521575766649181 0.11909484549006701 0 -0.13816656960512311 0.11756685565145331 0 -0.14733145945022619 0.106445347136364 0 -0.14917736198678541 0.1112798298710464 0 -0.14336402898051109 0.1110839732129914 0 -0.14521575766649181 0.11909484549006701 0 -0.14771333824842281 0.12544886910463199 0 -0.1359731756398993 0.1287188491007813 0 -0.13076360428077999 0.1032023948954521 0 -0.1235192860157463 0.11941317108773911 0 -0.13291029282560909 0.1121500122910329 0 -0.13076360428077999 0.1032023948954521 0 -0.1235192860157463 0.11941317108773911 0 -0.14521575766649181 0.11909484549006701 0 -0.13816656960512311 0.11756685565145331 0 -0.1359731756398993 0.1287188491007813 0 -0.13816656960512311 0.11756685565145331 0 -0.1379340743513485 0.11076124472851211 0 -0.13291029282560909 0.1121500122910329 0 -0.14336402898051109 0.1110839732129914 0 -0.13816656960512311 0.11756685565145331 0 -0.1379340743513485 0.11076124472851211 0 -0.14336402898051109 0.1110839732129914 0 -0.1379340743513485 0.11076124472851211 0 -0.13900277255170351 0.1069011278919723 0 -0.1379340743513485 0.11076124472851211 0 -0.13291029282560909 0.1121500122910329 0 -0.1344446508108455 0.1073113770666152 0 -0.13816656960512311 0.11756685565145331 0 -0.13291029282560909 0.1121500122910329 0 -0.1235192860157463 0.11941317108773911 0 -0.1359731756398993 0.1287188491007813 0 -0.1235192860157463 0.11941317108773911 0 -0.13816656960512311 0.11756685565145331 0 -0.1359731756398993 0.1287188491007813 0 -0.1235192860157463 0.11941317108773911 0 -0.13423220048637879 0.1004905155486864 0 -0.13343539714419661 0.097968094268834335 0 -0.1373562005554797 0.096558202524110862 0 -0.13423220048637879 0.1004905155486864 0 -0.1373562005554797 0.096558202524110862 0 -0.13729303109168969 0.10030376660336419 0 -0.13423220048637879 0.1004905155486864 0 -0.13729303109168969 0.10030376660336419 0 -0.13621664094373331 0.1023645006082657 0 -0.13423220048637879 0.1004905155486864 0 -0.13381445209715839 0.1026621461041924 0 -0.13170717523475739 0.101090944653089 0 -0.13423220048637879 0.1004905155486864 0 -0.13343539714419661 0.097968094268834335 0 -0.13170717523475739 0.101090944653089 0 -0.13343539714419661 0.097968094268834335 0 -0.1373562005554797 0.096558202524110862 0 -0.13044601230017061 0.09373271434945106 0 -0.14102523676799969 0.1001094180881712 0 -0.1373562005554797 0.096558202524110862 0 -0.13729303109168969 0.10030376660336419 0 -0.14102523676799969 0.1001094180881712 0 -0.13729303109168969 0.10030376660336419 0 -0.13865121816819409 0.1020989586859387 0 -0.1407228601539795 0.1036880388658393 0 -0.14102523676799969 0.1001094180881712 0 -0.13865121816819409 0.1020989586859387 0 -0.1407228601539795 0.1036880388658393 0 -0.13799832188356839 0.1040290692640531 0 -0.13865121816819409 0.1020989586859387 0 -0.1407228601539795 0.1036880388658393 0 -0.13799832188356839 0.1040290692640531 0 -0.13900277255170351 0.1069011278919723 0 -0.13799832188356839 0.1040290692640531 0 -0.13900277255170351 0.1069011278919723 0 -0.13533245029242949 0.10468101313515719 0 -0.13729303109168969 0.10030376660336419 0 -0.13865121816819409 0.1020989586859387 0 -0.13621664094373331 0.1023645006082657 0 -0.13799832188356839 0.1040290692640531 0 -0.13865121816819409 0.1020989586859387 0 -0.13621664094373331 0.1023645006082657 0 -0.1379340743513485 0.11076124472851211 0 -0.13900277255170351 0.1069011278919723 0 -0.1344446508108455 0.1073113770666152 0 -0.13900277255170351 0.1069011278919723 0 -0.1344446508108455 0.1073113770666152 0 -0.13533245029242949 0.10468101313515719 0 -0.13533245029242949 0.10468101313515719 0 -0.13381445209715839 0.1026621461041924 0 -0.13076360428077999 0.1032023948954521 0 -0.1344446508108455 0.1073113770666152 0 -0.13533245029242949 0.10468101313515719 0 -0.13076360428077999 0.1032023948954521 0 -0.13621664094373331 0.1023645006082657 0 -0.13533245029242949 0.10468101313515719 0 -0.13381445209715839 0.1026621461041924 0 -0.13799832188356839 0.1040290692640531 0 -0.13621664094373331 0.1023645006082657 0 -0.13533245029242949 0.10468101313515719 0 -0.13423220048637879 0.1004905155486864 0 -0.13621664094373331 0.1023645006082657 0 -0.13381445209715839 0.1026621461041924 0 -0.13076360428077999 0.1032023948954521 0 -0.13170717523475739 0.101090944653089 0 -0.13381445209715839 0.1026621461041924 0 -0.13076360428077999 0.1032023948954521 0 -0.13170717523475739 0.101090944653089 0 -0.13291029282560909 0.1121500122910329 0 -0.1344446508108455 0.1073113770666152 0 -0.13076360428077999 0.1032023948954521 0 -0.13076360428077999 0.1032023948954521 0 -0.13170717523475739 0.101090944653089 0 -0.13044601230017061 0.09373271434945106 0 -0.13076360428077999 0.1032023948954521 0 -0.12577384119145621 0.087909922726883194 0 -0.13044601230017061 0.09373271434945106 0 -0.13343539714419661 0.097968094268834335 0 -0.13170717523475739 0.101090944653089 0 -0.13044601230017061 0.09373271434945106 0 -0.12577384119145621 0.087909922726883194 0 -0.13044601230017061 0.09373271434945106 0 -0.1340372224990426 0.08788427678376054 0 -0.12577384119145621 0.087909922726883194 0 -0.13430215430146131 0.07934706358888706 0 -0.1200071464871357 0.075294821015689684 0 -0.12577384119145621 0.087909922726883194 0 -0.13430215430146131 0.07934706358888706 0 -0.1340372224990426 0.08788427678376054 0 -0.13430215430146131 0.07934706358888706 0 -0.1340372224990426 0.08788427678376054 0 -0.14199464985928789 0.087162921217094708 0 -0.1373562005554797 0.096558202524110862 0 -0.1340372224990426 0.08788427678376054 0 -0.14199464985928789 0.087162921217094708 0 -0.1373562005554797 0.096558202524110862 0 -0.13044601230017061 0.09373271434945106 0 -0.1340372224990426 0.08788427678376054 0 -0.14508403652236471 0.095071039692081 0 -0.14199464985928789 0.087162921217094708 0 -0.15181714043583239 0.087717765224677002 0 -0.14508403652236471 0.095071039692081 0 -0.1373562005554797 0.096558202524110862 0 -0.14199464985928789 0.087162921217094708 0 -0.13430215430146131 0.07934706358888706 0 -0.14199464985928789 0.087162921217094708 0 -0.14787493791231379 0.07780811898909977 0 -0.14199464985928789 0.087162921217094708 0 -0.15181714043583239 0.087717765224677002 0 -0.14787493791231379 0.07780811898909977 0 -0.1613076166594444 0.078338667319227534 0 -0.15181714043583239 0.087717765224677002 0 -0.14787493791231379 0.07780811898909977 0 -0.1634756310438169 0.092246185644673545 0 -0.15288630033359549 0.097193982719750299 0 -0.15181714043583239 0.087717765224677002 0 -0.15288630033359549 0.097193982719750299 0 -0.14508403652236471 0.095071039692081 0 -0.15181714043583239 0.087717765224677002 0 -0.15528995027968939 0.065924726380977378 0 -0.14787493791231379 0.07780811898909977 0 -0.1360598665496652 0.061124287569049578 0 -0.1613076166594444 0.078338667319227534 0 -0.15528995027968939 0.065924726380977378 0 -0.14787493791231379 0.07780811898909977 0 -0.13430215430146131 0.07934706358888706 0 -0.14787493791231379 0.07780811898909977 0 -0.1360598665496652 0.061124287569049578 0 -0.13430215430146131 0.07934706358888706 0 -0.1360598665496652 0.061124287569049578 0 -0.1200071464871357 0.075294821015689684 0 -0.1360598665496652 0.061124287569049578 0 -0.13896758136181561 0.039502199217487592 0 -0.1221638745186274 0.046349265705951381 0 -0.13896758136181561 0.039502199217487592 0 -0.12832547528433949 0.017422707222324089 0 -0.1221638745186274 0.046349265705951381 0 -0.12832547528433949 0.017422707222324089 0 -0.1221638745186274 0.046349265705951381 0 -0.13896758136181561 0.039502199217487592 0 -0.15141619206899681 0.02400159055312644 0 -0.15687249838744921 0.048613145036986473 0 -0.1360598665496652 0.061124287569049578 0 -0.13896758136181561 0.039502199217487592 0 -0.15687249838744921 0.048613145036986473 0 -0.15528995027968939 0.065924726380977378 0 -0.1360598665496652 0.061124287569049578 0 -0.15687249838744921 0.048613145036986473 0 -0.1344870760500517 -0.011503851261303469 0 -0.12832547528433949 0.017422707222324089 0 -0.1344870760500517 -0.011503851261303469 0 -0.12832547528433949 0.017422707222324089 0 -0.1481698996749144 0.0056299638759261337 0 -0.13896758136181561 0.039502199217487592 0 -0.12832547528433949 0.017422707222324089 0 -0.15141619206899681 0.02400159055312644 0 -0.12832547528433949 0.017422707222324089 0 -0.15141619206899681 0.02400159055312644 0 -0.1481698996749144 0.0056299638759261337 0 -0.15141619206899681 0.02400159055312644 0 -0.1481698996749144 0.0056299638759261337 0 -0.1659019020419891 0.009198472863133994 0 -0.1607188529291948 -0.01096909999765038 0 -0.1481698996749144 0.0056299638759261337 0 -0.1659019020419891 0.009198472863133994 0 -0.15141619206899681 0.02400159055312644 0 -0.1659019020419891 0.009198472863133994 0 -0.17149442249203509 0.030428385179814731 0 -0.1659019020419891 0.009198472863133994 0 -0.17149442249203509 0.030428385179814731 0 -0.17822636034132719 0.017541437855064981 0 -0.17149442249203509 0.030428385179814731 0 -0.17822636034132719 0.017541437855064981 0 -0.1924258730908954 0.024189699289096839 0 -0.17822636034132719 0.017541437855064981 0 -0.18474352935989971 0.0058366779918899298 0 -0.1924258730908954 0.024189699289096839 0 -0.1659019020419891 0.009198472863133994 0 -0.17822636034132719 0.017541437855064981 0 -0.18474352935989971 0.0058366779918899298 0 -0.17657546904089599 -0.007370569383024504 0 -0.1659019020419891 0.009198472863133994 0 -0.18474352935989971 0.0058366779918899298 0 -0.17459099630605041 0.068335065373714532 0 -0.15528995027968939 0.065924726380977378 0 -0.15687249838744921 0.048613145036986473 0 -0.17149442249203509 0.030428385179814731 0 -0.15687249838744921 0.048613145036986473 0 -0.18607822845935179 0.049343178096612372 0 -0.15141619206899681 0.02400159055312644 0 -0.17149442249203509 0.030428385179814731 0 -0.15687249838744921 0.048613145036986473 0 -0.17149442249203509 0.030428385179814731 0 -0.18607822845935179 0.049343178096612372 0 -0.1924258730908954 0.024189699289096839 0 -0.17459099630605041 0.068335065373714532 0 -0.15687249838744921 0.048613145036986473 0 -0.18607822845935179 0.049343178096612372 0 -0.18607822845935179 0.049343178096612372 0 -0.20818649170566661 0.047375188990534688 0 -0.20360129161501259 0.072307500769365665 0 -0.18607822845935179 0.049343178096612372 0 -0.20818649170566661 0.047375188990534688 0 -0.1924258730908954 0.024189699289096839 0 -0.2044818012513058 -4.6211528709685131e-05 0 -0.18474352935989971 0.0058366779918899298 0 -0.1924258730908954 0.024189699289096839 0 -0.20818649170566661 0.047375188990534688 0 -0.1924258730908954 0.024189699289096839 0 -0.21887248806020601 0.02189905359068748 0 -0.2044818012513058 -4.6211528709685131e-05 0 -0.23277801048404129 8.5799091976347663e-05 0 -0.21887248806020601 0.02189905359068748 0 -0.2044818012513058 -4.6211528709685131e-05 0 -0.1924258730908954 0.024189699289096839 0 -0.21887248806020601 0.02189905359068748 0 -0.23277801048404129 8.5799091976347663e-05 0 -0.21887248806020601 0.02189905359068748 0 -0.24442310393583619 0.018904397669626871 0 -0.21887248806020601 0.02189905359068748 0 -0.24442310393583619 0.018904397669626871 0 -0.23348504220286229 0.040413175195731468 0 -0.26096182947410212 -0.000358506717774391 0 -0.23277801048404129 8.5799091976347663e-05 0 -0.24442310393583619 0.018904397669626871 0 -0.25420852008430622 0.057242051200783052 0 -0.23348504220286229 0.040413175195731468 0 -0.23261158692397479 0.076279936165016785 0 -0.20818649170566661 0.047375188990534688 0 -0.23348504220286229 0.040413175195731468 0 -0.23261158692397479 0.076279936165016785 0 -0.20818649170566661 0.047375188990534688 0 -0.21887248806020601 0.02189905359068748 0 -0.23348504220286229 0.040413175195731468 0 -0.25420852008430622 0.057242051200783052 0 -0.2574641548598442 0.035133979252333067 0 -0.23348504220286229 0.040413175195731468 0 -0.2574641548598442 0.035133979252333067 0 -0.24442310393583619 0.018904397669626871 0 -0.23348504220286229 0.040413175195731468 0 -0.26162188223293692 0.080252371560667904 0 -0.25420852008430622 0.057242051200783052 0 -0.23261158692397479 0.076279936165016785 0 -0.23261158692397479 0.076279936165016785 0 -0.22982101693964621 0.096957103088539026 0 -0.2466704649685986 0.094137763570239424 0 -0.26162188223293692 0.080252371560667904 0 -0.23261158692397479 0.076279936165016785 0 -0.2466704649685986 0.094137763570239424 0 -0.26162188223293692 0.080252371560667904 0 -0.23261158692397479 0.076279936165016785 0 -0.23261158692397479 0.076279936165016785 0 -0.21620677900647511 0.08980771734247768 0 -0.22982101693964621 0.096957103088539026 0 -0.23261158692397479 0.076279936165016785 0 -0.20360129161501259 0.072307500769365665 0 -0.20818649170566661 0.047375188990534688 0 -0.23261158692397479 0.076279936165016785 0 -0.20360129161501259 0.072307500769365665 0 -0.23261158692397479 0.076279936165016785 0 -0.20360129161501259 0.072307500769365665 0 -0.21620677900647511 0.08980771734247768 0 -0.20360129161501259 0.072307500769365665 0 -0.21620677900647511 0.08980771734247768 0 -0.2012443738342389 0.1003097533459188 0 -0.18081373669588249 0.088080455692086584 0 -0.20360129161501259 0.072307500769365665 0 -0.2012443738342389 0.1003097533459188 0 -0.17459099630605041 0.068335065373714532 0 -0.18607822845935179 0.049343178096612372 0 -0.20360129161501259 0.072307500769365665 0 -0.17459099630605041 0.068335065373714532 0 -0.20360129161501259 0.072307500769365665 0 -0.18085132658360689 0.1195279332587393 0 -0.18893276410175591 0.1151021439971843 0 -0.2034198239776257 0.12970388425774559 0 -0.18085132658360689 0.1195279332587393 0 -0.2034198239776257 0.12970388425774559 0 -0.1981786745256276 0.11325388831936831 0 -0.18893276410175591 0.1151021439971843 0 -0.2034198239776257 0.12970388425774559 0 -0.18711890302695519 0.1057160371235651 0 -0.1981786745256276 0.11325388831936831 0 -0.18893276410175591 0.1151021439971843 0 -0.18081373669588249 0.088080455692086584 0 -0.18711890302695519 0.1057160371235651 0 -0.2012443738342389 0.1003097533459188 0 -0.18711890302695519 0.1057160371235651 0 -0.1981786745256276 0.11325388831936831 0 -0.2012443738342389 0.1003097533459188 0 -0.21620677900647511 0.08980771734247768 0 -0.2012443738342389 0.1003097533459188 0 -0.2174625035686642 0.1046834562461513 0 -0.2012443738342389 0.1003097533459188 0 -0.2174625035686642 0.1046834562461513 0 -0.2101775076875623 0.1154376228724278 0 -0.2174625035686642 0.1046834562461513 0 -0.2101775076875623 0.1154376228724278 0 -0.21945267008776179 0.1157126402407532 0 -0.1981786745256276 0.11325388831936831 0 -0.2101775076875623 0.1154376228724278 0 -0.2034198239776257 0.12970388425774559 0 -0.1981786745256276 0.11325388831936831 0 -0.2012443738342389 0.1003097533459188 0 -0.2101775076875623 0.1154376228724278 0 -0.2101775076875623 0.1154376228724278 0 -0.21683355393823539 0.1248775514036891 0 -0.2034198239776257 0.12970388425774559 0 -0.2101775076875623 0.1154376228724278 0 -0.21683355393823539 0.1248775514036891 0 -0.21945267008776179 0.1157126402407532 0 -0.21683355393823539 0.1248775514036891 0 -0.22625936887199821 0.12448146864608201 0 -0.21945267008776179 0.1157126402407532 0 -0.22625936887199821 0.12448146864608201 0 -0.21945267008776179 0.1157126402407532 0 -0.22653041637234869 0.1090831020354156 0 -0.22625936887199821 0.12448146864608201 0 -0.22653041637234869 0.1090831020354156 0 -0.2174625035686642 0.1046834562461513 0 -0.21945267008776179 0.1157126402407532 0 -0.22653041637234869 0.1090831020354156 0 -0.22625936887199821 0.12448146864608201 0 -0.23102352683096131 0.1153924589627106 0 -0.22653041637234869 0.1090831020354156 0 -0.23102352683096131 0.1153924589627106 0 -0.22653041637234869 0.1090831020354156 0 -0.24121356983117201 0.1082096431468671 0 -0.22625936887199821 0.12448146864608201 0 -0.23102352683096131 0.1153924589627106 0 -0.24086791062466209 0.12751650842310069 0 -0.21620677900647511 0.08980771734247768 0 -0.2174625035686642 0.1046834562461513 0 -0.22982101693964621 0.096957103088539026 0 -0.2174625035686642 0.1046834562461513 0 -0.22653041637234869 0.1090831020354156 0 -0.22982101693964621 0.096957103088539026 0 -0.22653041637234869 0.1090831020354156 0 -0.22982101693964621 0.096957103088539026 0 -0.24121356983117201 0.1082096431468671 0 -0.22982101693964621 0.096957103088539026 0 -0.2466704649685986 0.094137763570239424 0 -0.24121356983117201 0.1082096431468671 0 -0.25801695806766872 0.1088815318780445 0 -0.2466704649685986 0.094137763570239424 0 -0.24121356983117201 0.1082096431468671 0 -0.25619864571567158 0.1243014169855481 0 -0.23102352683096131 0.1153924589627106 0 -0.24121356983117201 0.1082096431468671 0 -0.25619864571567158 0.1243014169855481 0 -0.23102352683096131 0.1153924589627106 0 -0.25619864571567158 0.1243014169855481 0 -0.23102352683096131 0.1153924589627106 0 -0.24086791062466209 0.12751650842310069 0 -0.2515550936227457 0.13766665608924619 0 -0.24086791062466209 0.12751650842310069 0 -0.24029164985660201 0.14632908915454079 0 -0.24086791062466209 0.12751650842310069 0 -0.23335181268122709 0.134551725370118 0 -0.24029164985660201 0.14632908915454079 0 -0.2515550936227457 0.13766665608924619 0 -0.25619864571567158 0.1243014169855481 0 -0.24086791062466209 0.12751650842310069 0 -0.22625936887199821 0.12448146864608201 0 -0.24086791062466209 0.12751650842310069 0 -0.23335181268122709 0.134551725370118 0 -0.23335181268122709 0.134551725370118 0 -0.22598832137164621 0.13987983525674841 0 -0.24029164985660201 0.14632908915454079 0 -0.22625936887199821 0.12448146864608201 0 -0.23335181268122709 0.134551725370118 0 -0.22598832137164621 0.13987983525674841 0 -0.21683355393823539 0.1248775514036891 0 -0.22625936887199821 0.12448146864608201 0 -0.22598832137164621 0.13987983525674841 0 -0.22625936887199821 0.12448146864608201 0 -0.22598832137164621 0.13987983525674841 0 -0.22598832137164621 0.13987983525674841 0 -0.22549513715889441 0.1678979180826268 0 -0.2167954912390101 0.1529321645130812 0 -0.22598832137164621 0.13987983525674841 0 -0.2367230051097062 0.15687304275061259 0 -0.22549513715889441 0.1678979180826268 0 -0.22598832137164621 0.13987983525674841 0 -0.24029164985660201 0.14632908915454079 0 -0.2367230051097062 0.15687304275061259 0 -0.22598832137164621 0.13987983525674841 0 -0.22549513715889441 0.1678979180826268 0 -0.22598832137164621 0.13987983525674841 0 -0.24029164985660201 0.14632908915454079 0 -0.25459497834155942 0.15277834305232979 0 -0.24029164985660201 0.14632908915454079 0 -0.2367230051097062 0.15687304275061259 0 -0.25459497834155942 0.15277834305232979 0 -0.2515550936227457 0.13766665608924619 0 -0.24029164985660201 0.14632908915454079 0 -0.25459497834155942 0.15277834305232979 0 -0.24029164985660201 0.14632908915454079 0 -0.25459497834155942 0.15277834305232979 0 -0.2443225216379746 0.1685707376049525 0 -0.2367230051097062 0.15687304275061259 0 -0.2443225216379746 0.1685707376049525 0 -0.2367230051097062 0.15687304275061259 0 -0.22549513715889441 0.1678979180826268 0 -0.25449388519764998 0.1844284315031727 0 -0.2443225216379746 0.1685707376049525 0 -0.23852983354815571 0.18487748756820691 0 -0.2443225216379746 0.1685707376049525 0 -0.23852983354815571 0.18487748756820691 0 -0.22549513715889441 0.1678979180826268 0 -0.23852983354815571 0.18487748756820691 0 -0.22549513715889441 0.1678979180826268 0 -0.22500195294614109 0.19591600090850531 0 -0.22549513715889441 0.1678979180826268 0 -0.21529986754697389 0.18713494900900951 0 -0.22500195294614109 0.19591600090850531 0 -0.22549513715889441 0.1678979180826268 0 -0.22500195294614109 0.19591600090850531 0 -0.22549513715889441 0.1678979180826268 0 -0.20753127651127329 0.1707398355118829 0 -0.21051952683962011 0.159111093158427 0 -0.22549513715889441 0.1678979180826268 0 -0.21051952683962011 0.159111093158427 0 -0.2167954912390101 0.1529321645130812 0 -0.21051952683962011 0.159111093158427 0 -0.19817581817284319 0.1749811338786661 0 -0.22549513715889441 0.1678979180826268 0 -0.20753127651127329 0.1707398355118829 0 -0.21301059856655649 0.1768406137292021 0 -0.21051952683962011 0.159111093158427 0 -0.19817581817284319 0.1749811338786661 0 -0.20133703679936449 0.16234267761174581 0 -0.20753127651127329 0.1707398355118829 0 -0.21051952683962011 0.159111093158427 0 -0.19817581817284319 0.1749811338786661 0 -0.19817581817284319 0.1749811338786661 0 -0.2114395184668165 0.19963835008766381 0 -0.22549513715889441 0.1678979180826268 0 -0.21529986754697389 0.18713494900900951 0 -0.21301059856655649 0.1768406137292021 0 -0.20442045499347841 0.1798633799867686 0 -0.19817581817284319 0.1749811338786661 0 -0.2114395184668165 0.19963835008766381 0 -0.20753127651127329 0.1707398355118829 0 -0.21301059856655649 0.1768406137292021 0 -0.2034733406100169 0.17482201640523809 0 -0.21301059856655649 0.1768406137292021 0 -0.2034733406100169 0.17482201640523809 0 -0.20442045499347841 0.1798633799867686 0 -0.21529986754697389 0.18713494900900951 0 -0.21301059856655649 0.1768406137292021 0 -0.20442045499347841 0.1798633799867686 0 -0.19817581817284319 0.1749811338786661 0 -0.18031949124967731 0.19793862931496831 0 -0.20753127651127329 0.1707398355118829 0 -0.2034733406100169 0.17482201640523809 0 -0.19817581817284319 0.1749811338786661 0 -0.2034733406100169 0.17482201640523809 0 -0.20442045499347841 0.1798633799867686 0 -0.19817581817284319 0.1749811338786661 0 -0.20442045499347841 0.1798633799867686 0 -0.19817581817284319 0.1749811338786661 0 -0.19817581817284319 0.1749811338786661 0 -0.19561266276368389 0.1702162284827286 0 -0.19817581817284319 0.1749811338786661 0 -0.18152200391641171 0.16275341521661929 0 -0.19817581817284319 0.1749811338786661 0 -0.19561266276368389 0.1702162284827286 0 -0.18152200391641171 0.16275341521661929 0 -0.20133703679936449 0.16234267761174581 0 -0.19271899891510319 0.1624621689221854 0 -0.19240429218095259 0.15453635437764809 0 -0.19817581817284319 0.1749811338786661 0 -0.20133703679936449 0.16234267761174581 0 -0.19561266276368389 0.1702162284827286 0 -0.20133703679936449 0.16234267761174581 0 -0.19561266276368389 0.1702162284827286 0 -0.19271899891510319 0.1624621689221854 0 -0.19561266276368389 0.1702162284827286 0 -0.19271899891510319 0.1624621689221854 0 -0.18152200391641171 0.16275341521661929 0 -0.19271899891510319 0.1624621689221854 0 -0.19240429218095259 0.15453635437764809 0 -0.18152200391641171 0.16275341521661929 0 -0.19240429218095259 0.15453635437764809 0 -0.19039769473007881 0.14151219371457821 0 -0.180545236126467 0.14975913358102169 0 -0.20133703679936449 0.16234267761174581 0 -0.19240429218095259 0.15453635437764809 0 -0.20517897958587991 0.14483981155452261 0 -0.19240429218095259 0.15453635437764809 0 -0.19039769473007881 0.14151219371457821 0 -0.20517897958587991 0.14483981155452261 0 -0.18085132658360689 0.1195279332587393 0 -0.2034198239776257 0.12970388425774559 0 -0.18507521594325299 0.13101347516035119 0 -0.19039769473007881 0.14151219371457821 0 -0.2034198239776257 0.12970388425774559 0 -0.18507521594325299 0.13101347516035119 0 -0.19039769473007881 0.14151219371457821 0 -0.2034198239776257 0.12970388425774559 0 -0.20517897958587991 0.14483981155452261 0 -0.22598832137164621 0.13987983525674841 0 -0.2034198239776257 0.12970388425774559 0 -0.20517897958587991 0.14483981155452261 0 -0.21683355393823539 0.1248775514036891 0 -0.22598832137164621 0.13987983525674841 0 -0.2034198239776257 0.12970388425774559 0 -0.22598832137164621 0.13987983525674841 0 -0.2034198239776257 0.12970388425774559 0 -0.21051952683962011 0.159111093158427 0 -0.20133703679936449 0.16234267761174581 0 -0.20517897958587991 0.14483981155452261 0 -0.22598832137164621 0.13987983525674841 0 -0.2167954912390101 0.1529321645130812 0 -0.20517897958587991 0.14483981155452261 0 -0.21051952683962011 0.159111093158427 0 -0.2167954912390101 0.1529321645130812 0 -0.20517897958587991 0.14483981155452261 0 -0.2240732914715097 0.24867380101764949 0 -0.22450876873338749 0.22393408373438381 0 -0.2240732914715097 0.24867380101764949 0 -0.23552086690955309 0.2444055720541079 0 -0.22450876873338749 0.22393408373438381 0 -0.23659851017468231 0.25432161507005241 0 -0.2240732914715097 0.24867380101764949 0 -0.23552086690955309 0.2444055720541079 0 -0.24759739790112481 0.25315441603119782 0 -0.23552086690955309 0.2444055720541079 0 -0.24548244335966471 0.24286857053810521 0 -0.23552086690955309 0.2444055720541079 0 -0.24548244335966471 0.24286857053810521 0 -0.24741806503572619 0.2329767179432283 0 -0.24741806503572619 0.2329767179432283 0 -0.24667485751449911 0.21894349547531761 0 -0.22450876873338749 0.22393408373438381 0 -0.23552086690955309 0.2444055720541079 0 -0.24741806503572619 0.2329767179432283 0 -0.22450876873338749 0.22393408373438381 0 -0.23552086690955309 0.2444055720541079 0 -0.22450876873338749 0.22393408373438381 0 -0.22450876873338749 0.22393408373438381 0 -0.22500195294614109 0.19591600090850531 0 -0.2114395184668165 0.19963835008766381 0 -0.22450876873338749 0.22393408373438381 0 -0.23529302305827021 0.21010640769344299 0 -0.22500195294614109 0.19591600090850531 0 -0.22450876873338749 0.22393408373438381 0 -0.22500195294614109 0.19591600090850531 0 -0.24667485751449911 0.21894349547531761 0 -0.22450876873338749 0.22393408373438381 0 -0.23529302305827021 0.21010640769344299 0 -0.24667485751449911 0.21894349547531761 0 -0.24636878037834131 0.2052805006327261 0 -0.23529302305827021 0.21010640769344299 0 -0.24636878037834131 0.2052805006327261 0 -0.23529302305827021 0.21010640769344299 0 -0.23768721001063231 0.19837892033327109 0 -0.25449388519764998 0.1844284315031727 0 -0.23852983354815571 0.18487748756820691 0 -0.24655002503873369 0.19394753918537411 0 -0.24636878037834131 0.2052805006327261 0 -0.23768721001063231 0.19837892033327109 0 -0.24655002503873369 0.19394753918537411 0 -0.23852983354815571 0.18487748756820691 0 -0.23768721001063231 0.19837892033327109 0 -0.24655002503873369 0.19394753918537411 0 -0.23852983354815571 0.18487748756820691 0 -0.23768721001063231 0.19837892033327109 0 -0.22500195294614109 0.19591600090850531 0 -0.23529302305827021 0.21010640769344299 0 -0.23768721001063231 0.19837892033327109 0 -0.22500195294614109 0.19591600090850531 0 -0.21529986754697389 0.18713494900900951 0 -0.20442045499347841 0.1798633799867686 0 -0.2114395184668165 0.19963835008766381 0 -0.21529986754697389 0.18713494900900951 0 -0.22500195294614109 0.19591600090850531 0 -0.2114395184668165 0.19963835008766381 0 -0.19817581817284319 0.1749811338786661 0 -0.1971742228626063 0.1912902501672176 0 -0.18031949124967731 0.19793862931496831 0 -0.19817581817284319 0.1749811338786661 0 -0.2114395184668165 0.19963835008766381 0 -0.1971742228626063 0.1912902501672176 0 -0.1971742228626063 0.1912902501672176 0 -0.19506949197621609 0.20838777827971661 0 -0.18031949124967731 0.19793862931496831 0 -0.2114395184668165 0.19963835008766381 0 -0.1971742228626063 0.1912902501672176 0 -0.19506949197621609 0.20838777827971661 0 -0.19506949197621609 0.20838777827971661 0 -0.19273287222004701 0.2268905945245315 0 -0.1818289628607847 0.2170616524171691 0 -0.19506949197621609 0.20838777827971661 0 -0.20618640756922119 0.21954410799139321 0 -0.19273287222004701 0.2268905945245315 0 -0.22450876873338749 0.22393408373438381 0 -0.2114395184668165 0.19963835008766381 0 -0.20618640756922119 0.21954410799139321 0 -0.22450876873338749 0.22393408373438381 0 -0.2114395184668165 0.19963835008766381 0 -0.2114395184668165 0.19963835008766381 0 -0.19506949197621609 0.20838777827971661 0 -0.20618640756922119 0.21954410799139321 0 -0.22450876873338749 0.22393408373438381 0 -0.20618640756922119 0.21954410799139321 0 -0.2071813864496386 0.23886973333067019 0 -0.20618640756922119 0.21954410799139321 0 -0.19273287222004701 0.2268905945245315 0 -0.2071813864496386 0.23886973333067019 0 -0.19273287222004701 0.2268905945245315 0 -0.18780594399135009 0.2432222609189009 0 -0.2071813864496386 0.23886973333067019 0 -0.1998555116210283 0.25891194290682518 0 -0.18780594399135009 0.2432222609189009 0 -0.2071813864496386 0.23886973333067019 0 -0.21222572633593059 0.25042384699120041 0 -0.1998555116210283 0.25891194290682518 0 -0.2071813864496386 0.23886973333067019 0 -0.21222572633593059 0.25042384699120041 0 -0.2240732914715097 0.24867380101764949 0 -0.2071813864496386 0.23886973333067019 0 -0.2240732914715097 0.24867380101764949 0 -0.22450876873338749 0.22393408373438381 0 -0.2071813864496386 0.23886973333067019 0 -0.17653414283731059 0.25896614820827052 0 -0.17122511624507969 0.24209515342071941 0 -0.15921749235545729 0.24728948044781751 0 -0.17122511624507969 0.24209515342071941 0 -0.15921749235545729 0.24728948044781751 0 -0.1625695092567625 0.22075939936192049 0 -0.18780594399135009 0.2432222609189009 0 -0.17122511624507969 0.24209515342071941 0 -0.17923248091480479 0.23000581212864829 0 -0.17653414283731059 0.25896614820827052 0 -0.18780594399135009 0.2432222609189009 0 -0.17122511624507969 0.24209515342071941 0 -0.19273287222004701 0.2268905945245315 0 -0.18780594399135009 0.2432222609189009 0 -0.17923248091480479 0.23000581212864829 0 -0.17923248091480479 0.23000581212864829 0 -0.1625695092567625 0.22075939936192049 0 -0.1818289628607847 0.2170616524171691 0 -0.19273287222004701 0.2268905945245315 0 -0.17923248091480479 0.23000581212864829 0 -0.1818289628607847 0.2170616524171691 0 -0.17122511624507969 0.24209515342071941 0 -0.17923248091480479 0.23000581212864829 0 -0.1625695092567625 0.22075939936192049 0 -0.1625695092567625 0.22075939936192049 0 -0.18031949124967731 0.19793862931496831 0 -0.16111609714723071 0.20125972064720199 0 -0.1625695092567625 0.22075939936192049 0 -0.18031949124967731 0.19793862931496831 0 -0.1625695092567625 0.22075939936192049 0 -0.16111609714723071 0.20125972064720199 0 -0.1522798003658303 0.21347882245813191 0 -0.19506949197621609 0.20838777827971661 0 -0.1818289628607847 0.2170616524171691 0 -0.18031949124967731 0.19793862931496831 0 -0.1625695092567625 0.22075939936192049 0 -0.1818289628607847 0.2170616524171691 0 -0.18031949124967731 0.19793862931496831 0 -0.16111609714723071 0.20125972064720199 0 -0.16703957114438911 0.185472990144771 0 -0.15357945469212261 0.18437791951578689 0 -0.18031949124967731 0.19793862931496831 0 -0.16111609714723071 0.20125972064720199 0 -0.16703957114438911 0.185472990144771 0 -0.16111609714723071 0.20125972064720199 0 -0.14115114541271731 0.1906098180404015 0 -0.141488659539692 0.2052444750998523 0 -0.16111609714723071 0.20125972064720199 0 -0.14115114541271731 0.1906098180404015 0 -0.16111609714723071 0.20125972064720199 0 -0.14115114541271731 0.1906098180404015 0 -0.15357945469212261 0.18437791951578689 0 -0.14115114541271731 0.1906098180404015 0 -0.12832829264602649 0.1978496786684622 0 -0.1211861936782038 0.17995991543360099 0 -0.14115114541271731 0.1906098180404015 0 -0.12832829264602649 0.1978496786684622 0 -0.141488659539692 0.2052444750998523 0 -0.12832829264602649 0.1978496786684622 0 -0.1257098954772374 0.2113246755578779 0 -0.141488659539692 0.2052444750998523 0 -0.141488659539692 0.2052444750998523 0 -0.12785566072481649 0.2278023915624568 0 -0.1257098954772374 0.2113246755578779 0 -0.141488659539692 0.2052444750998523 0 -0.12785566072481649 0.2278023915624568 0 -0.1522798003658303 0.21347882245813191 0 -0.141488659539692 0.2052444750998523 0 -0.14552374626821149 0.22581456256643581 0 -0.16111609714723071 0.20125972064720199 0 -0.1522798003658303 0.21347882245813191 0 -0.141488659539692 0.2052444750998523 0 -0.1625695092567625 0.22075939936192049 0 -0.1522798003658303 0.21347882245813191 0 -0.14552374626821149 0.22581456256643581 0 -0.1625695092567625 0.22075939936192049 0 -0.14552374626821149 0.22581456256643581 0 -0.1448195272638477 0.24358016940887259 0 -0.1625695092567625 0.22075939936192049 0 -0.1448195272638477 0.24358016940887259 0 -0.141488659539692 0.2052444750998523 0 -0.14552374626821149 0.22581456256643581 0 -0.12785566072481649 0.2278023915624568 0 -0.14552374626821149 0.22581456256643581 0 -0.12785566072481649 0.2278023915624568 0 -0.13864474683184569 0.23479182107732061 0 -0.1142226619099411 0.25036030802506137 0 -0.12785566072481649 0.2278023915624568 0 -0.13445031144562181 0.24435743282997291 0 -0.12785566072481649 0.2278023915624568 0 -0.13864474683184569 0.23479182107732061 0 -0.13445031144562181 0.24435743282997291 0 -0.13864474683184569 0.23479182107732061 0 -0.13445031144562181 0.24435743282997291 0 -0.1448195272638477 0.24358016940887259 0 -0.15921749235545729 0.24728948044781751 0 -0.1625695092567625 0.22075939936192049 0 -0.1448195272638477 0.24358016940887259 0 -0.14552374626821149 0.22581456256643581 0 -0.13864474683184569 0.23479182107732061 0 -0.1448195272638477 0.24358016940887259 0 -0.153448837031642 0.26187438444246253 0 -0.13445031144562181 0.24435743282997291 0 -0.1448195272638477 0.24358016940887259 0 -0.16497453459023201 0.1503889711652214 0 -0.14842706526405269 0.1380245271138229 0 -0.16497453459023201 0.1503889711652214 0 -0.17342765521465989 0.13960473343104149 0 -0.14842706526405269 0.1380245271138229 0 -0.16515571909500801 0.12260505305778591 0 -0.1743120616679292 0.12636079750236859 0 -0.14842706526405269 0.1380245271138229 0 -0.16515571909500801 0.12260505305778591 0 -0.15638423188120451 0.1238317290894369 0 -0.14842706526405269 0.1380245271138229 0 -0.17342765521465989 0.13960473343104149 0 -0.1743120616679292 0.12636079750236859 0 -0.14842706526405269 0.1380245271138229 0 -0.1743120616679292 0.12636079750236859 0 -0.14842706526405269 0.1380245271138229 0 -0.19039769473007881 0.14151219371457821 0 -0.17342765521465989 0.13960473343104149 0 -0.18507521594325299 0.13101347516035119 0 -0.17342765521465989 0.13960473343104149 0 -0.1743120616679292 0.12636079750236859 0 -0.18507521594325299 0.13101347516035119 0 -0.18085132658360689 0.1195279332587393 0 -0.1743120616679292 0.12636079750236859 0 -0.18507521594325299 0.13101347516035119 0 -0.16497453459023201 0.1503889711652214 0 -0.180545236126467 0.14975913358102169 0 -0.18152200391641171 0.16275341521661929 0 -0.19039769473007881 0.14151219371457821 0 -0.17342765521465989 0.13960473343104149 0 -0.180545236126467 0.14975913358102169 0 -0.16497453459023201 0.1503889711652214 0 -0.17342765521465989 0.13960473343104149 0 -0.180545236126467 0.14975913358102169 0 -0.19240429218095259 0.15453635437764809 0 -0.180545236126467 0.14975913358102169 0 -0.18152200391641171 0.16275341521661929 0 -0.18152200391641171 0.16275341521661929 0 -0.17961750686066019 0.17876601317962201 0 -0.17102235025565021 0.17095238094951529 0 -0.16497453459023201 0.1503889711652214 0 -0.18152200391641171 0.16275341521661929 0 -0.17102235025565021 0.17095238094951529 0 -0.16497453459023201 0.1503889711652214 0 -0.18152200391641171 0.16275341521661929 0 -0.19817581817284319 0.1749811338786661 0 -0.18152200391641171 0.16275341521661929 0 -0.17961750686066019 0.17876601317962201 0 -0.18031949124967731 0.19793862931496831 0 -0.17961750686066019 0.17876601317962201 0 -0.16703957114438911 0.185472990144771 0 -0.19817581817284319 0.1749811338786661 0 -0.18031949124967731 0.19793862931496831 0 -0.17961750686066019 0.17876601317962201 0 -0.17961750686066019 0.17876601317962201 0 -0.16703957114438911 0.185472990144771 0 -0.17102235025565021 0.17095238094951529 0 -0.16703957114438911 0.185472990144771 0 -0.17102235025565021 0.17095238094951529 0 -0.15743466200370029 0.17092741455902369 0 -0.16703957114438911 0.185472990144771 0 -0.15743466200370029 0.17092741455902369 0 -0.15357945469212261 0.18437791951578689 0 -0.16497453459023201 0.1503889711652214 0 -0.17102235025565021 0.17095238094951529 0 -0.15743466200370029 0.17092741455902369 0 -0.15743466200370029 0.17092741455902369 0 -0.14488507952452739 0.15721513704535139 0 -0.14115579775257581 0.173619654187536 0 -0.16497453459023201 0.1503889711652214 0 -0.15743466200370029 0.17092741455902369 0 -0.14488507952452739 0.15721513704535139 0 -0.14115114541271731 0.1906098180404015 0 -0.14115579775257581 0.173619654187536 0 -0.15357945469212261 0.18437791951578689 0 -0.15743466200370029 0.17092741455902369 0 -0.14115579775257581 0.173619654187536 0 -0.15357945469212261 0.18437791951578689 0 -0.14115579775257581 0.173619654187536 0 -0.12969237989865601 0.1629328250777323 0 -0.1211861936782038 0.17995991543360099 0 -0.14115114541271731 0.1906098180404015 0 -0.14115579775257581 0.173619654187536 0 -0.1211861936782038 0.17995991543360099 0 -0.14115114541271731 0.1906098180404015 0 -0.1211861936782038 0.17995991543360099 0 -0.14488507952452739 0.15721513704535139 0 -0.14115579775257581 0.173619654187536 0 -0.12969237989865601 0.1629328250777323 0 -0.14488507952452739 0.15721513704535139 0 -0.12969237989865601 0.1629328250777323 0 -0.12762603763794811 0.1473974301687726 0 -0.14488507952452739 0.15721513704535139 0 -0.12762603763794811 0.1473974301687726 0 -0.14842706526405269 0.1380245271138229 0 -0.12762603763794811 0.1473974301687726 0 -0.14842706526405269 0.1380245271138229 0 -0.16497453459023201 0.1503889711652214 0 -0.14488507952452739 0.15721513704535139 0 -0.14842706526405269 0.1380245271138229 0 -0.15638423188120451 0.1238317290894369 0 -0.14842706526405269 0.1380245271138229 0 -0.14771333824842281 0.12544886910463199 0 -0.14842706526405269 0.1380245271138229 0 -0.1359731756398993 0.1287188491007813 0 -0.14842706526405269 0.1380245271138229 0 -0.14771333824842281 0.12544886910463199 0 -0.1359731756398993 0.1287188491007813 0 -0.1359731756398993 0.1287188491007813 0 -0.12662780444237171 0.1357469498020871 0 -0.1235192860157463 0.11941317108773911 0 -0.14842706526405269 0.1380245271138229 0 -0.1359731756398993 0.1287188491007813 0 -0.12662780444237171 0.1357469498020871 0 -0.12762603763794811 0.1473974301687726 0 -0.14842706526405269 0.1380245271138229 0 -0.12662780444237171 0.1357469498020871 0 -0.12662780444237171 0.1357469498020871 0 -0.1151721480137935 0.13809175215572969 0 -0.1235192860157463 0.11941317108773911 0 -0.1151721480137935 0.13809175215572969 0 -0.1235192860157463 0.11941317108773911 0 -0.1151721480137935 0.13809175215572969 0 -0.1235192860157463 0.11941317108773911 0 -0.11262796015323071 0.12421124413663399 0 -0.12762603763794811 0.1473974301687726 0 -0.12662780444237171 0.1357469498020871 0 -0.1151721480137935 0.13809175215572969 0 -0.1151721480137935 0.13809175215572969 0 -0.099705524281883187 0.12772580554098631 0 -0.11262796015323071 0.12421124413663399 0 -0.1151721480137935 0.13809175215572969 0 -0.099705524281883187 0.12772580554098631 0 -0.091434776282506153 0.1436817571981342 0 -0.10682501001184309 0.15677033322372139 0 -0.091044059472557226 0.16388119919526981 0 -0.091434776282506153 0.1436817571981342 0 -0.1151721480137935 0.13809175215572969 0 -0.10682501001184309 0.15677033322372139 0 -0.091434776282506153 0.1436817571981342 0 -0.12762603763794811 0.1473974301687726 0 -0.10682501001184309 0.15677033322372139 0 -0.12762603763794811 0.1473974301687726 0 -0.1151721480137935 0.13809175215572969 0 -0.10682501001184309 0.15677033322372139 0 -0.1151721480137935 0.13809175215572969 0 -0.10682501001184309 0.15677033322372139 0 -0.12969237989865601 0.1629328250777323 0 -0.12762603763794811 0.1473974301687726 0 -0.1148159301349965 0.1678632923725264 0 -0.12762603763794811 0.1473974301687726 0 -0.1148159301349965 0.1678632923725264 0 -0.10682501001184309 0.15677033322372139 0 -0.12969237989865601 0.1629328250777323 0 -0.1148159301349965 0.1678632923725264 0 -0.1211861936782038 0.17995991543360099 0 -0.1211861936782038 0.17995991543360099 0 -0.1012212419436908 0.16931001282679981 0 -0.1148159301349965 0.1678632923725264 0 -0.1211861936782038 0.17995991543360099 0 -0.1012212419436908 0.16931001282679981 0 -0.1211861936782038 0.17995991543360099 0 -0.1012212419436908 0.16931001282679981 0 -0.1054939366901097 0.18759356829309831 0 -0.1012212419436908 0.16931001282679981 0 -0.1054939366901097 0.18759356829309831 0 -0.089618859267163398 0.19527292914071331 0 -0.1012212419436908 0.16931001282679981 0 -0.089618859267163398 0.19527292914071331 0 -0.10682501001184309 0.15677033322372139 0 -0.091044059472557226 0.16388119919526981 0 -0.10682501001184309 0.15677033322372139 0 -0.1012212419436908 0.16931001282679981 0 -0.091044059472557226 0.16388119919526981 0 -0.10682501001184309 0.15677033322372139 0 -0.1012212419436908 0.16931001282679981 0 -0.1148159301349965 0.1678632923725264 0 -0.10682501001184309 0.15677033322372139 0 -0.1012212419436908 0.16931001282679981 0 -0.1012212419436908 0.16931001282679981 0 -0.091044059472557226 0.16388119919526981 0 -0.091044059472557226 0.16388119919526981 0 -0.068712974232226248 0.1739435432694055 0 -0.074876078009691427 0.15525671413676381 0 -0.091044059472557226 0.16388119919526981 0 -0.074876078009691427 0.15525671413676381 0 -0.091044059472557226 0.16388119919526981 0 -0.082489945975274953 0.17537086341399641 0 -0.068712974232226248 0.1739435432694055 0 -0.091044059472557226 0.16388119919526981 0 -0.068712974232226248 0.1739435432694055 0 -0.1012212419436908 0.16931001282679981 0 -0.091044059472557226 0.16388119919526981 0 -0.088643383845510265 0.17783241526073459 0 -0.1012212419436908 0.16931001282679981 0 -0.088643383845510265 0.17783241526073459 0 -0.089618859267163398 0.19527292914071331 0 -0.088643383845510265 0.17783241526073459 0 -0.081559366350805754 0.18582629593057509 0 -0.089618859267163398 0.19527292914071331 0 -0.091044059472557226 0.16388119919526981 0 -0.088643383845510265 0.17783241526073459 0 -0.082489945975274953 0.17537086341399641 0 -0.088643383845510265 0.17783241526073459 0 -0.082489945975274953 0.17537086341399641 0 -0.081559366350805754 0.18582629593057509 0 -0.081559366350805754 0.18582629593057509 0 -0.063970627671350561 0.18491609163705919 0 -0.081559366350805754 0.18582629593057509 0 -0.068712974232226248 0.1739435432694055 0 -0.063970627671350561 0.18491609163705919 0 -0.082489945975274953 0.17537086341399641 0 -0.081559366350805754 0.18582629593057509 0 -0.068712974232226248 0.1739435432694055 0 -0.068712974232226248 0.1739435432694055 0 -0.074876078009691427 0.15525671413676381 0 -0.054195851860079788 0.15916383351508459 0 -0.074876078009691427 0.15525671413676381 0 -0.074608392053766376 0.13960188812621049 0 -0.058708096546824948 0.14663222907825921 0 -0.074876078009691427 0.15525671413676381 0 -0.058708096546824948 0.14663222907825921 0 -0.074876078009691427 0.15525671413676381 0 -0.058708096546824948 0.14663222907825921 0 -0.054195851860079788 0.15916383351508459 0 -0.074608392053766376 0.13960188812621049 0 -0.066043471425443312 0.12626010328359591 0 -0.081979538004366054 0.1261786369342994 0 -0.074608392053766376 0.13960188812621049 0 -0.066043471425443312 0.12626010328359591 0 -0.058708096546824948 0.14663222907825921 0 -0.074608392053766376 0.13960188812621049 0 -0.081979538004366054 0.1261786369342994 0 -0.091434776282506153 0.1436817571981342 0 -0.099705524281883187 0.12772580554098631 0 -0.081979538004366054 0.1261786369342994 0 -0.091434776282506153 0.1436817571981342 0 -0.074876078009691427 0.15525671413676381 0 -0.074608392053766376 0.13960188812621049 0 -0.091434776282506153 0.1436817571981342 0 -0.091044059472557226 0.16388119919526981 0 -0.074876078009691427 0.15525671413676381 0 -0.091434776282506153 0.1436817571981342 0 -0.1142226619099411 0.25036030802506137 0 -0.088205846149722877 0.25713272569092332 0 -0.095859115512611753 0.24060575538982379 0 -0.1142226619099411 0.25036030802506137 0 -0.095859115512611753 0.24060575538982379 0 -0.1100412919746253 0.23245448992289641 0 -0.12612077033089619 0.25508176695385482 0 -0.1142226619099411 0.25036030802506137 0 -0.13445031144562181 0.24435743282997291 0 -0.1142226619099411 0.25036030802506137 0 -0.12785566072481649 0.2278023915624568 0 -0.1142226619099411 0.25036030802506137 0 -0.12785566072481649 0.2278023915624568 0 -0.1100412919746253 0.23245448992289641 0 -0.1257098954772374 0.2113246755578779 0 -0.12785566072481649 0.2278023915624568 0 -0.11399544893260929 0.2178115518701757 0 -0.12785566072481649 0.2278023915624568 0 -0.1100412919746253 0.23245448992289641 0 -0.11399544893260929 0.2178115518701757 0 -0.1100412919746253 0.23245448992289641 0 -0.098825199251645568 0.2238820412325061 0 -0.11399544893260929 0.2178115518701757 0 -0.095859115512611753 0.24060575538982379 0 -0.1100412919746253 0.23245448992289641 0 -0.098825199251645568 0.2238820412325061 0 -0.098825199251645568 0.2238820412325061 0 -0.10410760416579069 0.2053008338913328 0 -0.11399544893260929 0.2178115518701757 0 -0.098825199251645568 0.2238820412325061 0 -0.10410760416579069 0.2053008338913328 0 -0.086978482342459529 0.2119353765015605 0 -0.1257098954772374 0.2113246755578779 0 -0.11399544893260929 0.2178115518701757 0 -0.11743304200154051 0.2061048790539842 0 -0.12832829264602649 0.1978496786684622 0 -0.1257098954772374 0.2113246755578779 0 -0.11743304200154051 0.2061048790539842 0 -0.10410760416579069 0.2053008338913328 0 -0.11399544893260929 0.2178115518701757 0 -0.11743304200154051 0.2061048790539842 0 -0.10410760416579069 0.2053008338913328 0 -0.11743304200154051 0.2061048790539842 0 -0.11530981383633419 0.19536177506809571 0 -0.12832829264602649 0.1978496786684622 0 -0.1211861936782038 0.17995991543360099 0 -0.11530981383633419 0.19536177506809571 0 -0.1211861936782038 0.17995991543360099 0 -0.11530981383633419 0.19536177506809571 0 -0.1054939366901097 0.18759356829309831 0 -0.12832829264602649 0.1978496786684622 0 -0.11743304200154051 0.2061048790539842 0 -0.11530981383633419 0.19536177506809571 0 -0.10410760416579069 0.2053008338913328 0 -0.1054939366901097 0.18759356829309831 0 -0.089618859267163398 0.19527292914071331 0 -0.10410760416579069 0.2053008338913328 0 -0.11530981383633419 0.19536177506809571 0 -0.1054939366901097 0.18759356829309831 0 -0.081559366350805754 0.18582629593057509 0 -0.089618859267163398 0.19527292914071331 0 -0.080896567647954387 0.2020460151072227 0 -0.081559366350805754 0.18582629593057509 0 -0.080896567647954387 0.2020460151072227 0 -0.072171399585773094 0.19437254836005821 0 -0.089618859267163398 0.19527292914071331 0 -0.080896567647954387 0.2020460151072227 0 -0.086978482342459529 0.2119353765015605 0 -0.081559366350805754 0.18582629593057509 0 -0.063970627671350561 0.18491609163705919 0 -0.072171399585773094 0.19437254836005821 0 -0.063970627671350561 0.18491609163705919 0 -0.072171399585773094 0.19437254836005821 0 -0.063556282414224022 0.19497406999776271 0 -0.072171399585773094 0.19437254836005821 0 -0.063556282414224022 0.19497406999776271 0 -0.069630388406030724 0.2037338378657978 0 -0.063556282414224022 0.19497406999776271 0 -0.069630388406030724 0.2037338378657978 0 -0.05943209939037275 0.20946170393468239 0 -0.080896567647954387 0.2020460151072227 0 -0.072171399585773094 0.19437254836005821 0 -0.069630388406030724 0.2037338378657978 0 -0.072406148387029801 0.21730076612038571 0 -0.057215230553617227 0.228249021406145 0 -0.05943209939037275 0.20946170393468239 0 -0.080896567647954387 0.2020460151072227 0 -0.069630388406030724 0.2037338378657978 0 -0.072406148387029801 0.21730076612038571 0 -0.069630388406030724 0.2037338378657978 0 -0.072406148387029801 0.21730076612038571 0 -0.05943209939037275 0.20946170393468239 0 -0.10410760416579069 0.2053008338913328 0 -0.089618859267163398 0.19527292914071331 0 -0.086978482342459529 0.2119353765015605 0 -0.080896567647954387 0.2020460151072227 0 -0.072406148387029801 0.21730076612038571 0 -0.086978482342459529 0.2119353765015605 0 -0.095859115512611753 0.24060575538982379 0 -0.098825199251645568 0.2238820412325061 0 -0.083294360057557804 0.2298179588692377 0 -0.098825199251645568 0.2238820412325061 0 -0.086978482342459529 0.2119353765015605 0 -0.083294360057557804 0.2298179588692377 0 -0.072406148387029801 0.21730076612038571 0 -0.086978482342459529 0.2119353765015605 0 -0.083294360057557804 0.2298179588692377 0 -0.072406148387029801 0.21730076612038571 0 -0.070120507299139587 0.2334776155283137 0 -0.057215230553617227 0.228249021406145 0 -0.072406148387029801 0.21730076612038571 0 -0.083294360057557804 0.2298179588692377 0 -0.070120507299139587 0.2334776155283137 0 -0.076867143983894576 0.2466666451067244 0 -0.060819653513598478 0.2453536861390756 0 -0.070120507299139587 0.2334776155283137 0 -0.076867143983894576 0.2466666451067244 0 -0.060819653513598478 0.2453536861390756 0 -0.070120507299139587 0.2334776155283137 0 -0.060819653513598478 0.2453536861390756 0 -0.057215230553617227 0.228249021406145 0 -0.083294360057557804 0.2298179588692377 0 -0.070120507299139587 0.2334776155283137 0 -0.076867143983894576 0.2466666451067244 0 -0.088205846149722877 0.25713272569092332 0 -0.095859115512611753 0.24060575538982379 0 -0.076867143983894576 0.2466666451067244 0 -0.095859115512611753 0.24060575538982379 0 -0.083294360057557804 0.2298179588692377 0 -0.076867143983894576 0.2466666451067244 0 -0.03548396145915636 0.25798705152301848 0 -0.044772163043302393 0.24404072717142691 0 -0.014966429343546131 0.2416021087830322 0 -0.044772163043302393 0.24404072717142691 0 -0.060819653513598478 0.2453536861390756 0 -0.057215230553617227 0.228249021406145 0 -0.044772163043302393 0.24404072717142691 0 -0.060819653513598478 0.2453536861390756 0 -0.044772163043302393 0.24404072717142691 0 -0.057215230553617227 0.228249021406145 0 -0.041780883544977852 0.2157338417569421 0 -0.044772163043302393 0.24404072717142691 0 -0.041780883544977852 0.2157338417569421 0 -0.023866489027926568 0.22278288162113999 0 -0.044772163043302393 0.24404072717142691 0 -0.041780883544977852 0.2157338417569421 0 -0.041780883544977852 0.2157338417569421 0 -0.030827499881089401 0.20542480233296539 0 -0.023866489027926568 0.22278288162113999 0 -0.041780883544977852 0.2157338417569421 0 -0.05943209939037275 0.20946170393468239 0 -0.052003663036356958 0.1967786864610612 0 -0.057215230553617227 0.228249021406145 0 -0.041780883544977852 0.2157338417569421 0 -0.05943209939037275 0.20946170393468239 0 -0.063970627671350561 0.18491609163705919 0 -0.052003663036356958 0.1967786864610612 0 -0.046381888991895458 0.18400588734354181 0 -0.063556282414224022 0.19497406999776271 0 -0.05943209939037275 0.20946170393468239 0 -0.052003663036356958 0.1967786864610612 0 -0.063970627671350561 0.18491609163705919 0 -0.063556282414224022 0.19497406999776271 0 -0.052003663036356958 0.1967786864610612 0 -0.041780883544977852 0.2157338417569421 0 -0.052003663036356958 0.1967786864610612 0 -0.03878960404665581 0.1874269563424571 0 -0.052003663036356958 0.1967786864610612 0 -0.046381888991895458 0.18400588734354181 0 -0.03878960404665581 0.1874269563424571 0 -0.041780883544977852 0.2157338417569421 0 -0.030827499881089401 0.20542480233296539 0 -0.03878960404665581 0.1874269563424571 0 -0.032107951434550391 0.19043769616290401 0 -0.030827499881089401 0.20542480233296539 0 -0.03878960404665581 0.1874269563424571 0 -0.041780883544977852 0.2157338417569421 0 -0.03878960404665581 0.1874269563424571 0 -0.032107951434550391 0.19043769616290401 0 -0.03878960404665581 0.1874269563424571 0 -0.032107951434550391 0.19043769616290401 0 -0.0173429703078707 0.1959176718311082 0 -0.012275916199634871 0.1822409283299494 0 -0.0173429703078707 0.1959176718311082 0 -0.010655350369958849 0.2079950060531324 0 -0.030827499881089401 0.20542480233296539 0 -0.032107951434550391 0.19043769616290401 0 -0.0173429703078707 0.1959176718311082 0 -0.030827499881089401 0.20542480233296539 0 -0.0173429703078707 0.1959176718311082 0 -0.00084813365411998446 0.1934899262765897 0 -0.012275916199634871 0.1822409283299494 0 -0.00084813365411998446 0.1934899262765897 0 -0.010655350369958849 0.2079950060531324 0 0.010152248718067171 0.20193668832579309 0 -0.0173429703078707 0.1959176718311082 0 -0.00084813365411998446 0.1934899262765897 0 -0.010655350369958849 0.2079950060531324 0 -0.010655350369958849 0.2079950060531324 0 -0.023866489027926568 0.22278288162113999 0 -0.00019660798468582521 0.22190080362934089 0 -0.010655350369958849 0.2079950060531324 0 -0.00019660798468582521 0.22190080362934089 0 0.010152248718067171 0.20193668832579309 0 -0.010655350369958849 0.2079950060531324 0 -0.030827499881089401 0.20542480233296539 0 -0.023866489027926568 0.22278288162113999 0 -0.00019660798468582521 0.22190080362934089 0 -0.014966429343546131 0.2416021087830322 0 0.01483930435621021 0.23916349039463611 0 -0.023866489027926568 0.22278288162113999 0 -0.00019660798468582521 0.22190080362934089 0 -0.014966429343546131 0.2416021087830322 0 -0.014966429343546131 0.2416021087830322 0 0.01483930435621021 0.23916349039463611 0 3.4036501383808038e-05 0.25211346284330632 0 -0.014966429343546131 0.2416021087830322 0 0.01483930435621021 0.23916349039463611 0 -0.044772163043302393 0.24404072717142691 0 -0.023866489027926568 0.22278288162113999 0 -0.014966429343546131 0.2416021087830322 0 -0.044772163043302393 0.24404072717142691 0 -0.014966429343546131 0.2416021087830322 0 -0.04541077377186642 0.14924881744730389 0 -0.054195851860079788 0.15916383351508459 0 -0.03570783359019674 0.15826374266296611 0 -0.033031313090373868 0.13293546453290489 0 -0.03570783359019674 0.15826374266296611 0 -0.04541077377186642 0.14924881744730389 0 -0.033031313090373868 0.13293546453290489 0 -0.03570783359019674 0.15826374266296611 0 -0.04541077377186642 0.14924881744730389 0 -0.033031313090373868 0.13293546453290489 0 -0.058708096546824948 0.14663222907825921 0 -0.033031313090373868 0.13293546453290489 0 -0.031571869024581263 0.1191245465086572 0 -0.04847045691299641 0.12432138953435019 0 -0.033031313090373868 0.13293546453290489 0 -0.058708096546824948 0.14663222907825921 0 -0.04847045691299641 0.12432138953435019 0 -0.033031313090373868 0.13293546453290489 0 -0.058708096546824948 0.14663222907825921 0 -0.033031313090373868 0.13293546453290489 0 -0.031571869024581263 0.1191245465086572 0 -0.066043471425443312 0.12626010328359591 0 -0.058708096546824948 0.14663222907825921 0 -0.066043471425443312 0.12626010328359591 0 -0.058708096546824948 0.14663222907825921 0 -0.04847045691299641 0.12432138953435019 0 -0.04541077377186642 0.14924881744730389 0 -0.058708096546824948 0.14663222907825921 0 -0.054195851860079788 0.15916383351508459 0 -0.058708096546824948 0.14663222907825921 0 -0.054195851860079788 0.15916383351508459 0 -0.068712974232226248 0.1739435432694055 0 -0.054682404405094247 0.17185410881690361 0 -0.054195851860079788 0.15916383351508459 0 -0.054682404405094247 0.17185410881690361 0 -0.054195851860079788 0.15916383351508459 0 -0.046266959470649821 0.17125672446111309 0 -0.063970627671350561 0.18491609163705919 0 -0.046381888991895458 0.18400588734354181 0 -0.068712974232226248 0.1739435432694055 0 -0.063970627671350561 0.18491609163705919 0 -0.046381888991895458 0.18400588734354181 0 -0.068712974232226248 0.1739435432694055 0 -0.046381888991895458 0.18400588734354181 0 -0.068712974232226248 0.1739435432694055 0 -0.054682404405094247 0.17185410881690361 0 -0.046381888991895458 0.18400588734354181 0 -0.054682404405094247 0.17185410881690361 0 -0.046381888991895458 0.18400588734354181 0 -0.046266959470649821 0.17125672446111309 0 -0.046381888991895458 0.18400588734354181 0 -0.038384354090031277 0.18359202079302611 0 -0.03878960404665581 0.1874269563424571 0 -0.046381888991895458 0.18400588734354181 0 -0.038384354090031277 0.18359202079302611 0 -0.046381888991895458 0.18400588734354181 0 -0.03878960404665581 0.1874269563424571 0 -0.046381888991895458 0.18400588734354181 0 -0.038384354090031277 0.18359202079302611 0 -0.046266959470649821 0.17125672446111309 0 -0.032107951434550391 0.19043769616290401 0 -0.038384354090031277 0.18359202079302611 0 -0.03878960404665581 0.1874269563424571 0 -0.038384354090031277 0.18359202079302611 0 -0.03878960404665581 0.1874269563424571 0 -0.038384354090031277 0.18359202079302611 0 -0.03570783359019674 0.15826374266296611 0 -0.038384354090031277 0.18359202079302611 0 -0.03570783359019674 0.15826374266296611 0 -0.046266959470649821 0.17125672446111309 0 -0.038384354090031277 0.18359202079302611 0 -0.03570783359019674 0.15826374266296611 0 -0.024588622626145161 0.1709184859927797 0 -0.054195851860079788 0.15916383351508459 0 -0.03570783359019674 0.15826374266296611 0 -0.046266959470649821 0.17125672446111309 0 -0.03570783359019674 0.15826374266296611 0 -0.024588622626145161 0.1709184859927797 0 -0.017613822312506539 0.15030063416745371 0 -0.038384354090031277 0.18359202079302611 0 -0.024588622626145161 0.1709184859927797 0 -0.012275916199634871 0.1822409283299494 0 -0.038384354090031277 0.18359202079302611 0 -0.012275916199634871 0.1822409283299494 0 -0.032107951434550391 0.19043769616290401 0 -0.038384354090031277 0.18359202079302611 0 -0.012275916199634871 0.1822409283299494 0 -0.024588622626145161 0.1709184859927797 0 -0.012275916199634871 0.1822409283299494 0 -0.00047794902262057992 0.1633110830326773 0 -0.012275916199634871 0.1822409283299494 0 -0.00047794902262057992 0.1633110830326773 0 0.0048657734533592194 0.1736731905571699 0 -0.024588622626145161 0.1709184859927797 0 -0.00047794902262057992 0.1633110830326773 0 -0.017613822312506539 0.15030063416745371 0 -0.00047794902262057992 0.1633110830326773 0 -0.017613822312506539 0.15030063416745371 0 0.0022400168639910428 0.14088378668564211 0 -0.017613822312506539 0.15030063416745371 0 -0.013820028394028849 0.13577569681799659 0 0.0022400168639910428 0.14088378668564211 0 -0.033031313090373868 0.13293546453290489 0 -0.03570783359019674 0.15826374266296611 0 -0.017613822312506539 0.15030063416745371 0 -0.033031313090373868 0.13293546453290489 0 -0.013820028394028849 0.13577569681799659 0 -0.0068749950372359037 0.1189829018859844 0 -0.033031313090373868 0.13293546453290489 0 -0.017613822312506539 0.15030063416745371 0 -0.013820028394028849 0.13577569681799659 0 -0.033031313090373868 0.13293546453290489 0 -0.0068749950372359037 0.1189829018859844 0 -0.013820028394028849 0.13577569681799659 0 -0.0068749950372359037 0.1189829018859844 0 0.0022400168639910428 0.14088378668564211 0 -0.0068749950372359037 0.1189829018859844 0 -0.011429360025198711 0.10878718745150009 0 -0.02103787333870754 0.1185685879934603 0 -0.0068749950372359037 0.1189829018859844 0 -0.003321782685211066 0.1053820588488959 0 -0.011429360025198711 0.10878718745150009 0 -0.0020537484887101359 0.094772676856455795 0 -0.01330880958368569 0.10345322276906931 0 -0.023388819993325271 0.084515014473833722 0 -0.003321782685211066 0.1053820588488959 0 -0.0020537484887101359 0.094772676856455795 0 -0.01330880958368569 0.10345322276906931 0 -0.003321782685211066 0.1053820588488959 0 -0.01330880958368569 0.10345322276906931 0 -0.011429360025198711 0.10878718745150009 0 -0.011429360025198711 0.10878718745150009 0 -0.032079188784819732 0.1078207841306444 0 -0.01330880958368569 0.10345322276906931 0 -0.02742067417072502 0.097134429537889269 0 -0.032079188784819732 0.1078207841306444 0 -0.01330880958368569 0.10345322276906931 0 -0.02742067417072502 0.097134429537889269 0 -0.023388819993325271 0.084515014473833722 0 -0.01330880958368569 0.10345322276906931 0 -0.023388819993325271 0.084515014473833722 0 -0.01330880958368569 0.10345322276906931 0 -0.011429360025198711 0.10878718745150009 0 -0.032079188784819732 0.1078207841306444 0 -0.022281829516145352 0.11301283958825981 0 -0.031571869024581263 0.1191245465086572 0 -0.032079188784819732 0.1078207841306444 0 -0.011429360025198711 0.10878718745150009 0 -0.022281829516145352 0.11301283958825981 0 -0.032079188784819732 0.1078207841306444 0 -0.02103787333870754 0.1185685879934603 0 -0.022281829516145352 0.11301283958825981 0 -0.031571869024581263 0.1191245465086572 0 -0.033031313090373868 0.13293546453290489 0 -0.0068749950372359037 0.1189829018859844 0 -0.02103787333870754 0.1185685879934603 0 -0.033031313090373868 0.13293546453290489 0 -0.02103787333870754 0.1185685879934603 0 -0.031571869024581263 0.1191245465086572 0 -0.011429360025198711 0.10878718745150009 0 -0.02103787333870754 0.1185685879934603 0 -0.022281829516145352 0.11301283958825981 0 -0.0017533712137043961 0.076435494418646943 0 -0.023388819993325271 0.084515014473833722 0 -0.01047210625047482 0.061507158867089871 0 -0.0020537484887101359 0.094772676856455795 0 -0.0017533712137043961 0.076435494418646943 0 -0.023388819993325271 0.084515014473833722 0 -0.0020537484887101359 0.094772676856455795 0 -0.023388819993325271 0.084515014473833722 0 -0.02742067417072502 0.097134429537889269 0 -0.023388819993325271 0.084515014473833722 0 -0.040905878321070982 0.092748696778013007 0 -0.023388819993325271 0.084515014473833722 0 -0.036117191054831271 0.060601096469226783 0 -0.01047210625047482 0.061507158867089871 0 -0.023388819993325271 0.084515014473833722 0 -0.036117191054831271 0.060601096469226783 0 -0.023388819993325271 0.084515014473833722 0 -0.050532139621699078 0.071464811729895078 0 -0.023388819993325271 0.084515014473833722 0 -0.050532139621699078 0.071464811729895078 0 -0.036117191054831271 0.060601096469226783 0 -0.023388819993325271 0.084515014473833722 0 -0.040905878321070982 0.092748696778013007 0 -0.050532139621699078 0.071464811729895078 0 -0.040905878321070982 0.092748696778013007 0 -0.062078306199534382 0.088511032787997435 0 -0.050532139621699078 0.071464811729895078 0 -0.050532139621699078 0.071464811729895078 0 -0.065413712665649035 0.073818335485101083 0 -0.054595067180582053 0.054912667442638591 0 -0.062078306199534382 0.088511032787997435 0 -0.050532139621699078 0.071464811729895078 0 -0.065413712665649035 0.073818335485101083 0 -0.042412268296999053 0.1139478046503089 0 -0.031571869024581263 0.1191245465086572 0 -0.04847045691299641 0.12432138953435019 0 -0.042412268296999053 0.1139478046503089 0 -0.032079188784819732 0.1078207841306444 0 -0.052729017544440801 0.10685438080978869 0 -0.042412268296999053 0.1139478046503089 0 -0.031571869024581263 0.1191245465086572 0 -0.032079188784819732 0.1078207841306444 0 -0.040905878321070982 0.092748696778013007 0 -0.032079188784819732 0.1078207841306444 0 -0.052729017544440801 0.10685438080978869 0 -0.032079188784819732 0.1078207841306444 0 -0.052729017544440801 0.10685438080978869 0 -0.02742067417072502 0.097134429537889269 0 -0.040905878321070982 0.092748696778013007 0 -0.032079188784819732 0.1078207841306444 0 -0.040905878321070982 0.092748696778013007 0 -0.062078306199534382 0.088511032787997435 0 -0.052729017544440801 0.10685438080978869 0 -0.042412268296999053 0.1139478046503089 0 -0.052729017544440801 0.10685438080978869 0 -0.04847045691299641 0.12432138953435019 0 -0.066043471425443312 0.12626010328359591 0 -0.052729017544440801 0.10685438080978869 0 -0.04847045691299641 0.12432138953435019 0 -0.066043471425443312 0.12626010328359591 0 -0.081979538004366054 0.1261786369342994 0 -0.073378846304061829 0.10588797748893269 0 -0.066043471425443312 0.12626010328359591 0 -0.052729017544440801 0.10685438080978869 0 -0.073378846304061829 0.10588797748893269 0 -0.066043471425443312 0.12626010328359591 0 -0.073378846304061829 0.10588797748893269 0 -0.099705524281883187 0.12772580554098631 0 -0.081979538004366054 0.1261786369342994 0 -0.092894062023594542 0.1161869859735077 0 -0.081979538004366054 0.1261786369342994 0 -0.092894062023594542 0.1161869859735077 0 -0.073378846304061829 0.10588797748893269 0 -0.073378846304061829 0.10588797748893269 0 -0.10207122529242101 0.1045451861921924 0 -0.073378846304061829 0.10588797748893269 0 -0.082132067133204437 0.081578147549696001 0 -0.10207122529242101 0.1045451861921924 0 -0.092894062023594542 0.1161869859735077 0 -0.073378846304061829 0.10588797748893269 0 -0.10207122529242101 0.1045451861921924 0 -0.052729017544440801 0.10685438080978869 0 -0.073378846304061829 0.10588797748893269 0 -0.062078306199534382 0.088511032787997435 0 -0.052729017544440801 0.10685438080978869 0 -0.073378846304061829 0.10588797748893269 0 -0.073378846304061829 0.10588797748893269 0 -0.082132067133204437 0.081578147549696001 0 -0.062078306199534382 0.088511032787997435 0 -0.073378846304061829 0.10588797748893269 0 -0.082132067133204437 0.081578147549696001 0 -0.062078306199534382 0.088511032787997435 0 -0.065413712665649035 0.073818335485101083 0 -0.082132067133204437 0.081578147549696001 0 -0.065413712665649035 0.073818335485101083 0 -0.082132067133204437 0.081578147549696001 0 -0.072188305715599907 0.06028658729121239 0 -0.065413712665649035 0.073818335485101083 0 -0.072188305715599907 0.06028658729121239 0 -0.054595067180582053 0.054912667442638591 0 -0.082132067133204437 0.081578147549696001 0 -0.1033467674946246 0.07276307649624901 0 -0.092330935824558882 0.05828947376211089 0 -0.082132067133204437 0.081578147549696001 0 -0.092330935824558882 0.05828947376211089 0 -0.072188305715599907 0.06028658729121239 0 -0.082132067133204437 0.081578147549696001 0 -0.1086257119294434 0.088680422950757454 0 -0.10207122529242101 0.1045451861921924 0 -0.082132067133204437 0.081578147549696001 0 -0.1086257119294434 0.088680422950757454 0 -0.1033467674946246 0.07276307649624901 0 -0.1033467674946246 0.07276307649624901 0 -0.1136379760987804 0.059972517202991092 0 -0.092330935824558882 0.05828947376211089 0 -0.1033467674946246 0.07276307649624901 0 -0.1200071464871357 0.075294821015689684 0 -0.1136379760987804 0.059972517202991092 0 -0.1360598665496652 0.061124287569049578 0 -0.1200071464871357 0.075294821015689684 0 -0.1136379760987804 0.059972517202991092 0 -0.12577384119145621 0.087909922726883194 0 -0.1086257119294434 0.088680422950757454 0 -0.1200071464871357 0.075294821015689684 0 -0.13076360428077999 0.1032023948954521 0 -0.12577384119145621 0.087909922726883194 0 -0.1086257119294434 0.088680422950757454 0 -0.1086257119294434 0.088680422950757454 0 -0.1033467674946246 0.07276307649624901 0 -0.1200071464871357 0.075294821015689684 0 -0.13076360428077999 0.1032023948954521 0 -0.1086257119294434 0.088680422950757454 0 -0.10207122529242101 0.1045451861921924 0 -0.13076360428077999 0.1032023948954521 0 -0.10207122529242101 0.1045451861921924 0 -0.13076360428077999 0.1032023948954521 0 -0.11804302563125341 0.1153212514231516 0 -0.10207122529242101 0.1045451861921924 0 -0.13076360428077999 0.1032023948954521 0 -0.11804302563125341 0.1153212514231516 0 -0.1235192860157463 0.11941317108773911 0 -0.11804302563125341 0.1153212514231516 0 -0.1235192860157463 0.11941317108773911 0 -0.11262796015323071 0.12421124413663399 0 -0.11804302563125341 0.1153212514231516 0 -0.1235192860157463 0.11941317108773911 0 -0.11804302563125341 0.1153212514231516 0 -0.11262796015323071 0.12421124413663399 0 -0.10506835947647659 0.1175980946532944 0 -0.11804302563125341 0.1153212514231516 0 -0.10506835947647659 0.1175980946532944 0 -0.10207122529242101 0.1045451861921924 0 -0.099705524281883187 0.12772580554098631 0 -0.11262796015323071 0.12421124413663399 0 -0.10506835947647659 0.1175980946532944 0 -0.099705524281883187 0.12772580554098631 0 -0.092894062023594542 0.1161869859735077 0 -0.10506835947647659 0.1175980946532944 0 -0.092894062023594542 0.1161869859735077 0 -0.10506835947647659 0.1175980946532944 0 -0.10207122529242101 0.1045451861921924 0 -0.1083602237852468 0.01913132607725351 0 -0.1052789879826153 0.03684719997243846 0 -0.088597982274282713 0.018827288995960249 0 -0.1083602237852468 0.01913132607725351 0 -0.10150418330331321 0.0025078213068508211 0 -0.088597982274282713 0.018827288995960249 0 -0.12832547528433949 0.017422707222324089 0 -0.1083602237852468 0.01913132607725351 0 -0.10150418330331321 0.0025078213068508211 0 -0.1136104046283796 -0.012726262184012779 0 -0.12832547528433949 0.017422707222324089 0 -0.10150418330331321 0.0025078213068508211 0 -0.12832547528433949 0.017422707222324089 0 -0.1083602237852468 0.01913132607725351 0 -0.1052789879826153 0.03684719997243846 0 -0.12832547528433949 0.017422707222324089 0 -0.1221638745186274 0.046349265705951381 0 -0.1052789879826153 0.03684719997243846 0 -0.1360598665496652 0.061124287569049578 0 -0.1221638745186274 0.046349265705951381 0 -0.1136379760987804 0.059972517202991092 0 -0.1221638745186274 0.046349265705951381 0 -0.1136379760987804 0.059972517202991092 0 -0.1052789879826153 0.03684719997243846 0 -0.1136379760987804 0.059972517202991092 0 -0.1052789879826153 0.03684719997243846 0 -0.092330935824558882 0.05828947376211089 0 -0.1052789879826153 0.03684719997243846 0 -0.077062275049474077 0.036767189218525939 0 -0.1052789879826153 0.03684719997243846 0 -0.092330935824558882 0.05828947376211089 0 -0.077062275049474077 0.036767189218525939 0 -0.092330935824558882 0.05828947376211089 0 -0.072188305715599907 0.06028658729121239 0 -0.077062275049474077 0.036767189218525939 0 -0.072188305715599907 0.06028658729121239 0 -0.077062275049474077 0.036767189218525939 0 -0.054595067180582053 0.054912667442638591 0 -0.077062275049474077 0.036767189218525939 0 -0.070020004815002757 0.023932973124675651 0 -0.048845562116332883 0.036687178464617609 0 -0.077062275049474077 0.036767189218525939 0 -0.048845562116332883 0.036687178464617609 0 -0.070020004815002757 0.023932973124675651 0 -0.088597982274282713 0.018827288995960249 0 -0.071860724227586784 0.010451426245969189 0 -0.070020004815002757 0.023932973124675651 0 -0.071860724227586784 0.010451426245969189 0 -0.060428845423134078 0.01492463823975943 0 -0.1052789879826153 0.03684719997243846 0 -0.077062275049474077 0.036767189218525939 0 -0.088597982274282713 0.018827288995960249 0 -0.077062275049474077 0.036767189218525939 0 -0.070020004815002757 0.023932973124675651 0 -0.088597982274282713 0.018827288995960249 0 -0.10150418330331321 0.0025078213068508211 0 -0.088597982274282713 0.018827288995960249 0 -0.085799489399454615 0.001724744846627279 0 -0.088597982274282713 0.018827288995960249 0 -0.085799489399454615 0.001724744846627279 0 -0.071860724227586784 0.010451426245969189 0 -0.072758396221369898 -0.0082399808146359013 0 -0.085799489399454615 0.001724744846627279 0 -0.071860724227586784 0.010451426245969189 0 -0.072758396221369898 -0.0082399808146359013 0 -0.060428845423134078 0.01492463823975943 0 -0.072758396221369898 -0.0082399808146359013 0 -0.071860724227586784 0.010451426245969189 0 -0.060428845423134078 0.01492463823975943 0 -0.071860724227586784 0.010451426245969189 0 -0.060428845423134078 0.01492463823975943 0 -0.051842672105422212 -0.004508979832561268 0 -0.060428845423134078 0.01492463823975943 0 -0.044197721668806957 0.010029076185240149 0 -0.072758396221369898 -0.0082399808146359013 0 -0.051842672105422212 -0.004508979832561268 0 -0.060428845423134078 0.01492463823975943 0 -0.060428845423134078 0.01492463823975943 0 -0.048845562116332883 0.036687178464617609 0 -0.070020004815002757 0.023932973124675651 0 -0.060428845423134078 0.01492463823975943 0 -0.048845562116332883 0.036687178464617609 0 -0.060428845423134078 0.01492463823975943 0 -0.032778736941483887 0.025743926915353491 0 -0.048845562116332883 0.036687178464617609 0 -0.060428845423134078 0.01492463823975943 0 -0.032778736941483887 0.025743926915353491 0 -0.044197721668806957 0.010029076185240149 0 -0.060428845423134078 0.01492463823975943 0 -0.032778736941483887 0.025743926915353491 0 -0.051842672105422212 -0.004508979832561268 0 -0.044197721668806957 0.010029076185240149 0 -0.031740632205187157 0.0039567194184075994 0 -0.032778736941483887 0.025743926915353491 0 -0.044197721668806957 0.010029076185240149 0 -0.031740632205187157 0.0039567194184075994 0 -0.050532139621699078 0.071464811729895078 0 -0.054595067180582053 0.054912667442638591 0 -0.036117191054831271 0.060601096469226783 0 -0.077062275049474077 0.036767189218525939 0 -0.054595067180582053 0.054912667442638591 0 -0.048845562116332883 0.036687178464617609 0 -0.032778736941483887 0.025743926915353491 0 -0.048845562116332883 0.036687178464617609 0 -0.02698709528808314 0.036625197027780422 0 -0.048845562116332883 0.036687178464617609 0 -0.036117191054831271 0.060601096469226783 0 -0.02698709528808314 0.036625197027780422 0 -0.048845562116332883 0.036687178464617609 0 -0.02698709528808314 0.036625197027780422 0 -0.054595067180582053 0.054912667442638591 0 -0.048845562116332883 0.036687178464617609 0 -0.036117191054831271 0.060601096469226783 0 -0.048845562116332883 0.036687178464617609 0 -0.036117191054831271 0.060601096469226783 0 -0.036117191054831271 0.060601096469226783 0 -0.01633858693384416 0.047313880017271541 0 -0.02698709528808314 0.036625197027780422 0 -0.036117191054831271 0.060601096469226783 0 -0.01633858693384416 0.047313880017271541 0 -0.01047210625047482 0.061507158867089871 0 -0.032778736941483887 0.025743926915353491 0 -0.02698709528808314 0.036625197027780422 0 -0.0051286284598333473 0.036563215590946788 0 -0.02698709528808314 0.036625197027780422 0 -0.0051286284598333473 0.036563215590946788 0 -0.01633858693384416 0.047313880017271541 0 -0.02698709528808314 0.036625197027780422 0 -0.0051286284598333473 0.036563215590946788 0 -0.0051286284598333473 0.036563215590946788 0 0.0035162367661260778 0.036538702381846672 0 -0.0051286284598333473 0.036563215590946788 0 -0.0035907580868082579 0.048113885390109787 0 0.0053778524356253741 0.040674326035522138 0 -0.01633858693384416 0.047313880017271541 0 -0.0051286284598333473 0.036563215590946788 0 -0.0035907580868082579 0.048113885390109787 0 -0.01633858693384416 0.047313880017271541 0 -0.0035907580868082579 0.048113885390109787 0 -0.01047210625047482 0.061507158867089871 0 -0.032778736941483887 0.025743926915353491 0 -0.031740632205187157 0.0039567194184075994 0 -0.0078299177893015933 0.0113329491608615 0 -0.019176072344730209 -0.01387280406012348 0 -0.031740632205187157 0.0039567194184075994 0 -0.0078299177893015933 0.0113329491608615 0 -0.032778736941483887 0.025743926915353491 0 -0.0051286284598333473 0.036563215590946788 0 -0.032778736941483887 0.025743926915353491 0 -0.0051286284598333473 0.036563215590946788 0 -0.0078299177893015933 0.0113329491608615 0 -0.0078299177893015933 0.0113329491608615 0 0.0035162367661260778 0.036538702381846672 0 -0.0051286284598333473 0.036563215590946788 0 -0.0078299177893015933 0.0113329491608615 0 0.0035162367661260778 0.036538702381846672 0 -0.0078299177893015933 0.0113329491608615 0 0.012804629755676091 0.01274829418331646 0 0.011487415012152041 -0.00090451840804060585 0 -0.0078299177893015933 0.0113329491608615 0 0.0136921553953082 0.027087812205967812 0 0.0035162367661260778 0.036538702381846672 0 -0.0078299177893015933 0.0113329491608615 0 0.012804629755676091 0.01274829418331646 0 0.0136921553953082 0.027087812205967812 0 0.012804629755676091 0.01274829418331646 0 0.0136921553953082 0.027087812205967812 0 0.022817507703070779 0.01935438951685331 0 0.0136921553953082 0.027087812205967812 0 0.02172824741827202 0.027422574202564901 0 0.027597834435326329 0.036470417079111597 0 0.0136921553953082 0.027087812205967812 0 0.022817507703070779 0.01935438951685331 0 0.02172824741827202 0.027422574202564901 0 0.02172824741827202 0.027422574202564901 0 0.026950782985469431 0.031220298078867809 0 0.029825177290780922 0.024351537191322381 0 0.022817507703070779 0.01935438951685331 0 0.02172824741827202 0.027422574202564901 0 0.029825177290780922 0.024351537191322381 0 0.026950782985469431 0.031220298078867809 0 0.029825177290780922 0.024351537191322381 0 0.033136335344784489 0.030451563698466581 0 0.022817507703070779 0.01935438951685331 0 0.029825177290780922 0.024351537191322381 0 0.034668492678739157 0.01220787109679823 0 0.022817507703070779 0.01935438951685331 0 0.024379544835876399 0.0059501558049816902 0 0.034668492678739157 0.01220787109679823 0 0.012804629755676091 0.01274829418331646 0 0.024379544835876399 0.0059501558049816902 0 0.011487415012152041 -0.00090451840804060585 0 0.012804629755676091 0.01274829418331646 0 0.022817507703070779 0.01935438951685331 0 0.024379544835876399 0.0059501558049816902 0 0.014617418387521621 0.061200242381434088 0 0.0053778524356253741 0.040674326035522138 0 0.014617418387521621 0.061200242381434088 0 0.0053778524356253741 0.040674326035522138 0 0.016217530381797921 0.044915814090728853 0 -0.0035907580868082579 0.048113885390109787 0 0.014617418387521621 0.061200242381434088 0 0.0053778524356253741 0.040674326035522138 0 -0.0035907580868082579 0.048113885390109787 0 -0.01047210625047482 0.061507158867089871 0 0.014617418387521621 0.061200242381434088 0 0.0136921553953082 0.027087812205967812 0 0.0035162367661260778 0.036538702381846672 0 0.027597834435326329 0.036470417079111597 0 0.0035162367661260778 0.036538702381846672 0 0.027597834435326329 0.036470417079111597 0 0.0053778524356253741 0.040674326035522138 0 0.016217530381797921 0.044915814090728853 0 0.0053778524356253741 0.040674326035522138 0 0.0035162367661260778 0.036538702381846672 0 0.016217530381797921 0.044915814090728853 0 -0.0051286284598333473 0.036563215590946788 0 0.0053778524356253741 0.040674326035522138 0 0.0035162367661260778 0.036538702381846672 0 0.0053778524356253741 0.040674326035522138 0 0.0035162367661260778 0.036538702381846672 0 -0.0051286284598333473 0.036563215590946788 0 0.0053778524356253741 0.040674326035522138 0 0.027597834435326329 0.036470417079111597 0 0.030069639886044192 0.056526430808150327 0 0.0035162367661260778 0.036538702381846672 0 0.027597834435326329 0.036470417079111597 0 0.016217530381797921 0.044915814090728853 0 0.027597834435326329 0.036470417079111597 0 0.016217530381797921 0.044915814090728853 0 0.030069639886044192 0.056526430808150327 0 0.02172824741827202 0.027422574202564901 0 0.026950782985469431 0.031220298078867809 0 0.027597834435326329 0.036470417079111597 0 0.026950782985469431 0.031220298078867809 0 0.027597834435326329 0.036470417079111597 0 0.026950782985469431 0.031220298078867809 0 0.027597834435326329 0.036470417079111597 0 0.033136335344784489 0.030451563698466581 0 0.014617418387521621 0.061200242381434088 0 0.016217530381797921 0.044915814090728853 0 0.030069639886044192 0.056526430808150327 0 0.030069639886044192 0.056526430808150327 0 0.038223224086265273 0.047965544561363281 0 0.045211957046516302 0.068433533879483477 0 0.027597834435326329 0.036470417079111597 0 0.030069639886044192 0.056526430808150327 0 0.038223224086265273 0.047965544561363281 0 0.038223224086265273 0.047965544561363281 0 0.052181945439770991 0.04195090420563103 0 0.045211957046516302 0.068433533879483477 0 0.036054743623668672 0.036446436834439933 0 0.052181945439770991 0.04195090420563103 0 0.040870344173846593 0.026729075379993059 0 0.038223224086265273 0.047965544561363281 0 0.036054743623668672 0.036446436834439933 0 0.052181945439770991 0.04195090420563103 0 0.027597834435326329 0.036470417079111597 0 0.038223224086265273 0.047965544561363281 0 0.036054743623668672 0.036446436834439933 0 0.027597834435326329 0.036470417079111597 0 0.036054743623668672 0.036446436834439933 0 0.027597834435326329 0.036470417079111597 0 0.036054743623668672 0.036446436834439933 0 0.033136335344784489 0.030451563698466581 0 0.052181945439770991 0.04195090420563103 0 0.065110367410800035 0.037613582407992847 0 0.063947194847996311 0.058179180653568467 0 0.052181945439770991 0.04195090420563103 0 0.059151933833025687 0.015468274531778551 0 0.065110367410800035 0.037613582407992847 0 0.052181945439770991 0.04195090420563103 0 0.063947194847996311 0.058179180653568467 0 0.045211957046516302 0.068433533879483477 0 0.052181945439770991 0.04195090420563103 0 0.045211957046516302 0.068433533879483477 0 0.024379544835876399 0.0059501558049816902 0 0.034668492678739157 0.01220787109679823 0 0.041242187119049582 -0.0028268805465379541 0 0.034668492678739157 0.01220787109679823 0 0.059151933833025687 0.015468274531778551 0 0.041242187119049582 -0.0028268805465379541 0 0.029825177290780922 0.024351537191322381 0 0.034668492678739157 0.01220787109679823 0 0.040870344173846593 0.026729075379993059 0 0.034668492678739157 0.01220787109679823 0 0.040870344173846593 0.026729075379993059 0 0.059151933833025687 0.015468274531778551 0 0.029825177290780922 0.024351537191322381 0 0.033136335344784489 0.030451563698466581 0 0.040870344173846593 0.026729075379993059 0 0.036054743623668672 0.036446436834439933 0 0.033136335344784489 0.030451563698466581 0 0.040870344173846593 0.026729075379993059 0 0.052181945439770991 0.04195090420563103 0 0.040870344173846593 0.026729075379993059 0 0.059151933833025687 0.015468274531778551 0 0.052181945439770991 0.04195090420563103 0 0.059151933833025687 0.015468274531778551 0 0.059151933833025687 0.015468274531778551 0 0.041242187119049582 -0.0028268805465379541 0 0.066121922226280383 -0.011014355142073939 0 0.059151933833025687 0.015468274531778551 0 0.066121922226280383 -0.011014355142073939 0 0.059151933833025687 0.015468274531778551 0 0.074430949642245739 0.0081337784437301233 0 0.066121922226280383 -0.011014355142073939 0 0.074430949642245739 0.0081337784437301233 0 0.090311016037907227 0.0091617695474997124 0 0.082899820843788871 0.021418902990744091 0 0.074430949642245739 0.0081337784437301233 0 0.090311016037907227 0.0091617695474997124 0 0.087923092569810235 -0.01354239255918047 0 0.090311016037907227 0.0091617695474997124 0 0.092698939506004177 0.031865931654179828 0 0.090311016037907227 0.0091617695474997124 0 0.082899820843788871 0.021418902990744091 0 0.092698939506004177 0.031865931654179828 0 0.074430949642245739 0.0081337784437301233 0 0.082899820843788871 0.021418902990744091 0 0.068795782939110817 0.023916751912161919 0 0.059151933833025687 0.015468274531778551 0 0.068795782939110817 0.023916751912161919 0 0.065110367410800035 0.037613582407992847 0 0.059151933833025687 0.015468274531778551 0 0.074430949642245739 0.0081337784437301233 0 0.068795782939110817 0.023916751912161919 0 0.082899820843788871 0.021418902990744091 0 0.068795782939110817 0.023916751912161919 0 0.076160533602886674 0.047338720019967508 0 0.068795782939110817 0.023916751912161919 0 0.065110367410800035 0.037613582407992847 0 0.076160533602886674 0.047338720019967508 0 0.068795782939110817 0.023916751912161919 0 0.076160533602886674 0.047338720019967508 0 0.076160533602886674 0.047338720019967508 0 0.063947194847996311 0.058179180653568467 0 0.083525284266662531 0.070760688127773252 0 0.065110367410800035 0.037613582407992847 0 0.076160533602886674 0.047338720019967508 0 0.063947194847996311 0.058179180653568467 0 0.076160533602886674 0.047338720019967508 0 0.083525284266662531 0.070760688127773252 0 0.076160533602886674 0.047338720019967508 0 0.095086862974101127 0.054570093760859813 0 0.083525284266662531 0.070760688127773252 0 0.076160533602886674 0.047338720019967508 0 0.092698939506004177 0.031865931654179828 0 0.095086862974101127 0.054570093760859813 0 0.082899820843788871 0.021418902990744091 0 0.076160533602886674 0.047338720019967508 0 0.092698939506004177 0.031865931654179828 0 0.092698939506004177 0.031865931654179828 0 0.095086862974101127 0.054570093760859813 0 0.092698939506004177 0.031865931654179828 0 0.1002424435851418 0.040134493836747852 0 0.095086862974101127 0.054570093760859813 0 0.1002424435851418 0.040134493836747852 0 0.1112587069244291 0.03155889741355565 0 0.10985702765479061 0.045864532887802928 0 0.1002424435851418 0.040134493836747852 0 0.10113285571023529 0.051291587571517992 0 0.10985702765479061 0.045864532887802928 0 0.095086862974101127 0.054570093760859813 0 0.10361520101083239 0.060044125445866653 0 0.083525284266662531 0.070760688127773252 0 0.095086862974101127 0.054570093760859813 0 0.10113285571023529 0.051291587571517992 0 0.10361520101083239 0.060044125445866653 0 0.1002424435851418 0.040134493836747852 0 0.095086862974101127 0.054570093760859813 0 0.10113285571023529 0.051291587571517992 0 0.10113285571023529 0.051291587571517992 0 0.10361520101083239 0.060044125445866653 0 0.10985702765479061 0.045864532887802928 0 0.10113285571023529 0.051291587571517992 0 0.10361520101083239 0.060044125445866653 0 0.10361520101083239 0.060044125445866653 0 0.1176544120096116 0.052555190245745551 0 0.115432342309486 0.070779966328890179 0 0.10361520101083239 0.060044125445866653 0 0.1176544120096116 0.052555190245745551 0 0.10361520101083239 0.060044125445866653 0 0.1176544120096116 0.052555190245745551 0 0.10985702765479061 0.045864532887802928 0 0.1176544120096116 0.052555190245745551 0 0.13169362300839149 0.045066255045625787 0 0.1176544120096116 0.052555190245745551 0 0.10985702765479061 0.045864532887802928 0 0.1217654303830035 0.036039969463771783 0 0.1176544120096116 0.052555190245745551 0 0.1217654303830035 0.036039969463771783 0 0.13169362300839149 0.045066255045625787 0 0.1112587069244291 0.03155889741355565 0 0.10985702765479061 0.045864532887802928 0 0.1217654303830035 0.036039969463771783 0 0.1112587069244291 0.03155889741355565 0 0.1217654303830035 0.036039969463771783 0 0.1200165412971101 0.016821957912596379 0 0.1112587069244291 0.03155889741355565 0 0.1200165412971101 0.016821957912596379 0 0.10418603662079701 0.021717038567612451 0 0.1200165412971101 0.016821957912596379 0 0.1054706582405712 -0.001623709214258733 0 0.12535926908485989 -0.0043146879934122416 0 0.1200165412971101 0.016821957912596379 0 0.10418603662079701 0.021717038567612451 0 0.1054706582405712 -0.001623709214258733 0 0.090311016037907227 0.0091617695474997124 0 0.10418603662079701 0.021717038567612451 0 0.1054706582405712 -0.001623709214258733 0 0.092698939506004177 0.031865931654179828 0 0.1002424435851418 0.040134493836747852 0 0.10418603662079701 0.021717038567612451 0 0.090311016037907227 0.0091617695474997124 0 0.092698939506004177 0.031865931654179828 0 0.10418603662079701 0.021717038567612451 0 0.1002424435851418 0.040134493836747852 0 0.1112587069244291 0.03155889741355565 0 0.10418603662079701 0.021717038567612451 0 0.095204828694183119 0.1079049078826391 0 0.1179389008837123 0.1105482698966882 0 0.11077705094727169 0.085296197671277552 0 0.095204828694183119 0.1079049078826391 0 0.11077705094727169 0.085296197671277552 0 0.089365056480422839 0.089332798005206132 0 0.095204828694183119 0.1079049078826391 0 0.099748100985016935 0.12493257931483399 0 0.1179389008837123 0.1105482698966882 0 0.1179389008837123 0.1105482698966882 0 0.123576886174183 0.13042732531174611 0 0.1179389008837123 0.1105482698966882 0 0.1130219389257829 0.1339564182426026 0 0.123576886174183 0.13042732531174611 0 0.1179389008837123 0.1105482698966882 0 0.1130219389257829 0.1339564182426026 0 0.099748100985016935 0.12493257931483399 0 0.1179389008837123 0.1105482698966882 0 0.1130219389257829 0.1339564182426026 0 0.1179389008837123 0.1105482698966882 0 0.11077705094727169 0.085296197671277552 0 0.1179389008837123 0.1105482698966882 0 0.1225238082586065 0.088720931613000958 0 0.11077705094727169 0.085296197671277552 0 0.1179389008837123 0.1105482698966882 0 0.1225238082586065 0.088720931613000958 0 0.13277620178702379 0.1041218724103066 0 0.1179389008837123 0.1105482698966882 0 0.1225238082586065 0.088720931613000958 0 0.1225238082586065 0.088720931613000958 0 0.11077705094727169 0.085296197671277552 0 0.115432342309486 0.070779966328890179 0 0.10361520101083239 0.060044125445866653 0 0.11077705094727169 0.085296197671277552 0 0.115432342309486 0.070779966328890179 0 0.1176544120096116 0.052555190245745551 0 0.115432342309486 0.070779966328890179 0 0.1271087156334996 0.06689359332931348 0 0.1225238082586065 0.088720931613000958 0 0.1271087156334996 0.06689359332931348 0 0.1225238082586065 0.088720931613000958 0 0.115432342309486 0.070779966328890179 0 0.1271087156334996 0.06689359332931348 0 0.10361520101083239 0.060044125445866653 0 0.11077705094727169 0.085296197671277552 0 0.10361520101083239 0.060044125445866653 0 0.11077705094727169 0.085296197671277552 0 0.096820648176297291 0.0763584523125308 0 0.10361520101083239 0.060044125445866653 0 0.096820648176297291 0.0763584523125308 0 0.083525284266662531 0.070760688127773252 0 0.11077705094727169 0.085296197671277552 0 0.096820648176297291 0.0763584523125308 0 0.089365056480422839 0.089332798005206132 0 0.096820648176297291 0.0763584523125308 0 0.089365056480422839 0.089332798005206132 0 0.083525284266662531 0.070760688127773252 0 0.089365056480422839 0.089332798005206132 0 0.083525284266662531 0.070760688127773252 0 0.089365056480422839 0.089332798005206132 0 0.083525284266662531 0.070760688127773252 0 0.073907819145916764 0.094216159279947753 0 0.10361520101083239 0.060044125445866653 0 0.083525284266662531 0.070760688127773252 0 0.083525284266662531 0.070760688127773252 0 0.060883626459964299 0.082838425840556604 0 0.063947194847996311 0.058179180653568467 0 0.083525284266662531 0.070760688127773252 0 0.060883626459964299 0.082838425840556604 0 0.083525284266662531 0.070760688127773252 0 0.073907819145916764 0.094216159279947753 0 0.060883626459964299 0.082838425840556604 0 0.063775213581159881 0.10073297473789759 0 0.073907819145916764 0.094216159279947753 0 0.060883626459964299 0.082838425840556604 0 0.073907819145916764 0.094216159279947753 0 0.083112958336211462 0.1044240838713953 0 0.072104063845027058 0.1110028105097722 0 0.063775213581159881 0.10073297473789759 0 0.073907819145916764 0.094216159279947753 0 0.072104063845027058 0.1110028105097722 0 0.063775213581159881 0.10073297473789759 0 0.072104063845027058 0.1110028105097722 0 0.060226530729088457 0.11319686946064191 0 0.089365056480422839 0.089332798005206132 0 0.073907819145916764 0.094216159279947753 0 0.083112958336211462 0.1044240838713953 0 0.095204828694183119 0.1079049078826391 0 0.089365056480422839 0.089332798005206132 0 0.095204828694183119 0.1079049078826391 0 0.089365056480422839 0.089332798005206132 0 0.083112958336211462 0.1044240838713953 0 0.095204828694183119 0.1079049078826391 0 0.099748100985016935 0.12493257931483399 0 0.084983023515507544 0.11966374367941141 0 0.095204828694183119 0.1079049078826391 0 0.083112958336211462 0.1044240838713953 0 0.084983023515507544 0.11966374367941141 0 0.083112958336211462 0.1044240838713953 0 0.084983023515507544 0.11966374367941141 0 0.072104063845027058 0.1110028105097722 0 0.072104063845027058 0.1110028105097722 0 0.060226530729088457 0.11319686946064191 0 0.073038284793928876 0.13087608175348719 0 0.084983023515507544 0.11966374367941141 0 0.072104063845027058 0.1110028105097722 0 0.073038284793928876 0.13087608175348719 0 0.05339376677020484 0.12143121846755039 0 0.060226530729088457 0.11319686946064191 0 0.073038284793928876 0.13087608175348719 0 0.05339376677020484 0.12143121846755039 0 0.044882013817764327 0.1239081869216167 0 0.052284785478873837 0.12867281124139529 0 0.05339376677020484 0.12143121846755039 0 0.048545570370510722 0.1111882117527556 0 0.060226530729088457 0.11319686946064191 0 0.063775213581159881 0.10073297473789759 0 0.060226530729088457 0.11319686946064191 0 0.051754027725802863 0.1024106085985695 0 0.063775213581159881 0.10073297473789759 0 0.051754027725802863 0.1024106085985695 0 0.060883626459964299 0.082838425840556604 0 0.048545570370510722 0.1111882117527556 0 0.051754027725802863 0.1024106085985695 0 0.043254818000371939 0.1070642888541657 0 0.048545570370510722 0.1111882117527556 0 0.060226530729088457 0.11319686946064191 0 0.051754027725802863 0.1024106085985695 0 0.043254818000371939 0.1070642888541657 0 0.038241968653264312 0.09491616355333668 0 0.035898410433724319 0.10382056639382969 0 0.051754027725802863 0.1024106085985695 0 0.043254818000371939 0.1070642888541657 0 0.038241968653264312 0.09491616355333668 0 0.038241968653264312 0.09491616355333668 0 0.035013250787480951 0.096638458266227772 0 0.035898410433724319 0.10382056639382969 0 0.038241968653264312 0.09491616355333668 0 0.035898410433724319 0.10382056639382969 0 0.038241968653264312 0.09491616355333668 0 0.035013250787480951 0.096638458266227772 0 0.035013250787480951 0.096638458266227772 0 0.035898410433724319 0.10382056639382969 0 0.035898410433724319 0.10382056639382969 0 0.036906127838233597 0.1119970974771996 0 0.043254818000371939 0.1070642888541657 0 0.035898410433724319 0.10382056639382969 0 0.036906127838233597 0.1119970974771996 0 0.035898410433724319 0.10382056639382969 0 0.033749248746476328 0.1119863551816228 0 0.036906127838233597 0.1119970974771996 0 0.035898410433724319 0.10382056639382969 0 0.033749248746476328 0.1119863551816228 0 0.05339376677020484 0.12143121846755039 0 0.048545570370510722 0.1111882117527556 0 0.036906127838233597 0.1119970974771996 0 0.05339376677020484 0.12143121846755039 0 0.033749248746476328 0.1119863551816228 0 0.036906127838233597 0.1119970974771996 0 0.033749248746476328 0.1119863551816228 0 0.044882013817764327 0.1239081869216167 0 0.028617861416427751 0.1314831782331938 0 0.05339376677020484 0.12143121846755039 0 0.033749248746476328 0.1119863551816228 0 0.05339376677020484 0.12143121846755039 0 0.033749248746476328 0.1119863551816228 0 0.044882013817764327 0.1239081869216167 0 0.048545570370510722 0.1111882117527556 0 0.043254818000371939 0.1070642888541657 0 0.036906127838233597 0.1119970974771996 0 0.063947194847996311 0.058179180653568467 0 0.060883626459964299 0.082838425840556604 0 0.045211957046516302 0.068433533879483477 0 0.051754027725802863 0.1024106085985695 0 0.038241968653264312 0.09491616355333668 0 0.060883626459964299 0.082838425840556604 0 0.038241968653264312 0.09491616355333668 0 0.060883626459964299 0.082838425840556604 0 0.038241968653264312 0.09491616355333668 0 0.060883626459964299 0.082838425840556604 0 0.045211957046516302 0.068433533879483477 0 0.038241968653264312 0.09491616355333668 0 0.045211957046516302 0.068433533879483477 0 0.032541445336762218 0.076582444537189071 0 0.035013250787480951 0.096638458266227772 0 0.032541445336762218 0.076582444537189071 0 0.038241968653264312 0.09491616355333668 0 0.045211957046516302 0.068433533879483477 0 0.038241968653264312 0.09491616355333668 0 0.035013250787480951 0.096638458266227772 0 0.032541445336762218 0.076582444537189071 0 0.030069639886044192 0.056526430808150327 0 0.032541445336762218 0.076582444537189071 0 0.030069639886044192 0.056526430808150327 0 0.045211957046516302 0.068433533879483477 0 0.032541445336762218 0.076582444537189071 0 0.014617418387521621 0.061200242381434088 0 0.032541445336762218 0.076582444537189071 0 0.012530400276465041 0.080182379514424543 0 0.014617418387521621 0.061200242381434088 0 0.030069639886044192 0.056526430808150327 0 0.032541445336762218 0.076582444537189071 0 0.035013250787480951 0.096638458266227772 0 0.032541445336762218 0.076582444537189071 0 0.02024113221674579 0.090897105715964238 0 0.032541445336762218 0.076582444537189071 0 0.02024113221674579 0.090897105715964238 0 0.012530400276465041 0.080182379514424543 0 -0.0020537484887101359 0.094772676856455795 0 0.02024113221674579 0.090897105715964238 0 0.012530400276465041 0.080182379514424543 0 -0.0020537484887101359 0.094772676856455795 0 -0.0017533712137043961 0.076435494418646943 0 0.012530400276465041 0.080182379514424543 0 -0.0017533712137043961 0.076435494418646943 0 -0.01047210625047482 0.061507158867089871 0 0.014617418387521621 0.061200242381434088 0 -0.0017533712137043961 0.076435494418646943 0 0.014617418387521621 0.061200242381434088 0 0.012530400276465041 0.080182379514424543 0 0.023422555516230979 0.11494096519090199 0 0.01274754366272182 0.116130265534008 0 0.028617861416427751 0.1314831782331938 0 0.033749248746476328 0.1119863551816228 0 0.028617861416427751 0.1314831782331938 0 0.01274754366272182 0.116130265534008 0 0.028617861416427751 0.1314831782331938 0 0.033749248746476328 0.1119863551816228 0 0.023422555516230979 0.11494096519090199 0 0.028617861416427751 0.1314831782331938 0 0.023422555516230979 0.11494096519090199 0 0.01928132301590724 0.1050303392390733 0 0.01274754366272182 0.116130265534008 0 0.033749248746476328 0.1119863551816228 0 0.023422555516230979 0.11494096519090199 0 0.01928132301590724 0.1050303392390733 0 0.035013250787480951 0.096638458266227772 0 0.035898410433724319 0.10382056639382969 0 0.01928132301590724 0.1050303392390733 0 0.033749248746476328 0.1119863551816228 0 0.01928132301590724 0.1050303392390733 0 0.035013250787480951 0.096638458266227772 0 0.01928132301590724 0.1050303392390733 0 0.035013250787480951 0.096638458266227772 0 0.02024113221674579 0.090897105715964238 0 0.01928132301590724 0.1050303392390733 0 0.035898410433724319 0.10382056639382969 0 0.033749248746476328 0.1119863551816228 0 0.01928132301590724 0.1050303392390733 0 -0.0020537484887101359 0.094772676856455795 0 0.01928132301590724 0.1050303392390733 0 -0.003321782685211066 0.1053820588488959 0 -0.0020537484887101359 0.094772676856455795 0 0.01928132301590724 0.1050303392390733 0 -0.0020537484887101359 0.094772676856455795 0 0.02024113221674579 0.090897105715964238 0 0.01928132301590724 0.1050303392390733 0 -0.0068749950372359037 0.1189829018859844 0 0.01274754366272182 0.116130265534008 0 0.012165415421466401 0.12980044201573401 0 -0.0068749950372359037 0.1189829018859844 0 0.01928132301590724 0.1050303392390733 0 0.01274754366272182 0.116130265534008 0 -0.0068749950372359037 0.1189829018859844 0 0.01928132301590724 0.1050303392390733 0 -0.0068749950372359037 0.1189829018859844 0 -0.003321782685211066 0.1053820588488959 0 0.01928132301590724 0.1050303392390733 0 -0.0068749950372359037 0.1189829018859844 0 0.012165415421466401 0.12980044201573401 0 0.0022400168639910428 0.14088378668564211 0 0.012165415421466401 0.12980044201573401 0 0.01768881986379359 0.14252464460177319 0 0.0022400168639910428 0.14088378668564211 0 0.012165415421466401 0.12980044201573401 0 0.028617861416427751 0.1314831782331938 0 0.01768881986379359 0.14252464460177319 0 0.01274754366272182 0.116130265534008 0 0.012165415421466401 0.12980044201573401 0 0.028617861416427751 0.1314831782331938 0 0.028617861416427751 0.1314831782331938 0 0.021766336990100981 0.15751570136613499 0 0.035731393853039882 0.15669215604486161 0 0.028617861416427751 0.1314831782331938 0 0.021766336990100981 0.15751570136613499 0 0.028617861416427751 0.1314831782331938 0 0.01768881986379359 0.14252464460177319 0 0.021766336990100981 0.15751570136613499 0 0.0022400168639910428 0.14088378668564211 0 0.021766336990100981 0.15751570136613499 0 0.01768881986379359 0.14252464460177319 0 0.0022400168639910428 0.14088378668564211 0 0.021766336990100981 0.15751570136613499 0 -0.00047794902262057992 0.1633110830326773 0 0.0022400168639910428 0.14088378668564211 0 0.021766336990100981 0.15751570136613499 0 -0.00047794902262057992 0.1633110830326773 0 0.01279842387625266 0.16750529170404191 0 0.021766336990100981 0.15751570136613499 0 -0.00047794902262057992 0.1633110830326773 0 0.01279842387625266 0.16750529170404191 0 0.0048657734533592194 0.1736731905571699 0 -0.012275916199634871 0.1822409283299494 0 0.01383252169076167 0.18088983586687299 0 -0.00084813365411998446 0.1934899262765897 0 -0.012275916199634871 0.1822409283299494 0 0.01383252169076167 0.18088983586687299 0 -0.012275916199634871 0.1822409283299494 0 0.0048657734533592194 0.1736731905571699 0 0.01383252169076167 0.18088983586687299 0 0.01279842387625266 0.16750529170404191 0 0.011760458012656291 0.17580542541169369 0 0.01554511303025161 0.18115338351869009 0 0.0048657734533592194 0.1736731905571699 0 0.011760458012656291 0.17580542541169369 0 0.01383252169076167 0.18088983586687299 0 0.01279842387625266 0.16750529170404191 0 0.0048657734533592194 0.1736731905571699 0 0.011760458012656291 0.17580542541169369 0 0.011760458012656291 0.17580542541169369 0 0.01383252169076167 0.18088983586687299 0 0.01554511303025161 0.18115338351869009 0 0.01383252169076167 0.18088983586687299 0 0.01560681092613159 0.18475313200844359 0 0.01189893126739474 0.19037469473822891 0 0.01383252169076167 0.18088983586687299 0 0.01554511303025161 0.18115338351869009 0 0.01560681092613159 0.18475313200844359 0 0.01554511303025161 0.18115338351869009 0 0.021150677716118348 0.1865946139099825 0 0.024617825946283499 0.1599445113377678 0 0.021150677716118348 0.1865946139099825 0 0.028271134929777109 0.1742384480740668 0 0.024617825946283499 0.1599445113377678 0 0.021150677716118348 0.1865946139099825 0 0.024617825946283499 0.1599445113377678 0 0.01560681092613159 0.18475313200844359 0 0.021150677716118348 0.1865946139099825 0 0.01189893126739474 0.19037469473822891 0 0.01554511303025161 0.18115338351869009 0 0.01560681092613159 0.18475313200844359 0 0.021150677716118348 0.1865946139099825 0 0.021150677716118348 0.1865946139099825 0 0.028271134929777109 0.1742384480740668 0 0.030487638791816249 0.1794386116372429 0 0.021150677716118348 0.1865946139099825 0 0.030487638791816249 0.1794386116372429 0 0.029476492771416979 0.1869982179809844 0 0.01279842387625266 0.16750529170404191 0 0.01554511303025161 0.18115338351869009 0 0.021766336990100981 0.15751570136613499 0 0.01554511303025161 0.18115338351869009 0 0.021766336990100981 0.15751570136613499 0 0.024617825946283499 0.1599445113377678 0 0.01554511303025161 0.18115338351869009 0 0.021766336990100981 0.15751570136613499 0 0.021766336990100981 0.15751570136613499 0 0.024617825946283499 0.1599445113377678 0 0.024617825946283499 0.1599445113377678 0 0.037139858815101262 0.1706103910813862 0 0.028271134929777109 0.1742384480740668 0 0.024617825946283499 0.1599445113377678 0 0.037139858815101262 0.1706103910813862 0 0.021766336990100981 0.15751570136613499 0 0.024617825946283499 0.1599445113377678 0 0.035731393853039882 0.15669215604486161 0 0.035731393853039882 0.15669215604486161 0 0.050394549722248029 0.16710261488408851 0 0.048275718804395337 0.15050014897153929 0 0.024617825946283499 0.1599445113377678 0 0.035731393853039882 0.15669215604486161 0 0.037139858815101262 0.1706103910813862 0 0.035731393853039882 0.15669215604486161 0 0.037139858815101262 0.1706103910813862 0 0.050394549722248029 0.16710261488408851 0 0.037139858815101262 0.1706103910813862 0 0.052513380640101352 0.18370508079663761 0 0.050394549722248029 0.16710261488408851 0 0.030487638791816249 0.1794386116372429 0 0.029476492771416979 0.1869982179809844 0 0.037153470402438382 0.1847989344309281 0 0.030487638791816249 0.1794386116372429 0 0.037139858815101262 0.1706103910813862 0 0.037153470402438382 0.1847989344309281 0 0.028271134929777109 0.1742384480740668 0 0.030487638791816249 0.1794386116372429 0 0.037139858815101262 0.1706103910813862 0 0.037139858815101262 0.1706103910813862 0 0.052513380640101352 0.18370508079663761 0 0.037153470402438382 0.1847989344309281 0 0.052513380640101352 0.18370508079663761 0 0.042353537970693293 0.19246513992122641 0 0.037139858815101262 0.1706103910813862 0 0.037153470402438382 0.1847989344309281 0 0.052513380640101352 0.18370508079663761 0 0.052513380640101352 0.18370508079663761 0 0.060171314300930978 0.1762488516979849 0 0.050394549722248029 0.16710261488408851 0 0.052513380640101352 0.18370508079663761 0 0.050394549722248029 0.16710261488408851 0 0.052513380640101352 0.18370508079663761 0 0.060171314300930978 0.1762488516979849 0 0.065995523126847228 0.19518875217463491 0 0.050394549722248029 0.16710261488408851 0 0.06007627893995135 0.1619159865353674 0 0.048275718804395337 0.15050014897153929 0 0.050394549722248029 0.16710261488408851 0 0.048275718804395337 0.15050014897153929 0 0.060171314300930978 0.1762488516979849 0 0.050394549722248029 0.16710261488408851 0 0.06007627893995135 0.1619159865353674 0 0.048275718804395337 0.15050014897153929 0 0.053124410102902621 0.13636881609984969 0 0.065201591203857462 0.1468018392220026 0 0.06007627893995135 0.1619159865353674 0 0.048275718804395337 0.15050014897153929 0 0.065201591203857462 0.1468018392220026 0 0.06007627893995135 0.1619159865353674 0 0.048275718804395337 0.15050014897153929 0 0.044882013817764327 0.1239081869216167 0 0.048275718804395337 0.15050014897153929 0 0.053124410102902621 0.13636881609984969 0 0.05339376677020484 0.12143121846755039 0 0.052284785478873837 0.12867281124139529 0 0.073038284793928876 0.13087608175348719 0 0.052284785478873837 0.12867281124139529 0 0.053124410102902621 0.13636881609984969 0 0.073038284793928876 0.13087608175348719 0 0.044882013817764327 0.1239081869216167 0 0.052284785478873837 0.12867281124139529 0 0.053124410102902621 0.13636881609984969 0 0.044882013817764327 0.1239081869216167 0 0.028617861416427751 0.1314831782331938 0 0.048275718804395337 0.15050014897153929 0 0.044882013817764327 0.1239081869216167 0 0.048275718804395337 0.15050014897153929 0 0.028617861416427751 0.1314831782331938 0 0.035731393853039882 0.15669215604486161 0 0.048275718804395337 0.15050014897153929 0 0.028617861416427751 0.1314831782331938 0 0.048275718804395337 0.15050014897153929 0 0.022179105737704811 0.24902080974435001 0 0.01483930435621021 0.23916349039463611 0 0.034943605518874758 0.2375186149825792 0 0.01483930435621021 0.23916349039463611 0 0.034943605518874758 0.2375186149825792 0 0.022179105737704811 0.24902080974435001 0 0.014390092031904439 0.24290508288887891 0 0.01483930435621021 0.23916349039463611 0 0.022179105737704811 0.24902080974435001 0 0.014390092031904439 0.24290508288887891 0 0.014872567949103809 0.25043112220009289 0 0.014390092031904439 0.24290508288887891 0 0.014872567949103809 0.25043112220009289 0 3.4036501383808038e-05 0.25211346284330632 0 0.014390092031904439 0.24290508288887891 0 0.01483930435621021 0.23916349039463611 0 3.4036501383808038e-05 0.25211346284330632 0 0.014390092031904439 0.24290508288887891 0 0.01483930435621021 0.23916349039463611 0 -0.00019660798468582521 0.22190080362934089 0 0.01483930435621021 0.23916349039463611 0 0.017994991036164119 0.21287905215230929 0 0.01483930435621021 0.23916349039463611 0 0.017994991036164119 0.21287905215230929 0 0.01483930435621021 0.23916349039463611 0 0.017994991036164119 0.21287905215230929 0 0.034943605518874758 0.2375186149825792 0 0.017994991036164119 0.21287905215230929 0 0.038036232537791599 0.21887429109421819 0 0.034943605518874758 0.2375186149825792 0 0.017994991036164119 0.21287905215230929 0 0.030156824988450449 0.20405926459911289 0 0.03540155240750921 0.20940673379182631 0 0.017994991036164119 0.21287905215230929 0 0.030156824988450449 0.20405926459911289 0 0.029179226662367559 0.19423537552205339 0 0.017994991036164119 0.21287905215230929 0 0.03540155240750921 0.20940673379182631 0 0.038036232537791599 0.21887429109421819 0 -0.00019660798468582521 0.22190080362934089 0 0.017994991036164119 0.21287905215230929 0 0.010152248718067171 0.20193668832579309 0 -0.00084813365411998446 0.1934899262765897 0 0.010152248718067171 0.20193668832579309 0 0.01189893126739474 0.19037469473822891 0 0.021150677716118348 0.1865946139099825 0 0.010152248718067171 0.20193668832579309 0 0.01189893126739474 0.19037469473822891 0 -0.00084813365411998446 0.1934899262765897 0 0.01383252169076167 0.18088983586687299 0 0.01189893126739474 0.19037469473822891 0 0.021150677716118348 0.1865946139099825 0 0.017994991036164119 0.21287905215230929 0 0.021150677716118348 0.1865946139099825 0 0.017994991036164119 0.21287905215230929 0 0.029179226662367559 0.19423537552205339 0 0.021150677716118348 0.1865946139099825 0 0.017994991036164119 0.21287905215230929 0 0.010152248718067171 0.20193668832579309 0 0.021150677716118348 0.1865946139099825 0 0.029476492771416979 0.1869982179809844 0 0.029179226662367559 0.19423537552205339 0 0.029476492771416979 0.1869982179809844 0 0.037153470402438382 0.1847989344309281 0 0.036093292108952263 0.19261305461332359 0 0.037153470402438382 0.1847989344309281 0 0.036093292108952263 0.19261305461332359 0 0.042353537970693293 0.19246513992122641 0 0.036093292108952263 0.19261305461332359 0 0.038051529847760918 0.1997158969302627 0 0.042353537970693293 0.19246513992122641 0 0.029476492771416979 0.1869982179809844 0 0.029179226662367559 0.19423537552205339 0 0.036093292108952263 0.19261305461332359 0 0.029179226662367559 0.19423537552205339 0 0.036093292108952263 0.19261305461332359 0 0.038051529847760918 0.1997158969302627 0 0.030156824988450449 0.20405926459911289 0 0.029179226662367559 0.19423537552205339 0 0.038051529847760918 0.1997158969302627 0 0.038051529847760918 0.1997158969302627 0 0.045385991910777239 0.19737826436081471 0 0.042353537970693293 0.19246513992122641 0 0.038051529847760918 0.1997158969302627 0 0.045385991910777239 0.19737826436081471 0 0.042693136201198252 0.20448826273337811 0 0.045385991910777239 0.19737826436081471 0 0.048618858908528101 0.20389272612760709 0 0.042693136201198252 0.20448826273337811 0 0.052513380640101352 0.18370508079663761 0 0.045385991910777239 0.19737826436081471 0 0.042353537970693293 0.19246513992122641 0 0.052513380640101352 0.18370508079663761 0 0.045385991910777239 0.19737826436081471 0 0.048618858908528101 0.20389272612760709 0 0.052513380640101352 0.18370508079663761 0 0.048618858908528101 0.20389272612760709 0 0.056298727723822301 0.21336582219656691 0 0.052513380640101352 0.18370508079663761 0 0.056298727723822301 0.21336582219656691 0 0.065995523126847228 0.19518875217463491 0 0.052513380640101352 0.18370508079663761 0 0.056298727723822301 0.21336582219656691 0 0.052513380640101352 0.18370508079663761 0 0.065995523126847228 0.19518875217463491 0 0.048618858908528101 0.20389272612760709 0 0.056298727723822301 0.21336582219656691 0 0.050193918038754351 0.2130273545928997 0 0.048618858908528101 0.20389272612760709 0 0.050193918038754351 0.2130273545928997 0 0.044627998936515353 0.21139157208534501 0 0.060521714904191323 0.21553124587257691 0 0.056298727723822301 0.21336582219656691 0 0.065995523126847228 0.19518875217463491 0 0.060521714904191323 0.21553124587257691 0 0.056298727723822301 0.21336582219656691 0 0.048530570600547197 0.22083508266711849 0 0.050193918038754351 0.2130273545928997 0 0.044627998936515353 0.21139157208534501 0 0.048530570600547197 0.22083508266711849 0 0.056298727723822301 0.21336582219656691 0 0.050193918038754351 0.2130273545928997 0 0.048530570600547197 0.22083508266711849 0 0.044627998936515353 0.21139157208534501 0 0.038036232537791599 0.21887429109421819 0 0.048530570600547197 0.22083508266711849 0 0.044627998936515353 0.21139157208534501 0 0.03540155240750921 0.20940673379182631 0 0.038036232537791599 0.21887429109421819 0 0.044627998936515353 0.21139157208534501 0 0.042693136201198252 0.20448826273337811 0 0.03540155240750921 0.20940673379182631 0 0.048618858908528101 0.20389272612760709 0 0.044627998936515353 0.21139157208534501 0 0.042693136201198252 0.20448826273337811 0 0.038051529847760918 0.1997158969302627 0 0.042693136201198252 0.20448826273337811 0 0.03540155240750921 0.20940673379182631 0 0.030156824988450449 0.20405926459911289 0 0.038051529847760918 0.1997158969302627 0 0.03540155240750921 0.20940673379182631 0 0.038036232537791599 0.21887429109421819 0 0.048530570600547197 0.22083508266711849 0 0.034943605518874758 0.2375186149825792 0 0.048530570600547197 0.22083508266711849 0 0.055047906681539117 0.23587373957051991 0 0.034943605518874758 0.2375186149825792 0 0.060521714904191323 0.21553124587257691 0 0.048530570600547197 0.22083508266711849 0 0.055047906681539117 0.23587373957051991 0 0.060521714904191323 0.21553124587257691 0 0.055047906681539117 0.23587373957051991 0 0.055047906681539117 0.23587373957051991 0 0.048181948490842272 0.26138992602485772 0 0.055047906681539117 0.23587373957051991 0 0.034943605518874758 0.2375186149825792 0 0.055047906681539117 0.23587373957051991 0 0.037365263241541463 0.25048195128351242 0 0.048181948490842272 0.26138992602485772 0 0.055047906681539117 0.23587373957051991 0 0.034943605518874758 0.2375186149825792 0 0.037365263241541463 0.25048195128351242 0 0.022179105737704811 0.24902080974435001 0 0.034943605518874758 0.2375186149825792 0 0.037365263241541463 0.25048195128351242 0 0.076401789133895781 0.234126627053966 0 0.072432791631623195 0.25897738621086552 0 0.094691733425368935 0.25170817048520849 0 0.076401789133895781 0.234126627053966 0 0.1031369791864887 0.23193923161065241 0 0.094691733425368935 0.25170817048520849 0 0.076401789133895781 0.234126627053966 0 0.072432791631623195 0.25897738621086552 0 0.055047906681539117 0.23587373957051991 0 0.076401789133895781 0.234126627053966 0 0.055047906681539117 0.23587373957051991 0 0.076401789133895781 0.234126627053966 0 0.072432791631623195 0.25897738621086552 0 0.060521714904191323 0.21553124587257691 0 0.055047906681539117 0.23587373957051991 0 0.076401789133895781 0.234126627053966 0 0.060521714904191323 0.21553124587257691 0 0.076401789133895781 0.234126627053966 0 0.080629849597722805 0.2076538181828772 0 0.076401789133895781 0.234126627053966 0 0.1031369791864887 0.23193923161065241 0 0.076401789133895781 0.234126627053966 0 0.080629849597722805 0.2076538181828772 0 0.089324981364060363 0.22406875787299649 0 0.080629849597722805 0.2076538181828772 0 0.1017112488784558 0.22561030112067981 0 0.076401789133895781 0.234126627053966 0 0.089324981364060363 0.22406875787299649 0 0.1031369791864887 0.23193923161065241 0 0.076401789133895781 0.234126627053966 0 0.089324981364060363 0.22406875787299649 0 0.080629849597722805 0.2076538181828772 0 0.088935554665747124 0.20751789035015711 0 0.080629849597722805 0.2076538181828772 0 0.1017112488784558 0.22561030112067981 0 0.080629849597722805 0.2076538181828772 0 0.1017112488784558 0.22561030112067981 0 0.088935554665747124 0.20751789035015711 0 0.090177990408979183 0.2000817689989105 0 0.095796506687555044 0.20204834739995761 0 0.088935554665747124 0.20751789035015711 0 0.080941089686322132 0.20570507609440691 0 0.085165900434211295 0.20020471257905759 0 0.088935554665747124 0.20751789035015711 0 0.080941089686322132 0.20570507609440691 0 0.080629849597722805 0.2076538181828772 0 0.080941089686322132 0.20570507609440691 0 0.080629849597722805 0.2076538181828772 0 0.060521714904191323 0.21553124587257691 0 0.065995523126847228 0.19518875217463491 0 0.060521714904191323 0.21553124587257691 0 0.080629849597722805 0.2076538181828772 0 0.065995523126847228 0.19518875217463491 0 0.080941089686322132 0.20570507609440691 0 0.080629849597722805 0.2076538181828772 0 0.065995523126847228 0.19518875217463491 0 0.080629849597722805 0.2076538181828772 0 0.065995523126847228 0.19518875217463491 0 0.080941089686322132 0.20570507609440691 0 0.065995523126847228 0.19518875217463491 0 0.080053183026275898 0.19438751930619461 0 0.065995523126847228 0.19518875217463491 0 0.080053183026275898 0.19438751930619461 0 0.0761893807784359 0.1855616268754765 0 0.080053183026275898 0.19438751930619461 0 0.0761893807784359 0.1855616268754765 0 0.08569704960949337 0.1862983434636952 0 0.080053183026275898 0.19438751930619461 0 0.088024002382978833 0.19447206588905519 0 0.08569704960949337 0.1862983434636952 0 0.080053183026275898 0.19438751930619461 0 0.085165900434211295 0.20020471257905759 0 0.088024002382978833 0.19447206588905519 0 0.080941089686322132 0.20570507609440691 0 0.080053183026275898 0.19438751930619461 0 0.085165900434211295 0.20020471257905759 0 0.085165900434211295 0.20020471257905759 0 0.090177990408979183 0.2000817689989105 0 0.088024002382978833 0.19447206588905519 0 0.088935554665747124 0.20751789035015711 0 0.085165900434211295 0.20020471257905759 0 0.090177990408979183 0.2000817689989105 0 0.090177990408979183 0.2000817689989105 0 0.095037769812306022 0.19573682573060941 0 0.095796506687555044 0.20204834739995761 0 0.090177990408979183 0.2000817689989105 0 0.088024002382978833 0.19447206588905519 0 0.095037769812306022 0.19573682573060941 0 0.092874839706187345 0.1897366861949101 0 0.088024002382978833 0.19447206588905519 0 0.095037769812306022 0.19573682573060941 0 0.092874839706187345 0.1897366861949101 0 0.088024002382978833 0.19447206588905519 0 0.08569704960949337 0.1862983434636952 0 0.1007551519492394 0.18961088291554759 0 0.095037769812306022 0.19573682573060941 0 0.101927921481232 0.19838088562183551 0 0.092874839706187345 0.1897366861949101 0 0.1007551519492394 0.18961088291554759 0 0.095037769812306022 0.19573682573060941 0 0.095796506687555044 0.20204834739995761 0 0.101927921481232 0.19838088562183551 0 0.099686307032721494 0.20809084295376429 0 0.095037769812306022 0.19573682573060941 0 0.095796506687555044 0.20204834739995761 0 0.101927921481232 0.19838088562183551 0 0.101927921481232 0.19838088562183551 0 0.11167449687870649 0.19182668438672781 0 0.1098710244076484 0.20535563487950859 0 0.1007551519492394 0.18961088291554759 0 0.101927921481232 0.19838088562183551 0 0.11167449687870649 0.19182668438672781 0 0.11167449687870649 0.19182668438672781 0 0.1220564144964072 0.19087769366992891 0 0.1231030208410932 0.20121529250928649 0 0.11167449687870649 0.19182668438672781 0 0.1231030208410932 0.20121529250928649 0 0.1098710244076484 0.20535563487950859 0 0.1231030208410932 0.20121529250928649 0 0.1098710244076484 0.20535563487950859 0 0.1153929244670035 0.21684323859145871 0 0.1231030208410932 0.20121529250928649 0 0.1153929244670035 0.21684323859145871 0 0.13434386107460991 0.21031825383018349 0 0.1098710244076484 0.20535563487950859 0 0.1153929244670035 0.21684323859145871 0 0.1067176854672278 0.21504553623926739 0 0.1067176854672278 0.21504553623926739 0 0.099686307032721494 0.20809084295376429 0 0.1017112488784558 0.22561030112067981 0 0.088935554665747124 0.20751789035015711 0 0.099686307032721494 0.20809084295376429 0 0.1017112488784558 0.22561030112067981 0 0.101927921481232 0.19838088562183551 0 0.1098710244076484 0.20535563487950859 0 0.099686307032721494 0.20809084295376429 0 0.1098710244076484 0.20535563487950859 0 0.1067176854672278 0.21504553623926739 0 0.099686307032721494 0.20809084295376429 0 0.088935554665747124 0.20751789035015711 0 0.095796506687555044 0.20204834739995761 0 0.099686307032721494 0.20809084295376429 0 0.089324981364060363 0.22406875787299649 0 0.1031369791864887 0.23193923161065241 0 0.1017112488784558 0.22561030112067981 0 0.1153929244670035 0.21684323859145871 0 0.1067176854672278 0.21504553623926739 0 0.1017112488784558 0.22561030112067981 0 0.1153929244670035 0.21684323859145871 0 0.1031369791864887 0.23193923161065241 0 0.1017112488784558 0.22561030112067981 0 0.1031369791864887 0.23193923161065241 0 0.1298721692390816 0.22975183616733849 0 0.1153929244670035 0.21684323859145871 0 0.1031369791864887 0.23193923161065241 0 0.1298721692390816 0.22975183616733849 0 0.1031369791864887 0.23193923161065241 0 0.1169003344909078 0.24964346781480179 0 0.1298721692390816 0.22975183616733849 0 0.1031369791864887 0.23193923161065241 0 0.1169003344909078 0.24964346781480179 0 0.094691733425368935 0.25170817048520849 0 0.079655632100062948 0.1462195934213576 0 0.091549150110540892 0.15437057932662379 0 0.07580633157433464 0.15872852176525029 0 0.079655632100062948 0.1462195934213576 0 0.091549150110540892 0.15437057932662379 0 0.092682802817652926 0.14032094503942399 0 0.079655632100062948 0.1462195934213576 0 0.092682802817652926 0.14032094503942399 0 0.073038284793928876 0.13087608175348719 0 0.099748100985016935 0.12493257931483399 0 0.084983023515507544 0.11966374367941141 0 0.092682802817652926 0.14032094503942399 0 0.092682802817652926 0.14032094503942399 0 0.073038284793928876 0.13087608175348719 0 0.084983023515507544 0.11966374367941141 0 0.092682802817652926 0.14032094503942399 0 0.073038284793928876 0.13087608175348719 0 0.05339376677020484 0.12143121846755039 0 0.073038284793928876 0.13087608175348719 0 0.053124410102902621 0.13636881609984969 0 0.073038284793928876 0.13087608175348719 0 0.065201591203857462 0.1468018392220026 0 0.079655632100062948 0.1462195934213576 0 0.073038284793928876 0.13087608175348719 0 0.065201591203857462 0.1468018392220026 0 0.06007627893995135 0.1619159865353674 0 0.065201591203857462 0.1468018392220026 0 0.07580633157433464 0.15872852176525029 0 0.079655632100062948 0.1462195934213576 0 0.065201591203857462 0.1468018392220026 0 0.07580633157433464 0.15872852176525029 0 0.06007627893995135 0.1619159865353674 0 0.07580633157433464 0.15872852176525029 0 0.071876839075507459 0.1733318240991954 0 0.06007627893995135 0.1619159865353674 0 0.071876839075507459 0.1733318240991954 0 0.060171314300930978 0.1762488516979849 0 0.06007627893995135 0.1619159865353674 0 0.071876839075507459 0.1733318240991954 0 0.07580633157433464 0.15872852176525029 0 0.071876839075507459 0.1733318240991954 0 0.07580633157433464 0.15872852176525029 0 0.071876839075507459 0.1733318240991954 0 0.082988920709818934 0.16817445310855669 0 0.065995523126847228 0.19518875217463491 0 0.071876839075507459 0.1733318240991954 0 0.065995523126847228 0.19518875217463491 0 0.071876839075507459 0.1733318240991954 0 0.0761893807784359 0.1855616268754765 0 0.060171314300930978 0.1762488516979849 0 0.065995523126847228 0.19518875217463491 0 0.071876839075507459 0.1733318240991954 0 0.071876839075507459 0.1733318240991954 0 0.077324309054055823 0.17860169533366221 0 0.0761893807784359 0.1855616268754765 0 0.071876839075507459 0.1733318240991954 0 0.077324309054055823 0.17860169533366221 0 0.082988920709818934 0.16817445310855669 0 0.071876839075507459 0.1733318240991954 0 0.077324309054055823 0.17860169533366221 0 0.077324309054055823 0.17860169533366221 0 0.08569704960949337 0.1862983434636952 0 0.088516987414979029 0.1769838704464004 0 0.077324309054055823 0.17860169533366221 0 0.0761893807784359 0.1855616268754765 0 0.08569704960949337 0.1862983434636952 0 0.077324309054055823 0.17860169533366221 0 0.088516987414979029 0.1769838704464004 0 0.082988920709818934 0.16817445310855669 0 0.092874839706187345 0.1897366861949101 0 0.08569704960949337 0.1862983434636952 0 0.095998757056648704 0.18304102427427399 0 0.08569704960949337 0.1862983434636952 0 0.088516987414979029 0.1769838704464004 0 0.095998757056648704 0.18304102427427399 0 0.091549150110540892 0.15437057932662379 0 0.07580633157433464 0.15872852176525029 0 0.082988920709818934 0.16817445310855669 0 0.088516987414979029 0.1769838704464004 0 0.082988920709818934 0.16817445310855669 0 0.098142559669628385 0.16947648501516779 0 0.091549150110540892 0.15437057932662379 0 0.082988920709818934 0.16817445310855669 0 0.098142559669628385 0.16947648501516779 0 0.091549150110540892 0.15437057932662379 0 0.098142559669628385 0.16947648501516779 0 0.1074759139296034 0.15660613416061461 0 0.098142559669628385 0.16947648501516779 0 0.1074759139296034 0.15660613416061461 0 0.11060094872199509 0.16893051206299381 0 0.1007551519492394 0.18961088291554759 0 0.095998757056648704 0.18304102427427399 0 0.1062764230648528 0.18046709006736331 0 0.092874839706187345 0.1897366861949101 0 0.1007551519492394 0.18961088291554759 0 0.095998757056648704 0.18304102427427399 0 0.098142559669628385 0.16947648501516779 0 0.095998757056648704 0.18304102427427399 0 0.1062764230648528 0.18046709006736331 0 0.088516987414979029 0.1769838704464004 0 0.098142559669628385 0.16947648501516779 0 0.095998757056648704 0.18304102427427399 0 0.098142559669628385 0.16947648501516779 0 0.1062764230648528 0.18046709006736331 0 0.11060094872199509 0.16893051206299381 0 0.1007551519492394 0.18961088291554759 0 0.11167449687870649 0.19182668438672781 0 0.1062764230648528 0.18046709006736331 0 0.11167449687870649 0.19182668438672781 0 0.1062764230648528 0.18046709006736331 0 0.1202703531980322 0.1787676463342816 0 0.1062764230648528 0.18046709006736331 0 0.1202703531980322 0.1787676463342816 0 0.11060094872199509 0.16893051206299381 0 0.11167449687870649 0.19182668438672781 0 0.1220564144964072 0.19087769366992891 0 0.1202703531980322 0.1787676463342816 0 0.1202703531980322 0.1787676463342816 0 0.11060094872199509 0.16893051206299381 0 0.1198081253920365 0.1617146731298679 0 0.1202703531980322 0.1787676463342816 0 0.1198081253920365 0.1617146731298679 0 0.13485285675512709 0.17018543614186141 0 0.1074759139296034 0.15660613416061461 0 0.11060094872199509 0.16893051206299381 0 0.1198081253920365 0.1617146731298679 0 0.1074759139296034 0.15660613416061461 0 0.1198081253920365 0.1617146731298679 0 0.1164338082828065 0.14549192935265209 0 0.1164338082828065 0.14549192935265209 0 0.123576886174183 0.13042732531174611 0 0.12921487146465499 0.15030638072680369 0 0.1198081253920365 0.1617146731298679 0 0.1164338082828065 0.14549192935265209 0 0.12921487146465499 0.15030638072680369 0 0.1074759139296034 0.15660613416061461 0 0.1164338082828065 0.14549192935265209 0 0.1044737454547562 0.14232011293660449 0 0.091549150110540892 0.15437057932662379 0 0.1074759139296034 0.15660613416061461 0 0.1044737454547562 0.14232011293660449 0 0.091549150110540892 0.15437057932662379 0 0.092682802817652926 0.14032094503942399 0 0.1044737454547562 0.14232011293660449 0 0.099748100985016935 0.12493257931483399 0 0.1044737454547562 0.14232011293660449 0 0.1130219389257829 0.1339564182426026 0 0.099748100985016935 0.12493257931483399 0 0.092682802817652926 0.14032094503942399 0 0.1044737454547562 0.14232011293660449 0 0.1164338082828065 0.14549192935265209 0 0.1044737454547562 0.14232011293660449 0 0.1130219389257829 0.1339564182426026 0 0.1164338082828065 0.14549192935265209 0 0.1130219389257829 0.1339564182426026 0 0.123576886174183 0.13042732531174611 0 0.123576886174183 0.13042732531174611 0 0.13531620224213259 0.1363525626785197 0 0.1335718775425121 0.1198752109337242 0 0.123576886174183 0.13042732531174611 0 0.13531620224213259 0.1363525626785197 0 0.12921487146465499 0.15030638072680369 0 0.123576886174183 0.13042732531174611 0 0.12921487146465499 0.15030638072680369 0 0.13531620224213259 0.1363525626785197 0 0.1459334125944903 0.1323621310022316 0 0.1335718775425121 0.1198752109337242 0 0.13531620224213259 0.1363525626785197 0 0.1459334125944903 0.1323621310022316 0 0.1442839634348225 0.14879176541809289 0 0.1459334125944903 0.1323621310022316 0 0.1442839634348225 0.14879176541809289 0 0.16796917283093429 0.13809806111230949 0 0.1459334125944903 0.1323621310022316 0 0.16796917283093429 0.13809806111230949 0 0.1503358531089129 0.1127111908229069 0 0.1442839634348225 0.14879176541809289 0 0.15426817141391949 0.16343671850505129 0 0.16796917283093429 0.13809806111230949 0 0.13531620224213259 0.1363525626785197 0 0.1442839634348225 0.14879176541809289 0 0.12921487146465499 0.15030638072680369 0 0.1442839634348225 0.14879176541809289 0 0.12921487146465499 0.15030638072680369 0 0.13485285675512709 0.17018543614186141 0 0.12921487146465499 0.15030638072680369 0 0.13485285675512709 0.17018543614186141 0 0.1198081253920365 0.1617146731298679 0 0.12921487146465499 0.15030638072680369 0 0.13485285675512709 0.17018543614186141 0 0.1202703531980322 0.1787676463342816 0 0.13485285675512709 0.17018543614186141 0 0.13345045210947681 0.19006705974704491 0 0.13485285675512709 0.17018543614186141 0 0.151504331904494 0.17947710465383659 0 0.13345045210947681 0.19006705974704491 0 0.1220564144964072 0.19087769366992891 0 0.1202703531980322 0.1787676463342816 0 0.13345045210947681 0.19006705974704491 0 0.1442839634348225 0.14879176541809289 0 0.13485285675512709 0.17018543614186141 0 0.15426817141391949 0.16343671850505129 0 0.13485285675512709 0.17018543614186141 0 0.151504331904494 0.17947710465383659 0 0.15426817141391949 0.16343671850505129 0 0.15426817141391949 0.16343671850505129 0 0.17102299501602319 0.16971965313382209 0 0.16796917283093429 0.13809806111230949 0 0.17102299501602319 0.16971965313382209 0 0.16796917283093429 0.13809806111230949 0 0.19020988476531911 0.16472991985681701 0 0.151504331904494 0.17947710465383659 0 0.15426817141391949 0.16343671850505129 0 0.17102299501602319 0.16971965313382209 0 0.151504331904494 0.17947710465383659 0 0.17102299501602319 0.16971965313382209 0 0.16526245227975911 0.18747763978590851 0 0.17102299501602319 0.16971965313382209 0 0.16526245227975911 0.18747763978590851 0 0.18164992939919991 0.1827412028122779 0 0.17102299501602319 0.16971965313382209 0 0.18164992939919991 0.1827412028122779 0 0.19020988476531911 0.16472991985681701 0 0.16796917283093429 0.13809806111230949 0 0.1881153479037399 0.13260837815573939 0 0.19020988476531911 0.16472991985681701 0 0.16796917283093429 0.13809806111230949 0 0.1881153479037399 0.13260837815573939 0 0.18167017424794921 0.11275940371956759 0 0.16796917283093429 0.13809806111230949 0 0.18167017424794921 0.11275940371956759 0 0.15426817141391949 0.16343671850505129 0 0.16796917283093429 0.13809806111230949 0 0.1169003344909078 0.24964346781480179 0 0.1298721692390816 0.22975183616733849 0 0.13379059300217011 0.25282610349580448 0 0.14930787253493141 0.24386890629328431 0 0.1298721692390816 0.22975183616733849 0 0.13379059300217011 0.25282610349580448 0 0.1153929244670035 0.21684323859145871 0 0.1298721692390816 0.22975183616733849 0 0.13434386107460991 0.21031825383018349 0 0.1298721692390816 0.22975183616733849 0 0.13434386107460991 0.21031825383018349 0 0.15660735929167419 0.22756444072402471 0 0.14930787253493141 0.24386890629328431 0 0.1298721692390816 0.22975183616733849 0 0.15660735929167419 0.22756444072402471 0 0.1298721692390816 0.22975183616733849 0 0.15660735929167419 0.22756444072402471 0 0.15131835661091311 0.20993654233628711 0 0.13434386107460991 0.21031825383018349 0 0.14916043279051641 0.1958481676365916 0 0.15131835661091311 0.20993654233628711 0 0.13434386107460991 0.21031825383018349 0 0.15660735929167419 0.22756444072402471 0 0.13434386107460991 0.21031825383018349 0 0.13345045210947681 0.19006705974704491 0 0.14916043279051641 0.1958481676365916 0 0.1231030208410932 0.20121529250928649 0 0.13434386107460991 0.21031825383018349 0 0.13345045210947681 0.19006705974704491 0 0.1220564144964072 0.19087769366992891 0 0.1231030208410932 0.20121529250928649 0 0.13345045210947681 0.19006705974704491 0 0.151504331904494 0.17947710465383659 0 0.16526245227975911 0.18747763978590851 0 0.14916043279051641 0.1958481676365916 0 0.151504331904494 0.17947710465383659 0 0.13345045210947681 0.19006705974704491 0 0.14916043279051641 0.1958481676365916 0 0.15131835661091311 0.20993654233628711 0 0.14916043279051641 0.1958481676365916 0 0.16533743448735069 0.20201423866658361 0 0.16526245227975911 0.18747763978590851 0 0.16533743448735069 0.20201423866658361 0 0.18255227743057531 0.19781820242487599 0 0.16526245227975911 0.18747763978590851 0 0.14916043279051641 0.1958481676365916 0 0.16533743448735069 0.20201423866658361 0 0.16533743448735069 0.20201423866658361 0 0.18255227743057531 0.19781820242487599 0 0.17900740934507409 0.2085054765337955 0 0.16526245227975911 0.18747763978590851 0 0.18164992939919991 0.1827412028122779 0 0.18255227743057531 0.19781820242487599 0 0.1699076422018149 0.21350190381733439 0 0.18849692779271709 0.21706726529837969 0 0.1699076422018149 0.21350190381733439 0 0.18334254934426711 0.22537704528071181 0 0.18849692779271709 0.21706726529837969 0 0.17900740934507409 0.2085054765337955 0 0.1699076422018149 0.21350190381733439 0 0.18849692779271709 0.21706726529837969 0 0.18255227743057531 0.19781820242487599 0 0.17900740934507409 0.2085054765337955 0 0.18849692779271709 0.21706726529837969 0 0.15131835661091311 0.20993654233628711 0 0.16533743448735069 0.20201423866658361 0 0.1699076422018149 0.21350190381733439 0 0.15131835661091311 0.20993654233628711 0 0.1699076422018149 0.21350190381733439 0 0.15131835661091311 0.20993654233628711 0 0.1699076422018149 0.21350190381733439 0 0.15660735929167419 0.22756444072402471 0 0.16533743448735069 0.20201423866658361 0 0.17900740934507409 0.2085054765337955 0 0.1699076422018149 0.21350190381733439 0 0.15660735929167419 0.22756444072402471 0 0.18334254934426711 0.22537704528071181 0 0.1699076422018149 0.21350190381733439 0 0.15660735929167419 0.22756444072402471 0 0.18334254934426711 0.22537704528071181 0 0.15660735929167419 0.22756444072402471 0 0.18334254934426711 0.22537704528071181 0 0.16867276165720749 0.24902736690266011 0 0.18334254934426711 0.22537704528071181 0 0.18849692779271709 0.21706726529837969 0 0.16867276165720749 0.24902736690266011 0 0.19200847820906361 0.24013056444975989 0 0.18605375978043609 0.26007645544556501 0 0.18334254934426711 0.22537704528071181 0 0.16867276165720749 0.24902736690266011 0 0.18334254934426711 0.22537704528071181 0 0.16867276165720749 0.24902736690266011 0 0.19200847820906361 0.24013056444975989 0 0.14930787253493141 0.24386890629328431 0 0.15660735929167419 0.22756444072402471 0 0.16867276165720749 0.24902736690266011 0 0.2170333870944314 0.24966219459793751 0 0.2069035471978049 0.24131735885022179 0 0.20129388103320339 0.25315965289432613 0 0.2170333870944314 0.24966219459793751 0 0.2179526608734981 0.23595174364395691 0 0.2069035471978049 0.24131735885022179 0 0.2179526608734981 0.23595174364395691 0 0.2069035471978049 0.24131735885022179 0 0.20572730769318981 0.23117686874109031 0 0.2069035471978049 0.24131735885022179 0 0.19200847820906361 0.24013056444975989 0 0.20129388103320339 0.25315965289432613 0 0.2069035471978049 0.24131735885022179 0 0.19200847820906361 0.24013056444975989 0 0.20572730769318981 0.23117686874109031 0 0.21149531667995891 0.22147827773152501 0 0.18849692779271709 0.21706726529837969 0 0.19733449522200641 0.22423226498942231 0 0.21149531667995891 0.22147827773152501 0 0.18849692779271709 0.21706726529837969 0 0.18334254934426711 0.22537704528071181 0 0.19200847820906361 0.24013056444975989 0 0.19733449522200641 0.22423226498942231 0 0.19200847820906361 0.24013056444975989 0 0.19733449522200641 0.22423226498942231 0 0.20572730769318981 0.23117686874109031 0 0.18334254934426711 0.22537704528071181 0 0.19733449522200641 0.22423226498942231 0 0.18849692779271709 0.21706726529837969 0 0.18334254934426711 0.22537704528071181 0 0.19733449522200641 0.22423226498942231 0 0.19733449522200641 0.22423226498942231 0 0.20572730769318981 0.23117686874109031 0 0.21149531667995891 0.22147827773152501 0 0.2179526608734981 0.23595174364395691 0 0.20572730769318981 0.23117686874109031 0 0.21149531667995891 0.22147827773152501 0 0.21149531667995891 0.22147827773152501 0 0.21129980399203629 0.2070073231825591 0 0.22698558862680021 0.20287487581432931 0 0.21129980399203629 0.2070073231825591 0 0.20287734628908219 0.2108426472205496 0 0.20304749481349069 0.19360914871455631 0 0.21149531667995891 0.22147827773152501 0 0.21129980399203629 0.2070073231825591 0 0.20287734628908219 0.2108426472205496 0 0.21149531667995891 0.22147827773152501 0 0.18849692779271709 0.21706726529837969 0 0.20287734628908219 0.2108426472205496 0 0.18849692779271709 0.21706726529837969 0 0.20304749481349069 0.19360914871455631 0 0.18849692779271709 0.21706726529837969 0 0.20287734628908219 0.2108426472205496 0 0.20304749481349069 0.19360914871455631 0 0.18255227743057531 0.19781820242487599 0 0.18849692779271709 0.21706726529837969 0 0.20304749481349069 0.19360914871455631 0 0.18164992939919991 0.1827412028122779 0 0.18255227743057531 0.19781820242487599 0 0.20304749481349069 0.19360914871455631 0 0.21129980399203629 0.2070073231825591 0 0.20304749481349069 0.19360914871455631 0 0.22698558862680021 0.20287487581432931 0 0.20304749481349069 0.19360914871455631 0 0.22698558862680021 0.20287487581432931 0 0.22847825404891151 0.18528729955606191 0 0.22698558862680021 0.20287487581432931 0 0.2494776261920125 0.18849616454771709 0 0.22847825404891151 0.18528729955606191 0 0.22698558862680021 0.20287487581432931 0 0.2494776261920125 0.18849616454771709 0 0.25172225287358252 0.20891730451015739 0 0.22698558862680021 0.20287487581432931 0 0.23449370556720109 0.2258892901646683 0 0.25172225287358252 0.20891730451015739 0 0.21149531667995891 0.22147827773152501 0 0.22698558862680021 0.20287487581432931 0 0.23449370556720109 0.2258892901646683 0 0.21149531667995891 0.22147827773152501 0 0.23449370556720109 0.2258892901646683 0 0.2179526608734981 0.23595174364395691 0 0.21149531667995891 0.22147827773152501 0 0.23449370556720109 0.2258892901646683 0 0.23449370556720109 0.2258892901646683 0 0.25099764385199508 0.24313445578590931 0 0.26102007976483688 0.22551604710539039 0 0.23449370556720109 0.2258892901646683 0 0.26102007976483688 0.22551604710539039 0 0.25172225287358252 0.20891730451015739 0 0.23449370556720109 0.2258892901646683 0 0.23185563173168419 0.24669504905584849 0 0.25099764385199508 0.24313445578590931 0 0.2179526608734981 0.23595174364395691 0 0.23449370556720109 0.2258892901646683 0 0.23185563173168419 0.24669504905584849 0 0.2170333870944314 0.24966219459793751 0 0.2179526608734981 0.23595174364395691 0 0.23185563173168419 0.24669504905584849 0 0.2056628252695788 0.14086712144172009 0 0.1881153479037399 0.13260837815573939 0 0.19020988476531911 0.16472991985681701 0 0.2056628252695788 0.14086712144172009 0 0.21759806183426511 0.1701510321307331 0 0.23214862885503951 0.14669291554690991 0 0.2056628252695788 0.14086712144172009 0 0.2211157657738386 0.1170043230266232 0 0.2056628252695788 0.14086712144172009 0 0.1881153479037399 0.13260837815573939 0 0.201732684063577 0.1101097766589318 0 0.2056628252695788 0.14086712144172009 0 0.19020988476531911 0.16472991985681701 0 0.18164992939919991 0.1827412028122779 0 0.20304749481349069 0.19360914871455631 0 0.19020988476531911 0.16472991985681701 0 0.20304749481349069 0.19360914871455631 0 0.21759806183426511 0.1701510321307331 0 0.22847825404891151 0.18528729955606191 0 0.20304749481349069 0.19360914871455631 0 0.21759806183426511 0.1701510321307331 0 0.20304749481349069 0.19360914871455631 0 0.19020988476531911 0.16472991985681701 0 0.21759806183426511 0.1701510321307331 0 0.2056628252695788 0.14086712144172009 0 0.19020988476531911 0.16472991985681701 0 0.21759806183426511 0.1701510321307331 0 0.21759806183426511 0.1701510321307331 0 0.23214862885503951 0.14669291554690991 0 0.21759806183426511 0.1701510321307331 0 0.23980045361392929 0.17035920191343251 0 0.23214862885503951 0.14669291554690991 0 0.21759806183426511 0.1701510321307331 0 0.22847825404891151 0.18528729955606191 0 0.23980045361392929 0.17035920191343251 0 0.2494776261920125 0.18849616454771709 0 0.22847825404891151 0.18528729955606191 0 0.23980045361392929 0.17035920191343251 0 0.2494776261920125 0.18849616454771709 0 0.23980045361392929 0.17035920191343251 0 0.25993023620439348 0.16768951731488221 0 0.23980045361392929 0.17035920191343251 0 0.24899860534032439 0.15212894843547389 0 0.25993023620439348 0.16768951731488221 0 0.23980045361392929 0.17035920191343251 0 0.24899860534032439 0.15212894843547389 0 0.23214862885503951 0.14669291554690991 0 0.24899860534032439 0.15212894843547389 0 0.23214862885503951 0.14669291554690991 0 0.2466991958758139 0.1232347989630867 0 0.2056628252695788 0.14086712144172009 0 0.23214862885503951 0.14669291554690991 0 0.2211157657738386 0.1170043230266232 0 0.23214862885503951 0.14669291554690991 0 0.2466991958758139 0.1232347989630867 0 0.2211157657738386 0.1170043230266232 0 0.23214862885503951 0.14669291554690991 0 0.2466991958758139 0.1232347989630867 0 0.2466991958758139 0.1232347989630867 0 0.2211157657738386 0.1170043230266232 0 0.23656870627809831 0.093141524611526194 0 0.2211157657738386 0.1170043230266232 0 0.21659473275851729 0.085544546032968641 0 0.23656870627809831 0.093141524611526194 0 0.2466991958758139 0.1232347989630867 0 0.23656870627809831 0.093141524611526194 0 0.2612497628965883 0.099776682379263543 0 0.2211157657738386 0.1170043230266232 0 0.23656870627809831 0.093141524611526194 0 0.2211157657738386 0.1170043230266232 0 0.201732684063577 0.1101097766589318 0 0.21659473275851729 0.085544546032968641 0 0.2056628252695788 0.14086712144172009 0 0.2211157657738386 0.1170043230266232 0 0.201732684063577 0.1101097766589318 0 0.201732684063577 0.1101097766589318 0 0.19537117566496409 0.087420746326825588 0 0.21659473275851729 0.085544546032968641 0 0.19537117566496409 0.087420746326825588 0 0.18167017424794921 0.11275940371956759 0 0.201732684063577 0.1101097766589318 0 0.19537117566496409 0.087420746326825588 0 0.18167017424794921 0.11275940371956759 0 0.1881153479037399 0.13260837815573939 0 0.201732684063577 0.1101097766589318 0 0.18167017424794921 0.11275940371956759 0 0.19537117566496409 0.087420746326825588 0 0.20877906646829411 0.058119257768857617 0 0.17900855283361339 0.069702879751134122 0 0.19537117566496409 0.087420746326825588 0 0.21659473275851729 0.085544546032968641 0 0.20877906646829411 0.058119257768857617 0 0.21659473275851729 0.085544546032968641 0 0.23251447221715699 0.067874631784888367 0 0.20877906646829411 0.058119257768857617 0 0.21659473275851729 0.085544546032968641 0 0.23251447221715699 0.067874631784888367 0 0.23656870627809831 0.093141524611526194 0 0.23251447221715699 0.067874631784888367 0 0.23656870627809831 0.093141524611526194 0 0.25107041730997021 0.076146770429481356 0 0.23656870627809831 0.093141524611526194 0 0.25107041730997021 0.076146770429481356 0 0.2612497628965883 0.099776682379263543 0 0.23251447221715699 0.067874631784888367 0 0.25081120588605921 0.055896535270252852 0 0.25107041730997021 0.076146770429481356 0 0.23251447221715699 0.067874631784888367 0 0.23727068837385579 0.039648874162388492 0 0.25081120588605921 0.055896535270252852 0 0.23727068837385579 0.039648874162388492 0 0.20877906646829411 0.058119257768857617 0 0.21498086072401981 0.031347545878621118 0 0.23251447221715699 0.067874631784888367 0 0.23727068837385579 0.039648874162388492 0 0.20877906646829411 0.058119257768857617 0 0.25425597451158072 0.012088783861486979 0 0.2578183078052394 -0.0046775058104196422 0 0.22881534689338351 -0.0067413783578508836 0 0.22929209036550099 0.015976485310166901 0 0.25425597451158072 0.012088783861486979 0 0.22881534689338351 -0.0067413783578508836 0 0.23727068837385579 0.039648874162388492 0 0.22929209036550099 0.015976485310166901 0 0.25425597451158072 0.012088783861486979 0 0.23727068837385579 0.039648874162388492 0 0.22929209036550099 0.015976485310166901 0 0.21498086072401981 0.031347545878621118 0 0.22929209036550099 0.015976485310166901 0 0.20486585250753339 0.006033998516739681 0 0.22881534689338351 -0.0067413783578508836 0 0.20486585250753339 0.006033998516739681 0 0.193450746872282 0.03880781621627731 0 0.1809163581216833 0.01880937539133026 0 0.20486585250753339 0.006033998516739681 0 0.21498086072401981 0.031347545878621118 0 0.193450746872282 0.03880781621627731 0 0.22929209036550099 0.015976485310166901 0 0.20486585250753339 0.006033998516739681 0 0.21498086072401981 0.031347545878621118 0 0.20486585250753339 0.006033998516739681 0 0.1809163581216833 0.01880937539133026 0 0.20486585250753339 0.006033998516739681 0 0.1809163581216833 0.01880937539133026 0 0.18265408171503719 -0.0030557455288178601 0 0.20877906646829411 0.058119257768857617 0 0.21498086072401981 0.031347545878621118 0 0.193450746872282 0.03880781621627731 0 0.20877906646829411 0.058119257768857617 0 0.193450746872282 0.03880781621627731 0 0.17900855283361339 0.069702879751134122 0 0.193450746872282 0.03880781621627731 0 0.17215379057854821 0.048833839990981079 0 0.17900855283361339 0.069702879751134122 0 0.193450746872282 0.03880781621627731 0 0.17215379057854821 0.048833839990981079 0 0.1809163581216833 0.01880937539133026 0 0.17215379057854821 0.048833839990981079 0 0.15696686373583171 0.031584752265917691 0 0.15090808721025251 0.057856805858335039 0 0.17215379057854821 0.048833839990981079 0 0.15696686373583171 0.031584752265917691 0 0.17215379057854821 0.048833839990981079 0 0.15696686373583171 0.031584752265917691 0 0.1809163581216833 0.01880937539133026 0 0.17215379057854821 0.048833839990981079 0 0.15090808721025251 0.057856805858335039 0 0.17900855283361339 0.069702879751134122 0 0.1809163581216833 0.01880937539133026 0 0.16223656169118791 0.0022157833461514801 0 0.18265408171503719 -0.0030557455288178601 0 0.15696686373583171 0.031584752265917691 0 0.1809163581216833 0.01880937539133026 0 0.15696686373583171 0.031584752265917691 0 0.1809163581216833 0.01880937539133026 0 0.16223656169118791 0.0022157833461514801 0 0.15696686373583171 0.031584752265917691 0 0.16223656169118791 0.0022157833461514801 0 0.13884814345735569 0.011005776757164999 0 0.15696686373583171 0.031584752265917691 0 0.13884814345735569 0.011005776757164999 0 0.15696686373583171 0.031584752265917691 0 0.1352708832328757 0.02803601590139583 0 0.13884814345735569 0.011005776757164999 0 0.1217654303830035 0.036039969463771783 0 0.1200165412971101 0.016821957912596379 0 0.1352708832328757 0.02803601590139583 0 0.1352708832328757 0.02803601590139583 0 0.13884814345735569 0.011005776757164999 0 0.1200165412971101 0.016821957912596379 0 0.1352708832328757 0.02803601590139583 0 0.13884814345735569 0.011005776757164999 0 0.1200165412971101 0.016821957912596379 0 0.13884814345735569 0.011005776757164999 0 0.12535926908485989 -0.0043146879934122416 0 0.13884814345735569 0.011005776757164999 0 0.12535926908485989 -0.0043146879934122416 0 0.15696686373583171 0.031584752265917691 0 0.15090808721025251 0.057856805858335039 0 0.13169362300839149 0.045066255045625787 0 0.15696686373583171 0.031584752265917691 0 0.13169362300839149 0.045066255045625787 0 0.15696686373583171 0.031584752265917691 0 0.1352708832328757 0.02803601590139583 0 0.13169362300839149 0.045066255045625787 0 0.1217654303830035 0.036039969463771783 0 0.1352708832328757 0.02803601590139583 0 0.13169362300839149 0.045066255045625787 0 0.1352708832328757 0.02803601590139583 0 0.13169362300839149 0.045066255045625787 0 0.13169362300839149 0.045066255045625787 0 0.1271087156334996 0.06689359332931348 0 0.15090808721025251 0.057856805858335039 0 0.13169362300839149 0.045066255045625787 0 0.1271087156334996 0.06689359332931348 0 0.1176544120096116 0.052555190245745551 0 0.13169362300839149 0.045066255045625787 0 0.1271087156334996 0.06689359332931348 0 0.1225238082586065 0.088720931613000958 0 0.1271087156334996 0.06689359332931348 0 0.14169978595985819 0.075851141288466387 0 0.15090808721025251 0.057856805858335039 0 0.1271087156334996 0.06689359332931348 0 0.14169978595985819 0.075851141288466387 0 0.15090808721025251 0.057856805858335039 0 0.14169978595985819 0.075851141288466387 0 0.15723260188818311 0.079493906589192198 0 0.14169978595985819 0.075851141288466387 0 0.144100256775296 0.092983068789487977 0 0.15723260188818311 0.079493906589192198 0 0.144100256775296 0.092983068789487977 0 0.16636125275248581 0.097461557708789767 0 0.15723260188818311 0.079493906589192198 0 0.1225238082586065 0.088720931613000958 0 0.14169978595985819 0.075851141288466387 0 0.144100256775296 0.092983068789487977 0 0.1225238082586065 0.088720931613000958 0 0.144100256775296 0.092983068789487977 0 0.13277620178702379 0.1041218724103066 0 0.13277620178702379 0.1041218724103066 0 0.1335718775425121 0.1198752109337242 0 0.1503358531089129 0.1127111908229069 0 0.1179389008837123 0.1105482698966882 0 0.123576886174183 0.13042732531174611 0 0.1335718775425121 0.1198752109337242 0 0.1179389008837123 0.1105482698966882 0 0.13277620178702379 0.1041218724103066 0 0.1335718775425121 0.1198752109337242 0 0.1459334125944903 0.1323621310022316 0 0.1335718775425121 0.1198752109337242 0 0.1503358531089129 0.1127111908229069 0 0.144100256775296 0.092983068789487977 0 0.13277620178702379 0.1041218724103066 0 0.1503358531089129 0.1127111908229069 0 0.144100256775296 0.092983068789487977 0 0.1503358531089129 0.1127111908229069 0 0.16636125275248581 0.097461557708789767 0 0.16796917283093429 0.13809806111230949 0 0.1503358531089129 0.1127111908229069 0 0.18167017424794921 0.11275940371956759 0 0.1503358531089129 0.1127111908229069 0 0.16636125275248581 0.097461557708789767 0 0.18167017424794921 0.11275940371956759 0 0.19537117566496409 0.087420746326825588 0 0.16636125275248581 0.097461557708789767 0 0.18167017424794921 0.11275940371956759 0 0.19537117566496409 0.087420746326825588 0 0.16636125275248581 0.097461557708789767 0 0.17900855283361339 0.069702879751134122 0 0.15090808721025251 0.057856805858335039 0 0.17900855283361339 0.069702879751134122 0 0.15723260188818311 0.079493906589192198 0 0.16636125275248581 0.097461557708789767 0 0.17900855283361339 0.069702879751134122 0 0.15723260188818311 0.079493906589192198 0 0.1069255376573764 0.48199601840853518 0 0.09046187542102839 0.46423600793062092 0 0.1069255376573764 0.48199601840853518 0 0.09046187542102839 0.46423600793062092 0 0.088261475795999619 0.48158464622303782 0 0.1069255376573764 0.48199601840853518 0 0.1141339310740235 0.4680971300671975 0 0.1041266795850105 0.46259237170799578 0 0.1069255376573764 0.48199601840853518 0 0.1041266795850105 0.46259237170799578 0 0.09046187542102839 0.46423600793062092 0 0.097588115901762085 0.49999999999999972 0 0.1018106359306532 0.49185833361076592 0 0.11980829636931289 0.4958931651322821 0 0.1069255376573764 0.48199601840853518 0 0.1018106359306532 0.49185833361076592 0 0.088261475795999619 0.48158464622303782 0 0.097588115901762085 0.49999999999999972 0 0.1018106359306532 0.49185833361076592 0 0.1069255376573764 0.48199601840853518 0 0.1018106359306532 0.49185833361076592 0 0.1018106359306532 0.49185833361076592 0 0.11430306223521471 0.48995444903731988 0 0.1069255376573764 0.48199601840853518 0 0.1018106359306532 0.49185833361076592 0 0.11430306223521471 0.48995444903731988 0 0.11430306223521471 0.48995444903731988 0 0.13104101678281729 0.4874035327719532 0 0.097588115901762085 0.49999999999999972 0 0.11980829636931289 0.4958931651322821 0 0.12694468637568981 0.5 0 0.1069255376573764 0.48199601840853518 0 0.11430306223521471 0.48995444903731988 0 0.11430306223521471 0.48995444903731988 0 0.12307890761133319 0.47717759226895762 0 0.13104101678281729 0.4874035327719532 0 0.1018106359306532 0.49185833361076592 0 0.11430306223521471 0.48995444903731988 0 0.11980829636931289 0.4958931651322821 0 0.11430306223521471 0.48995444903731988 0 0.11980829636931289 0.4958931651322821 0 0.13104101678281729 0.4874035327719532 0 0.11430306223521471 0.48995444903731988 0 0.11980829636931289 0.4958931651322821 0 0.1069255376573764 0.48199601840853518 0 0.11430306223521471 0.48995444903731988 0 0.12307890761133319 0.47717759226895762 0 0.1069255376573764 0.48199601840853518 0 0.12307890761133319 0.47717759226895762 0 0.1141339310740235 0.4680971300671975 0 0.1069255376573764 0.48199601840853518 0 0.1141339310740235 0.4680971300671975 0 0.12307890761133319 0.47717759226895762 0 0.1141339310740235 0.4680971300671975 0 0.12548597270264661 0.46479205655642702 0 0.12134232449067089 0.45419824172586021 0 0.1141339310740235 0.4680971300671975 0 0.12134232449067089 0.45419824172586021 0 0.1141339310740235 0.4680971300671975 0 0.12548597270264661 0.46479205655642702 0 0.12134232449067089 0.45419824172586021 0 0.1141339310740235 0.4680971300671975 0 0.1041266795850105 0.46259237170799578 0 0.12134232449067089 0.45419824172586021 0 0.1146202389540245 0.44194684444429871 0 0.097670268837677668 0.45033711958928252 0 0.12134232449067089 0.45419824172586021 0 0.097670268837677668 0.45033711958928252 0 0.1146202389540245 0.44194684444429871 0 0.1215228720538309 0.42702029116818491 0 0.1266730183998292 0.4439198460913758 0 0.1146202389540245 0.44194684444429871 0 0.1266730183998292 0.4439198460913758 0 0.12134232449067089 0.45419824172586021 0 0.1146202389540245 0.44194684444429871 0 0.1266730183998292 0.4439198460913758 0 0.12134232449067089 0.45419824172586021 0 0.1266730183998292 0.4439198460913758 0 0.1146202389540245 0.44194684444429871 0 0.097670268837677668 0.45033711958928252 0 0.097686139478707038 0.43114350914820698 0 0.12134232449067089 0.45419824172586021 0 0.097670268837677668 0.45033711958928252 0 0.1041266795850105 0.46259237170799578 0 0.097670268837677668 0.45033711958928252 0 0.1041266795850105 0.46259237170799578 0 0.09046187542102839 0.46423600793062092 0 0.097670268837677668 0.45033711958928252 0 0.09046187542102839 0.46423600793062092 0 0.073998213184684677 0.44647599745270278 0 0.09046187542102839 0.46423600793062092 0 0.073998213184684677 0.44647599745270278 0 0.072371559140910632 0.45497252103532437 0 0.09046187542102839 0.46423600793062092 0 0.073998213184684677 0.44647599745270278 0 0.097670268837677668 0.45033711958928252 0 0.073998213184684677 0.44647599745270278 0 0.097670268837677668 0.45033711958928252 0 0.073998213184684677 0.44647599745270278 0 0.097686139478707038 0.43114350914820698 0 0.073998213184684677 0.44647599745270278 0 0.060185523739375427 0.44220538420492611 0 0.057343558199154612 0.42850995546257331 0 0.073998213184684677 0.44647599745270278 0 0.065363930705963136 0.44965045774495521 0 0.072371559140910632 0.45497252103532437 0 0.073998213184684677 0.44647599745270278 0 0.065363930705963136 0.44965045774495521 0 0.060185523739375427 0.44220538420492611 0 0.072371559140910632 0.45497252103532437 0 0.062806783327762655 0.45528299137002493 0 0.064480692480901741 0.47428912587676619 0 0.09046187542102839 0.46423600793062092 0 0.072371559140910632 0.45497252103532437 0 0.064480692480901741 0.47428912587676619 0 0.065363930705963136 0.44965045774495521 0 0.072371559140910632 0.45497252103532437 0 0.062806783327762655 0.45528299137002493 0 0.064480692480901741 0.47428912587676619 0 0.088261475795999619 0.48158464622303782 0 0.077628637490035485 0.49554374528850242 0 0.09046187542102839 0.46423600793062092 0 0.064480692480901741 0.47428912587676619 0 0.088261475795999619 0.48158464622303782 0 0.1018106359306532 0.49185833361076592 0 0.077628637490035485 0.49554374528850242 0 0.1018106359306532 0.49185833361076592 0 0.088261475795999619 0.48158464622303782 0 0.077628637490035485 0.49554374528850242 0 0.097588115901762085 0.49999999999999972 0 0.080385242572369217 0.49999999999999861 0 0.077628637490035485 0.49554374528850242 0 0.097588115901762085 0.49999999999999972 0 0.1018106359306532 0.49185833361076592 0 0.077628637490035485 0.49554374528850242 0 0.080385242572369217 0.49999999999999861 0 0.077628637490035485 0.49554374528850242 0 0.077628637490035485 0.49554374528850242 0 0.062281329732456293 0.49097338627008491 0 0.051420309047906357 0.5 0 0.077628637490035485 0.49554374528850242 0 0.051420309047906357 0.5 0 0.064480692480901741 0.47428912587676619 0 0.077628637490035485 0.49554374528850242 0 0.080385242572369217 0.49999999999999861 0 0.077628637490035485 0.49554374528850242 0 0.056282972701221012 0.5 0 0.064480692480901741 0.47428912587676619 0 0.077628637490035485 0.49554374528850242 0 0.062281329732456293 0.49097338627008491 0 0.077628637490035485 0.49554374528850242 0 0.056282972701221012 0.5 0 0.051420309047906357 0.5 0 0.062281329732456293 0.49097338627008491 0 0.053350554816984933 0.49308532852851761 0 0.051420309047906357 0.5 0 0.062281329732456293 0.49097338627008491 0 0.051632614106834118 0.4867519984152559 0 0.053350554816984933 0.49308532852851761 0 0.051632614106834118 0.4867519984152559 0 0.053350554816984933 0.49308532852851761 0 0.045381749564155971 0.49389904570749887 0 0.053350554816984933 0.49308532852851761 0 0.051420309047906357 0.5 0 0.045381749564155971 0.49389904570749887 0 0.064480692480901741 0.47428912587676619 0 0.062281329732456293 0.49097338627008491 0 0.051632614106834118 0.4867519984152559 0 0.064480692480901741 0.47428912587676619 0 0.049796603140256093 0.47788633379297779 0 0.047610105821743909 0.46783664995458463 0 0.064480692480901741 0.47428912587676619 0 0.051632614106834118 0.4867519984152559 0 0.049796603140256093 0.47788633379297779 0 0.051632614106834118 0.4867519984152559 0 0.049796603140256093 0.47788633379297779 0 0.042454259168646112 0.48146676430814028 0 0.03774453234673221 0.47365357949044512 0 0.034634738518891713 0.46512063453646052 0 0.047610105821743909 0.46783664995458463 0 0.049796603140256093 0.47788633379297779 0 0.03774453234673221 0.47365357949044512 0 0.047610105821743909 0.46783664995458463 0 0.049796603140256093 0.47788633379297779 0 0.042454259168646112 0.48146676430814028 0 0.03774453234673221 0.47365357949044512 0 0.042454259168646112 0.48146676430814028 0 0.034346229944286613 0.48230518062712763 0 0.039658452081357959 0.48903307012097191 0 0.042454259168646112 0.48146676430814028 0 0.034346229944286613 0.48230518062712763 0 0.03774453234673221 0.47365357949044512 0 0.034346229944286613 0.48230518062712763 0 0.03774453234673221 0.47365357949044512 0 0.025299556322735041 0.48017061794783328 0 0.03774453234673221 0.47365357949044512 0 0.025299556322735041 0.48017061794783328 0 0.034634738518891713 0.46512063453646052 0 0.03774453234673221 0.47365357949044512 0 0.034634738518891713 0.46512063453646052 0 0.051420309047906357 0.5 0 0.045381749564155971 0.49389904570749887 0 0.032180702830072787 0.5 0 0.045381749564155971 0.49389904570749887 0 0.039658452081357959 0.48903307012097191 0 0.032180702830072787 0.5 0 0.051632614106834118 0.4867519984152559 0 0.045381749564155971 0.49389904570749887 0 0.039658452081357959 0.48903307012097191 0 0.051632614106834118 0.4867519984152559 0 0.042454259168646112 0.48146676430814028 0 0.039658452081357959 0.48903307012097191 0 0.034346229944286613 0.48230518062712763 0 0.039658452081357959 0.48903307012097191 0 0.02601126422289431 0.49103227354633228 0 0.039658452081357959 0.48903307012097191 0 0.032180702830072787 0.5 0 0.02601126422289431 0.49103227354633228 0 0.032180702830072787 0.5 0 0.015964374126576839 0.4952206013592052 0 0.02601126422289431 0.49103227354633228 0 0.032180702830072787 0.5 0 0.015964374126576839 0.4952206013592052 0 0.0080784329589246306 0.5 0 0.015964374126576839 0.4952206013592052 0 0.025299556322735041 0.48017061794783328 0 0.015964374126576839 0.4952206013592052 0 0.02601126422289431 0.49103227354633228 0 0.025299556322735041 0.48017061794783328 0 0.015964374126576839 0.4952206013592052 0 0.025299556322735041 0.48017061794783328 0 0.015645085922359671 0.48257758337742779 0 0.034346229944286613 0.48230518062712763 0 0.02601126422289431 0.49103227354633228 0 0.025299556322735041 0.48017061794783328 0 0.025299556322735041 0.48017061794783328 0 0.034634738518891713 0.46512063453646052 0 0.025299556322735041 0.48017061794783328 0 0.02154440772543224 0.46837671587731239 0 0.034634738518891713 0.46512063453646052 0 0.015645085922359671 0.48257758337742779 0 0.0098551765456640003 0.4757046766042905 0 0.02154440772543224 0.46837671587731239 0 0.025299556322735041 0.48017061794783328 0 0.015645085922359671 0.48257758337742779 0 0.02154440772543224 0.46837671587731239 0 -0.0092949274138586589 0.47499313211266581 0 0.0098551765456640003 0.4757046766042905 0 0.0041546557958673912 0.4884928686158212 0 -0.0092949274138586589 0.47499313211266581 0 0.0098551765456640003 0.4757046766042905 0 0.01118748516252247 0.4598761781804801 0 0.015645085922359671 0.48257758337742779 0 0.0098551765456640003 0.4757046766042905 0 0.0041546557958673912 0.4884928686158212 0 0.015964374126576839 0.4952206013592052 0 0.0041546557958673912 0.4884928686158212 0 0.0080784329589246306 0.5 0 0.015964374126576839 0.4952206013592052 0 0.015645085922359671 0.48257758337742779 0 0.0041546557958673912 0.4884928686158212 0 -0.0025660179154935459 0.44998626422533278 0 0.011662179686007039 0.43998700034618798 0 0.0041628915828715758 0.42497939633799958 0 -0.0025660179154935459 0.44998626422533278 0 0.011662179686007039 0.43998700034618798 0 0.01118748516252247 0.4598761781804801 0 0.0098551765456640003 0.4757046766042905 0 0.01118748516252247 0.4598761781804801 0 0.02154440772543224 0.46837671587731239 0 0.02672042603967454 0.44340459917452962 0 0.034634738518891713 0.46512063453646052 0 0.02154440772543224 0.46837671587731239 0 0.02672042603967454 0.44340459917452962 0 0.034634738518891713 0.46512063453646052 0 0.01118748516252247 0.4598761781804801 0 0.02154440772543224 0.46837671587731239 0 0.02672042603967454 0.44340459917452962 0 0.011662179686007039 0.43998700034618798 0 0.01118748516252247 0.4598761781804801 0 0.02672042603967454 0.44340459917452962 0 0.02672042603967454 0.44340459917452962 0 0.04598914835902522 0.44681529499951811 0 0.042031847618489299 0.42900302958861591 0 0.02672042603967454 0.44340459917452962 0 0.04598914835902522 0.44681529499951811 0 0.034634738518891713 0.46512063453646052 0 0.04598914835902522 0.44681529499951811 0 0.034634738518891713 0.46512063453646052 0 0.051332747471767012 0.45303450646503057 0 0.04598914835902522 0.44681529499951811 0 0.034634738518891713 0.46512063453646052 0 0.034634738518891713 0.46512063453646052 0 0.047610105821743909 0.46783664995458463 0 0.051332747471767012 0.45303450646503057 0 0.064480692480901741 0.47428912587676619 0 0.051332747471767012 0.45303450646503057 0 0.062806783327762655 0.45528299137002493 0 0.064480692480901741 0.47428912587676619 0 0.051332747471767012 0.45303450646503057 0 0.064480692480901741 0.47428912587676619 0 0.047610105821743909 0.46783664995458463 0 0.051332747471767012 0.45303450646503057 0 0.04598914835902522 0.44681529499951811 0 0.057343558199154612 0.42850995546257331 0 0.04598914835902522 0.44681529499951811 0 0.060185523739375427 0.44220538420492611 0 0.057343558199154612 0.42850995546257331 0 0.04598914835902522 0.44681529499951811 0 0.057135626720778702 0.44939772695689101 0 0.060185523739375427 0.44220538420492611 0 0.04598914835902522 0.44681529499951811 0 0.051332747471767012 0.45303450646503057 0 0.057135626720778702 0.44939772695689101 0 0.062806783327762655 0.45528299137002493 0 0.051332747471767012 0.45303450646503057 0 0.057135626720778702 0.44939772695689101 0 0.065363930705963136 0.44965045774495521 0 0.057135626720778702 0.44939772695689101 0 0.060185523739375427 0.44220538420492611 0 0.065363930705963136 0.44965045774495521 0 0.062806783327762655 0.45528299137002493 0 0.057135626720778702 0.44939772695689101 0 0.04598914835902522 0.44681529499951811 0 0.057343558199154612 0.42850995546257331 0 0.042031847618489299 0.42900302958861591 0 0.057343558199154612 0.42850995546257331 0 0.048825464413838962 0.42077228384530879 0 0.042031847618489299 0.42900302958861591 0 0.057343558199154612 0.42850995546257331 0 0.056473778555659757 0.41206609916222831 0 0.0730933379272376 0.40311849350075901 0 0.056473778555659757 0.41206609916222831 0 0.048825464413838962 0.42077228384530879 0 0.039592872445116813 0.41366128960851278 0 0.057343558199154612 0.42850995546257331 0 0.056473778555659757 0.41206609916222831 0 0.048825464413838962 0.42077228384530879 0 0.056473778555659757 0.41206609916222831 0 0.039592872445116813 0.41366128960851278 0 0.042009305666462458 0.4003595109527926 0 0.039592872445116813 0.41366128960851278 0 0.042031847618489299 0.42900302958861591 0 0.01880611356046015 0.42168856381259778 0 0.048825464413838962 0.42077228384530879 0 0.039592872445116813 0.41366128960851278 0 0.042031847618489299 0.42900302958861591 0 0.011662179686007039 0.43998700034618798 0 0.02672042603967454 0.44340459917452962 0 0.01880611356046015 0.42168856381259778 0 0.02672042603967454 0.44340459917452962 0 0.042031847618489299 0.42900302958861591 0 0.01880611356046015 0.42168856381259778 0 0.02672042603967454 0.44340459917452962 0 0.01880611356046015 0.42168856381259778 0 0.01880611356046015 0.42168856381259778 0 0.01089180108124084 0.39997252845066772 0 0.027302248087317391 0.40356895017405447 0 0.039592872445116813 0.41366128960851278 0 0.01880611356046015 0.42168856381259778 0 0.027302248087317391 0.40356895017405447 0 -0.0072436027832006112 0.4123364379025341 0 0.0041628915828715758 0.42497939633799958 0 0.01089180108124084 0.39997252845066772 0 0.0041628915828715758 0.42497939633799958 0 0.01089180108124084 0.39997252845066772 0 0.01880611356046015 0.42168856381259778 0 0.01089180108124084 0.39997252845066772 0 0.01880611356046015 0.42168856381259778 0 0.0041628915828715758 0.42497939633799958 0 0.01089180108124084 0.39997252845066772 0 0.011662179686007039 0.43998700034618798 0 0.01880611356046015 0.42168856381259778 0 0.0041628915828715758 0.42497939633799958 0 -0.0025660179154935459 0.44998626422533278 0 0.0041628915828715758 0.42497939633799958 0 0.01028557946935251 0.37794781039764908 0 0.0043438629418587676 0.38196111157387103 0 0.01089180108124084 0.39997252845066772 0 0.01089180108124084 0.39997252845066772 0 0.017262790689934051 0.37629581003217549 0 0.01028557946935251 0.37794781039764908 0 0.01089180108124084 0.39997252845066772 0 0.017262790689934051 0.37629581003217549 0 0.01028557946935251 0.37794781039764908 0 0.017262790689934051 0.37629581003217549 0 0.0037288652009876042 0.37408999224015083 0 0.01028557946935251 0.37794781039764908 0 0.0043438629418587676 0.38196111157387103 0 0.003161894288261895 0.37876248276422902 0 0.01028557946935251 0.37794781039764908 0 0.003161894288261895 0.37876248276422902 0 0.0037288652009876042 0.37408999224015083 0 0.0043438629418587676 0.38196111157387103 0 0.003161894288261895 0.37876248276422902 0 0.0043438629418587676 0.38196111157387103 0 0.01089180108124084 0.39997252845066772 0 -0.0065706072671127469 0.39434828954426082 0 0.0043438629418587676 0.38196111157387103 0 0.01089180108124084 0.39997252845066772 0 0.01089180108124084 0.39997252845066772 0 0.021113599655943931 0.39361075693010539 0 0.027302248087317391 0.40356895017405447 0 0.021113599655943931 0.39361075693010539 0 0.027302248087317391 0.40356895017405447 0 0.030942964987117131 0.39322920146150708 0 0.021113599655943931 0.39361075693010539 0 0.030942964987117131 0.39322920146150708 0 0.024767953330320312 0.38506957042885442 0 0.024767953330320312 0.38506957042885442 0 0.021964806165335801 0.37864373932988948 0 0.039102338653667149 0.38720128552053751 0 0.01089180108124084 0.39997252845066772 0 0.021113599655943931 0.39361075693010539 0 0.017262790689934051 0.37629581003217549 0 0.021964806165335801 0.37864373932988948 0 0.039102338653667149 0.38720128552053751 0 0.021113599655943931 0.39361075693010539 0 0.024767953330320312 0.38506957042885442 0 0.017262790689934051 0.37629581003217549 0 0.024767953330320312 0.38506957042885442 0 0.017262790689934051 0.37629581003217549 0 0.021964806165335801 0.37864373932988948 0 0.017262790689934051 0.37629581003217549 0 0.021964806165335801 0.37864373932988948 0 0.018665890033715379 0.37108142575026348 0 0.024767953330320312 0.38506957042885442 0 0.021964806165335801 0.37864373932988948 0 0.017262790689934051 0.37629581003217549 0 0.021964806165335801 0.37864373932988948 0 0.021964806165335801 0.37864373932988948 0 0.039102338653667149 0.38720128552053751 0 0.036641666779038733 0.37496763192590571 0 0.039102338653667149 0.38720128552053751 0 0.052925629052967438 0.37684156341525438 0 0.036641666779038733 0.37496763192590571 0 0.030942964987117131 0.39322920146150708 0 0.024767953330320312 0.38506957042885442 0 0.039102338653667149 0.38720128552053751 0 0.039102338653667149 0.38720128552053751 0 0.042009305666462458 0.4003595109527926 0 0.056239871141998889 0.3957588317111847 0 0.027302248087317391 0.40356895017405447 0 0.030942964987117131 0.39322920146150708 0 0.042009305666462458 0.4003595109527926 0 0.039592872445116813 0.41366128960851278 0 0.027302248087317391 0.40356895017405447 0 0.042009305666462458 0.4003595109527926 0 0.030942964987117131 0.39322920146150708 0 0.039102338653667149 0.38720128552053751 0 0.042009305666462458 0.4003595109527926 0 0.056473778555659757 0.41206609916222831 0 0.042009305666462458 0.4003595109527926 0 0.056239871141998889 0.3957588317111847 0 0.056473778555659757 0.41206609916222831 0 0.056239871141998889 0.3957588317111847 0 0.0730933379272376 0.40311849350075901 0 0.039102338653667149 0.38720128552053751 0 0.056239871141998889 0.3957588317111847 0 0.039102338653667149 0.38720128552053751 0 0.056239871141998889 0.3957588317111847 0 0.052925629052967438 0.37684156341525438 0 0.056239871141998889 0.3957588317111847 0 0.052925629052967438 0.37684156341525438 0 0.068283391950731132 0.3844375804050662 0 0.068283391950731132 0.3844375804050662 0 0.088843117655318021 0.3777270315389431 0 0.070315003976133716 0.36874198185918983 0 0.052925629052967438 0.37684156341525438 0 0.068283391950731132 0.3844375804050662 0 0.070315003976133716 0.36874198185918983 0 0.068283391950731132 0.3844375804050662 0 0.088843117655318021 0.3777270315389431 0 0.0730933379272376 0.40311849350075901 0 0.088843117655318021 0.3777270315389431 0 0.0730933379272376 0.40311849350075901 0 0.088843117655318021 0.3777270315389431 0 0.0730933379272376 0.40311849350075901 0 0.092333703715745147 0.40693353528493381 0 0.056239871141998889 0.3957588317111847 0 0.068283391950731132 0.3844375804050662 0 0.0730933379272376 0.40311849350075901 0 0.057343558199154612 0.42850995546257331 0 0.0730933379272376 0.40311849350075901 0 0.057343558199154612 0.42850995546257331 0 0.0730933379272376 0.40311849350075901 0 0.07819067387403128 0.42433461765939068 0 0.073998213184684677 0.44647599745270278 0 0.057343558199154612 0.42850995546257331 0 0.073998213184684677 0.44647599745270278 0 0.057343558199154612 0.42850995546257331 0 0.07819067387403128 0.42433461765939068 0 0.073998213184684677 0.44647599745270278 0 0.07819067387403128 0.42433461765939068 0 0.097686139478707038 0.43114350914820698 0 0.07819067387403128 0.42433461765939068 0 0.092333703715745147 0.40693353528493381 0 0.097686139478707038 0.43114350914820698 0 0.0730933379272376 0.40311849350075901 0 0.07819067387403128 0.42433461765939068 0 0.092333703715745147 0.40693353528493381 0 0.092333703715745147 0.40693353528493381 0 0.10814765799570621 0.41254533555208828 0 0.097686139478707038 0.43114350914820698 0 0.10814765799570621 0.41254533555208828 0 0.097686139478707038 0.43114350914820698 0 0.1215228720538309 0.42702029116818491 0 0.1146202389540245 0.44194684444429871 0 0.097686139478707038 0.43114350914820698 0 0.1215228720538309 0.42702029116818491 0 0.10814765799570621 0.41254533555208828 0 0.1215228720538309 0.42702029116818491 0 0.12555135272407769 0.40559386789156621 0 0.1080412953634708 0.39273222431021521 0 0.12774738154290771 0.38685862698622647 0 0.12555135272407769 0.40559386789156621 0 0.10814765799570621 0.41254533555208828 0 0.1080412953634708 0.39273222431021521 0 0.12555135272407769 0.40559386789156621 0 0.1080412953634708 0.39273222431021521 0 0.11681627972552119 0.36973601613293111 0 0.12774738154290771 0.38685862698622647 0 0.088843117655318021 0.3777270315389431 0 0.1080412953634708 0.39273222431021521 0 0.11681627972552119 0.36973601613293111 0 0.092333703715745147 0.40693353528493381 0 0.10814765799570621 0.41254533555208828 0 0.1080412953634708 0.39273222431021521 0 0.088843117655318021 0.3777270315389431 0 0.092333703715745147 0.40693353528493381 0 0.1080412953634708 0.39273222431021521 0 0.088843117655318021 0.3777270315389431 0 0.1045928973833985 0.35233556957712719 0 0.11681627972552119 0.36973601613293111 0 0.088843117655318021 0.3777270315389431 0 0.1045928973833985 0.35233556957712719 0 0.11681627972552119 0.36973601613293111 0 0.1189335555640645 0.35396535855909572 0 0.1320713574980536 0.35657361291811679 0 0.1045928973833985 0.35233556957712719 0 0.1189335555640645 0.35396535855909572 0 0.1222536876492849 0.33721623560820801 0 0.1045928973833985 0.35233556957712719 0 0.11681627972552119 0.36973601613293111 0 0.1189335555640645 0.35396535855909572 0 0.1189335555640645 0.35396535855909572 0 0.1222536876492849 0.33721623560820801 0 0.1320713574980536 0.35657361291811679 0 0.1045928973833985 0.35233556957712719 0 0.1222536876492849 0.33721623560820801 0 0.12034267711147879 0.32694410761531151 0 0.1045928973833985 0.35233556957712719 0 0.12034267711147879 0.32694410761531151 0 0.12034267711147879 0.32694410761531151 0 0.10451026768777059 0.31740070659997521 0 0.1144660175850513 0.30146031137078749 0 0.10451026768777059 0.31740070659997521 0 0.091591083981234195 0.32290012751932418 0 0.088006576148096635 0.3062522419650337 0 0.12034267711147879 0.32694410761531151 0 0.10451026768777059 0.31740070659997521 0 0.1024092111275753 0.33147362881014608 0 0.10451026768777059 0.31740070659997521 0 0.1024092111275753 0.33147362881014608 0 0.091591083981234195 0.32290012751932418 0 0.1045928973833985 0.35233556957712719 0 0.1024092111275753 0.33147362881014608 0 0.088141243231286137 0.33880107487935618 0 0.1024092111275753 0.33147362881014608 0 0.088141243231286137 0.33880107487935618 0 0.091591083981234195 0.32290012751932418 0 0.1045928973833985 0.35233556957712719 0 0.12034267711147879 0.32694410761531151 0 0.1024092111275753 0.33147362881014608 0 0.088141243231286137 0.33880107487935618 0 0.091591083981234195 0.32290012751932418 0 0.075282385250370717 0.32544556887505838 0 0.091591083981234195 0.32290012751932418 0 0.075282385250370717 0.32544556887505838 0 0.088006576148096635 0.3062522419650337 0 0.060525799124810473 0.333529663681565 0 0.064494796627080742 0.30867890452466512 0 0.075282385250370717 0.32544556887505838 0 0.060525799124810473 0.333529663681565 0 0.064494796627080742 0.30867890452466512 0 0.075282385250370717 0.32544556887505838 0 0.064494796627080742 0.30867890452466512 0 0.088006576148096635 0.3062522419650337 0 0.075282385250370717 0.32544556887505838 0 0.070449267332544613 0.34156234256317702 0 0.060525799124810473 0.333529663681565 0 0.088141243231286137 0.33880107487935618 0 0.075282385250370717 0.32544556887505838 0 0.070449267332544613 0.34156234256317702 0 0.070449267332544613 0.34156234256317702 0 0.060525799124810473 0.333529663681565 0 0.070449267332544613 0.34156234256317702 0 0.070315003976133716 0.36874198185918983 0 0.056309120866446967 0.35993120608131168 0 0.070449267332544613 0.34156234256317702 0 0.084468305915736189 0.35583360008355869 0 0.070315003976133716 0.36874198185918983 0 0.1045928973833985 0.35233556957712719 0 0.088141243231286137 0.33880107487935618 0 0.084468305915736189 0.35583360008355869 0 0.088141243231286137 0.33880107487935618 0 0.070449267332544613 0.34156234256317702 0 0.084468305915736189 0.35583360008355869 0 0.088843117655318021 0.3777270315389431 0 0.1045928973833985 0.35233556957712719 0 0.084468305915736189 0.35583360008355869 0 0.088843117655318021 0.3777270315389431 0 0.084468305915736189 0.35583360008355869 0 0.070315003976133716 0.36874198185918983 0 0.052925629052967438 0.37684156341525438 0 0.070315003976133716 0.36874198185918983 0 0.056309120866446967 0.35993120608131168 0 0.052925629052967438 0.37684156341525438 0 0.056309120866446967 0.35993120608131168 0 0.040771242316977728 0.36370535118655228 0 0.070449267332544613 0.34156234256317702 0 0.056309120866446967 0.35993120608131168 0 0.060525799124810473 0.333529663681565 0 0.056309120866446967 0.35993120608131168 0 0.060525799124810473 0.333529663681565 0 0.056309120866446967 0.35993120608131168 0 0.043823706095071802 0.34427838492072971 0 0.060525799124810473 0.333529663681565 0 0.056309120866446967 0.35993120608131168 0 0.043823706095071802 0.34427838492072971 0 0.040771242316977728 0.36370535118655228 0 0.043823706095071802 0.34427838492072971 0 0.040771242316977728 0.36370535118655228 0 0.02392727072562726 0.3515283834780204 0 0.052925629052967438 0.37684156341525438 0 0.040771242316977728 0.36370535118655228 0 0.036641666779038733 0.37496763192590571 0 0.040771242316977728 0.36370535118655228 0 0.036641666779038733 0.37496763192590571 0 0.028444317706245829 0.36844622017729411 0 0.021964806165335801 0.37864373932988948 0 0.036641666779038733 0.37496763192590571 0 0.028444317706245829 0.36844622017729411 0 0.028444317706245829 0.36844622017729411 0 0.018665890033715379 0.37108142575026348 0 0.02392727072562726 0.3515283834780204 0 0.018665890033715379 0.37108142575026348 0 0.02392727072562726 0.3515283834780204 0 0.040771242316977728 0.36370535118655228 0 0.028444317706245829 0.36844622017729411 0 0.02392727072562726 0.3515283834780204 0 0.021964806165335801 0.37864373932988948 0 0.028444317706245829 0.36844622017729411 0 0.018665890033715379 0.37108142575026348 0 0.021964806165335801 0.37864373932988948 0 0.018665890033715379 0.37108142575026348 0 0.017262790689934051 0.37629581003217549 0 0.018665890033715379 0.37108142575026348 0 0.02392727072562726 0.3515283834780204 0 0.0079430069714572782 0.34650068439185039 0 0.0187629563977279 0.34002422230725909 0 0.018665890033715379 0.37108142575026348 0 0.02392727072562726 0.3515283834780204 0 0.0079430069714572782 0.34650068439185039 0 -0.0077270399645133223 0.34787393807981482 0 0.0079430069714572782 0.34650068439185039 0 0.00045783537429429209 0.35545048756526998 0 0.018665890033715379 0.37108142575026348 0 0.0079430069714572782 0.34650068439185039 0 0.0079430069714572782 0.34650068439185039 0 0.00045783537429429209 0.35545048756526998 0 0.0080041553117443844 0.36445591684528078 0 0.018665890033715379 0.37108142575026348 0 0.0079430069714572782 0.34650068439185039 0 0.0080041553117443844 0.36445591684528078 0 -0.0045112187503786819 0.3654230608970287 0 0.017262790689934051 0.37629581003217549 0 -0.0045112187503786819 0.3654230608970287 0 0.00045783537429429209 0.35545048756526998 0 0.0080041553117443844 0.36445591684528078 0 -0.0045112187503786819 0.3654230608970287 0 0.017262790689934051 0.37629581003217549 0 0.0037288652009876042 0.37408999224015083 0 -0.0045112187503786819 0.3654230608970287 0 0.017262790689934051 0.37629581003217549 0 0.0080041553117443844 0.36445591684528078 0 0.017262790689934051 0.37629581003217549 0 0.018665890033715379 0.37108142575026348 0 0.0080041553117443844 0.36445591684528078 0 -0.002779876090803129 0.3219199430334384 0 0.011184634355500701 0.315392824702043 0 0.01095689844870875 0.30401128476579459 0 0.011184634355500701 0.315392824702043 0 0.011508044977592341 0.32901732652806481 0 0.02242950325407898 0.32124895820573318 0 -0.002779876090803129 0.3219199430334384 0 0.011184634355500701 0.315392824702043 0 -0.002779876090803129 0.3219199430334384 0 0.011184634355500701 0.315392824702043 0 0.011508044977592341 0.32901732652806481 0 0.0079430069714572782 0.34650068439185039 0 0.011508044977592341 0.32901732652806481 0 0.0187629563977279 0.34002422230725909 0 -0.002779876090803129 0.3219199430334384 0 0.0079430069714572782 0.34650068439185039 0 -0.002779876090803129 0.3219199430334384 0 0.0079430069714572782 0.34650068439185039 0 0.011508044977592341 0.32901732652806481 0 0.02392727072562726 0.3515283834780204 0 0.02918865141754011 0.33197534120577749 0 0.02918865141754011 0.33197534120577749 0 0.0187629563977279 0.34002422230725909 0 0.02242950325407898 0.32124895820573318 0 0.011508044977592341 0.32901732652806481 0 0.0187629563977279 0.34002422230725909 0 0.02242950325407898 0.32124895820573318 0 0.02392727072562726 0.3515283834780204 0 0.02918865141754011 0.33197534120577749 0 0.0187629563977279 0.34002422230725909 0 0.02918865141754011 0.33197534120577749 0 0.02242950325407898 0.32124895820573318 0 0.034450032109452432 0.31242229893353451 0 0.011184634355500701 0.315392824702043 0 0.02242950325407898 0.32124895820573318 0 0.02514914480180459 0.3088657063706477 0 0.02242950325407898 0.32124895820573318 0 0.034450032109452432 0.31242229893353451 0 0.02514914480180459 0.3088657063706477 0 0.02918865141754011 0.33197534120577749 0 0.047487915617131553 0.32297598130754962 0 0.034450032109452432 0.31242229893353451 0 0.02918865141754011 0.33197534120577749 0 0.034450032109452432 0.31242229893353451 0 0.047487915617131553 0.32297598130754962 0 0.05124250575663284 0.3029622885225422 0 0.034450032109452432 0.31242229893353451 0 0.047487915617131553 0.32297598130754962 0 0.034450032109452432 0.31242229893353451 0 0.043823706095071802 0.34427838492072971 0 0.02918865141754011 0.33197534120577749 0 0.047487915617131553 0.32297598130754962 0 0.043823706095071802 0.34427838492072971 0 0.02392727072562726 0.3515283834780204 0 0.02918865141754011 0.33197534120577749 0 0.043823706095071802 0.34427838492072971 0 0.060525799124810473 0.333529663681565 0 0.047487915617131553 0.32297598130754962 0 0.060525799124810473 0.333529663681565 0 0.047487915617131553 0.32297598130754962 0 0.060525799124810473 0.333529663681565 0 0.047487915617131553 0.32297598130754962 0 0.064494796627080742 0.30867890452466512 0 0.047487915617131553 0.32297598130754962 0 0.05124250575663284 0.3029622885225422 0 0.064494796627080742 0.30867890452466512 0 0.05124250575663284 0.3029622885225422 0 0.068463794129351968 0.28382814536776529 0 0.064494796627080742 0.30867890452466512 0 0.05124250575663284 0.3029622885225422 0 0.041315990300147633 0.28690611247919612 0 0.068463794129351968 0.28382814536776529 0 0.041315990300147633 0.28690611247919612 0 0.023222554998636281 0.28703226390056041 0 0.030550608659473039 0.27506671391774762 0 0.041315990300147633 0.28690611247919612 0 0.034450032109452432 0.31242229893353451 0 0.05124250575663284 0.3029622885225422 0 0.041315990300147633 0.28690611247919612 0 0.034450032109452432 0.31242229893353451 0 0.041315990300147633 0.28690611247919612 0 0.034450032109452432 0.31242229893353451 0 0.02224567171784762 0.30254332255863903 0 0.034450032109452432 0.31242229893353451 0 0.02224567171784762 0.30254332255863903 0 0.034450032109452432 0.31242229893353451 0 0.02514914480180459 0.3088657063706477 0 0.02224567171784762 0.30254332255863903 0 0.011184634355500701 0.315392824702043 0 0.02514914480180459 0.3088657063706477 0 0.01095689844870875 0.30401128476579459 0 0.011184634355500701 0.315392824702043 0 0.02514914480180459 0.3088657063706477 0 0.02514914480180459 0.3088657063706477 0 0.02224567171784762 0.30254332255863903 0 0.01095689844870875 0.30401128476579459 0 0.02224567171784762 0.30254332255863903 0 0.010041311326242889 0.29266434618374332 0 0.041315990300147633 0.28690611247919612 0 0.02224567171784762 0.30254332255863903 0 0.023222554998636281 0.28703226390056041 0 0.023222554998636281 0.28703226390056041 0 0.010041311326242889 0.29266434618374332 0 0.01491983669257267 0.27688447969012842 0 0.02224567171784762 0.30254332255863903 0 0.023222554998636281 0.28703226390056041 0 0.010041311326242889 0.29266434618374332 0 0.010041311326242889 0.29266434618374332 0 0.00032744538039224569 0.28084305500771939 0 0.01491983669257267 0.27688447969012842 0 -0.01387783576021002 0.29647938990458911 0 0.010041311326242889 0.29266434618374332 0 0.01095689844870875 0.30401128476579459 0 0.02224567171784762 0.30254332255863903 0 0.010041311326242889 0.29266434618374332 0 0.01095689844870875 0.30401128476579459 0 0.012535972650186579 0.25844892490855959 0 0.001783118853633629 0.26687294430706471 0 0.01252237064784878 0.26688838450606039 0 0.012535972650186579 0.25844892490855959 0 0.014872567949103809 0.25043112220009289 0 3.4036501383808038e-05 0.25211346284330632 0 0.012535972650186579 0.25844892490855959 0 3.4036501383808038e-05 0.25211346284330632 0 0.001783118853633629 0.26687294430706471 0 0.001783118853633629 0.26687294430706471 0 0.00032744538039224569 0.28084305500771939 0 0.01491983669257267 0.27688447969012842 0 0.001783118853633629 0.26687294430706471 0 0.01491983669257267 0.27688447969012842 0 0.01252237064784878 0.26688838450606039 0 0.01491983669257267 0.27688447969012842 0 0.01252237064784878 0.26688838450606039 0 0.025112712815166291 0.2631207874939952 0 0.023222554998636281 0.28703226390056041 0 0.01491983669257267 0.27688447969012842 0 0.030550608659473039 0.27506671391774762 0 0.01491983669257267 0.27688447969012842 0 0.030550608659473039 0.27506671391774762 0 0.025112712815166291 0.2631207874939952 0 0.012535972650186579 0.25844892490855959 0 0.01252237064784878 0.26688838450606039 0 0.025112712815166291 0.2631207874939952 0 0.022179105737704811 0.24902080974435001 0 0.012535972650186579 0.25844892490855959 0 0.014872567949103809 0.25043112220009289 0 0.022179105737704811 0.24902080974435001 0 0.012535972650186579 0.25844892490855959 0 0.025112712815166291 0.2631207874939952 0 0.022179105737704811 0.24902080974435001 0 0.025112712815166291 0.2631207874939952 0 0.037365263241541463 0.25048195128351242 0 0.025112712815166291 0.2631207874939952 0 0.037365263241541463 0.25048195128351242 0 0.048181948490842272 0.26138992602485772 0 0.041315990300147633 0.28690611247919612 0 0.030550608659473039 0.27506671391774762 0 0.048181948490842272 0.26138992602485772 0 0.030550608659473039 0.27506671391774762 0 0.025112712815166291 0.2631207874939952 0 0.048181948490842272 0.26138992602485772 0 0.041315990300147633 0.28690611247919612 0 0.048181948490842272 0.26138992602485772 0 0.041315990300147633 0.28690611247919612 0 0.048181948490842272 0.26138992602485772 0 0.068463794129351968 0.28382814536776529 0 0.055047906681539117 0.23587373957051991 0 0.048181948490842272 0.26138992602485772 0 0.072432791631623195 0.25897738621086552 0 0.072432791631623195 0.25897738621086552 0 0.086665820663228116 0.26927628780633311 0 0.094691733425368935 0.25170817048520849 0 0.086665820663228116 0.26927628780633311 0 0.068463794129351968 0.28382814536776529 0 0.094369801533108658 0.28506537163802392 0 0.072432791631623195 0.25897738621086552 0 0.086665820663228116 0.26927628780633311 0 0.068463794129351968 0.28382814536776529 0 0.072432791631623195 0.25897738621086552 0 0.068463794129351968 0.28382814536776529 0 0.048181948490842272 0.26138992602485772 0 0.072432791631623195 0.25897738621086552 0 0.068463794129351968 0.28382814536776529 0 0.068463794129351968 0.28382814536776529 0 0.064494796627080742 0.30867890452466512 0 0.068463794129351968 0.28382814536776529 0 0.064494796627080742 0.30867890452466512 0 0.088006576148096635 0.3062522419650337 0 0.068463794129351968 0.28382814536776529 0 0.088006576148096635 0.3062522419650337 0 0.094369801533108658 0.28506537163802392 0 0.094369801533108658 0.28506537163802392 0 0.1144660175850513 0.30146031137078749 0 0.1122095182146091 0.28441892261402002 0 0.088006576148096635 0.3062522419650337 0 0.094369801533108658 0.28506537163802392 0 0.1144660175850513 0.30146031137078749 0 0.10451026768777059 0.31740070659997521 0 0.088006576148096635 0.3062522419650337 0 0.1144660175850513 0.30146031137078749 0 0.12034267711147879 0.32694410761531151 0 0.1144660175850513 0.30146031137078749 0 0.13609245683956189 0.30155264565349738 0 0.1144660175850513 0.30146031137078749 0 0.1122095182146091 0.28441892261402002 0 0.1260644077077484 0.28310649184541348 0 0.1139378460325282 0.26804351560185541 0 0.1260644077077484 0.28310649184541348 0 0.1139378460325282 0.26804351560185541 0 0.12552418005139659 0.26427261438432342 0 0.1260644077077484 0.28310649184541348 0 0.1122095182146091 0.28441892261402002 0 0.1139378460325282 0.26804351560185541 0 0.1260644077077484 0.28310649184541348 0 0.1169003344909078 0.24964346781480179 0 0.1139378460325282 0.26804351560185541 0 0.12552418005139659 0.26427261438432342 0 0.1169003344909078 0.24964346781480179 0 0.1139378460325282 0.26804351560185541 0 0.094691733425368935 0.25170817048520849 0 0.086665820663228116 0.26927628780633311 0 0.1139378460325282 0.26804351560185541 0 0.094691733425368935 0.25170817048520849 0 0.094369801533108658 0.28506537163802392 0 0.1122095182146091 0.28441892261402002 0 0.1139378460325282 0.26804351560185541 0 0.086665820663228116 0.26927628780633311 0 0.094369801533108658 0.28506537163802392 0 0.1139378460325282 0.26804351560185541 0 0.14637764218887489 0.27033837158674601 0 0.14498857739451579 0.2592554932365303 0 0.136030707006803 0.26910482287648563 0 0.14637764218887489 0.27033837158674601 0 0.136030707006803 0.26910482287648563 0 0.1401333400513067 0.27867936858444547 0 0.14637764218887489 0.27033837158674601 0 0.15400297397014451 0.27267768852460661 0 0.1401333400513067 0.27867936858444547 0 0.15317199656827771 0.27115285235746062 0 0.15400297397014451 0.27267768852460661 0 0.1533719274984835 0.2599673362032156 0 0.15317199656827771 0.27115285235746062 0 0.15400297397014451 0.27267768852460661 0 0.14637764218887489 0.27033837158674601 0 0.15317199656827771 0.27115285235746062 0 0.15400297397014451 0.27267768852460661 0 0.14637764218887489 0.27033837158674601 0 0.15317199656827771 0.27115285235746062 0 0.15008738286582271 0.26382170990475112 0 0.1533719274984835 0.2599673362032156 0 0.15008738286582271 0.26382170990475112 0 0.14498857739451579 0.2592554932365303 0 0.14930787253493141 0.24386890629328431 0 0.1533719274984835 0.2599673362032156 0 0.14498857739451579 0.2592554932365303 0 0.15317199656827771 0.27115285235746062 0 0.1533719274984835 0.2599673362032156 0 0.15008738286582271 0.26382170990475112 0 0.14930787253493141 0.24386890629328431 0 0.14498857739451579 0.2592554932365303 0 0.13379059300217011 0.25282610349580448 0 0.14637764218887489 0.27033837158674601 0 0.15008738286582271 0.26382170990475112 0 0.14498857739451579 0.2592554932365303 0 0.1169003344909078 0.24964346781480179 0 0.12552418005139659 0.26427261438432342 0 0.13379059300217011 0.25282610349580448 0 0.12552418005139659 0.26427261438432342 0 0.13379059300217011 0.25282610349580448 0 0.136030707006803 0.26910482287648563 0 0.14498857739451579 0.2592554932365303 0 0.13379059300217011 0.25282610349580448 0 0.136030707006803 0.26910482287648563 0 0.12552418005139659 0.26427261438432342 0 0.136030707006803 0.26910482287648563 0 0.1260644077077484 0.28310649184541348 0 0.136030707006803 0.26910482287648563 0 0.1401333400513067 0.27867936858444547 0 0.1260644077077484 0.28310649184541348 0 0.1144660175850513 0.30146031137078749 0 0.1260644077077484 0.28310649184541348 0 0.13609245683956189 0.30155264565349738 0 0.1260644077077484 0.28310649184541348 0 0.13819096938296321 0.29816946808897621 0 0.13609245683956189 0.30155264565349738 0 0.1401333400513067 0.27867936858444547 0 0.1260644077077484 0.28310649184541348 0 0.13819096938296321 0.29816946808897621 0 0.1260644077077484 0.28310649184541348 0 0.13819096938296321 0.29816946808897621 0 0.13609245683956189 0.30155264565349738 0 0.14093125369712309 0.30157330494150808 0 0.13843690769546221 0.31911711752765021 0 0.1144660175850513 0.30146031137078749 0 0.13609245683956189 0.30155264565349738 0 0.13819096938296321 0.29816946808897621 0 0.13609245683956189 0.30155264565349738 0 0.14093125369712309 0.30157330494150808 0 0.13819096938296321 0.29816946808897621 0 0.14093125369712309 0.30157330494150808 0 0.13819096938296321 0.29816946808897621 0 0.13609245683956189 0.30155264565349738 0 0.13609245683956189 0.30155264565349738 0 0.14093125369712309 0.30157330494150808 0 0.14093125369712309 0.30157330494150808 0 0.1496002352287695 0.29178931491075488 0 0.16925246347997769 0.30066036661296358 0 0.14093125369712309 0.30157330494150808 0 0.16925246347997769 0.30066036661296358 0 0.1561087489773933 0.32042599022579932 0 0.14093125369712309 0.30157330494150808 0 0.16925246347997769 0.30066036661296358 0 0.14093125369712309 0.30157330494150808 0 0.1561087489773933 0.32042599022579932 0 0.13819096938296321 0.29816946808897621 0 0.14093125369712309 0.30157330494150808 0 0.1496002352287695 0.29178931491075488 0 0.15400297397014451 0.27267768852460661 0 0.1401333400513067 0.27867936858444547 0 0.13819096938296321 0.29816946808897621 0 0.15400297397014451 0.27267768852460661 0 0.13819096938296321 0.29816946808897621 0 0.15400297397014451 0.27267768852460661 0 0.1496002352287695 0.29178931491075488 0 0.16162771872506049 0.28666902756878537 0 0.15400297397014451 0.27267768852460661 0 0.13819096938296321 0.29816946808897621 0 0.1496002352287695 0.29178931491075488 0 0.1496002352287695 0.29178931491075488 0 0.16162771872506049 0.28666902756878537 0 0.16925246347997769 0.30066036661296358 0 0.16162771872506049 0.28666902756878537 0 0.16925246347997769 0.30066036661296358 0 0.17483925902521369 0.29225889852513642 0 0.16162771872506049 0.28666902756878537 0 0.16925246347997769 0.30066036661296358 0 0.16162771872506049 0.28666902756878537 0 0.17170229056823541 0.28322812688427129 0 0.17483925902521369 0.29225889852513642 0 0.16162771872506049 0.28666902756878537 0 0.17170229056823541 0.28322812688427129 0 0.16806176415949661 0.27596580802514548 0 0.16925246347997769 0.30066036661296358 0 0.16905821782648209 0.31422064193607652 0 0.1561087489773933 0.32042599022579932 0 0.16925246347997769 0.30066036661296358 0 0.1561087489773933 0.32042599022579932 0 0.16925246347997769 0.30066036661296358 0 0.19956912108483549 0.30182365985946352 0 0.18797863939935289 0.31242822984233742 0 0.16925246347997769 0.30066036661296358 0 0.19956912108483549 0.30182365985946352 0 0.16925246347997769 0.30066036661296358 0 0.18051218052451831 0.32132184759042143 0 0.16905821782648209 0.31422064193607652 0 0.16925246347997769 0.30066036661296358 0 0.18051218052451831 0.32132184759042143 0 0.16925246347997769 0.30066036661296358 0 0.17483925902521369 0.29225889852513642 0 0.19956912108483549 0.30182365985946352 0 0.16925246347997769 0.30066036661296358 0 0.18797863939935289 0.31242822984233742 0 0.18051218052451831 0.32132184759042143 0 0.17483925902521369 0.29225889852513642 0 0.17998244995102949 0.28412748118832781 0 0.19956912108483549 0.30182365985946352 0 0.17170229056823541 0.28322812688427129 0 0.17483925902521369 0.29225889852513642 0 0.17998244995102949 0.28412748118832781 0 0.16925246347997769 0.30066036661296358 0 0.17483925902521369 0.29225889852513642 0 0.17998244995102949 0.28412748118832781 0 0.1783393165145189 0.27352202952648708 0 0.18946715544376841 0.27511403199402729 0 0.1783393165145189 0.27352202952648708 0 0.18605375978043609 0.26007645544556501 0 0.18946715544376841 0.27511403199402729 0 0.1783393165145189 0.27352202952648708 0 0.17209536206429971 0.26521569938109102 0 0.18605375978043609 0.26007645544556501 0 0.1783393165145189 0.27352202952648708 0 0.16806176415949661 0.27596580802514548 0 0.17209536206429971 0.26521569938109102 0 0.17170229056823541 0.28322812688427129 0 0.1783393165145189 0.27352202952648708 0 0.16806176415949661 0.27596580802514548 0 0.17170229056823541 0.28322812688427129 0 0.17998244995102949 0.28412748118832781 0 0.1783393165145189 0.27352202952648708 0 0.15400297397014451 0.27267768852460661 0 0.16806176415949661 0.27596580802514548 0 0.17209536206429971 0.26521569938109102 0 0.15400297397014451 0.27267768852460661 0 0.16162771872506049 0.28666902756878537 0 0.16806176415949661 0.27596580802514548 0 0.15400297397014451 0.27267768852460661 0 0.16162771872506049 0.28666902756878537 0 0.16867276165720749 0.24902736690266011 0 0.15400297397014451 0.27267768852460661 0 0.17209536206429971 0.26521569938109102 0 0.16867276165720749 0.24902736690266011 0 0.15400297397014451 0.27267768852460661 0 0.16867276165720749 0.24902736690266011 0 0.15400297397014451 0.27267768852460661 0 0.1533719274984835 0.2599673362032156 0 0.14930787253493141 0.24386890629328431 0 0.16867276165720749 0.24902736690266011 0 0.1533719274984835 0.2599673362032156 0 0.16867276165720749 0.24902736690266011 0 0.17209536206429971 0.26521569938109102 0 0.18605375978043609 0.26007645544556501 0 0.19200847820906361 0.24013056444975989 0 0.18605375978043609 0.26007645544556501 0 0.20129388103320339 0.25315965289432613 0 0.18605375978043609 0.26007645544556501 0 0.20129388103320339 0.25315965289432613 0 0.1997998721048696 0.2667942527079335 0 0.18946715544376841 0.27511403199402729 0 0.20001859796604041 0.27867785654040461 0 0.19573246599973279 0.28564554751424248 0 0.18605375978043609 0.26007645544556501 0 0.18946715544376841 0.27511403199402729 0 0.1997998721048696 0.2667942527079335 0 0.18946715544376841 0.27511403199402729 0 0.1997998721048696 0.2667942527079335 0 0.20001859796604041 0.27867785654040461 0 0.20001859796604041 0.27867785654040461 0 0.21125036978062781 0.27295437478583129 0 0.20962500555299071 0.28848470798898912 0 0.1997998721048696 0.2667942527079335 0 0.21125036978062781 0.27295437478583129 0 0.2118113739586302 0.26088742367904549 0 0.1997998721048696 0.2667942527079335 0 0.20001859796604041 0.27867785654040461 0 0.21125036978062781 0.27295437478583129 0 0.21125036978062781 0.27295437478583129 0 0.2118113739586302 0.26088742367904549 0 0.22558658164996129 0.26469674988926289 0 0.21125036978062781 0.27295437478583129 0 0.2219555474028769 0.27880044239698198 0 0.20962500555299071 0.28848470798898912 0 0.2170333870944314 0.24966219459793751 0 0.20129388103320339 0.25315965289432613 0 0.2118113739586302 0.26088742367904549 0 0.20129388103320339 0.25315965289432613 0 0.1997998721048696 0.2667942527079335 0 0.2118113739586302 0.26088742367904549 0 0.2170333870944314 0.24966219459793751 0 0.2118113739586302 0.26088742367904549 0 0.22558658164996129 0.26469674988926289 0 0.2170333870944314 0.24966219459793751 0 0.23185563173168419 0.24669504905584849 0 0.22558658164996129 0.26469674988926289 0 0.21125036978062781 0.27295437478583129 0 0.22558658164996129 0.26469674988926289 0 0.2219555474028769 0.27880044239698198 0 0.22558658164996129 0.26469674988926289 0 0.2219555474028769 0.27880044239698198 0 0.23909825501145021 0.28010024169124048 0 0.23909825501145021 0.28010024169124048 0 0.24664098988319569 0.26403384988780121 0 0.25235506011160957 0.2811552669666848 0 0.22558658164996129 0.26469674988926289 0 0.23909825501145021 0.28010024169124048 0 0.24664098988319569 0.26403384988780121 0 0.23185563173168419 0.24669504905584849 0 0.24664098988319569 0.26403384988780121 0 0.25099764385199508 0.24313445578590931 0 0.23185563173168419 0.24669504905584849 0 0.22558658164996129 0.26469674988926289 0 0.24664098988319569 0.26403384988780121 0 0.23528391893707071 0.30197614451970922 0 0.25727976144066339 0.29420992865078088 0 0.23528391893707071 0.30197614451970922 0 0.25194561914124791 0.31470249387852028 0 0.25511415382937591 0.30206080989126188 0 0.23528391893707071 0.30197614451970922 0 0.2355104367730721 0.31603039995389398 0 0.25194561914124791 0.31470249387852028 0 0.23528391893707071 0.30197614451970922 0 0.25511415382937591 0.30206080989126188 0 0.23528391893707071 0.30197614451970922 0 0.25727976144066339 0.29420992865078088 0 0.25511415382937591 0.30206080989126188 0 0.23528391893707071 0.30197614451970922 0 0.24262230146305139 0.28941481494666821 0 0.25727976144066339 0.29420992865078088 0 0.23909825501145021 0.28010024169124048 0 0.24262230146305139 0.28941481494666821 0 0.25235506011160957 0.2811552669666848 0 0.23909825501145021 0.28010024169124048 0 0.24262230146305139 0.28941481494666821 0 0.2287233330300853 0.28975749708302889 0 0.23528391893707071 0.30197614451970922 0 0.24262230146305139 0.28941481494666821 0 0.2287233330300853 0.28975749708302889 0 0.2219555474028769 0.27880044239698198 0 0.2287233330300853 0.28975749708302889 0 0.20962500555299071 0.28848470798898912 0 0.2219555474028769 0.27880044239698198 0 0.23909825501145021 0.28010024169124048 0 0.2287233330300853 0.28975749708302889 0 0.23528391893707071 0.30197614451970922 0 0.2287233330300853 0.28975749708302889 0 0.21742652001095311 0.30189990218958551 0 0.23528391893707071 0.30197614451970922 0 0.2097258745891355 0.31100009027497277 0 0.22534569800450899 0.31376592991235108 0 0.23528391893707071 0.30197614451970922 0 0.21742652001095311 0.30189990218958551 0 0.2097258745891355 0.31100009027497277 0 0.23528391893707071 0.30197614451970922 0 0.21742652001095311 0.30189990218958551 0 0.23528391893707071 0.30197614451970922 0 0.2097258745891355 0.31100009027497277 0 0.23528391893707071 0.30197614451970922 0 0.22534569800450899 0.31376592991235108 0 0.2355104367730721 0.31603039995389398 0 0.21742652001095311 0.30189990218958551 0 0.19956912108483549 0.30182365985946352 0 0.21742652001095311 0.30189990218958551 0 0.20962500555299071 0.28848470798898912 0 0.19956912108483549 0.30182365985946352 0 0.21742652001095311 0.30189990218958551 0 0.2097258745891355 0.31100009027497277 0 0.19956912108483549 0.30182365985946352 0 0.2078873726779587 0.31164922216047908 0 0.2097258745891355 0.31100009027497277 0 0.19956912108483549 0.30182365985946352 0 0.2097258745891355 0.31100009027497277 0 0.19956912108483549 0.30182365985946352 0 0.2078873726779587 0.31164922216047908 0 0.2097258745891355 0.31100009027497277 0 0.2287233330300853 0.28975749708302889 0 0.21742652001095311 0.30189990218958551 0 0.20962500555299071 0.28848470798898912 0 0.17998244995102949 0.28412748118832781 0 0.19956912108483549 0.30182365985946352 0 0.20962500555299071 0.28848470798898912 0 0.19573246599973279 0.28564554751424248 0 0.19956912108483549 0.30182365985946352 0 0.17998244995102949 0.28412748118832781 0 0.19573246599973279 0.28564554751424248 0 0.19956912108483549 0.30182365985946352 0 0.17998244995102949 0.28412748118832781 0 0.18946715544376841 0.27511403199402729 0 0.19573246599973279 0.28564554751424248 0 0.20001859796604041 0.27867785654040461 0 0.20962500555299071 0.28848470798898912 0 0.19573246599973279 0.28564554751424248 0 0.19956912108483549 0.30182365985946352 0 0.18797863939935289 0.31242822984233742 0 0.19886013797430779 0.31336857242505828 0 0.2078873726779587 0.31164922216047908 0 0.19956912108483549 0.30182365985946352 0 0.19886013797430779 0.31336857242505828 0 0.18797863939935289 0.31242822984233742 0 0.1940061881540063 0.32249343079166642 0 0.19886013797430779 0.31336857242505828 0 0.1940061881540063 0.32249343079166642 0 0.2009809328460174 0.32828504051233148 0 0.2044204384959307 0.31971491196970647 0 0.1940061881540063 0.32249343079166642 0 0.19886013797430779 0.31336857242505828 0 0.2044204384959307 0.31971491196970647 0 0.1940061881540063 0.32249343079166642 0 0.19120717162678499 0.34094706146919551 0 0.18051218052451831 0.32132184759042143 0 0.1940061881540063 0.32249343079166642 0 0.19120717162678499 0.34094706146919551 0 0.2009809328460174 0.32828504051233148 0 0.19120717162678499 0.34094706146919551 0 0.2102001569318713 0.34197470382555428 0 0.20559511270448741 0.33432623221246122 0 0.19120717162678499 0.34094706146919551 0 0.2102001569318713 0.34197470382555428 0 0.19120717162678499 0.34094706146919551 0 0.2009809328460174 0.32828504051233148 0 0.20559511270448741 0.33432623221246122 0 0.2102001569318713 0.34197470382555428 0 0.20559511270448741 0.33432623221246122 0 0.21246986796151909 0.33345073302498768 0 0.2009809328460174 0.32828504051233148 0 0.20559511270448741 0.33432623221246122 0 0.2093418271631064 0.32626977354901471 0 0.20559511270448741 0.33432623221246122 0 0.21246986796151909 0.33345073302498768 0 0.2093418271631064 0.32626977354901471 0 0.21246986796151909 0.33345073302498768 0 0.2166247191914312 0.32659785192268209 0 0.2193144146446756 0.33852327911469859 0 0.21246986796151909 0.33345073302498768 0 0.2093418271631064 0.32626977354901471 0 0.2166247191914312 0.32659785192268209 0 0.2102001569318713 0.34197470382555428 0 0.21246986796151909 0.33345073302498768 0 0.2193144146446756 0.33852327911469859 0 0.2097258745891355 0.31100009027497277 0 0.2166247191914312 0.32659785192268209 0 0.22616068757300639 0.32584862604720372 0 0.2097258745891355 0.31100009027497277 0 0.22616068757300639 0.32584862604720372 0 0.2078873726779587 0.31164922216047908 0 0.2097258745891355 0.31100009027497277 0 0.2044204384959307 0.31971491196970647 0 0.2097258745891355 0.31100009027497277 0 0.2044204384959307 0.31971491196970647 0 0.2093418271631064 0.32626977354901471 0 0.2078873726779587 0.31164922216047908 0 0.19886013797430779 0.31336857242505828 0 0.2044204384959307 0.31971491196970647 0 0.2009809328460174 0.32828504051233148 0 0.2044204384959307 0.31971491196970647 0 0.2093418271631064 0.32626977354901471 0 0.2097258745891355 0.31100009027497277 0 0.2093418271631064 0.32626977354901471 0 0.2166247191914312 0.32659785192268209 0 0.2097258745891355 0.31100009027497277 0 0.22534569800450899 0.31376592991235108 0 0.22616068757300639 0.32584862604720372 0 0.22534569800450899 0.31376592991235108 0 0.22616068757300639 0.32584862604720372 0 0.2355104367730721 0.31603039995389398 0 0.2166247191914312 0.32659785192268209 0 0.22616068757300639 0.32584862604720372 0 0.2193144146446756 0.33852327911469859 0 0.22616068757300639 0.32584862604720372 0 0.2193144146446756 0.33852327911469859 0 0.22975431512206529 0.33887276717204601 0 0.22616068757300639 0.32584862604720372 0 0.22975431512206529 0.33887276717204601 0 0.2425955005568764 0.34069716181943571 0 0.2193144146446756 0.33852327911469859 0 0.22975431512206529 0.33887276717204601 0 0.2255857392669828 0.35034540609503639 0 0.2425955005568764 0.34069716181943571 0 0.24396770865605821 0.32500806181017111 0 0.25356671903153238 0.33477257203762317 0 0.22616068757300639 0.32584862604720372 0 0.2425955005568764 0.34069716181943571 0 0.24396770865605821 0.32500806181017111 0 0.2425955005568764 0.34069716181943571 0 0.24396770865605821 0.32500806181017111 0 0.22616068757300639 0.32584862604720372 0 0.2425955005568764 0.34069716181943571 0 0.22975431512206529 0.33887276717204601 0 0.2425955005568764 0.34069716181943571 0 0.23357793884626421 0.34968560706985818 0 0.2425955005568764 0.34069716181943571 0 0.24893558204057381 0.34642530285772738 0 0.25356671903153238 0.33477257203762317 0 0.2425955005568764 0.34069716181943571 0 0.24893558204057381 0.34642530285772738 0 0.24396770865605821 0.32500806181017111 0 0.2355104367730721 0.31603039995389398 0 0.25194561914124791 0.31470249387852028 0 0.22616068757300639 0.32584862604720372 0 0.24396770865605821 0.32500806181017111 0 0.2355104367730721 0.31603039995389398 0 0.24015189975402951 0.36863599806551978 0 0.24893558204057381 0.34642530285772738 0 0.2568419711749631 0.36200264213042188 0 0.2425955005568764 0.34069716181943571 0 0.24015189975402951 0.36863599806551978 0 0.24893558204057381 0.34642530285772738 0 0.2425955005568764 0.34069716181943571 0 0.24015189975402951 0.36863599806551978 0 0.23357793884626421 0.34968560706985818 0 0.2425955005568764 0.34069716181943571 0 0.24015189975402951 0.36863599806551978 0 0.2193144146446756 0.33852327911469859 0 0.2255857392669828 0.35034540609503639 0 0.2160550476595676 0.36813014830598129 0 0.2292269800623413 0.35651522881259812 0 0.2255857392669828 0.35034540609503639 0 0.2160550476595676 0.36813014830598129 0 0.2292269800623413 0.35651522881259812 0 0.23357793884626421 0.34968560706985818 0 0.2255857392669828 0.35034540609503639 0 0.24015189975402951 0.36863599806551978 0 0.2292269800623413 0.35651522881259812 0 0.23357793884626421 0.34968560706985818 0 0.22975431512206529 0.33887276717204601 0 0.23357793884626421 0.34968560706985818 0 0.2255857392669828 0.35034540609503639 0 0.24015189975402951 0.36863599806551978 0 0.2160550476595676 0.36813014830598129 0 0.2278253020838048 0.3816341627232252 0 0.24015189975402951 0.36863599806551978 0 0.2292269800623413 0.35651522881259812 0 0.2160550476595676 0.36813014830598129 0 0.2160550476595676 0.36813014830598129 0 0.20260052328522321 0.36185376077869608 0 0.20161603555508339 0.38152342695067137 0 0.2193144146446756 0.33852327911469859 0 0.2160550476595676 0.36813014830598129 0 0.2102001569318713 0.34197470382555428 0 0.2193144146446756 0.33852327911469859 0 0.2160550476595676 0.36813014830598129 0 0.2102001569318713 0.34197470382555428 0 0.2160550476595676 0.36813014830598129 0 0.20260052328522321 0.36185376077869608 0 0.19120717162678499 0.34094706146919551 0 0.2102001569318713 0.34197470382555428 0 0.20260052328522321 0.36185376077869608 0 0.19120717162678499 0.34094706146919551 0 0.20260052328522321 0.36185376077869608 0 0.18160449343749011 0.35909159512916661 0 0.19120717162678499 0.34094706146919551 0 0.20260052328522321 0.36185376077869608 0 0.20260052328522321 0.36185376077869608 0 0.19113278302084119 0.3702694697640786 0 0.18160449343749011 0.35909159512916661 0 0.20260052328522321 0.36185376077869608 0 0.19113278302084119 0.3702694697640786 0 0.20161603555508339 0.38152342695067137 0 0.1575880140287802 0.36117652713680498 0 0.18160449343749011 0.35909159512916661 0 0.17871007980556841 0.3786090961977806 0 0.19113278302084119 0.3702694697640786 0 0.18160449343749011 0.35909159512916661 0 0.17871007980556841 0.3786090961977806 0 0.1575880140287802 0.36117652713680498 0 0.15844360674098931 0.38133565286146831 0 0.17871007980556841 0.3786090961977806 0 0.1575880140287802 0.36117652713680498 0 0.18160449343749011 0.35909159512916661 0 0.1676813736956764 0.33967416486907193 0 0.1575880140287802 0.36117652713680498 0 0.1676813736956764 0.33967416486907193 0 0.14415557576456781 0.33840126826894668 0 0.19120717162678499 0.34094706146919551 0 0.18160449343749011 0.35909159512916661 0 0.1676813736956764 0.33967416486907193 0 0.19120717162678499 0.34094706146919551 0 0.1676813736956764 0.33967416486907193 0 0.16959512529221729 0.33717805659733913 0 0.19120717162678499 0.34094706146919551 0 0.18051218052451831 0.32132184759042143 0 0.19120717162678499 0.34094706146919551 0 0.1676813736956764 0.33967416486907193 0 0.19120717162678499 0.34094706146919551 0 0.18051218052451831 0.32132184759042143 0 0.16959512529221729 0.33717805659733913 0 0.18051218052451831 0.32132184759042143 0 0.1692378493596203 0.32405257934442822 0 0.16959512529221729 0.33717805659733913 0 0.18797863939935289 0.31242822984233742 0 0.1940061881540063 0.32249343079166642 0 0.18051218052451831 0.32132184759042143 0 0.18051218052451831 0.32132184759042143 0 0.16905821782648209 0.31422064193607652 0 0.1692378493596203 0.32405257934442822 0 0.1692378493596203 0.32405257934442822 0 0.16959512529221729 0.33717805659733913 0 0.1561087489773933 0.32042599022579932 0 0.16905821782648209 0.31422064193607652 0 0.1692378493596203 0.32405257934442822 0 0.1561087489773933 0.32042599022579932 0 0.16959512529221729 0.33717805659733913 0 0.1561087489773933 0.32042599022579932 0 0.1676813736956764 0.33967416486907193 0 0.16959512529221729 0.33717805659733913 0 0.1561087489773933 0.32042599022579932 0 0.1676813736956764 0.33967416486907193 0 0.14415557576456781 0.33840126826894668 0 0.1676813736956764 0.33967416486907193 0 0.14415557576456781 0.33840126826894668 0 0.1561087489773933 0.32042599022579932 0 0.14415557576456781 0.33840126826894668 0 0.1561087489773933 0.32042599022579932 0 0.14093125369712309 0.30157330494150808 0 0.1561087489773933 0.32042599022579932 0 0.13843690769546221 0.31911711752765021 0 0.14415557576456781 0.33840126826894668 0 0.1561087489773933 0.32042599022579932 0 0.13843690769546221 0.31911711752765021 0 0.12034267711147879 0.32694410761531151 0 0.13609245683956189 0.30155264565349738 0 0.13843690769546221 0.31911711752765021 0 0.12034267711147879 0.32694410761531151 0 0.13609245683956189 0.30155264565349738 0 0.12034267711147879 0.32694410761531151 0 0.13843690769546221 0.31911711752765021 0 0.1324101189783346 0.33001292440175573 0 0.1222536876492849 0.33721623560820801 0 0.14415557576456781 0.33840126826894668 0 0.1324101189783346 0.33001292440175573 0 0.14415557576456781 0.33840126826894668 0 0.13843690769546221 0.31911711752765021 0 0.1324101189783346 0.33001292440175573 0 0.1222536876492849 0.33721623560820801 0 0.14415557576456781 0.33840126826894668 0 0.1222536876492849 0.33721623560820801 0 0.12034267711147879 0.32694410761531151 0 0.1324101189783346 0.33001292440175573 0 0.1222536876492849 0.33721623560820801 0 0.14415557576456781 0.33840126826894668 0 0.1320713574980536 0.35657361291811679 0 0.14415557576456781 0.33840126826894668 0 0.1320713574980536 0.35657361291811679 0 0.11681627972552119 0.36973601613293111 0 0.1320713574980536 0.35657361291811679 0 0.14077448166540041 0.3743515993071454 0 0.1575880140287802 0.36117652713680498 0 0.14077448166540041 0.3743515993071454 0 0.15844360674098931 0.38133565286146831 0 0.1575880140287802 0.36117652713680498 0 0.1320713574980536 0.35657361291811679 0 0.14077448166540041 0.3743515993071454 0 0.1575880140287802 0.36117652713680498 0 0.14415557576456781 0.33840126826894668 0 0.1320713574980536 0.35657361291811679 0 0.14077448166540041 0.3743515993071454 0 0.15030108932656411 0.39836130058058311 0 0.15844360674098931 0.38133565286146831 0 0.11681627972552119 0.36973601613293111 0 0.14077448166540041 0.3743515993071454 0 0.12774738154290771 0.38685862698622647 0 0.14077448166540041 0.3743515993071454 0 0.15030108932656411 0.39836130058058311 0 0.12774738154290771 0.38685862698622647 0 0.15030108932656411 0.39836130058058311 0 0.12774738154290771 0.38685862698622647 0 0.12555135272407769 0.40559386789156621 0 0.15030108932656411 0.39836130058058311 0 0.12555135272407769 0.40559386789156621 0 0.13848705386319671 0.42114057333597937 0 0.1215228720538309 0.42702029116818491 0 0.12555135272407769 0.40559386789156621 0 0.13848705386319671 0.42114057333597937 0 0.1215228720538309 0.42702029116818491 0 0.13848705386319671 0.42114057333597937 0 0.1266730183998292 0.4439198460913758 0 0.13848705386319671 0.42114057333597937 0 0.1266730183998292 0.4439198460913758 0 0.13848705386319671 0.42114057333597937 0 0.14310341883288369 0.43600887929147208 0 0.1266730183998292 0.4439198460913758 0 0.13848705386319671 0.42114057333597937 0 0.15404594190054161 0.43071161505100652 0 0.16310421779444789 0.41557794648764862 0 0.13848705386319671 0.42114057333597937 0 0.14310341883288369 0.43600887929147208 0 0.15404594190054161 0.43071161505100652 0 0.15030108932656411 0.39836130058058311 0 0.13848705386319671 0.42114057333597937 0 0.16310421779444789 0.41557794648764862 0 0.15030108932656411 0.39836130058058311 0 0.13848705386319671 0.42114057333597937 0 0.16310421779444789 0.41557794648764862 0 0.17932126621921771 0.40871722724924792 0 0.17034566292417669 0.39662930839281191 0 0.16310421779444789 0.41557794648764862 0 0.16956101125331041 0.43073043846540149 0 0.18113969054314849 0.42263545561822707 0 0.15404594190054161 0.43071161505100652 0 0.16956101125331041 0.43073043846540149 0 0.16257401288806519 0.43795330881534927 0 0.15404594190054161 0.43071161505100652 0 0.16310421779444789 0.41557794648764862 0 0.16956101125331041 0.43073043846540149 0 0.16956101125331041 0.43073043846540149 0 0.17348143723044149 0.44210769905746272 0 0.16257401288806519 0.43795330881534927 0 0.16956101125331041 0.43073043846540149 0 0.18255395919531611 0.43286267275727519 0 0.17348143723044149 0.44210769905746272 0 0.16956101125331041 0.43073043846540149 0 0.18113969054314849 0.42263545561822707 0 0.18255395919531611 0.43286267275727519 0 0.18113969054314849 0.42263545561822707 0 0.18255395919531611 0.43286267275727519 0 0.19263925928524331 0.42367606517666262 0 0.18255395919531611 0.43286267275727519 0 0.19258042259763869 0.43341204585911969 0 0.1861400405656968 0.44215808154055369 0 0.16310421779444789 0.41557794648764862 0 0.18113969054314849 0.42263545561822707 0 0.17932126621921771 0.40871722724924792 0 0.18113969054314849 0.42263545561822707 0 0.17932126621921771 0.40871722724924792 0 0.19172552810314611 0.41419425196963588 0 0.17932126621921771 0.40871722724924792 0 0.17034566292417669 0.39662930839281191 0 0.19282460000294571 0.39745554066222888 0 0.17034566292417669 0.39662930839281191 0 0.17871007980556841 0.3786090961977806 0 0.19282460000294571 0.39745554066222888 0 0.15030108932656411 0.39836130058058311 0 0.16310421779444789 0.41557794648764862 0 0.17034566292417669 0.39662930839281191 0 0.15030108932656411 0.39836130058058311 0 0.17034566292417669 0.39662930839281191 0 0.15844360674098931 0.38133565286146831 0 0.17034566292417669 0.39662930839281191 0 0.15844360674098931 0.38133565286146831 0 0.17871007980556841 0.3786090961977806 0 0.19113278302084119 0.3702694697640786 0 0.17871007980556841 0.3786090961977806 0 0.20161603555508339 0.38152342695067137 0 0.17871007980556841 0.3786090961977806 0 0.20161603555508339 0.38152342695067137 0 0.19282460000294571 0.39745554066222888 0 0.19282460000294571 0.39745554066222888 0 0.2127956806744595 0.39773701749726392 0 0.20297252635955959 0.4114514870400694 0 0.20161603555508339 0.38152342695067137 0 0.19282460000294571 0.39745554066222888 0 0.2127956806744595 0.39773701749726392 0 0.2160550476595676 0.36813014830598129 0 0.2127956806744595 0.39773701749726392 0 0.2160550476595676 0.36813014830598129 0 0.20161603555508339 0.38152342695067137 0 0.2127956806744595 0.39773701749726392 0 0.2160550476595676 0.36813014830598129 0 0.2127956806744595 0.39773701749726392 0 0.2278253020838048 0.3816341627232252 0 0.2127956806744595 0.39773701749726392 0 0.2278253020838048 0.3816341627232252 0 0.23770829895118251 0.39657483431160379 0 0.2127956806744595 0.39773701749726392 0 0.23770829895118251 0.39657483431160379 0 0.22500852581894651 0.4126468297844289 0 0.23770829895118251 0.39657483431160379 0 0.25009600843597041 0.40939687762789101 0 0.25803884276690808 0.38748449168907639 0 0.24015189975402951 0.36863599806551978 0 0.23770829895118251 0.39657483431160379 0 0.24015189975402951 0.36863599806551978 0 0.2278253020838048 0.3816341627232252 0 0.23770829895118251 0.39657483431160379 0 0.24015189975402951 0.36863599806551978 0 0.23770829895118251 0.39657483431160379 0 0.25803884276690808 0.38748449168907639 0 0.23526469814833539 0.42451367055768779 0 0.23694771408394061 0.43659622713039048 0 0.25255411516167198 0.42826386972808728 0 0.23770829895118251 0.39657483431160379 0 0.23526469814833539 0.42451367055768779 0 0.25009600843597041 0.40939687762789101 0 0.23526469814833539 0.42451367055768779 0 0.25009600843597041 0.40939687762789101 0 0.25255411516167198 0.42826386972808728 0 0.23770829895118251 0.39657483431160379 0 0.23526469814833539 0.42451367055768779 0 0.23526469814833539 0.42451367055768779 0 0.22500852581894651 0.4126468297844289 0 0.22608825810586561 0.42374752775375168 0 0.23770829895118251 0.39657483431160379 0 0.23526469814833539 0.42451367055768779 0 0.22500852581894651 0.4126468297844289 0 0.22500852581894651 0.4126468297844289 0 0.22608825810586561 0.42374752775375168 0 0.2161412329221008 0.41948654413835729 0 0.22608825810586561 0.42374752775375168 0 0.2225790842742191 0.42665617773991399 0 0.2161412329221008 0.41948654413835729 0 0.23694771408394061 0.43659622713039048 0 0.2111391319849697 0.42679441193715661 0 0.23694771408394061 0.43659622713039048 0 0.2225790842742191 0.42665617773991399 0 0.2111391319849697 0.42679441193715661 0 0.23694771408394061 0.43659622713039048 0 0.22249222661693011 0.4357720594467937 0 0.2111391319849697 0.42679441193715661 0 0.23694771408394061 0.43659622713039048 0 0.22608825810586561 0.42374752775375168 0 0.2225790842742191 0.42665617773991399 0 0.23526469814833539 0.42451367055768779 0 0.23694771408394061 0.43659622713039048 0 0.22608825810586561 0.42374752775375168 0 0.22249222661693011 0.4357720594467937 0 0.21419919222662059 0.43531708642013922 0 0.21730560567598001 0.43862663553671749 0 0.2118872456200932 0.43621244262655717 0 0.21314318286941891 0.43200096593738518 0 0.20953631368935141 0.42734388668854639 0 0.22249222661693011 0.4357720594467937 0 0.21419919222662059 0.43531708642013922 0 0.21314318286941891 0.43200096593738518 0 0.22249222661693011 0.4357720594467937 0 0.21314318286941891 0.43200096593738518 0 0.2111391319849697 0.42679441193715661 0 0.21419919222662059 0.43531708642013922 0 0.2118872456200932 0.43621244262655717 0 0.21382238221675079 0.43931235844569139 0 0.21419919222662059 0.43531708642013922 0 0.2118872456200932 0.43621244262655717 0 0.21314318286941891 0.43200096593738518 0 0.2225790842742191 0.42665617773991399 0 0.2111391319849697 0.42679441193715661 0 0.2161412329221008 0.41948654413835729 0 0.2111391319849697 0.42679441193715661 0 0.20953631368935141 0.42734388668854639 0 0.2161412329221008 0.41948654413835729 0 0.21314318286941891 0.43200096593738518 0 0.2111391319849697 0.42679441193715661 0 0.20953631368935141 0.42734388668854639 0 0.20953631368935141 0.42734388668854639 0 0.20351575224625479 0.42706938161529878 0 0.20145582620876201 0.42122973607137931 0 0.20953631368935141 0.42734388668854639 0 0.20553559549349029 0.42926873827570639 0 0.2057505592004433 0.43198758012665872 0 0.20953631368935141 0.42734388668854639 0 0.20553559549349029 0.42926873827570639 0 0.20351575224625479 0.42706938161529878 0 0.20553559549349029 0.42926873827570639 0 0.20351575224625479 0.42706938161529878 0 0.20342541647055401 0.43079823296402259 0 0.20553559549349029 0.42926873827570639 0 0.20342541647055401 0.43079823296402259 0 0.2057505592004433 0.43198758012665872 0 0.20953631368935141 0.42734388668854639 0 0.2057505592004433 0.43198758012665872 0 0.205315199224894 0.43630549559271831 0 0.2118872456200932 0.43621244262655717 0 0.20953631368935141 0.42734388668854639 0 0.2094885554985744 0.44287097982408402 0 0.20953631368935141 0.42734388668854639 0 0.205315199224894 0.43630549559271831 0 0.2055214291304964 0.44263082319416291 0 0.20342541647055401 0.43079823296402259 0 0.2057505592004433 0.43198758012665872 0 0.2025998698829484 0.43434682988673701 0 0.2057505592004433 0.43198758012665872 0 0.205315199224894 0.43630549559271831 0 0.2025998698829484 0.43434682988673701 0 0.2127956806744595 0.39773701749726392 0 0.20953631368935141 0.42734388668854639 0 0.20297252635955959 0.4114514870400694 0 0.20953631368935141 0.42734388668854639 0 0.20297252635955959 0.4114514870400694 0 0.20145582620876201 0.42122973607137931 0 0.2127956806744595 0.39773701749726392 0 0.22500852581894651 0.4126468297844289 0 0.2161412329221008 0.41948654413835729 0 0.2127956806744595 0.39773701749726392 0 0.20953631368935141 0.42734388668854639 0 0.2127956806744595 0.39773701749726392 0 0.20953631368935141 0.42734388668854639 0 0.2161412329221008 0.41948654413835729 0 0.19282460000294571 0.39745554066222888 0 0.20297252635955959 0.4114514870400694 0 0.19172552810314611 0.41419425196963588 0 0.17932126621921771 0.40871722724924792 0 0.19282460000294571 0.39745554066222888 0 0.19172552810314611 0.41419425196963588 0 0.20297252635955959 0.4114514870400694 0 0.20145582620876201 0.42122973607137931 0 0.19172552810314611 0.41419425196963588 0 0.18113969054314849 0.42263545561822707 0 0.19172552810314611 0.41419425196963588 0 0.19263925928524331 0.42367606517666262 0 0.20145582620876201 0.42122973607137931 0 0.19172552810314611 0.41419425196963588 0 0.19263925928524331 0.42367606517666262 0 0.199725305529633 0.43131863491571232 0 0.19795305578595901 0.42635654797067268 0 0.19258042259763869 0.43341204585911969 0 0.197550492686348 0.43585656816152479 0 0.199725305529633 0.43131863491571232 0 0.19258042259763869 0.43341204585911969 0 0.197550492686348 0.43585656816152479 0 0.2025998698829484 0.43434682988673701 0 0.199725305529633 0.43131863491571232 0 0.205315199224894 0.43630549559271831 0 0.2025998698829484 0.43434682988673701 0 0.2011974035750998 0.4385788349228521 0 0.197550492686348 0.43585656816152479 0 0.2025998698829484 0.43434682988673701 0 0.2011974035750998 0.4385788349228521 0 0.20351575224625479 0.42706938161529878 0 0.20342541647055401 0.43079823296402259 0 0.199725305529633 0.43131863491571232 0 0.20342541647055401 0.43079823296402259 0 0.2025998698829484 0.43434682988673701 0 0.199725305529633 0.43131863491571232 0 0.20145582620876201 0.42122973607137931 0 0.19795305578595901 0.42635654797067268 0 0.19263925928524331 0.42367606517666262 0 0.20351575224625479 0.42706938161529878 0 0.199725305529633 0.43131863491571232 0 0.19795305578595901 0.42635654797067268 0 0.20351575224625479 0.42706938161529878 0 0.20145582620876201 0.42122973607137931 0 0.19795305578595901 0.42635654797067268 0 0.19795305578595901 0.42635654797067268 0 0.19263925928524331 0.42367606517666262 0 0.19258042259763869 0.43341204585911969 0 0.197550492686348 0.43585656816152479 0 0.19258042259763869 0.43341204585911969 0 0.19523401513024449 0.44164313989724913 0 0.18255395919531611 0.43286267275727519 0 0.19263925928524331 0.42367606517666262 0 0.19258042259763869 0.43341204585911969 0 0.19258042259763869 0.43341204585911969 0 0.19523401513024449 0.44164313989724913 0 0.1861400405656968 0.44215808154055369 0 0.19523401513024449 0.44164313989724913 0 0.19280609440002799 0.44970076237901357 0 0.1861400405656968 0.44215808154055369 0 0.19280609440002799 0.44970076237901357 0 0.2062769467042434 0.45695075587982892 0 0.1797423039361053 0.45260711928367792 0 0.19523401513024449 0.44164313989724913 0 0.19280609440002799 0.44970076237901357 0 0.19749936862563761 0.44564339400451108 0 0.19280609440002799 0.44970076237901357 0 0.2019455274493549 0.44807275128668123 0 0.2062769467042434 0.45695075587982892 0 0.19280609440002799 0.44970076237901357 0 0.19749936862563761 0.44564339400451108 0 0.2019455274493549 0.44807275128668123 0 0.19749936862563761 0.44564339400451108 0 0.2019455274493549 0.44807275128668123 0 0.20001183752292301 0.44315692245510069 0 0.2019455274493549 0.44807275128668123 0 0.20262997243072639 0.44373657544118827 0 0.20001183752292301 0.44315692245510069 0 0.20262997243072639 0.44373657544118827 0 0.20001183752292301 0.44315692245510069 0 0.2030410956201312 0.44108580482880838 0 0.20001183752292301 0.44315692245510069 0 0.2030410956201312 0.44108580482880838 0 0.2011974035750998 0.4385788349228521 0 0.197550492686348 0.43585656816152479 0 0.19523401513024449 0.44164313989724913 0 0.2011974035750998 0.4385788349228521 0 0.19523401513024449 0.44164313989724913 0 0.20001183752292301 0.44315692245510069 0 0.2011974035750998 0.4385788349228521 0 0.19523401513024449 0.44164313989724913 0 0.19749936862563761 0.44564339400451108 0 0.20001183752292301 0.44315692245510069 0 0.2062769467042434 0.45695075587982892 0 0.1797423039361053 0.45260711928367792 0 0.1923482710801987 0.45881905422422409 0 0.2062769467042434 0.45695075587982892 0 0.1797423039361053 0.45260711928367792 0 0.1923482710801987 0.45881905422422409 0 0.1985880268135328 0.46940635162990169 0 0.18651925512055281 0.47240695531557209 0 0.1923482710801987 0.45881905422422409 0 0.20026735891702299 0.46234913478224859 0 0.2062769467042434 0.45695075587982892 0 0.1923482710801987 0.45881905422422409 0 0.20026735891702299 0.46234913478224859 0 0.1985880268135328 0.46940635162990169 0 0.20026735891702299 0.46234913478224859 0 0.20553694515745191 0.4636726528301584 0 0.1985880268135328 0.46940635162990169 0 0.20553694515745191 0.4636726528301584 0 0.2157383292316146 0.46323541384432498 0 0.21124981255942141 0.47235215635658012 0 0.20553694515745191 0.4636726528301584 0 0.21124981255942141 0.47235215635658012 0 0.1985880268135328 0.46940635162990169 0 0.20026735891702299 0.46234913478224859 0 0.20553694515745191 0.4636726528301584 0 0.2062769467042434 0.45695075587982892 0 0.20553694515745191 0.4636726528301584 0 0.2093412806297659 0.45745237759367802 0 0.21317278789968289 0.45804628573348549 0 0.20553694515745191 0.4636726528301584 0 0.2093412806297659 0.45745237759367802 0 0.2062769467042434 0.45695075587982892 0 0.2093412806297659 0.45745237759367802 0 0.2062769467042434 0.45695075587982892 0 0.20553694515745191 0.4636726528301584 0 0.2062769467042434 0.45695075587982892 0 0.2093412806297659 0.45745237759367802 0 0.2062769467042434 0.45695075587982892 0 0.208874019148723 0.45561819053158908 0 0.2062769467042434 0.45695075587982892 0 0.208890677809804 0.45322588184614532 0 0.208874019148723 0.45561819053158908 0 0.2093412806297659 0.45745237759367802 0 0.208874019148723 0.45561819053158908 0 0.21098717145107879 0.45484374680670442 0 0.208890677809804 0.45322588184614532 0 0.208874019148723 0.45561819053158908 0 0.21098717145107879 0.45484374680670442 0 0.21842851312516401 0.45413545642635339 0 0.21317278789968289 0.45804628573348549 0 0.2157383292316146 0.46323541384432498 0 0.21098717145107879 0.45484374680670442 0 0.21398923194610131 0.45402266012562781 0 0.21317278789968289 0.45804628573348549 0 0.21098717145107879 0.45484374680670442 0 0.21398923194610131 0.45402266012562781 0 0.2117316113384381 0.4512526872904713 0 0.2093412806297659 0.45745237759367802 0 0.21098717145107879 0.45484374680670442 0 0.21317278789968289 0.45804628573348549 0 0.21398923194610131 0.45402266012562781 0 0.21842851312516401 0.45413545642635339 0 0.21317278789968289 0.45804628573348549 0 0.20553694515745191 0.4636726528301584 0 0.21317278789968289 0.45804628573348549 0 0.2157383292316146 0.46323541384432498 0 0.2157383292316146 0.46323541384432498 0 0.22358978089226039 0.46939599886040512 0 0.21124981255942141 0.47235215635658012 0 0.20953631368935141 0.42734388668854639 0 0.2062769467042434 0.45695075587982892 0 0.2094885554985744 0.44287097982408402 0 0.20953631368935141 0.42734388668854639 0 0.2062769467042434 0.45695075587982892 0 0.2055214291304964 0.44263082319416291 0 0.20953631368935141 0.42734388668854639 0 0.2062769467042434 0.45695075587982892 0 0.205315199224894 0.43630549559271831 0 0.2030410956201312 0.44108580482880838 0 0.2055214291304964 0.44263082319416291 0 0.205315199224894 0.43630549559271831 0 0.2030410956201312 0.44108580482880838 0 0.2011974035750998 0.4385788349228521 0 0.2019455274493549 0.44807275128668123 0 0.20262997243072639 0.44373657544118827 0 0.2055214291304964 0.44263082319416291 0 0.20262997243072639 0.44373657544118827 0 0.2030410956201312 0.44108580482880838 0 0.2055214291304964 0.44263082319416291 0 0.2062769467042434 0.45695075587982892 0 0.2094885554985744 0.44287097982408402 0 0.20921926735801361 0.44858714340486222 0 0.2062769467042434 0.45695075587982892 0 0.208890677809804 0.45322588184614532 0 0.20921926735801361 0.44858714340486222 0 0.2019455274493549 0.44807275128668123 0 0.2062769467042434 0.45695075587982892 0 0.2055214291304964 0.44263082319416291 0 0.208890677809804 0.45322588184614532 0 0.20921926735801361 0.44858714340486222 0 0.2117316113384381 0.4512526872904713 0 0.208890677809804 0.45322588184614532 0 0.21098717145107879 0.45484374680670442 0 0.2117316113384381 0.4512526872904713 0 0.2094885554985744 0.44287097982408402 0 0.20921926735801361 0.44858714340486222 0 0.21215536546658309 0.4452844271470271 0 0.2151060201216885 0.44864252809545457 0 0.21578285464228919 0.44251922590354459 0 0.21215536546658309 0.4452844271470271 0 0.20921926735801361 0.44858714340486222 0 0.21214473619789229 0.44828437229071749 0 0.21215536546658309 0.4452844271470271 0 0.21214473619789229 0.44828437229071749 0 0.2151060201216885 0.44864252809545457 0 0.21215536546658309 0.4452844271470271 0 0.21398923194610131 0.45402266012562781 0 0.2117316113384381 0.4512526872904713 0 0.2151060201216885 0.44864252809545457 0 0.20921926735801361 0.44858714340486222 0 0.21214473619789229 0.44828437229071749 0 0.2117316113384381 0.4512526872904713 0 0.21214473619789229 0.44828437229071749 0 0.2117316113384381 0.4512526872904713 0 0.2151060201216885 0.44864252809545457 0 0.21398923194610131 0.45402266012562781 0 0.21842851312516401 0.45413545642635339 0 0.2151060201216885 0.44864252809545457 0 0.21842851312516401 0.45413545642635339 0 0.2151060201216885 0.44864252809545457 0 0.22051470334001139 0.44674277756094338 0 0.2151060201216885 0.44864252809545457 0 0.21578285464228919 0.44251922590354459 0 0.22051470334001139 0.44674277756094338 0 0.21578285464228919 0.44251922590354459 0 0.21258279051804421 0.44219647769634213 0 0.21215536546658309 0.4452844271470271 0 0.2094885554985744 0.44287097982408402 0 0.21258279051804421 0.44219647769634213 0 0.21170235971860771 0.44015347311855751 0 0.2094885554985744 0.44287097982408402 0 0.21258279051804421 0.44219647769634213 0 0.21215536546658309 0.4452844271470271 0 0.2118872456200932 0.43621244262655717 0 0.21170235971860771 0.44015347311855751 0 0.21382238221675079 0.43931235844569139 0 0.2118872456200932 0.43621244262655717 0 0.2094885554985744 0.44287097982408402 0 0.21170235971860771 0.44015347311855751 0 0.21258279051804421 0.44219647769634213 0 0.21170235971860771 0.44015347311855751 0 0.21382238221675079 0.43931235844569139 0 0.21578285464228919 0.44251922590354459 0 0.21258279051804421 0.44219647769634213 0 0.21382238221675079 0.43931235844569139 0 0.21578285464228919 0.44251922590354459 0 0.21730560567598001 0.43862663553671749 0 0.22055366280139849 0.44134211176250282 0 0.21419919222662059 0.43531708642013922 0 0.21382238221675079 0.43931235844569139 0 0.21730560567598001 0.43862663553671749 0 0.21578285464228919 0.44251922590354459 0 0.21382238221675079 0.43931235844569139 0 0.21730560567598001 0.43862663553671749 0 0.22249222661693011 0.4357720594467937 0 0.21730560567598001 0.43862663553671749 0 0.22055366280139849 0.44134211176250282 0 0.21578285464228919 0.44251922590354459 0 0.22055366280139849 0.44134211176250282 0 0.22051470334001139 0.44674277756094338 0 0.22055366280139849 0.44134211176250282 0 0.2275629692216857 0.44310302732333351 0 0.22051470334001139 0.44674277756094338 0 0.22249222661693011 0.4357720594467937 0 0.22055366280139849 0.44134211176250282 0 0.2275629692216857 0.44310302732333351 0 0.23694771408394061 0.43659622713039048 0 0.2275629692216857 0.44310302732333351 0 0.23851300251720139 0.449825795816718 0 0.23694771408394061 0.43659622713039048 0 0.22249222661693011 0.4357720594467937 0 0.2275629692216857 0.44310302732333351 0 0.2275629692216857 0.44310302732333351 0 0.22673065844680049 0.45237067973571821 0 0.23851300251720139 0.449825795816718 0 0.21842851312516401 0.45413545642635339 0 0.22673065844680049 0.45237067973571821 0 0.22051470334001139 0.44674277756094338 0 0.2275629692216857 0.44310302732333351 0 0.22673065844680049 0.45237067973571821 0 0.22051470334001139 0.44674277756094338 0 0.21842851312516401 0.45413545642635339 0 0.22673065844680049 0.45237067973571821 0 0.22326548449047781 0.45994864576183092 0 0.21842851312516401 0.45413545642635339 0 0.2157383292316146 0.46323541384432498 0 0.22326548449047781 0.45994864576183092 0 0.22326548449047781 0.45994864576183092 0 0.23184014075654941 0.46060567994235269 0 0.22358978089226039 0.46939599886040512 0 0.2157383292316146 0.46323541384432498 0 0.22326548449047781 0.45994864576183092 0 0.22358978089226039 0.46939599886040512 0 0.23184014075654941 0.46060567994235269 0 0.23764524468379969 0.47548463141940239 0 0.22358978089226039 0.46939599886040512 0 0.22673065844680049 0.45237067973571821 0 0.22326548449047781 0.45994864576183092 0 0.23184014075654941 0.46060567994235269 0 0.22673065844680049 0.45237067973571821 0 0.23184014075654941 0.46060567994235269 0 0.23851300251720139 0.449825795816718 0 0.23184014075654941 0.46060567994235269 0 0.24587167198532681 0.46151089884672652 0 0.23851300251720139 0.449825795816718 0 0.23184014075654941 0.46060567994235269 0 0.24587167198532681 0.46151089884672652 0 0.23764524468379969 0.47548463141940239 0 0.23694771408394061 0.43659622713039048 0 0.23851300251720139 0.449825795816718 0 0.26275629618291152 0.44639804232362451 0 0.23694771408394061 0.43659622713039048 0 0.26275629618291152 0.44639804232362451 0 0.24587167198532681 0.46151089884672652 0 0.23851300251720139 0.449825795816718 0 0.26275629618291152 0.44639804232362451 0 0.24437096827140059 0.5 0 0.23764524468379969 0.47548463141940239 0 0.22209716967083201 0.48345963540615672 0 0.24437096827140059 0.5 0 0.23764524468379969 0.47548463141940239 0 0.25686592675622982 0.47651771569279322 0 0.24587167198532681 0.46151089884672652 0 0.23764524468379969 0.47548463141940239 0 0.25686592675622982 0.47651771569279322 0 0.23764524468379969 0.47548463141940239 0 0.22358978089226039 0.46939599886040512 0 0.22209716967083201 0.48345963540615672 0 0.22358978089226039 0.46939599886040512 0 0.22209716967083201 0.48345963540615672 0 0.21124981255942141 0.47235215635658012 0 0.24437096827140059 0.5 0 0.22209716967083201 0.48345963540615672 0 0.21501439779747289 0.5 0 0.22209716967083201 0.48345963540615672 0 0.21501439779747289 0.5 0 0.20071281382063719 0.48352502580055268 0 0.22209716967083201 0.48345963540615672 0 0.21124981255942141 0.47235215635658012 0 0.20071281382063719 0.48352502580055268 0 0.21124981255942141 0.47235215635658012 0 0.1985880268135328 0.46940635162990169 0 0.20071281382063719 0.48352502580055268 0 0.20071281382063719 0.48352502580055268 0 0.1809564602552477 0.48267077675669562 0 0.18651925512055281 0.47240695531557209 0 0.1985880268135328 0.46940635162990169 0 0.20071281382063719 0.48352502580055268 0 0.18651925512055281 0.47240695531557209 0 0.21501439779747289 0.5 0 0.20071281382063719 0.48352502580055268 0 0.18565782732354519 0.5 0 0.20071281382063719 0.48352502580055268 0 0.18565782732354519 0.5 0 0.1809564602552477 0.48267077675669562 0 0.18565782732354519 0.5 0 0.166592590440611 0.48504836592465422 0 0.1809564602552477 0.48267077675669562 0 0.15630125684961749 0.5 0 0.166592590440611 0.48504836592465422 0 0.14777897133042009 0.48485261650658668 0 0.18565782732354519 0.5 0 0.15630125684961749 0.5 0 0.166592590440611 0.48504836592465422 0 0.166592590440611 0.48504836592465422 0 0.14777897133042009 0.48485261650658668 0 0.1559033907142508 0.4710371648700542 0 0.166592590440611 0.48504836592465422 0 0.17340719914309161 0.47261843224699868 0 0.1559033907142508 0.4710371648700542 0 0.166592590440611 0.48504836592465422 0 0.17340719914309161 0.47261843224699868 0 0.1809564602552477 0.48267077675669562 0 0.17340719914309161 0.47261843224699868 0 0.1809564602552477 0.48267077675669562 0 0.18651925512055281 0.47240695531557209 0 0.17340719914309161 0.47261843224699868 0 0.18651925512055281 0.47240695531557209 0 0.1800899390451377 0.46366613099141268 0 0.1923482710801987 0.45881905422422409 0 0.18651925512055281 0.47240695531557209 0 0.1800899390451377 0.46366613099141268 0 0.1923482710801987 0.45881905422422409 0 0.1800899390451377 0.46366613099141268 0 0.1797423039361053 0.45260711928367792 0 0.1800899390451377 0.46366613099141268 0 0.1797423039361053 0.45260711928367792 0 0.1684326659457403 0.46187909388659099 0 0.17340719914309161 0.47261843224699868 0 0.1800899390451377 0.46366613099141268 0 0.1684326659457403 0.46187909388659099 0 0.18255395919531611 0.43286267275727519 0 0.1861400405656968 0.44215808154055369 0 0.17348143723044149 0.44210769905746272 0 0.19280609440002799 0.44970076237901357 0 0.1861400405656968 0.44215808154055369 0 0.1797423039361053 0.45260711928367792 0 0.1861400405656968 0.44215808154055369 0 0.1797423039361053 0.45260711928367792 0 0.17348143723044149 0.44210769905746272 0 0.1797423039361053 0.45260711928367792 0 0.17348143723044149 0.44210769905746272 0 0.15320766116796719 0.44826348268752669 0 0.1797423039361053 0.45260711928367792 0 0.15320766116796719 0.44826348268752669 0 0.17348143723044149 0.44210769905746272 0 0.16257401288806519 0.43795330881534927 0 0.15320766116796719 0.44826348268752669 0 0.15404594190054161 0.43071161505100652 0 0.16257401288806519 0.43795330881534927 0 0.15320766116796719 0.44826348268752669 0 0.17340719914309161 0.47261843224699868 0 0.1684326659457403 0.46187909388659099 0 0.1559033907142508 0.4710371648700542 0 0.1684326659457403 0.46187909388659099 0 0.1448874952182056 0.45803866780622599 0 0.1684326659457403 0.46187909388659099 0 0.1448874952182056 0.45803866780622599 0 0.1559033907142508 0.4710371648700542 0 0.1797423039361053 0.45260711928367792 0 0.1684326659457403 0.46187909388659099 0 0.15320766116796719 0.44826348268752669 0 0.1684326659457403 0.46187909388659099 0 0.1448874952182056 0.45803866780622599 0 0.15320766116796719 0.44826348268752669 0 0.1448874952182056 0.45803866780622599 0 0.1559033907142508 0.4710371648700542 0 0.14406767769165521 0.47252931743164622 0 0.1448874952182056 0.45803866780622599 0 0.134094557286111 0.46989590979754398 0 0.14406767769165521 0.47252931743164622 0 0.1448874952182056 0.45803866780622599 0 0.15320766116796719 0.44826348268752669 0 0.1266730183998292 0.4439198460913758 0 0.14310341883288369 0.43600887929147208 0 0.15320766116796719 0.44826348268752669 0 0.1266730183998292 0.4439198460913758 0 0.14310341883288369 0.43600887929147208 0 0.15404594190054161 0.43071161505100652 0 0.15320766116796719 0.44826348268752669 0 0.12134232449067089 0.45419824172586021 0 0.1448874952182056 0.45803866780622599 0 0.1266730183998292 0.4439198460913758 0 0.15320766116796719 0.44826348268752669 0 0.1266730183998292 0.4439198460913758 0 0.12134232449067089 0.45419824172586021 0 0.1448874952182056 0.45803866780622599 0 0.12548597270264661 0.46479205655642702 0 0.1448874952182056 0.45803866780622599 0 0.12548597270264661 0.46479205655642702 0 0.134094557286111 0.46989590979754398 0 0.12134232449067089 0.45419824172586021 0 0.1448874952182056 0.45803866780622599 0 0.12307890761133319 0.47717759226895762 0 0.134094557286111 0.46989590979754398 0 0.13767397390928879 0.47882222817782 0 0.12307890761133319 0.47717759226895762 0 0.12548597270264661 0.46479205655642702 0 0.134094557286111 0.46989590979754398 0 0.13767397390928879 0.47882222817782 0 0.13104101678281729 0.4874035327719532 0 0.14777897133042009 0.48485261650658668 0 0.134094557286111 0.46989590979754398 0 0.13767397390928879 0.47882222817782 0 0.14406767769165521 0.47252931743164622 0 0.12307890761133319 0.47717759226895762 0 0.13767397390928879 0.47882222817782 0 0.13104101678281729 0.4874035327719532 0 0.13104101678281729 0.4874035327719532 0 0.14777897133042009 0.48485261650658668 0 0.13104101678281729 0.4874035327719532 0 0.12694468637568981 0.5 0 0.14777897133042009 0.48485261650658668 0 0.11980829636931289 0.4958931651322821 0 0.13104101678281729 0.4874035327719532 0 0.12694468637568981 0.5 0 0.15630125684961749 0.5 0 0.12694468637568981 0.5 0 0.14777897133042009 0.48485261650658668 0 0.14777897133042009 0.48485261650658668 0 0.1559033907142508 0.4710371648700542 0 0.14406767769165521 0.47252931743164622 0 0.13767397390928879 0.47882222817782 0 0.14777897133042009 0.48485261650658668 0 0.14406767769165521 0.47252931743164622 0 0.34706183837482718 0.4810662028974122 0 0.36168299705647111 0.46213240579482612 0 0.34706183837482718 0.4810662028974122 0 0.36168299705647111 0.46213240579482612 0 0.33891929358891781 0.46732673045907591 0 0.34706183837482718 0.4810662028974122 0 0.35799088390866901 0.5 0 0.3324406796931838 0.49999999999999878 0 0.34706183837482718 0.4810662028974122 0 0.35799088390866901 0.5 0 0.37497746445005159 0.47970082420069599 0 0.35799088390866901 0.5 0 0.37497746445005159 0.47970082420069599 0 0.38354108812415411 0.5 0 0.34706183837482718 0.4810662028974122 0 0.37497746445005159 0.47970082420069599 0 0.36168299705647111 0.46213240579482612 0 0.36168299705647111 0.46213240579482612 0 0.36402576007575238 0.44519913078094908 0 0.38023811072368852 0.45528438267371318 0 0.37497746445005159 0.47970082420069599 0 0.36168299705647111 0.46213240579482612 0 0.38023811072368852 0.45528438267371318 0 0.36402576007575238 0.44519913078094908 0 0.37847536945977639 0.43809187827637081 0 0.38023811072368852 0.45528438267371318 0 0.36402576007575238 0.44519913078094908 0 0.36864555751711131 0.43245583926158099 0 0.37847536945977639 0.43809187827637081 0 0.36402576007575238 0.44519913078094908 0 0.34281428723742557 0.45064564462336831 0 0.35229823846004121 0.43258463405583469 0 0.36168299705647111 0.46213240579482612 0 0.36402576007575238 0.44519913078094908 0 0.34281428723742557 0.45064564462336831 0 0.36168299705647111 0.46213240579482612 0 0.33891929358891781 0.46732673045907591 0 0.34281428723742557 0.45064564462336831 0 0.33891929358891781 0.46732673045907591 0 0.34281428723742557 0.45064564462336831 0 0.31949159457059428 0.46170551501643908 0 0.34281428723742557 0.45064564462336831 0 0.32829944634978581 0.43105322499276583 0 0.35229823846004121 0.43258463405583469 0 0.34281428723742557 0.45064564462336831 0 0.31949159457059428 0.46170551501643908 0 0.32829944634978581 0.43105322499276583 0 0.31949159457059428 0.46170551501643908 0 0.30216344912989418 0.4347052239742118 0 0.32829944634978581 0.43105322499276583 0 0.33891929358891781 0.46732673045907591 0 0.31949159457059428 0.46170551501643908 0 0.3235457507052707 0.48108388396333401 0 0.31949159457059428 0.46170551501643908 0 0.3235457507052707 0.48108388396333401 0 0.30192353390276339 0.47580079277296611 0 0.34706183837482718 0.4810662028974122 0 0.33891929358891781 0.46732673045907591 0 0.3235457507052707 0.48108388396333401 0 0.34706183837482718 0.4810662028974122 0 0.3235457507052707 0.48108388396333401 0 0.3324406796931838 0.49999999999999878 0 0.34706183837482718 0.4810662028974122 0 0.3324406796931838 0.49999999999999878 0 0.3235457507052707 0.48108388396333401 0 0.3324406796931838 0.49999999999999878 0 0.30308410921925599 0.5 0 0.3235457507052707 0.48108388396333401 0 0.30308410921925599 0.5 0 0.30192353390276339 0.47580079277296611 0 0.30308410921925599 0.5 0 0.30192353390276339 0.47580079277296611 0 0.27940528630978601 0.47607001148046929 0 0.30192353390276339 0.47580079277296611 0 0.27940528630978601 0.47607001148046929 0 0.28856487828188249 0.45619985751685838 0 0.30308410921925599 0.5 0 0.27372753874532829 0.5 0 0.27940528630978601 0.47607001148046929 0 0.27372753874532829 0.5 0 0.27940528630978601 0.47607001148046929 0 0.25686592675622982 0.47651771569279322 0 0.24437096827140059 0.5 0 0.27372753874532829 0.5 0 0.25686592675622982 0.47651771569279322 0 0.24587167198532681 0.46151089884672652 0 0.25686592675622982 0.47651771569279322 0 0.26275629618291152 0.44639804232362451 0 0.27940528630978601 0.47607001148046929 0 0.25686592675622982 0.47651771569279322 0 0.26275629618291152 0.44639804232362451 0 0.27940528630978601 0.47607001148046929 0 0.26275629618291152 0.44639804232362451 0 0.28856487828188249 0.45619985751685838 0 0.26275629618291152 0.44639804232362451 0 0.28856487828188249 0.45619985751685838 0 0.27696970678618238 0.43126688258106038 0 0.26275629618291152 0.44639804232362451 0 0.28856487828188249 0.45619985751685838 0 0.28856487828188249 0.45619985751685838 0 0.30216344912989418 0.4347052239742118 0 0.27696970678618238 0.43126688258106038 0 0.31949159457059428 0.46170551501643908 0 0.30192353390276339 0.47580079277296611 0 0.28856487828188249 0.45619985751685838 0 0.31949159457059428 0.46170551501643908 0 0.28856487828188249 0.45619985751685838 0 0.30216344912989418 0.4347052239742118 0 0.30216344912989418 0.4347052239742118 0 0.3107078705106272 0.41340792259000853 0 0.2888654148089807 0.41188678009058088 0 0.30216344912989418 0.4347052239742118 0 0.2888654148089807 0.41188678009058088 0 0.27696970678618238 0.43126688258106038 0 0.2888654148089807 0.41188678009058088 0 0.27696970678618238 0.43126688258106038 0 0.26691408715175408 0.41014752185299991 0 0.26691408715175408 0.41014752185299991 0 0.25009600843597041 0.40939687762789101 0 0.25255411516167198 0.42826386972808728 0 0.23694771408394061 0.43659622713039048 0 0.26275629618291152 0.44639804232362451 0 0.25255411516167198 0.42826386972808728 0 0.26275629618291152 0.44639804232362451 0 0.27696970678618238 0.43126688258106038 0 0.25255411516167198 0.42826386972808728 0 0.27696970678618238 0.43126688258106038 0 0.26691408715175408 0.41014752185299991 0 0.25255411516167198 0.42826386972808728 0 0.26691408715175408 0.41014752185299991 0 0.25009600843597041 0.40939687762789101 0 0.25803884276690808 0.38748449168907639 0 0.2888654148089807 0.41188678009058088 0 0.26691408715175408 0.41014752185299991 0 0.28190007463496508 0.39259831671053103 0 0.26691408715175408 0.41014752185299991 0 0.25803884276690808 0.38748449168907639 0 0.28190007463496508 0.39259831671053103 0 0.25803884276690808 0.38748449168907639 0 0.28190007463496508 0.39259831671053103 0 0.27925956745125857 0.37125974754354413 0 0.28190007463496508 0.39259831671053103 0 0.30538191511691071 0.38640630624211408 0 0.27925956745125857 0.37125974754354413 0 0.2888654148089807 0.41188678009058088 0 0.28190007463496508 0.39259831671053103 0 0.30538191511691071 0.38640630624211408 0 0.3107078705106272 0.41340792259000853 0 0.2888654148089807 0.41188678009058088 0 0.30538191511691071 0.38640630624211408 0 0.30538191511691071 0.38640630624211408 0 0.33496179783540758 0.37512076228400859 0 0.32882912714756418 0.40298807765036943 0 0.33496179783540758 0.37512076228400859 0 0.35151903976475041 0.39306756948395899 0 0.33496179783540758 0.37512076228400859 0 0.32882912714756418 0.40298807765036943 0 0.35151903976475041 0.39306756948395899 0 0.32882912714756418 0.40298807765036943 0 0.34860611324994262 0.41560850345946748 0 0.35151903976475041 0.39306756948395899 0 0.3107078705106272 0.41340792259000853 0 0.30538191511691071 0.38640630624211408 0 0.32882912714756418 0.40298807765036943 0 0.3107078705106272 0.41340792259000853 0 0.32882912714756418 0.40298807765036943 0 0.32829944634978581 0.43105322499276583 0 0.30216344912989418 0.4347052239742118 0 0.3107078705106272 0.41340792259000853 0 0.32829944634978581 0.43105322499276583 0 0.32829944634978581 0.43105322499276583 0 0.34860611324994262 0.41560850345946748 0 0.35229823846004121 0.43258463405583469 0 0.32882912714756418 0.40298807765036943 0 0.32829944634978581 0.43105322499276583 0 0.34860611324994262 0.41560850345946748 0 0.34860611324994262 0.41560850345946748 0 0.36807628169409312 0.41101437668390939 0 0.35151903976475041 0.39306756948395899 0 0.34860611324994262 0.41560850345946748 0 0.35229823846004121 0.43258463405583469 0 0.36261454608342142 0.4229431378899674 0 0.36402576007575238 0.44519913078094908 0 0.35229823846004121 0.43258463405583469 0 0.36864555751711131 0.43245583926158099 0 0.35229823846004121 0.43258463405583469 0 0.36261454608342142 0.4229431378899674 0 0.36864555751711131 0.43245583926158099 0 0.36261454608342142 0.4229431378899674 0 0.36864555751711131 0.43245583926158099 0 0.37638722081423792 0.42316938585626601 0 0.36864555751711131 0.43245583926158099 0 0.37638722081423792 0.42316938585626601 0 0.37847536945977639 0.43809187827637081 0 0.34860611324994262 0.41560850345946748 0 0.36261454608342142 0.4229431378899674 0 0.36807628169409312 0.41101437668390939 0 0.36807628169409312 0.41101437668390939 0 0.37851431845855671 0.40915855582036997 0 0.37638722081423792 0.42316938585626601 0 0.36261454608342142 0.4229431378899674 0 0.36807628169409312 0.41101437668390939 0 0.37638722081423792 0.42316938585626601 0 0.36807628169409312 0.41101437668390939 0 0.36835141586495018 0.39380003178311118 0 0.35151903976475041 0.39306756948395899 0 0.36807628169409312 0.41101437668390939 0 0.35151903976475041 0.39306756948395899 0 0.36807628169409312 0.41101437668390939 0 0.36835141586495018 0.39380003178311118 0 0.37851431845855671 0.40915855582036997 0 0.36835141586495018 0.39380003178311118 0 0.35992624183289079 0.37866274069236872 0 0.35151903976475041 0.39306756948395899 0 0.36835141586495018 0.39380003178311118 0 0.35992624183289079 0.37866274069236872 0 0.37962587482454851 0.37952071621100641 0 0.33496179783540758 0.37512076228400859 0 0.35992624183289079 0.37866274069236872 0 0.35151903976475041 0.39306756948395899 0 0.33496179783540758 0.37512076228400859 0 0.35864190176814459 0.36064714127849201 0 0.33817921764557268 0.34286197997921769 0 0.35864190176814459 0.36064714127849201 0 0.35767185885024588 0.33884782208375569 0 0.33817921764557268 0.34286197997921769 0 0.33496179783540758 0.37512076228400859 0 0.35992624183289079 0.37866274069236872 0 0.35864190176814459 0.36064714127849201 0 0.35992624183289079 0.37866274069236872 0 0.35864190176814459 0.36064714127849201 0 0.37962587482454851 0.37952071621100641 0 0.35864190176814459 0.36064714127849201 0 0.38073743119054021 0.34988287660164258 0 0.37962587482454851 0.37952071621100641 0 0.35864190176814459 0.36064714127849201 0 0.35767185885024588 0.33884782208375569 0 0.38073743119054021 0.34988287660164258 0 0.36658252680600872 0.32610018065837482 0 0.35767185885024588 0.33884782208375569 0 0.38073743119054021 0.34988287660164258 0 0.36308485050021538 0.30927480907403843 0 0.37656607900536809 0.30874367214310311 0 0.38184898755653113 0.32024503699227902 0 0.36658252680600872 0.32610018065837482 0 0.36308485050021538 0.30927480907403843 0 0.38184898755653113 0.32024503699227902 0 0.36308485050021538 0.30927480907403843 0 0.38184898755653113 0.32024503699227902 0 0.36658252680600872 0.32610018065837482 0 0.34659409883712522 0.31989015275902222 0 0.36308485050021538 0.30927480907403843 0 0.36658252680600872 0.32610018065837482 0 0.34659409883712522 0.31989015275902222 0 0.35767185885024588 0.33884782208375569 0 0.34659409883712522 0.31989015275902222 0 0.35767185885024588 0.33884782208375569 0 0.33817921764557268 0.34286197997921769 0 0.34659409883712522 0.31989015275902222 0 0.33817921764557268 0.34286197997921769 0 0.32440361417172231 0.32270999180820198 0 0.34659409883712522 0.31989015275902222 0 0.32440361417172231 0.32270999180820198 0 0.33042820689451902 0.30495160166320112 0 0.32440361417172231 0.32270999180820198 0 0.30317939345541639 0.31684943862765103 0 0.31770631280062489 0.31027973311964829 0 0.32440361417172231 0.32270999180820198 0 0.31770631280062489 0.31027973311964829 0 0.33042820689451902 0.30495160166320112 0 0.32440361417172231 0.32270999180820198 0 0.32070867542502052 0.3404932686888964 0 0.30184731397672199 0.33922714788410768 0 0.33817921764557268 0.34286197997921769 0 0.32440361417172231 0.32270999180820198 0 0.32070867542502052 0.3404932686888964 0 0.32070867542502052 0.3404932686888964 0 0.31840455590606481 0.35717395508405808 0 0.30184731397672199 0.33922714788410768 0 0.33496179783540758 0.37512076228400859 0 0.33817921764557268 0.34286197997921769 0 0.31840455590606481 0.35717395508405808 0 0.33817921764557268 0.34286197997921769 0 0.32070867542502052 0.3404932686888964 0 0.31840455590606481 0.35717395508405808 0 0.30538191511691071 0.38640630624211408 0 0.33496179783540758 0.37512076228400859 0 0.31840455590606481 0.35717395508405808 0 0.33496179783540758 0.37512076228400859 0 0.31840455590606481 0.35717395508405808 0 0.30538191511691071 0.38640630624211408 0 0.31840455590606481 0.35717395508405808 0 0.29634885671078748 0.35950774496867832 0 0.31840455590606481 0.35717395508405808 0 0.30184731397672199 0.33922714788410768 0 0.31840455590606481 0.35717395508405808 0 0.29634885671078748 0.35950774496867832 0 0.30184731397672199 0.33922714788410768 0 0.29634885671078748 0.35950774496867832 0 0.28173423606631631 0.33900451896660461 0 0.30184731397672199 0.33922714788410768 0 0.29634885671078748 0.35950774496867832 0 0.27490706158444062 0.35532774908547898 0 0.28173423606631631 0.33900451896660461 0 0.30538191511691071 0.38640630624211408 0 0.29634885671078748 0.35950774496867832 0 0.27925956745125857 0.37125974754354413 0 0.29634885671078748 0.35950774496867832 0 0.27925956745125857 0.37125974754354413 0 0.27490706158444062 0.35532774908547898 0 0.27925956745125857 0.37125974754354413 0 0.27490706158444062 0.35532774908547898 0 0.2568419711749631 0.36200264213042188 0 0.27490706158444062 0.35532774908547898 0 0.26407908807837271 0.34418051255246768 0 0.28173423606631631 0.33900451896660461 0 0.27490706158444062 0.35532774908547898 0 0.26407908807837271 0.34418051255246768 0 0.2568419711749631 0.36200264213042188 0 0.24893558204057381 0.34642530285772738 0 0.26407908807837271 0.34418051255246768 0 0.2568419711749631 0.36200264213042188 0 0.25803884276690808 0.38748449168907639 0 0.27925956745125857 0.37125974754354413 0 0.2568419711749631 0.36200264213042188 0 0.24015189975402951 0.36863599806551978 0 0.25803884276690808 0.38748449168907639 0 0.2568419711749631 0.36200264213042188 0 0.26497405097209409 0.31503678436980331 0 0.25658861127466859 0.32341404046661348 0 0.26848895857241062 0.3275502902369502 0 0.26497405097209409 0.31503678436980331 0 0.25194561914124791 0.31470249387852028 0 0.26174455316609968 0.30848639085060031 0 0.26497405097209409 0.31503678436980331 0 0.25194561914124791 0.31470249387852028 0 0.25658861127466859 0.32341404046661348 0 0.24396770865605821 0.32500806181017111 0 0.25658861127466859 0.32341404046661348 0 0.25356671903153238 0.33477257203762317 0 0.24396770865605821 0.32500806181017111 0 0.25194561914124791 0.31470249387852028 0 0.25658861127466859 0.32341404046661348 0 0.26407908807837271 0.34418051255246768 0 0.25356671903153238 0.33477257203762317 0 0.26848895857241062 0.3275502902369502 0 0.24893558204057381 0.34642530285772738 0 0.26407908807837271 0.34418051255246768 0 0.25356671903153238 0.33477257203762317 0 0.25658861127466859 0.32341404046661348 0 0.25356671903153238 0.33477257203762317 0 0.26848895857241062 0.3275502902369502 0 0.26848895857241062 0.3275502902369502 0 0.28529007204737927 0.32128034068415728 0 0.28173423606631631 0.33900451896660461 0 0.26407908807837271 0.34418051255246768 0 0.26848895857241062 0.3275502902369502 0 0.28173423606631631 0.33900451896660461 0 0.26848895857241062 0.3275502902369502 0 0.27646726512485181 0.31362455264190442 0 0.28529007204737927 0.32128034068415728 0 0.26497405097209409 0.31503678436980331 0 0.26848895857241062 0.3275502902369502 0 0.27646726512485181 0.31362455264190442 0 0.27646726512485181 0.31362455264190442 0 0.28529007204737927 0.32128034068415728 0 0.28779557337569772 0.30969301511101333 0 0.28529007204737927 0.32128034068415728 0 0.30317939345541639 0.31684943862765103 0 0.28779557337569772 0.30969301511101333 0 0.28529007204737927 0.32128034068415728 0 0.30184731397672199 0.33922714788410768 0 0.30317939345541639 0.31684943862765103 0 0.28529007204737927 0.32128034068415728 0 0.30184731397672199 0.33922714788410768 0 0.28529007204737927 0.32128034068415728 0 0.28173423606631631 0.33900451896660461 0 0.30184731397672199 0.33922714788410768 0 0.32440361417172231 0.32270999180820198 0 0.30184731397672199 0.33922714788410768 0 0.30317939345541639 0.31684943862765103 0 0.30317939345541639 0.31684943862765103 0 0.30791483502163108 0.30776406766835113 0 0.31770631280062489 0.31027973311964829 0 0.30791483502163108 0.30776406766835113 0 0.30780470084055139 0.30021378769401669 0 0.31388338333907961 0.30347416436189778 0 0.30791483502163108 0.30776406766835113 0 0.30780470084055139 0.30021378769401669 0 0.29874565350595439 0.30533867333503339 0 0.30780470084055139 0.30021378769401669 0 0.31343553318983508 0.29474305045998977 0 0.31474602796965417 0.29647386877006182 0 0.30780470084055139 0.30021378769401669 0 0.31343553318983508 0.29474305045998977 0 0.30780470084055139 0.30021378769401669 0 0.31474602796965417 0.29647386877006182 0 0.31388338333907961 0.30347416436189778 0 0.30780470084055139 0.30021378769401669 0 0.29874565350595439 0.30533867333503339 0 0.29965644007770148 0.29192746915782758 0 0.30317939345541639 0.31684943862765103 0 0.30791483502163108 0.30776406766835113 0 0.29874565350595439 0.30533867333503339 0 0.29965644007770148 0.29192746915782758 0 0.30127144644784742 0.27867749691292121 0 0.31343553318983508 0.29474305045998977 0 0.30127144644784742 0.27867749691292121 0 0.31343553318983508 0.29474305045998977 0 0.30127144644784742 0.27867749691292121 0 0.31713089795023652 0.28173388432166829 0 0.31343553318983508 0.29474305045998977 0 0.30780470084055139 0.30021378769401669 0 0.29965644007770148 0.29192746915782758 0 0.31343553318983508 0.29474305045998977 0 0.29965644007770148 0.29192746915782758 0 0.27927560394425571 0.28644371278185182 0 0.30127144644784742 0.27867749691292121 0 0.29965644007770148 0.29192746915782758 0 0.28814666739890338 0.2989196101145179 0 0.27927560394425571 0.28644371278185182 0 0.27927560394425571 0.28644371278185182 0 0.30127144644784742 0.27867749691292121 0 0.30317939345541639 0.31684943862765103 0 0.29874565350595439 0.30533867333503339 0 0.28779557337569772 0.30969301511101333 0 0.29874565350595439 0.30533867333503339 0 0.29965644007770148 0.29192746915782758 0 0.28814666739890338 0.2989196101145179 0 0.29874565350595439 0.30533867333503339 0 0.28814666739890338 0.2989196101145179 0 0.28779557337569772 0.30969301511101333 0 0.28814666739890338 0.2989196101145179 0 0.28779557337569772 0.30969301511101333 0 0.27494438872168098 0.30214547526281582 0 0.27646726512485181 0.31362455264190442 0 0.28779557337569772 0.30969301511101333 0 0.27494438872168098 0.30214547526281582 0 0.26497405097209409 0.31503678436980331 0 0.27494438872168098 0.30214547526281582 0 0.26174455316609968 0.30848639085060031 0 0.26497405097209409 0.31503678436980331 0 0.27646726512485181 0.31362455264190442 0 0.27494438872168098 0.30214547526281582 0 0.27494438872168098 0.30214547526281582 0 0.27927560394425571 0.28644371278185182 0 0.25727976144066339 0.29420992865078088 0 0.28814666739890338 0.2989196101145179 0 0.27494438872168098 0.30214547526281582 0 0.27927560394425571 0.28644371278185182 0 0.27927560394425571 0.28644371278185182 0 0.25727976144066339 0.29420992865078088 0 0.26539512125012632 0.28107576489019342 0 0.27927560394425571 0.28644371278185182 0 0.25727976144066339 0.29420992865078088 0 0.25727976144066339 0.29420992865078088 0 0.25235506011160957 0.2811552669666848 0 0.26539512125012632 0.28107576489019342 0 0.24262230146305139 0.28941481494666821 0 0.25727976144066339 0.29420992865078088 0 0.25235506011160957 0.2811552669666848 0 0.27494438872168098 0.30214547526281582 0 0.25727976144066339 0.29420992865078088 0 0.25511415382937591 0.30206080989126188 0 0.27494438872168098 0.30214547526281582 0 0.25511415382937591 0.30206080989126188 0 0.26174455316609968 0.30848639085060031 0 0.27494438872168098 0.30214547526281582 0 0.25511415382937591 0.30206080989126188 0 0.25194561914124791 0.31470249387852028 0 0.25511415382937591 0.30206080989126188 0 0.26174455316609968 0.30848639085060031 0 0.24664098988319569 0.26403384988780121 0 0.26073376849726559 0.27196774127610712 0 0.26633255678366302 0.25915529429061179 0 0.24664098988319569 0.26403384988780121 0 0.26633255678366302 0.25915529429061179 0 0.25099764385199508 0.24313445578590931 0 0.24664098988319569 0.26403384988780121 0 0.25235506011160957 0.2811552669666848 0 0.26073376849726559 0.27196774127610712 0 0.25235506011160957 0.2811552669666848 0 0.26539512125012632 0.28107576489019342 0 0.26073376849726559 0.27196774127610712 0 0.26073376849726559 0.27196774127610712 0 0.27733141225683727 0.27160217477554238 0 0.26633255678366302 0.25915529429061179 0 0.26539512125012632 0.28107576489019342 0 0.26073376849726559 0.27196774127610712 0 0.27733141225683727 0.27160217477554238 0 0.27927560394425571 0.28644371278185182 0 0.26539512125012632 0.28107576489019342 0 0.27733141225683727 0.27160217477554238 0 0.28785432422017743 0.26095701364374402 0 0.27443720199250721 0.24323653037456719 0 0.27733141225683727 0.27160217477554238 0 0.26633255678366302 0.25915529429061179 0 0.28785432422017743 0.26095701364374402 0 0.26633255678366302 0.25915529429061179 0 0.28785432422017743 0.26095701364374402 0 0.27443720199250721 0.24323653037456719 0 0.28785432422017743 0.26095701364374402 0 0.27443720199250721 0.24323653037456719 0 0.29686236257483722 0.2474805952846385 0 0.28785432422017743 0.26095701364374402 0 0.30127144644784742 0.27867749691292121 0 0.27927560394425571 0.28644371278185182 0 0.27733141225683727 0.27160217477554238 0 0.30127144644784742 0.27867749691292121 0 0.27733141225683727 0.27160217477554238 0 0.28785432422017743 0.26095701364374402 0 0.30127144644784742 0.27867749691292121 0 0.30127144644784742 0.27867749691292121 0 0.30869772514353311 0.2593080827544838 0 0.32381321818493319 0.27071852624154491 0 0.28785432422017743 0.26095701364374402 0 0.30127144644784742 0.27867749691292121 0 0.30869772514353311 0.2593080827544838 0 0.28785432422017743 0.26095701364374402 0 0.30869772514353311 0.2593080827544838 0 0.29686236257483722 0.2474805952846385 0 0.30869772514353311 0.2593080827544838 0 0.32911855669721352 0.25489471412132347 0 0.32381321818493319 0.27071852624154491 0 0.30869772514353311 0.2593080827544838 0 0.32911855669721352 0.25489471412132347 0 0.31619694167337459 0.24192394235601081 0 0.32911855669721352 0.25489471412132347 0 0.32381321818493319 0.27071852624154491 0 0.3463549899220188 0.26275955557016772 0 0.32911855669721352 0.25489471412132347 0 0.3463549899220188 0.26275955557016772 0 0.34886237431619538 0.24448060393976689 0 0.32989526155592669 0.27875130301507861 0 0.32381321818493319 0.27071852624154491 0 0.3463549899220188 0.26275955557016772 0 0.32989526155592669 0.27875130301507861 0 0.3463549899220188 0.26275955557016772 0 0.34992778830742233 0.28079347609499589 0 0.32989526155592669 0.27875130301507861 0 0.3463549899220188 0.26275955557016772 0 0.32381321818493319 0.27071852624154491 0 0.3463549899220188 0.26275955557016772 0 0.32989526155592669 0.27875130301507861 0 0.32381321818493319 0.27071852624154491 0 0.31713089795023652 0.28173388432166829 0 0.30127144644784742 0.27867749691292121 0 0.32381321818493319 0.27071852624154491 0 0.31713089795023652 0.28173388432166829 0 0.30127144644784742 0.27867749691292121 0 0.32381321818493319 0.27071852624154491 0 0.32989526155592669 0.27875130301507861 0 0.32144650154326071 0.30064104376443312 0 0.33042820689451902 0.30495160166320112 0 0.32989526155592669 0.27875130301507861 0 0.31713089795023652 0.28173388432166829 0 0.31343553318983508 0.29474305045998977 0 0.32989526155592669 0.27875130301507861 0 0.31474602796965417 0.29647386877006182 0 0.32144650154326071 0.30064104376443312 0 0.32989526155592669 0.27875130301507861 0 0.31343553318983508 0.29474305045998977 0 0.31474602796965417 0.29647386877006182 0 0.32989526155592669 0.27875130301507861 0 0.31343553318983508 0.29474305045998977 0 0.31343553318983508 0.29474305045998977 0 0.31474602796965417 0.29647386877006182 0 0.31770631280062489 0.31027973311964829 0 0.31388338333907961 0.30347416436189778 0 0.32144650154326071 0.30064104376443312 0 0.30791483502163108 0.30776406766835113 0 0.31770631280062489 0.31027973311964829 0 0.31388338333907961 0.30347416436189778 0 0.31474602796965417 0.29647386877006182 0 0.31388338333907961 0.30347416436189778 0 0.32144650154326071 0.30064104376443312 0 0.31770631280062489 0.31027973311964829 0 0.32144650154326071 0.30064104376443312 0 0.33042820689451902 0.30495160166320112 0 0.34659409883712522 0.31989015275902222 0 0.33042820689451902 0.30495160166320112 0 0.34432071344389997 0.29830458115579761 0 0.32989526155592669 0.27875130301507861 0 0.33042820689451902 0.30495160166320112 0 0.34432071344389997 0.29830458115579761 0 0.32989526155592669 0.27875130301507861 0 0.34432071344389997 0.29830458115579761 0 0.34992778830742233 0.28079347609499589 0 0.35803176669322923 0.29405540906685268 0 0.34432071344389997 0.29830458115579761 0 0.34992778830742233 0.28079347609499589 0 0.35803176669322923 0.29405540906685268 0 0.3633844818428198 0.28154546631920191 0 0.34992778830742233 0.28079347609499589 0 0.34432071344389997 0.29830458115579761 0 0.36308485050021538 0.30927480907403843 0 0.35803176669322923 0.29405540906685268 0 0.34432071344389997 0.29830458115579761 0 0.36308485050021538 0.30927480907403843 0 0.34659409883712522 0.31989015275902222 0 0.34432071344389997 0.29830458115579761 0 0.36308485050021538 0.30927480907403843 0 0.35803176669322923 0.29405540906685268 0 0.36308485050021538 0.30927480907403843 0 0.36977095643538288 0.29995470389244222 0 0.36308485050021538 0.30927480907403843 0 0.36977095643538288 0.29995470389244222 0 0.37656607900536809 0.30874367214310311 0 0.35803176669322923 0.29405540906685268 0 0.3633844818428198 0.28154546631920191 0 0.36890759514865762 0.29021585027969238 0 0.35803176669322923 0.29405540906685268 0 0.36977095643538288 0.29995470389244222 0 0.36890759514865762 0.29021585027969238 0 0.36977095643538288 0.29995470389244222 0 0.36890759514865762 0.29021585027969238 0 0.37657470784798819 0.29400651271503492 0 0.36890759514865762 0.29021585027969238 0 0.37593575542882862 0.28661449164666147 0 0.37657470784798819 0.29400651271503492 0 0.36890759514865762 0.29021585027969238 0 0.37094778167377612 0.28322617138873718 0 0.37593575542882862 0.28661449164666147 0 0.3633844818428198 0.28154546631920191 0 0.36890759514865762 0.29021585027969238 0 0.37094778167377612 0.28322617138873718 0 0.37094778167377612 0.28322617138873718 0 0.37613106976406008 0.28079578350991102 0 0.37593575542882862 0.28661449164666147 0 0.3633844818428198 0.28154546631920191 0 0.37094778167377612 0.28322617138873718 0 0.37185276758731722 0.276352538420779 0 0.37094778167377612 0.28322617138873718 0 0.37185276758731722 0.276352538420779 0 0.37613106976406008 0.28079578350991102 0 0.3633844818428198 0.28154546631920191 0 0.37185276758731722 0.276352538420779 0 0.36595744717649431 0.26906016926339921 0 0.3633844818428198 0.28154546631920191 0 0.36595744717649431 0.26906016926339921 0 0.35815069671963251 0.26915330654446068 0 0.37389508246648351 0.2700173891353651 0 0.37034286786374632 0.26355243936435341 0 0.3805222411416912 0.26806373397379468 0 0.37185276758731722 0.276352538420779 0 0.36595744717649431 0.26906016926339921 0 0.37389508246648351 0.2700173891353651 0 0.36595744717649431 0.26906016926339921 0 0.37389508246648351 0.2700173891353651 0 0.37034286786374632 0.26355243936435341 0 0.37499946885479513 0.25941504506444829 0 0.37034286786374632 0.26355243936435341 0 0.36689291458651291 0.25550809628106669 0 0.36595744717649431 0.26906016926339921 0 0.37034286786374632 0.26355243936435341 0 0.36689291458651291 0.25550809628106669 0 0.36689291458651291 0.25550809628106669 0 0.3463549899220188 0.26275955557016772 0 0.36720602747749242 0.24250135208496509 0 0.37499946885479513 0.25941504506444829 0 0.36689291458651291 0.25550809628106669 0 0.38203381227652339 0.25258147293087208 0 0.36595744717649431 0.26906016926339921 0 0.36689291458651291 0.25550809628106669 0 0.35815069671963251 0.26915330654446068 0 0.3463549899220188 0.26275955557016772 0 0.36720602747749242 0.24250135208496509 0 0.36689291458651291 0.25550809628106669 0 0.3463549899220188 0.26275955557016772 0 0.35815069671963251 0.26915330654446068 0 0.36689291458651291 0.25550809628106669 0 0.3463549899220188 0.26275955557016772 0 0.3463549899220188 0.26275955557016772 0 0.34992778830742233 0.28079347609499589 0 0.35815069671963251 0.26915330654446068 0 0.3633844818428198 0.28154546631920191 0 0.34992778830742233 0.28079347609499589 0 0.35815069671963251 0.26915330654446068 0 0.39352294834158957 0.26811584024932922 0 0.39436409226928731 0.27355918667898349 0 0.4014877482467471 0.26668212014171738 0 0.39352294834158957 0.26811584024932922 0 0.39436409226928731 0.27355918667898349 0 0.38805777958868243 0.27031248815875919 0 0.39436409226928731 0.27355918667898349 0 0.38775401800237841 0.27785884734067562 0 0.39409849427587351 0.2816719624436429 0 0.39436409226928731 0.27355918667898349 0 0.4011134640872332 0.27647937295101571 0 0.39409849427587351 0.2816719624436429 0 0.4011134640872332 0.27647937295101571 0 0.39409849427587351 0.2816719624436429 0 0.40158372554162097 0.28475974448073382 0 0.4011134640872332 0.27647937295101571 0 0.40158372554162097 0.28475974448073382 0 0.40959366261362667 0.2759701373669558 0 0.39436409226928731 0.27355918667898349 0 0.4011134640872332 0.27647937295101571 0 0.4014877482467471 0.26668212014171738 0 0.4011134640872332 0.27647937295101571 0 0.4014877482467471 0.26668212014171738 0 0.40959366261362667 0.2759701373669558 0 0.39018217326164151 0.26190956601785681 0 0.41002147865953648 0.2602666926713606 0 0.4014877482467471 0.26668212014171738 0 0.39018217326164151 0.26190956601785681 0 0.41002147865953648 0.2602666926713606 0 0.39018217326164151 0.26190956601785681 0 0.38710158673244799 0.25397304876845839 0 0.41002147865953648 0.2602666926713606 0 0.40028832984864138 0.2531567014991386 0 0.38710158673244799 0.25397304876845839 0 0.40805876316201861 0.24454917125733991 0 0.40028832984864138 0.2531567014991386 0 0.38710158673244799 0.25397304876845839 0 0.41002147865953648 0.2602666926713606 0 0.38710158673244799 0.25397304876845839 0 0.41002147865953648 0.2602666926713606 0 0.40028832984864138 0.2531567014991386 0 0.4063717063049434 0.25145482945124908 0 0.41002147865953648 0.2602666926713606 0 0.39352294834158957 0.26811584024932922 0 0.4014877482467471 0.26668212014171738 0 0.39018217326164151 0.26190956601785681 0 0.37034286786374632 0.26355243936435341 0 0.39018217326164151 0.26190956601785681 0 0.37034286786374632 0.26355243936435341 0 0.39018217326164151 0.26190956601785681 0 0.3805222411416912 0.26806373397379468 0 0.37499946885479513 0.25941504506444829 0 0.39018217326164151 0.26190956601785681 0 0.38710158673244799 0.25397304876845839 0 0.36689291458651291 0.25550809628106669 0 0.38743083925100702 0.24825663699196601 0 0.36689291458651291 0.25550809628106669 0 0.38203381227652339 0.25258147293087208 0 0.38743083925100702 0.24825663699196601 0 0.37499946885479513 0.25941504506444829 0 0.37034286786374632 0.26355243936435341 0 0.39018217326164151 0.26190956601785681 0 0.38710158673244799 0.25397304876845839 0 0.38203381227652339 0.25258147293087208 0 0.38825911952508718 0.2496888568010899 0 0.38710158673244799 0.25397304876845839 0 0.38203381227652339 0.25258147293087208 0 0.38203381227652339 0.25258147293087208 0 0.38743083925100702 0.24825663699196601 0 0.38825911952508718 0.2496888568010899 0 0.37499946885479513 0.25941504506444829 0 0.38710158673244799 0.25397304876845839 0 0.38203381227652339 0.25258147293087208 0 0.37499946885479513 0.25941504506444829 0 0.38710158673244799 0.25397304876845839 0 0.37389508246648351 0.2700173891353651 0 0.3805222411416912 0.26806373397379468 0 0.38013330252790251 0.27452678719263962 0 0.3805222411416912 0.26806373397379468 0 0.38805777958868243 0.27031248815875919 0 0.38013330252790251 0.27452678719263962 0 0.39352294834158957 0.26811584024932922 0 0.39018217326164151 0.26190956601785681 0 0.38805777958868243 0.27031248815875919 0 0.39018217326164151 0.26190956601785681 0 0.3805222411416912 0.26806373397379468 0 0.38805777958868243 0.27031248815875919 0 0.38805777958868243 0.27031248815875919 0 0.38775401800237841 0.27785884734067562 0 0.38013330252790251 0.27452678719263962 0 0.39436409226928731 0.27355918667898349 0 0.38805777958868243 0.27031248815875919 0 0.38775401800237841 0.27785884734067562 0 0.38775401800237841 0.27785884734067562 0 0.38013330252790251 0.27452678719263962 0 0.38189131454075692 0.28211546475886662 0 0.37185276758731722 0.276352538420779 0 0.38013330252790251 0.27452678719263962 0 0.37613106976406008 0.28079578350991102 0 0.37185276758731722 0.276352538420779 0 0.37389508246648351 0.2700173891353651 0 0.38013330252790251 0.27452678719263962 0 0.38013330252790251 0.27452678719263962 0 0.37613106976406008 0.28079578350991102 0 0.38189131454075692 0.28211546475886662 0 0.37613106976406008 0.28079578350991102 0 0.38189131454075692 0.28211546475886662 0 0.37593575542882862 0.28661449164666147 0 0.38189131454075692 0.28211546475886662 0 0.381898444299134 0.28902380384400678 0 0.37593575542882862 0.28661449164666147 0 0.37657470784798819 0.29400651271503492 0 0.38548111370278321 0.29548520028765479 0 0.37898247376955169 0.30107255632978253 0 0.381898444299134 0.28902380384400678 0 0.37657470784798819 0.29400651271503492 0 0.38548111370278321 0.29548520028765479 0 0.381898444299134 0.28902380384400678 0 0.37593575542882862 0.28661449164666147 0 0.37657470784798819 0.29400651271503492 0 0.38548111370278321 0.29548520028765479 0 0.39219375908210102 0.30120984564087899 0 0.39366990350670727 0.29094662122067139 0 0.381898444299134 0.28902380384400678 0 0.38548111370278321 0.29548520028765479 0 0.38808130572254468 0.28608409291914522 0 0.38548111370278321 0.29548520028765479 0 0.38808130572254468 0.28608409291914522 0 0.39366990350670727 0.29094662122067139 0 0.38775401800237841 0.27785884734067562 0 0.38189131454075692 0.28211546475886662 0 0.38808130572254468 0.28608409291914522 0 0.38775401800237841 0.27785884734067562 0 0.38808130572254468 0.28608409291914522 0 0.39409849427587351 0.2816719624436429 0 0.38189131454075692 0.28211546475886662 0 0.381898444299134 0.28902380384400678 0 0.38808130572254468 0.28608409291914522 0 0.37656607900536809 0.30874367214310311 0 0.38511473399159701 0.30636272655262797 0 0.38206186109256102 0.31456911095655338 0 0.37656607900536809 0.30874367214310311 0 0.37898247376955169 0.30107255632978253 0 0.38511473399159701 0.30636272655262797 0 0.36977095643538288 0.29995470389244222 0 0.37656607900536809 0.30874367214310311 0 0.37898247376955169 0.30107255632978253 0 0.36977095643538288 0.29995470389244222 0 0.37657470784798819 0.29400651271503492 0 0.37898247376955169 0.30107255632978253 0 0.38548111370278321 0.29548520028765479 0 0.38511473399159701 0.30636272655262797 0 0.39219375908210102 0.30120984564087899 0 0.38548111370278321 0.29548520028765479 0 0.37898247376955169 0.30107255632978253 0 0.38511473399159701 0.30636272655262797 0 0.38511473399159701 0.30636272655262797 0 0.39283435857914889 0.30952892182526148 0 0.39219375908210102 0.30120984564087899 0 0.38511473399159701 0.30636272655262797 0 0.38759327503574181 0.31190925681896359 0 0.38206186109256102 0.31456911095655338 0 0.38511473399159701 0.30636272655262797 0 0.38759327503574181 0.31190925681896359 0 0.39283435857914889 0.30952892182526148 0 0.39283435857914889 0.30952892182526148 0 0.40089423838248872 0.30558450090424272 0 0.39881072065890649 0.31551060171562267 0 0.39283435857914889 0.30952892182526148 0 0.39219375908210102 0.30120984564087899 0 0.40089423838248872 0.30558450090424272 0 0.39219375908210102 0.30120984564087899 0 0.40089423838248872 0.30558450090424272 0 0.40184384380456228 0.29508495592348782 0 0.40089423838248872 0.30558450090424272 0 0.40184384380456228 0.29508495592348782 0 0.41229276252893821 0.29996668675960642 0 0.40089423838248872 0.30558450090424272 0 0.40945181260797442 0.31321096750837168 0 0.39881072065890649 0.31551060171562267 0 0.39409849427587351 0.2816719624436429 0 0.39366990350670727 0.29094662122067139 0 0.40158372554162097 0.28475974448073382 0 0.38808130572254468 0.28608409291914522 0 0.39409849427587351 0.2816719624436429 0 0.39366990350670727 0.29094662122067139 0 0.39219375908210102 0.30120984564087899 0 0.39366990350670727 0.29094662122067139 0 0.40184384380456228 0.29508495592348782 0 0.40184384380456228 0.29508495592348782 0 0.40158372554162097 0.28475974448073382 0 0.41078662985612557 0.28821681117850451 0 0.39366990350670727 0.29094662122067139 0 0.40184384380456228 0.29508495592348782 0 0.40158372554162097 0.28475974448073382 0 0.41078662985612557 0.28821681117850451 0 0.42048250760180961 0.28190045170406669 0 0.40959366261362667 0.2759701373669558 0 0.40158372554162097 0.28475974448073382 0 0.41078662985612557 0.28821681117850451 0 0.40959366261362667 0.2759701373669558 0 0.40184384380456228 0.29508495592348782 0 0.41078662985612557 0.28821681117850451 0 0.41229276252893821 0.29996668675960642 0 0.41940938545171552 0.29115974339294248 0 0.41229276252893821 0.29996668675960642 0 0.42516371066954561 0.29778148763403961 0 0.41078662985612557 0.28821681117850451 0 0.41940938545171552 0.29115974339294248 0 0.41229276252893821 0.29996668675960642 0 0.41078662985612557 0.28821681117850451 0 0.41940938545171552 0.29115974339294248 0 0.42048250760180961 0.28190045170406669 0 0.40089423838248872 0.30558450090424272 0 0.41229276252893821 0.29996668675960642 0 0.40945181260797442 0.31321096750837168 0 0.41229276252893821 0.29996668675960642 0 0.42240959752377277 0.31047077031402021 0 0.42516371066954561 0.29778148763403961 0 0.41229276252893821 0.29996668675960642 0 0.42240959752377277 0.31047077031402021 0 0.40945181260797442 0.31321096750837168 0 0.42240959752377277 0.31047077031402021 0 0.42516371066954561 0.29778148763403961 0 0.43763723285093897 0.30850928475196471 0 0.42516371066954561 0.29778148763403961 0 0.43752998696844542 0.29558853831412712 0 0.43763723285093897 0.30850928475196471 0 0.41940938545171552 0.29115974339294248 0 0.42048250760180961 0.28190045170406669 0 0.42832131660215839 0.28793327968849519 0 0.42048250760180961 0.28190045170406669 0 0.42832131660215839 0.28793327968849519 0 0.42983535958819902 0.27731642286274771 0 0.41940938545171552 0.29115974339294248 0 0.42516371066954561 0.29778148763403961 0 0.42832131660215839 0.28793327968849519 0 0.42516371066954561 0.29778148763403961 0 0.42832131660215839 0.28793327968849519 0 0.43752998696844542 0.29558853831412712 0 0.42832131660215839 0.28793327968849519 0 0.42983535958819902 0.27731642286274771 0 0.43829637567645519 0.28354199978699562 0 0.42832131660215839 0.28793327968849519 0 0.43752998696844542 0.29558853831412712 0 0.43829637567645519 0.28354199978699562 0 0.43588144364891651 0.27546644129807663 0 0.42983535958819902 0.27731642286274771 0 0.43829637567645519 0.28354199978699562 0 0.43588144364891651 0.27546644129807663 0 0.43281028560698992 0.26652434154490429 0 0.4425837537240217 0.27448300099765882 0 0.43588144364891651 0.27546644129807663 0 0.42983535958819902 0.27731642286274771 0 0.43281028560698992 0.26652434154490429 0 0.42983535958819902 0.27731642286274771 0 0.43281028560698992 0.26652434154490429 0 0.42051221116881038 0.27196905603986687 0 0.42048250760180961 0.28190045170406669 0 0.42983535958819902 0.27731642286274771 0 0.42051221116881038 0.27196905603986687 0 0.4014877482467471 0.26668212014171738 0 0.40959366261362667 0.2759701373669558 0 0.41002147865953648 0.2602666926713606 0 0.43281028560698992 0.26652434154490429 0 0.42051221116881038 0.27196905603986687 0 0.41002147865953648 0.2602666926713606 0 0.42051221116881038 0.27196905603986687 0 0.40959366261362667 0.2759701373669558 0 0.41002147865953648 0.2602666926713606 0 0.42048250760180961 0.28190045170406669 0 0.42051221116881038 0.27196905603986687 0 0.40959366261362667 0.2759701373669558 0 0.41002147865953648 0.2602666926713606 0 0.43150535227097658 0.25848763425031868 0 0.43281028560698992 0.26652434154490429 0 0.41002147865953648 0.2602666926713606 0 0.41099676279550601 0.25134095280765473 0 0.41002147865953648 0.2602666926713606 0 0.41932865494196331 0.24883874102536499 0 0.41099676279550601 0.25134095280765473 0 0.4063717063049434 0.25145482945124908 0 0.41002147865953648 0.2602666926713606 0 0.41002147865953648 0.2602666926713606 0 0.42560231519730157 0.25340816509022912 0 0.41932865494196331 0.24883874102536499 0 0.41002147865953648 0.2602666926713606 0 0.42560231519730157 0.25340816509022912 0 0.43150535227097658 0.25848763425031868 0 0.43281028560698992 0.26652434154490429 0 0.41002147865953648 0.2602666926713606 0 0.43150535227097658 0.25848763425031868 0 0.43281028560698992 0.26652434154490429 0 0.43150535227097658 0.25848763425031868 0 0.44779142952250739 0.26474497466581581 0 0.42560231519730157 0.25340816509022912 0 0.43813325040641182 0.25110539576759139 0 0.43023462224611481 0.24697649924138429 0 0.42560231519730157 0.25340816509022912 0 0.43150535227097658 0.25848763425031868 0 0.43813325040641182 0.25110539576759139 0 0.43150535227097658 0.25848763425031868 0 0.43813325040641182 0.25110539576759139 0 0.45298922588241691 0.25670857582927731 0 0.43150535227097658 0.25848763425031868 0 0.45298922588241691 0.25670857582927731 0 0.43150535227097658 0.25848763425031868 0 0.44779142952250739 0.26474497466581581 0 0.45298922588241691 0.25670857582927731 0 0.44779142952250739 0.26474497466581581 0 0.45298922588241691 0.25670857582927731 0 0.45535249488276891 0.26211498533438388 0 0.43813325040641182 0.25110539576759139 0 0.45298922588241691 0.25670857582927731 0 0.44968272882243682 0.2472523439071648 0 0.43281028560698992 0.26652434154490429 0 0.4425837537240217 0.27448300099765882 0 0.45559909255444331 0.27278199041844747 0 0.43281028560698992 0.26652434154490429 0 0.44779142952250739 0.26474497466581581 0 0.45559909255444331 0.27278199041844747 0 0.43281028560698992 0.26652434154490429 0 0.45559909255444331 0.27278199041844747 0 0.4425837537240217 0.27448300099765882 0 0.44843270590670309 0.28128019222931838 0 0.43829637567645519 0.28354199978699562 0 0.43588144364891651 0.27546644129807663 0 0.4425837537240217 0.27448300099765882 0 0.43829637567645519 0.28354199978699562 0 0.4425837537240217 0.27448300099765882 0 0.45559909255444331 0.27278199041844747 0 0.44843270590670309 0.28128019222931838 0 0.44779142952250739 0.26474497466581581 0 0.46498520201820898 0.27981997677882481 0 0.44779142952250739 0.26474497466581581 0 0.46012870687690732 0.26745980677309489 0 0.46498520201820898 0.27981997677882481 0 0.44779142952250739 0.26474497466581581 0 0.45559909255444331 0.27278199041844747 0 0.46498520201820898 0.27981997677882481 0 0.45868561710062072 0.27808352421068622 0 0.45559909255444331 0.27278199041844747 0 0.46498520201820898 0.27981997677882481 0 0.45868561710062072 0.27808352421068622 0 0.45559909255444331 0.27278199041844747 0 0.44843270590670309 0.28128019222931838 0 0.45868561710062072 0.27808352421068622 0 0.46185628212016472 0.27983696835915839 0 0.45978011537707042 0.28411966269876288 0 0.46012870687690732 0.26745980677309489 0 0.46675201566967311 0.27123303718991298 0 0.46872443671619418 0.26149473204168727 0 0.46012870687690732 0.26745980677309489 0 0.46675201566967311 0.27123303718991298 0 0.46498520201820898 0.27981997677882481 0 0.46675201566967311 0.27123303718991298 0 0.46498520201820898 0.27981997677882481 0 0.47099365637589419 0.27527676629061099 0 0.46498520201820898 0.27981997677882481 0 0.46185628212016472 0.27983696835915839 0 0.46297045645086049 0.28331422645790538 0 0.45868561710062072 0.27808352421068622 0 0.46498520201820898 0.27981997677882481 0 0.46185628212016472 0.27983696835915839 0 0.45298922588241691 0.25670857582927731 0 0.46050061724924413 0.259546584069348 0 0.46274340138698961 0.25127112480823849 0 0.45298922588241691 0.25670857582927731 0 0.46274340138698961 0.25127112480823849 0 0.44968272882243682 0.2472523439071648 0 0.44779142952250739 0.26474497466581581 0 0.46012870687690732 0.26745980677309489 0 0.45535249488276891 0.26211498533438388 0 0.46012870687690732 0.26745980677309489 0 0.45535249488276891 0.26211498533438388 0 0.46050061724924413 0.259546584069348 0 0.45298922588241691 0.25670857582927731 0 0.45535249488276891 0.26211498533438388 0 0.46050061724924413 0.259546584069348 0 0.46012870687690732 0.26745980677309489 0 0.46050061724924413 0.259546584069348 0 0.46872443671619418 0.26149473204168727 0 0.46050061724924413 0.259546584069348 0 0.46872443671619418 0.26149473204168727 0 0.46274340138698961 0.25127112480823849 0 0.46872443671619418 0.26149473204168727 0 0.47931551584260401 0.26610804969208979 0 0.47615849545698918 0.24281085992579499 0 0.47931551584260401 0.26610804969208979 0 0.49120942515367838 0.26344189065657192 0 0.47615849545698918 0.24281085992579499 0 0.46872443671619418 0.26149473204168727 0 0.46274340138698961 0.25127112480823849 0 0.47615849545698918 0.24281085992579499 0 0.49120942515367838 0.26344189065657192 0 0.47615849545698918 0.24281085992579499 0 0.47237675158187059 0.27035702364420661 0 0.47594149191050861 0.27435784990487427 0 0.47931551584260401 0.26610804969208979 0 0.46872443671619418 0.26149473204168727 0 0.47237675158187059 0.27035702364420661 0 0.47931551584260401 0.26610804969208979 0 0.46675201566967311 0.27123303718991298 0 0.46872443671619418 0.26149473204168727 0 0.47237675158187059 0.27035702364420661 0 0.46675201566967311 0.27123303718991298 0 0.47237675158187059 0.27035702364420661 0 0.47099365637589419 0.27527676629061099 0 0.47237675158187059 0.27035702364420661 0 0.47099365637589419 0.27527676629061099 0 0.47594149191050861 0.27435784990487427 0 0.46498520201820898 0.27981997677882481 0 0.47099365637589419 0.27527676629061099 0 0.47428268421048569 0.28035212075986388 0 0.47099365637589419 0.27527676629061099 0 0.47594149191050861 0.27435784990487427 0 0.47428268421048569 0.28035212075986388 0 0.47428268421048569 0.28035212075986388 0 0.48189674722450138 0.27759194626011779 0 0.48245520019788929 0.28447424369284502 0 0.47594149191050861 0.27435784990487427 0 0.47428268421048569 0.28035212075986388 0 0.48189674722450138 0.27759194626011779 0 0.48189674722450138 0.27759194626011779 0 0.47931551584260401 0.26610804969208979 0 0.48843518155201893 0.27477695698851301 0 0.47594149191050861 0.27435784990487427 0 0.48189674722450138 0.27759194626011779 0 0.47931551584260401 0.26610804969208979 0 0.47931551584260401 0.26610804969208979 0 0.48843518155201893 0.27477695698851301 0 0.49120942515367838 0.26344189065657192 0 0.5 0.28064652793311118 0 0.5 0.25368661965148542 0 0.49120942515367838 0.26344189065657192 0 0.48843518155201893 0.27477695698851301 0 0.5 0.28064652793311118 0 0.49120942515367838 0.26344189065657192 0 0.48189674722450138 0.27759194626011779 0 0.48843518155201893 0.27477695698851301 0 0.48975421953931092 0.28609637040067459 0 0.48843518155201893 0.27477695698851301 0 0.5 0.28064652793311118 0 0.48975421953931092 0.28609637040067459 0 0.5 0.25368661965148542 0 0.49120942515367838 0.26344189065657192 0 0.47615849545698918 0.24281085992579499 0 0.50000000000000155 0.30760643621473682 0 0.48689558629809437 0.30673705665715212 0 0.48259714317417057 0.29331928236509591 0 0.50000000000000155 0.30760643621473682 0 0.48259714317417057 0.29331928236509591 0 0.5 0.28064652793311118 0 0.50000000000000155 0.30760643621473682 0 0.48975421953931092 0.28609637040067459 0 0.50000000000000155 0.30760643621473682 0 0.48975421953931092 0.28609637040067459 0 0.48259714317417057 0.29331928236509591 0 0.48975421953931092 0.28609637040067459 0 0.48259714317417057 0.29331928236509591 0 0.48245520019788929 0.28447424369284502 0 0.48189674722450138 0.27759194626011779 0 0.48975421953931092 0.28609637040067459 0 0.48245520019788929 0.28447424369284502 0 0.46498520201820898 0.27981997677882481 0 0.48259714317417057 0.29331928236509591 0 0.46498520201820898 0.27981997677882481 0 0.476656801345472 0.30194749494253348 0 0.46542451870735863 0.28984521049950979 0 0.46498520201820898 0.27981997677882481 0 0.48259714317417057 0.29331928236509591 0 0.476656801345472 0.30194749494253348 0 0.46498520201820898 0.27981997677882481 0 0.476656801345472 0.30194749494253348 0 0.46498520201820898 0.27981997677882481 0 0.47428268421048569 0.28035212075986388 0 0.48259714317417057 0.29331928236509591 0 0.47428268421048569 0.28035212075986388 0 0.48259714317417057 0.29331928236509591 0 0.48245520019788929 0.28447424369284502 0 0.48689558629809437 0.30673705665715212 0 0.476656801345472 0.30194749494253348 0 0.48832840067273497 0.3240750131062422 0 0.476656801345472 0.30194749494253348 0 0.46729650697379987 0.29891110874104909 0 0.46542451870735863 0.28984521049950979 0 0.476656801345472 0.30194749494253348 0 0.4651072012686448 0.30863148358557729 0 0.46729650697379987 0.29891110874104909 0 0.48689558629809437 0.30673705665715212 0 0.48259714317417057 0.29331928236509591 0 0.476656801345472 0.30194749494253348 0 0.476656801345472 0.30194749494253348 0 0.4651072012686448 0.30863148358557729 0 0.4743848792555464 0.3172484229555223 0 0.4651072012686448 0.30863148358557729 0 0.46729650697379987 0.29891110874104909 0 0.45635951824298998 0.29851173277959903 0 0.4651072012686448 0.30863148358557729 0 0.45635951824298998 0.29851173277959903 0 0.45213967739722571 0.31138101109000532 0 0.46498520201820898 0.27981997677882481 0 0.46297045645086049 0.28331422645790538 0 0.46542451870735863 0.28984521049950979 0 0.46185628212016472 0.27983696835915839 0 0.46297045645086049 0.28331422645790538 0 0.45978011537707042 0.28411966269876288 0 0.46297045645086049 0.28331422645790538 0 0.46542451870735863 0.28984521049950979 0 0.45978011537707042 0.28411966269876288 0 0.46095396215506379 0.29170776045063718 0 0.46542451870735863 0.28984521049950979 0 0.45978011537707042 0.28411966269876288 0 0.46729650697379987 0.29891110874104909 0 0.45635951824298998 0.29851173277959903 0 0.46095396215506379 0.29170776045063718 0 0.46729650697379987 0.29891110874104909 0 0.46095396215506379 0.29170776045063718 0 0.46542451870735863 0.28984521049950979 0 0.45635951824298998 0.29851173277959903 0 0.45587936628030978 0.29115191308199823 0 0.44728292695647942 0.29276728511037592 0 0.45635951824298998 0.29851173277959903 0 0.46095396215506379 0.29170776045063718 0 0.45587936628030978 0.29115191308199823 0 0.45868561710062072 0.27808352421068622 0 0.45322325150545573 0.28572831496727091 0 0.44843270590670309 0.28128019222931838 0 0.46095396215506379 0.29170776045063718 0 0.45587936628030978 0.29115191308199823 0 0.45978011537707042 0.28411966269876288 0 0.45587936628030978 0.29115191308199823 0 0.45322325150545573 0.28572831496727091 0 0.45978011537707042 0.28411966269876288 0 0.45868561710062072 0.27808352421068622 0 0.45322325150545573 0.28572831496727091 0 0.45978011537707042 0.28411966269876288 0 0.45322325150545573 0.28572831496727091 0 0.44843270590670309 0.28128019222931838 0 0.44728292695647942 0.29276728511037592 0 0.45587936628030978 0.29115191308199823 0 0.45322325150545573 0.28572831496727091 0 0.44728292695647942 0.29276728511037592 0 0.44728292695647942 0.29276728511037592 0 0.43752998696844542 0.29558853831412712 0 0.43829637567645519 0.28354199978699562 0 0.44728292695647942 0.29276728511037592 0 0.43752998696844542 0.29558853831412712 0 0.4461898684832159 0.3013515704092144 0 0.44843270590670309 0.28128019222931838 0 0.44728292695647942 0.29276728511037592 0 0.43829637567645519 0.28354199978699562 0 0.45213967739722571 0.31138101109000532 0 0.4461898684832159 0.3013515704092144 0 0.43763723285093897 0.30850928475196471 0 0.45635951824298998 0.29851173277959903 0 0.45213967739722571 0.31138101109000532 0 0.4461898684832159 0.3013515704092144 0 0.45635951824298998 0.29851173277959903 0 0.44728292695647942 0.29276728511037592 0 0.4461898684832159 0.3013515704092144 0 0.43752998696844542 0.29558853831412712 0 0.4461898684832159 0.3013515704092144 0 0.43763723285093897 0.30850928475196471 0 0.43763723285093897 0.30850928475196471 0 0.44794918712943321 0.32322962533144312 0 0.43315558753294497 0.32030153240077502 0 0.44794918712943321 0.32322962533144312 0 0.4397911498486784 0.33581250940990681 0 0.43315558753294497 0.32030153240077502 0 0.45213967739722571 0.31138101109000532 0 0.43763723285093897 0.30850928475196471 0 0.44794918712943321 0.32322962533144312 0 0.4397911498486784 0.33581250940990681 0 0.4547653995247421 0.33873392179840239 0 0.43970528554372762 0.35395384700726151 0 0.44794918712943321 0.32322962533144312 0 0.4397911498486784 0.33581250940990681 0 0.4547653995247421 0.33873392179840239 0 0.44794918712943321 0.32322962533144312 0 0.4547653995247421 0.33873392179840239 0 0.46436247941099112 0.32365172287732391 0 0.4547653995247421 0.33873392179840239 0 0.46436247941099112 0.32365172287732391 0 0.47161265677343561 0.33984498105801952 0 0.45213967739722571 0.31138101109000532 0 0.44794918712943321 0.32322962533144312 0 0.46436247941099112 0.32365172287732391 0 0.4651072012686448 0.30863148358557729 0 0.45213967739722571 0.31138101109000532 0 0.46436247941099112 0.32365172287732391 0 0.4651072012686448 0.30863148358557729 0 0.46436247941099112 0.32365172287732391 0 0.4743848792555464 0.3172484229555223 0 0.476656801345472 0.30194749494253348 0 0.48832840067273497 0.3240750131062422 0 0.476656801345472 0.30194749494253348 0 0.4743848792555464 0.3172484229555223 0 0.48832840067273497 0.3240750131062422 0 0.4743848792555464 0.3172484229555223 0 0.47746934364207227 0.32806290016437861 0 0.48832840067273497 0.3240750131062422 0 0.46436247941099112 0.32365172287732391 0 0.4743848792555464 0.3172484229555223 0 0.47746934364207227 0.32806290016437861 0 0.46436247941099112 0.32365172287732391 0 0.47746934364207227 0.32806290016437861 0 0.47161265677343561 0.33984498105801952 0 0.47746934364207227 0.32806290016437861 0 0.47161265677343561 0.33984498105801952 0 0.48383955751363522 0.33839164488496021 0 0.47746934364207227 0.32806290016437861 0 0.48383955751363522 0.33839164488496021 0 0.48832840067273497 0.3240750131062422 0 0.5 0.32690448374234371 0 0.48832840067273497 0.3240750131062422 0 0.49999999999999889 0.3462025312699506 0 0.48383955751363522 0.33839164488496021 0 0.48832840067273497 0.3240750131062422 0 0.49999999999999889 0.3462025312699506 0 0.48832840067273497 0.3240750131062422 0 0.49999999999999889 0.3462025312699506 0 0.50000000000000155 0.30760643621473682 0 0.5 0.32690448374234371 0 0.48832840067273497 0.3240750131062422 0 0.50000000000000155 0.30760643621473682 0 0.48689558629809437 0.30673705665715212 0 0.48832840067273497 0.3240750131062422 0 0.48383955751363522 0.33839164488496021 0 0.49999999999999889 0.3462025312699506 0 0.48178738647993302 0.35377279882620971 0 0.5 0.37021413535264652 0 0.49999999999999889 0.3462025312699506 0 0.48178738647993302 0.35377279882620971 0 0.47161265677343561 0.33984498105801952 0 0.48178738647993302 0.35377279882620971 0 0.46273680668757111 0.35549927441467638 0 0.47161265677343561 0.33984498105801952 0 0.48383955751363522 0.33839164488496021 0 0.48178738647993302 0.35377279882620971 0 0.5 0.37021413535264652 0 0.48178738647993302 0.35377279882620971 0 0.46988463751921178 0.3750276432341671 0 0.48178738647993302 0.35377279882620971 0 0.46273680668757111 0.35549927441467638 0 0.46988463751921178 0.3750276432341671 0 0.46273680668757111 0.35549927441467638 0 0.45055210419082292 0.36669524195375031 0 0.46988463751921178 0.3750276432341671 0 0.45055210419082292 0.36669524195375031 0 0.45038845493779511 0.38236347589553721 0 0.46988463751921178 0.3750276432341671 0 0.4547653995247421 0.33873392179840239 0 0.47161265677343561 0.33984498105801952 0 0.46273680668757111 0.35549927441467638 0 0.4547653995247421 0.33873392179840239 0 0.46273680668757111 0.35549927441467638 0 0.43970528554372762 0.35395384700726151 0 0.46273680668757111 0.35549927441467638 0 0.43970528554372762 0.35395384700726151 0 0.45055210419082292 0.36669524195375031 0 0.43970528554372762 0.35395384700726151 0 0.45055210419082292 0.36669524195375031 0 0.43366957844317677 0.37594532694537203 0 0.43970528554372762 0.35395384700726151 0 0.42219307913786502 0.3624827804838508 0 0.43366957844317677 0.37594532694537203 0 0.42219307913786502 0.3624827804838508 0 0.41444519823838971 0.37801297254149202 0 0.43366957844317677 0.37594532694537203 0 0.42219307913786502 0.3624827804838508 0 0.40210169051929812 0.36134203324839492 0 0.41444519823838971 0.37801297254149202 0 0.42104364294473301 0.34315972267673339 0 0.40144631525063201 0.3317023798345064 0 0.40210169051929812 0.36134203324839492 0 0.42219307913786502 0.3624827804838508 0 0.42104364294473301 0.34315972267673339 0 0.40210169051929812 0.36134203324839492 0 0.4397911498486784 0.33581250940990681 0 0.43970528554372762 0.35395384700726151 0 0.42104364294473301 0.34315972267673339 0 0.43970528554372762 0.35395384700726151 0 0.42219307913786502 0.3624827804838508 0 0.42104364294473301 0.34315972267673339 0 0.43315558753294497 0.32030153240077502 0 0.41675647895229462 0.32305466282936379 0 0.42104364294473301 0.34315972267673339 0 0.4397911498486784 0.33581250940990681 0 0.43315558753294497 0.32030153240077502 0 0.42104364294473301 0.34315972267673339 0 0.42240959752377277 0.31047077031402021 0 0.43315558753294497 0.32030153240077502 0 0.41675647895229462 0.32305466282936379 0 0.42240959752377277 0.31047077031402021 0 0.43763723285093897 0.30850928475196471 0 0.43315558753294497 0.32030153240077502 0 0.41675647895229462 0.32305466282936379 0 0.40945181260797442 0.31321096750837168 0 0.40144631525063201 0.3317023798345064 0 0.42240959752377277 0.31047077031402021 0 0.41675647895229462 0.32305466282936379 0 0.40945181260797442 0.31321096750837168 0 0.41675647895229462 0.32305466282936379 0 0.42104364294473301 0.34315972267673339 0 0.40144631525063201 0.3317023798345064 0 0.42104364294473301 0.34315972267673339 0 0.40144631525063201 0.3317023798345064 0 0.40144631525063201 0.3317023798345064 0 0.38184898755653113 0.32024503699227902 0 0.40945181260797442 0.31321096750837168 0 0.40144631525063201 0.3317023798345064 0 0.39881072065890649 0.31551060171562267 0 0.40144631525063201 0.3317023798345064 0 0.39072782788276361 0.31723780763872739 0 0.38184898755653113 0.32024503699227902 0 0.40144631525063201 0.3317023798345064 0 0.39881072065890649 0.31551060171562267 0 0.39072782788276361 0.31723780763872739 0 0.39283435857914889 0.30952892182526148 0 0.39881072065890649 0.31551060171562267 0 0.39072782788276361 0.31723780763872739 0 0.38759327503574181 0.31190925681896359 0 0.39072782788276361 0.31723780763872739 0 0.38206186109256102 0.31456911095655338 0 0.39072782788276361 0.31723780763872739 0 0.38184898755653113 0.32024503699227902 0 0.38206186109256102 0.31456911095655338 0 0.38759327503574181 0.31190925681896359 0 0.39283435857914889 0.30952892182526148 0 0.39072782788276361 0.31723780763872739 0 0.37656607900536809 0.30874367214310311 0 0.38184898755653113 0.32024503699227902 0 0.38206186109256102 0.31456911095655338 0 0.38184898755653113 0.32024503699227902 0 0.38206186109256102 0.31456911095655338 0 0.38184898755653113 0.32024503699227902 0 0.38073743119054021 0.34988287660164258 0 0.40144631525063201 0.3317023798345064 0 0.38184898755653113 0.32024503699227902 0 0.38073743119054021 0.34988287660164258 0 0.36658252680600872 0.32610018065837482 0 0.38184898755653113 0.32024503699227902 0 0.38073743119054021 0.34988287660164258 0 0.38073743119054021 0.34988287660164258 0 0.40210169051929812 0.36134203324839492 0 0.37962587482454851 0.37952071621100641 0 0.38073743119054021 0.34988287660164258 0 0.37962587482454851 0.37952071621100641 0 0.40144631525063201 0.3317023798345064 0 0.38073743119054021 0.34988287660164258 0 0.40210169051929812 0.36134203324839492 0 0.4000747642284721 0.4003396260953187 0 0.39654802114844379 0.39022934603201892 0 0.3918275744570191 0.40797408847764122 0 0.4000747642284721 0.4003396260953187 0 0.40676501574912299 0.41032383945577688 0 0.41013933279790699 0.39560403969897823 0 0.4000747642284721 0.4003396260953187 0 0.3918275744570191 0.40797408847764122 0 0.40676501574912299 0.41032383945577688 0 0.4000747642284721 0.4003396260953187 0 0.39654802114844379 0.39022934603201892 0 0.41013933279790699 0.39560403969897823 0 0.40210169051929812 0.36134203324839492 0 0.39654802114844379 0.39022934603201892 0 0.41444519823838971 0.37801297254149202 0 0.40210169051929812 0.36134203324839492 0 0.39654802114844379 0.39022934603201892 0 0.37962587482454851 0.37952071621100641 0 0.36835141586495018 0.39380003178311118 0 0.37962587482454851 0.37952071621100641 0 0.37851431845855671 0.40915855582036997 0 0.39654802114844379 0.39022934603201892 0 0.37851431845855671 0.40915855582036997 0 0.3918275744570191 0.40797408847764122 0 0.39654802114844379 0.39022934603201892 0 0.37962587482454851 0.37952071621100641 0 0.37851431845855671 0.40915855582036997 0 0.37962587482454851 0.37952071621100641 0 0.37851431845855671 0.40915855582036997 0 0.37851431845855671 0.40915855582036997 0 0.38692985631910748 0.41866997237696091 0 0.37638722081423792 0.42316938585626601 0 0.37851431845855671 0.40915855582036997 0 0.38692985631910748 0.41866997237696091 0 0.3918275744570191 0.40797408847764122 0 0.38904154405315811 0.42929685890192598 0 0.39583088212908668 0.44000432996290062 0 0.37847536945977639 0.43809187827637081 0 0.37638722081423792 0.42316938585626601 0 0.38904154405315811 0.42929685890192598 0 0.37847536945977639 0.43809187827637081 0 0.38692985631910748 0.41866997237696091 0 0.37638722081423792 0.42316938585626601 0 0.38904154405315811 0.42929685890192598 0 0.38904154405315811 0.42929685890192598 0 0.40015788579480882 0.42298148920578788 0 0.39583088212908668 0.44000432996290062 0 0.40015788579480882 0.42298148920578788 0 0.40970812131092449 0.43289973887146249 0 0.39583088212908668 0.44000432996290062 0 0.38692985631910748 0.41866997237696091 0 0.38904154405315811 0.42929685890192598 0 0.40015788579480882 0.42298148920578788 0 0.38692985631910748 0.41866997237696091 0 0.40015788579480882 0.42298148920578788 0 0.3918275744570191 0.40797408847764122 0 0.40015788579480882 0.42298148920578788 0 0.3918275744570191 0.40797408847764122 0 0.40676501574912299 0.41032383945577688 0 0.40015788579480882 0.42298148920578788 0 0.40676501574912299 0.41032383945577688 0 0.41930677916438369 0.42159825144780583 0 0.40676501574912299 0.41032383945577688 0 0.41930677916438369 0.42159825144780583 0 0.42002518112989901 0.40479562829132593 0 0.41930677916438369 0.42159825144780583 0 0.40970812131092449 0.43289973887146249 0 0.42804053322212032 0.43885402660538553 0 0.40015788579480882 0.42298148920578788 0 0.41930677916438369 0.42159825144780583 0 0.40970812131092449 0.43289973887146249 0 0.43633644548164108 0.42657026010151061 0 0.44771721854242658 0.43422027791250511 0 0.42804053322212032 0.43885402660538553 0 0.41930677916438369 0.42159825144780583 0 0.43633644548164108 0.42657026010151061 0 0.42804053322212032 0.43885402660538553 0 0.41930677916438369 0.42159825144780583 0 0.43742536989173458 0.41122427700009151 0 0.42002518112989901 0.40479562829132593 0 0.41930677916438369 0.42159825144780583 0 0.43633644548164108 0.42657026010151061 0 0.43742536989173458 0.41122427700009151 0 0.43677538472084249 0.39426730550239142 0 0.42002518112989901 0.40479562829132593 0 0.42297781629311459 0.38992282577793669 0 0.43742536989173458 0.41122427700009151 0 0.43677538472084249 0.39426730550239142 0 0.42002518112989901 0.40479562829132593 0 0.42002518112989901 0.40479562829132593 0 0.41013933279790699 0.39560403969897823 0 0.42297781629311459 0.38992282577793669 0 0.40676501574912299 0.41032383945577688 0 0.42002518112989901 0.40479562829132593 0 0.41013933279790699 0.39560403969897823 0 0.39654802114844379 0.39022934603201892 0 0.41013933279790699 0.39560403969897823 0 0.41444519823838971 0.37801297254149202 0 0.41013933279790699 0.39560403969897823 0 0.41444519823838971 0.37801297254149202 0 0.42297781629311459 0.38992282577793669 0 0.43677538472084249 0.39426730550239142 0 0.43366957844317677 0.37594532694537203 0 0.42297781629311459 0.38992282577793669 0 0.41444519823838971 0.37801297254149202 0 0.43366957844317677 0.37594532694537203 0 0.42297781629311459 0.38992282577793669 0 0.45055210419082292 0.36669524195375031 0 0.43366957844317677 0.37594532694537203 0 0.45038845493779511 0.38236347589553721 0 0.43677538472084249 0.39426730550239142 0 0.43366957844317677 0.37594532694537203 0 0.45038845493779511 0.38236347589553721 0 0.43742536989173458 0.41122427700009151 0 0.43677538472084249 0.39426730550239142 0 0.45838088599099053 0.40067371736662899 0 0.43677538472084249 0.39426730550239142 0 0.45038845493779511 0.38236347589553721 0 0.45838088599099053 0.40067371736662899 0 0.45038845493779511 0.38236347589553721 0 0.45838088599099053 0.40067371736662899 0 0.46988463751921178 0.3750276432341671 0 0.45838088599099053 0.40067371736662899 0 0.46988463751921178 0.3750276432341671 0 0.48202727111062738 0.39106726308810352 0 0.5 0.37021413535264652 0 0.46988463751921178 0.3750276432341671 0 0.48202727111062738 0.39106726308810352 0 0.45838088599099053 0.40067371736662899 0 0.48202727111062738 0.39106726308810352 0 0.47919044299549463 0.40945553044233379 0 0.45838088599099053 0.40067371736662899 0 0.47919044299549463 0.40945553044233379 0 0.48202727111062738 0.39106726308810352 0 0.5 0.39422573943534239 0 0.47919044299549463 0.40945553044233379 0 0.5 0.37021413535264652 0 0.48202727111062738 0.39106726308810352 0 0.5 0.39422573943534239 0 0.49999999999999889 0.41823734351803832 0 0.47919044299549463 0.40945553044233379 0 0.4747131122581254 0.42624022433959452 0 0.5 0.39422573943534239 0 0.49999999999999889 0.41823734351803832 0 0.47919044299549463 0.40945553044233379 0 0.49999999999999889 0.41823734351803832 0 0.47919044299549463 0.40945553044233379 0 0.47919044299549463 0.40945553044233379 0 0.4747131122581254 0.42624022433959452 0 0.45372754286265082 0.41944049929088639 0 0.49999999999999889 0.41823734351803832 0 0.4747131122581254 0.42624022433959452 0 0.47602409232796111 0.44150119073165373 0 0.4747131122581254 0.42624022433959452 0 0.46301510404765789 0.43639888698834939 0 0.47602409232796111 0.44150119073165373 0 0.46301510404765789 0.43639888698834939 0 0.45372754286265082 0.41944049929088639 0 0.44771721854242658 0.43422027791250511 0 0.4747131122581254 0.42624022433959452 0 0.46301510404765789 0.43639888698834939 0 0.45372754286265082 0.41944049929088639 0 0.45838088599099053 0.40067371736662899 0 0.47919044299549463 0.40945553044233379 0 0.45372754286265082 0.41944049929088639 0 0.43633644548164108 0.42657026010151061 0 0.43742536989173458 0.41122427700009151 0 0.45372754286265082 0.41944049929088639 0 0.43742536989173458 0.41122427700009151 0 0.45838088599099053 0.40067371736662899 0 0.45372754286265082 0.41944049929088639 0 0.43633644548164108 0.42657026010151061 0 0.45372754286265082 0.41944049929088639 0 0.44771721854242658 0.43422027791250511 0 0.44771721854242658 0.43422027791250511 0 0.44338303665719853 0.44858736745960021 0 0.42804053322212032 0.43885402660538553 0 0.46301510404765789 0.43639888698834939 0 0.44771721854242658 0.43422027791250511 0 0.44338303665719853 0.44858736745960021 0 0.49999999999999889 0.41823734351803832 0 0.47895244381485019 0.46793427242341379 0 0.5 0.5 0 0.44338303665719853 0.44858736745960021 0 0.4496718875776507 0.46766977543523403 0 0.46207396962197511 0.45759925799223289 0 0.44338303665719853 0.44858736745960021 0 0.4496718875776507 0.46766977543523403 0 0.43371178172432129 0.4669612687278108 0 0.46207396962197511 0.45759925799223289 0 0.47895244381485019 0.46793427242341379 0 0.46113283519629211 0.47879962899611639 0 0.4496718875776507 0.46766977543523403 0 0.46207396962197511 0.45759925799223289 0 0.46113283519629211 0.47879962899611639 0 0.46207396962197511 0.45759925799223289 0 0.46113283519629211 0.47879962899611639 0 0.46301510404765789 0.43639888698834939 0 0.44338303665719853 0.44858736745960021 0 0.46207396962197511 0.45759925799223289 0 0.46301510404765789 0.43639888698834939 0 0.46207396962197511 0.45759925799223289 0 0.46301510404765789 0.43639888698834939 0 0.46207396962197511 0.45759925799223289 0 0.47602409232796111 0.44150119073165373 0 0.49999999999999889 0.41823734351803832 0 0.47602409232796111 0.44150119073165373 0 0.47895244381485019 0.46793427242341379 0 0.46207396962197511 0.45759925799223289 0 0.47602409232796111 0.44150119073165373 0 0.47895244381485019 0.46793427242341379 0 0.47895244381485019 0.46793427242341379 0 0.5 0.5 0 0.46019170077060922 0.49999999999999989 0 0.46019170077060922 0.49999999999999989 0 0.46113283519629211 0.47879962899611639 0 0.46019170077060922 0.49999999999999989 0 0.46113283519629211 0.47879962899611639 0 0.44363685497185912 0.48271925579662289 0 0.47895244381485019 0.46793427242341379 0 0.46019170077060922 0.49999999999999989 0 0.46113283519629211 0.47879962899611639 0 0.4496718875776507 0.46766977543523403 0 0.44363685497185912 0.48271925579662289 0 0.43371178172432129 0.4669612687278108 0 0.4496718875776507 0.46766977543523403 0 0.46113283519629211 0.47879962899611639 0 0.44363685497185912 0.48271925579662289 0 0.46019170077060922 0.49999999999999989 0 0.44363685497185912 0.48271925579662289 0 0.43464149655512407 0.5 0 0.43464149655512407 0.5 0 0.40909129233963909 0.5 0 0.42247142800715692 0.48288486162057659 0 0.44363685497185912 0.48271925579662289 0 0.43464149655512407 0.5 0 0.42247142800715692 0.48288486162057659 0 0.40909129233963909 0.5 0 0.42247142800715692 0.48288486162057659 0 0.39934237769435582 0.48242528899690279 0 0.42247142800715692 0.48288486162057659 0 0.41284596431242321 0.46513775100853788 0 0.39934237769435582 0.48242528899690279 0 0.44363685497185912 0.48271925579662289 0 0.42247142800715692 0.48288486162057659 0 0.43371178172432129 0.4669612687278108 0 0.42247142800715692 0.48288486162057659 0 0.43371178172432129 0.4669612687278108 0 0.41284596431242321 0.46513775100853788 0 0.43371178172432129 0.4669612687278108 0 0.4261774318390581 0.45322919626747971 0 0.41284596431242321 0.46513775100853788 0 0.44338303665719853 0.44858736745960021 0 0.43371178172432129 0.4669612687278108 0 0.4261774318390581 0.45322919626747971 0 0.44338303665719853 0.44858736745960021 0 0.4261774318390581 0.45322919626747971 0 0.42804053322212032 0.43885402660538553 0 0.4261774318390581 0.45322919626747971 0 0.42804053322212032 0.43885402660538553 0 0.41290584327922708 0.44660556753606401 0 0.40970812131092449 0.43289973887146249 0 0.42804053322212032 0.43885402660538553 0 0.41290584327922708 0.44660556753606401 0 0.41290584327922708 0.44660556753606401 0 0.41284596431242321 0.46513775100853788 0 0.39986125918655729 0.45466506155793768 0 0.4261774318390581 0.45322919626747971 0 0.41290584327922708 0.44660556753606401 0 0.41284596431242321 0.46513775100853788 0 0.39312702893271012 0.46682829715160662 0 0.39986125918655729 0.45466506155793768 0 0.38023811072368852 0.45528438267371318 0 0.41284596431242321 0.46513775100853788 0 0.39312702893271012 0.46682829715160662 0 0.39986125918655729 0.45466506155793768 0 0.41290584327922708 0.44660556753606401 0 0.39986125918655729 0.45466506155793768 0 0.39583088212908668 0.44000432996290062 0 0.40970812131092449 0.43289973887146249 0 0.41290584327922708 0.44660556753606401 0 0.39583088212908668 0.44000432996290062 0 0.39986125918655729 0.45466506155793768 0 0.39583088212908668 0.44000432996290062 0 0.38023811072368852 0.45528438267371318 0 0.39583088212908668 0.44000432996290062 0 0.37847536945977639 0.43809187827637081 0 0.38023811072368852 0.45528438267371318 0 0.37497746445005159 0.47970082420069599 0 0.39312702893271012 0.46682829715160662 0 0.38023811072368852 0.45528438267371318 0 0.37497746445005159 0.47970082420069599 0 0.39312702893271012 0.46682829715160662 0 0.39934237769435582 0.48242528899690279 0 0.37497746445005159 0.47970082420069599 0 0.38354108812415411 0.5 0 0.39934237769435582 0.48242528899690279 0 0.40909129233963909 0.5 0 0.38354108812415411 0.5 0 0.39934237769435582 0.48242528899690279 0 0.41284596431242321 0.46513775100853788 0 0.39312702893271012 0.46682829715160662 0 0.39934237769435582 0.48242528899690279 0 0.33179498512492328 0.065528686768267189 0 0.32787927193079952 0.096524897533876844 0 0.35462536571662912 0.086291324138580414 0 0.33179498512492328 0.065528686768267189 0 0.30515986321958433 0.067920512164222888 0 0.33179498512492328 0.065528686768267189 0 0.30671719674199371 0.087249915701973796 0 0.30515986321958433 0.067920512164222888 0 0.33179498512492328 0.065528686768267189 0 0.32787927193079952 0.096524897533876844 0 0.30671719674199371 0.087249915701973796 0 0.32787927193079952 0.096524897533876844 0 0.30671719674199371 0.087249915701973796 0 0.30871763680902331 0.1099616071387159 0 0.32787927193079952 0.096524897533876844 0 0.32776194051788382 0.1156708372280906 0 0.30871763680902331 0.1099616071387159 0 0.32776194051788382 0.1156708372280906 0 0.30871763680902331 0.1099616071387159 0 0.31936076079223302 0.12982502937519891 0 0.32776194051788382 0.1156708372280906 0 0.34600314883793132 0.1115776246470238 0 0.33834141819609043 0.1306514005167432 0 0.32787927193079952 0.096524897533876844 0 0.32776194051788382 0.1156708372280906 0 0.34600314883793132 0.1115776246470238 0 0.32787927193079952 0.096524897533876844 0 0.34600314883793132 0.1115776246470238 0 0.35462536571662912 0.086291324138580414 0 0.34600314883793132 0.1115776246470238 0 0.3684218295691099 0.1088980363629322 0 0.35462536571662912 0.086291324138580414 0 0.34600314883793132 0.1115776246470238 0 0.33834141819609043 0.1306514005167432 0 0.35926879239963178 0.1310453541691062 0 0.34600314883793132 0.1115776246470238 0 0.3684218295691099 0.1088980363629322 0 0.35926879239963178 0.1310453541691062 0 0.3684218295691099 0.1088980363629322 0 0.35926879239963178 0.1310453541691062 0 0.3684218295691099 0.1088980363629322 0 0.35926879239963178 0.1310453541691062 0 0.38040268001195021 0.1251160331139205 0 0.3684218295691099 0.1088980363629322 0 0.35462536571662912 0.086291324138580414 0 0.37757486673858798 0.086750718556758116 0 0.3684218295691099 0.1088980363629322 0 0.37757486673858798 0.086750718556758116 0 0.35462536571662912 0.086291324138580414 0 0.37218066484668322 0.071556363146405774 0 0.37757486673858798 0.086750718556758116 0 0.33179498512492328 0.065528686768267189 0 0.35843010703026201 0.063136861372311531 0 0.33179498512492328 0.065528686768267189 0 0.35462536571662912 0.086291324138580414 0 0.35843010703026201 0.063136861372311531 0 0.35462536571662912 0.086291324138580414 0 0.35843010703026201 0.063136861372311531 0 0.37218066484668322 0.071556363146405774 0 0.35843010703026201 0.063136861372311531 0 0.37218066484668322 0.071556363146405774 0 0.3850652289356008 0.060745035976355853 0 0.35843010703026201 0.063136861372311531 0 0.36674866338864692 0.046406419455025237 0 0.37522327912169939 0.054381046480790222 0 0.35843010703026201 0.063136861372311531 0 0.37522327912169939 0.054381046480790222 0 0.3850652289356008 0.060745035976355853 0 0.36674866338864692 0.046406419455025237 0 0.37522327912169939 0.054381046480790222 0 0.38290950858464862 0.047182100964964307 0 0.35843010703026201 0.063136861372311531 0 0.3850652289356008 0.060745035976355853 0 0.36662321767476691 0.03537186301540314 0 0.36674866338864692 0.046406419455025237 0 0.37734786905831008 0.037695570486944698 0 0.36662321767476691 0.03537186301540314 0 0.36849572231199829 0.022033052291418231 0 0.37734786905831008 0.037695570486944698 0 0.36662321767476691 0.03537186301540314 0 0.36674866338864692 0.046406419455025237 0 0.35390061594011218 0.035352409828224407 0 0.36674866338864692 0.046406419455025237 0 0.35390061594011218 0.035352409828224407 0 0.34639521856088079 0.050837388844107427 0 0.35390061594011218 0.035352409828224407 0 0.34639521856088079 0.050837388844107427 0 0.33108162234846922 0.043951030380322761 0 0.33179498512492328 0.065528686768267189 0 0.35843010703026201 0.063136861372311531 0 0.34639521856088079 0.050837388844107427 0 0.35843010703026201 0.063136861372311531 0 0.36674866338864692 0.046406419455025237 0 0.34639521856088079 0.050837388844107427 0 0.3654642924504018 0.0061638334601938349 0 0.36849572231199829 0.022033052291418231 0 0.38252354203690109 0.0067354487879814646 0 0.3654642924504018 0.0061638334601938349 0 0.38252354203690109 0.0067354487879814646 0 0.37245117985273513 -0.0043477990582807607 0 0.3654642924504018 0.0061638334601938349 0 0.36849572231199829 0.022033052291418231 0 0.3481515512902057 0.0094337117626711146 0 0.36662321767476691 0.03537186301540314 0 0.35390061594011218 0.035352409828224407 0 0.36849572231199829 0.022033052291418231 0 0.35390061594011218 0.035352409828224407 0 0.36849572231199829 0.022033052291418231 0 0.3481515512902057 0.0094337117626711146 0 0.36849572231199829 0.022033052291418231 0 0.3481515512902057 0.0094337117626711146 0 0.35390061594011218 0.035352409828224407 0 0.3481515512902057 0.0094337117626711146 0 0.33988516951015951 0.015710131957556699 0 0.35390061594011218 0.035352409828224407 0 0.3481515512902057 0.0094337117626711146 0 0.3654642924504018 0.0061638334601938349 0 0.3481515512902057 0.0094337117626711146 0 0.35674185338391229 -0.0051836605579625864 0 0.3481515512902057 0.0094337117626711146 0 0.34182094924321188 0.0055131091066776688 0 0.34276048597613251 -0.014871006071638619 0 0.3481515512902057 0.0094337117626711146 0 0.34182094924321188 0.0055131091066776688 0 0.34182094924321188 0.0055131091066776688 0 0.33127157248101202 0.01164439691832493 0 0.3300625678273989 -0.005156065376405658 0 0.34182094924321188 0.0055131091066776688 0 0.33127157248101202 0.01164439691832493 0 0.33988516951015951 0.015710131957556699 0 0.3481515512902057 0.0094337117626711146 0 0.34182094924321188 0.0055131091066776688 0 0.33988516951015951 0.015710131957556699 0 0.35390061594011218 0.035352409828224407 0 0.33988516951015951 0.015710131957556699 0 0.33247442093660118 0.026221605965691591 0 0.33127157248101202 0.01164439691832493 0 0.33988516951015951 0.015710131957556699 0 0.33247442093660118 0.026221605965691591 0 0.33127157248101202 0.01164439691832493 0 0.33247442093660118 0.026221605965691591 0 0.3213845664759189 0.017257093516383729 0 0.33247442093660118 0.026221605965691591 0 0.31499997486425979 0.03081220990774278 0 0.3213845664759189 0.017257093516383729 0 0.31499997486425979 0.03081220990774278 0 0.3213845664759189 0.017257093516383729 0 0.3074944344823875 0.011496651727256489 0 0.33127157248101202 0.01164439691832493 0 0.32068242961533377 0.0061106030629028869 0 0.3300625678273989 -0.005156065376405658 0 0.32068242961533377 0.0061106030629028869 0 0.3074944344823875 0.011496651727256489 0 0.31326154193058459 -0.0060169499919069582 0 0.33127157248101202 0.01164439691832493 0 0.3213845664759189 0.017257093516383729 0 0.32068242961533377 0.0061106030629028869 0 0.3213845664759189 0.017257093516383729 0 0.32068242961533377 0.0061106030629028869 0 0.3074944344823875 0.011496651727256489 0 0.33179498512492328 0.065528686768267189 0 0.34639521856088079 0.050837388844107427 0 0.33108162234846922 0.043951030380322761 0 0.35390061594011218 0.035352409828224407 0 0.33247442093660118 0.026221605965691591 0 0.33108162234846922 0.043951030380322761 0 0.33247442093660118 0.026221605965691591 0 0.31499997486425979 0.03081220990774278 0 0.33108162234846922 0.043951030380322761 0 0.31499997486425979 0.03081220990774278 0 0.33108162234846922 0.043951030380322761 0 0.30893261671879252 0.048355862331557239 0 0.33179498512492328 0.065528686768267189 0 0.30893261671879252 0.048355862331557239 0 0.30515986321958433 0.067920512164222888 0 0.33179498512492328 0.065528686768267189 0 0.33108162234846922 0.043951030380322761 0 0.30893261671879252 0.048355862331557239 0 0.30893261671879252 0.048355862331557239 0 0.29144951978005429 0.058743806230799181 0 0.30515986321958433 0.067920512164222888 0 0.31499997486425979 0.03081220990774278 0 0.30893261671879252 0.048355862331557239 0 0.30046949891330937 0.028023346167998609 0 0.30893261671879252 0.048355862331557239 0 0.28590750808183751 0.04009179297200615 0 0.30046949891330937 0.028023346167998609 0 0.30893261671879252 0.048355862331557239 0 0.28590750808183751 0.04009179297200615 0 0.29144951978005429 0.058743806230799181 0 0.28590750808183751 0.04009179297200615 0 0.29144951978005429 0.058743806230799181 0 0.27029975126315148 0.060964026276644809 0 0.3074944344823875 0.011496651727256489 0 0.30046949891330937 0.028023346167998609 0 0.28501296041926999 0.0093602139014304017 0 0.31499997486425979 0.03081220990774278 0 0.3074944344823875 0.011496651727256489 0 0.30046949891330937 0.028023346167998609 0 0.28590750808183751 0.04009179297200615 0 0.30046949891330937 0.028023346167998609 0 0.28501296041926999 0.0093602139014304017 0 0.3074944344823875 0.011496651727256489 0 0.28501296041926999 0.0093602139014304017 0 0.29760161202640079 -0.0085083226429117434 0 0.28501296041926999 0.0093602139014304017 0 0.25425597451158072 0.012088783861486979 0 0.27253607000717928 -0.0036294663830757521 0 0.28501296041926999 0.0093602139014304017 0 0.25425597451158072 0.012088783861486979 0 0.26290070026616108 0.034848373697861243 0 0.28590750808183751 0.04009179297200615 0 0.28501296041926999 0.0093602139014304017 0 0.26290070026616108 0.034848373697861243 0 0.23727068837385579 0.039648874162388492 0 0.25425597451158072 0.012088783861486979 0 0.26290070026616108 0.034848373697861243 0 0.25425597451158072 0.012088783861486979 0 0.2578183078052394 -0.0046775058104196422 0 0.27253607000717928 -0.0036294663830757521 0 0.28590750808183751 0.04009179297200615 0 0.27029975126315148 0.060964026276644809 0 0.26290070026616108 0.034848373697861243 0 0.23727068837385579 0.039648874162388492 0 0.26290070026616108 0.034848373697861243 0 0.25081120588605921 0.055896535270252852 0 0.27029975126315148 0.060964026276644809 0 0.26290070026616108 0.034848373697861243 0 0.25081120588605921 0.055896535270252852 0 0.27029975126315148 0.060964026276644809 0 0.25107041730997021 0.076146770429481356 0 0.26960048802055647 0.082213803640248773 0 0.27029975126315148 0.060964026276644809 0 0.25081120588605921 0.055896535270252852 0 0.25107041730997021 0.076146770429481356 0 0.25107041730997021 0.076146770429481356 0 0.26960048802055647 0.082213803640248773 0 0.2612497628965883 0.099776682379263543 0 0.26960048802055647 0.082213803640248773 0 0.28644679208110702 0.095776602945591108 0 0.2612497628965883 0.099776682379263543 0 0.26960048802055647 0.082213803640248773 0 0.28694785961690578 0.076386837409564839 0 0.28644679208110702 0.095776602945591108 0 0.27029975126315148 0.060964026276644809 0 0.26960048802055647 0.082213803640248773 0 0.28694785961690578 0.076386837409564839 0 0.29144951978005429 0.058743806230799181 0 0.28694785961690578 0.076386837409564839 0 0.30515986321958433 0.067920512164222888 0 0.29144951978005429 0.058743806230799181 0 0.27029975126315148 0.060964026276644809 0 0.28694785961690578 0.076386837409564839 0 0.28694785961690578 0.076386837409564839 0 0.30671719674199371 0.087249915701973796 0 0.28644679208110702 0.095776602945591108 0 0.28694785961690578 0.076386837409564839 0 0.30671719674199371 0.087249915701973796 0 0.30515986321958433 0.067920512164222888 0 0.30871763680902331 0.1099616071387159 0 0.30313585209747851 0.12785953469376149 0 0.31936076079223302 0.12982502937519891 0 0.30871763680902331 0.1099616071387159 0 0.28972164350166763 0.11682443249251891 0 0.30313585209747851 0.12785953469376149 0 0.30671719674199371 0.087249915701973796 0 0.30871763680902331 0.1099616071387159 0 0.28644679208110702 0.095776602945591108 0 0.30871763680902331 0.1099616071387159 0 0.28644679208110702 0.095776602945591108 0 0.28972164350166763 0.11682443249251891 0 0.28972164350166763 0.11682443249251891 0 0.26973980476021092 0.1242330656072252 0 0.2612497628965883 0.099776682379263543 0 0.28644679208110702 0.095776602945591108 0 0.28972164350166763 0.11682443249251891 0 0.2612497628965883 0.099776682379263543 0 0.2466991958758139 0.1232347989630867 0 0.2612497628965883 0.099776682379263543 0 0.2466991958758139 0.1232347989630867 0 0.26973980476021092 0.1242330656072252 0 0.2612497628965883 0.099776682379263543 0 0.2466991958758139 0.1232347989630867 0 0.26973980476021092 0.1242330656072252 0 0.26606106232729959 0.1455897390653936 0 0.24899860534032439 0.15212894843547389 0 0.2466991958758139 0.1232347989630867 0 0.26606106232729959 0.1455897390653936 0 0.26973980476021092 0.1242330656072252 0 0.26606106232729959 0.1455897390653936 0 0.28518704300235342 0.13573253504784541 0 0.26606106232729959 0.1455897390653936 0 0.28518704300235342 0.13573253504784541 0 0.28545257245678479 0.1550897172496786 0 0.26606106232729959 0.1455897390653936 0 0.27190767327014997 0.1591292292279502 0 0.28545257245678479 0.1550897172496786 0 0.24899860534032439 0.15212894843547389 0 0.26606106232729959 0.1455897390653936 0 0.25993023620439348 0.16768951731488221 0 0.2494776261920125 0.18849616454771709 0 0.25993023620439348 0.16768951731488221 0 0.27068225099268839 0.18404301706431039 0 0.25993023620439348 0.16768951731488221 0 0.27068225099268839 0.18404301706431039 0 0.27608699823381982 0.17102361571848421 0 0.27068225099268839 0.18404301706431039 0 0.27608699823381982 0.17102361571848421 0 0.28410519648003552 0.18306717186681221 0 0.27190767327014997 0.1591292292279502 0 0.27608699823381982 0.17102361571848421 0 0.28545257245678479 0.1550897172496786 0 0.25993023620439348 0.16768951731488221 0 0.27190767327014997 0.1591292292279502 0 0.27608699823381982 0.17102361571848421 0 0.26606106232729959 0.1455897390653936 0 0.25993023620439348 0.16768951731488221 0 0.27190767327014997 0.1591292292279502 0 0.28987788470996101 0.17176171823224851 0 0.29861163320713119 0.16316061314068589 0 0.28545257245678479 0.1550897172496786 0 0.27608699823381982 0.17102361571848421 0 0.28987788470996101 0.17176171823224851 0 0.28545257245678479 0.1550897172496786 0 0.29861163320713119 0.16316061314068589 0 0.29886891360038931 0.1538401698247292 0 0.28545257245678479 0.1550897172496786 0 0.27608699823381982 0.17102361571848421 0 0.28987788470996101 0.17176171823224851 0 0.28410519648003552 0.18306717186681221 0 0.28987788470996101 0.17176171823224851 0 0.29513194979236762 0.1856018691894229 0 0.30284623088475882 0.17476395406250539 0 0.28987788470996101 0.17176171823224851 0 0.28410519648003552 0.18306717186681221 0 0.29513194979236762 0.1856018691894229 0 0.29513194979236762 0.1856018691894229 0 0.30284623088475882 0.17476395406250539 0 0.30709309235905641 0.1869570340640502 0 0.30284623088475882 0.17476395406250539 0 0.31210373096038613 0.1784360676417554 0 0.3121162015775123 0.1703784892653567 0 0.30284623088475882 0.17476395406250539 0 0.31210373096038613 0.1784360676417554 0 0.30709309235905641 0.1869570340640502 0 0.29861163320713119 0.16316061314068589 0 0.30637062816642829 0.1658591404929555 0 0.30651563693567008 0.15806819308482351 0 0.29861163320713119 0.16316061314068589 0 0.30651563693567008 0.15806819308482351 0 0.29886891360038931 0.1538401698247292 0 0.28987788470996101 0.17176171823224851 0 0.30284623088475882 0.17476395406250539 0 0.29861163320713119 0.16316061314068589 0 0.30284623088475882 0.17476395406250539 0 0.29861163320713119 0.16316061314068589 0 0.30637062816642829 0.1658591404929555 0 0.30284623088475882 0.17476395406250539 0 0.30637062816642829 0.1658591404929555 0 0.3121162015775123 0.1703784892653567 0 0.30637062816642829 0.1658591404929555 0 0.3121162015775123 0.1703784892653567 0 0.31176343822706909 0.16292445291140581 0 0.30637062816642829 0.1658591404929555 0 0.31176343822706909 0.16292445291140581 0 0.30651563693567008 0.15806819308482351 0 0.31176343822706909 0.16292445291140581 0 0.30651563693567008 0.15806819308482351 0 0.31209569557027161 0.15797093572074411 0 0.30651563693567008 0.15806819308482351 0 0.31209569557027161 0.15797093572074411 0 0.31072952580640389 0.1539076321181426 0 0.30675340253168121 0.14808360446996299 0 0.31647091427306762 0.14701787532380389 0 0.31289091139011987 0.15036288577791829 0 0.30675340253168121 0.14808360446996299 0 0.30313585209747851 0.12785953469376149 0 0.31647091427306762 0.14701787532380389 0 0.30651563693567008 0.15806819308482351 0 0.31072952580640389 0.1539076321181426 0 0.30675340253168121 0.14808360446996299 0 0.31072952580640389 0.1539076321181426 0 0.30675340253168121 0.14808360446996299 0 0.31289091139011987 0.15036288577791829 0 0.31072952580640389 0.1539076321181426 0 0.31289091139011987 0.15036288577791829 0 0.31361008956645231 0.15236693682385 0 0.29886891360038931 0.1538401698247292 0 0.29701132287067888 0.1447987211784946 0 0.30675340253168121 0.14808360446996299 0 0.30651563693567008 0.15806819308482351 0 0.29886891360038931 0.1538401698247292 0 0.30675340253168121 0.14808360446996299 0 0.29701132287067888 0.1447987211784946 0 0.30675340253168121 0.14808360446996299 0 0.30313585209747851 0.12785953469376149 0 0.30313585209747851 0.12785953469376149 0 0.31647091427306762 0.14701787532380389 0 0.28972164350166763 0.11682443249251891 0 0.26973980476021092 0.1242330656072252 0 0.28518704300235342 0.13573253504784541 0 0.29701132287067888 0.1447987211784946 0 0.30313585209747851 0.12785953469376149 0 0.28518704300235342 0.13573253504784541 0 0.28972164350166763 0.11682443249251891 0 0.30313585209747851 0.12785953469376149 0 0.28518704300235342 0.13573253504784541 0 0.29701132287067888 0.1447987211784946 0 0.28518704300235342 0.13573253504784541 0 0.28545257245678479 0.1550897172496786 0 0.29886891360038931 0.1538401698247292 0 0.29701132287067888 0.1447987211784946 0 0.28545257245678479 0.1550897172496786 0 0.27443720199250721 0.24323653037456719 0 0.26102007976483688 0.22551604710539039 0 0.26633255678366302 0.25915529429061179 0 0.27443720199250721 0.24323653037456719 0 0.25099764385199508 0.24313445578590931 0 0.27443720199250721 0.24323653037456719 0 0.25099764385199508 0.24313445578590931 0 0.26102007976483688 0.22551604710539039 0 0.27443720199250721 0.24323653037456719 0 0.26102007976483688 0.22551604710539039 0 0.27872766505811841 0.22591295163731601 0 0.26102007976483688 0.22551604710539039 0 0.27872766505811841 0.22591295163731601 0 0.26909599605434381 0.21381519789739639 0 0.26909599605434381 0.21381519789739639 0 0.2684306071746318 0.19772189428192141 0 0.28391954767721128 0.21262707745315379 0 0.27872766505811841 0.22591295163731601 0 0.26909599605434381 0.21381519789739639 0 0.28391954767721128 0.21262707745315379 0 0.26102007976483688 0.22551604710539039 0 0.26909599605434381 0.21381519789739639 0 0.25172225287358252 0.20891730451015739 0 0.26909599605434381 0.21381519789739639 0 0.25172225287358252 0.20891730451015739 0 0.2684306071746318 0.19772189428192141 0 0.2494776261920125 0.18849616454771709 0 0.27068225099268839 0.18404301706431039 0 0.2684306071746318 0.19772189428192141 0 0.2494776261920125 0.18849616454771709 0 0.25172225287358252 0.20891730451015739 0 0.2684306071746318 0.19772189428192141 0 0.2684306071746318 0.19772189428192141 0 0.28606284167123741 0.19625973865604529 0 0.28391954767721128 0.21262707745315379 0 0.27068225099268839 0.18404301706431039 0 0.2684306071746318 0.19772189428192141 0 0.28606284167123741 0.19625973865604529 0 0.27068225099268839 0.18404301706431039 0 0.28410519648003552 0.18306717186681221 0 0.28606284167123741 0.19625973865604529 0 0.28410519648003552 0.18306717186681221 0 0.29513194979236762 0.1856018691894229 0 0.28606284167123741 0.19625973865604529 0 0.28606284167123741 0.19625973865604529 0 0.30081791093740778 0.19754788983856131 0 0.29930906452848199 0.21161419408738549 0 0.29513194979236762 0.1856018691894229 0 0.28606284167123741 0.19625973865604529 0 0.30081791093740778 0.19754788983856131 0 0.29513194979236762 0.1856018691894229 0 0.30709309235905641 0.1869570340640502 0 0.30081791093740778 0.19754788983856131 0 0.30709309235905641 0.1869570340640502 0 0.30081791093740778 0.19754788983856131 0 0.31639135524910339 0.2005268542432399 0 0.30081791093740778 0.19754788983856131 0 0.29930906452848199 0.21161419408738549 0 0.31639135524910339 0.2005268542432399 0 0.29930906452848199 0.21161419408738549 0 0.29782279525976529 0.22858821257667139 0 0.31295539079481272 0.2153445174164105 0 0.29930906452848199 0.21161419408738549 0 0.31295539079481272 0.2153445174164105 0 0.31639135524910339 0.2005268542432399 0 0.29930906452848199 0.21161419408738549 0 0.28391954767721128 0.21262707745315379 0 0.29782279525976529 0.22858821257667139 0 0.28606284167123741 0.19625973865604529 0 0.29930906452848199 0.21161419408738549 0 0.28391954767721128 0.21262707745315379 0 0.27872766505811841 0.22591295163731601 0 0.28391954767721128 0.21262707745315379 0 0.29782279525976529 0.22858821257667139 0 0.27443720199250721 0.24323653037456719 0 0.27872766505811841 0.22591295163731601 0 0.29782279525976529 0.22858821257667139 0 0.29782279525976529 0.22858821257667139 0 0.31838245093118261 0.22777789978470611 0 0.31295539079481272 0.2153445174164105 0 0.29782279525976529 0.22858821257667139 0 0.31619694167337459 0.24192394235601081 0 0.31838245093118261 0.22777789978470611 0 0.30869772514353311 0.2593080827544838 0 0.29686236257483722 0.2474805952846385 0 0.31619694167337459 0.24192394235601081 0 0.29782279525976529 0.22858821257667139 0 0.29686236257483722 0.2474805952846385 0 0.31619694167337459 0.24192394235601081 0 0.27443720199250721 0.24323653037456719 0 0.29782279525976529 0.22858821257667139 0 0.29686236257483722 0.2474805952846385 0 0.33404490678619919 0.24023796860917501 0 0.34398383381953512 0.22717191102872669 0 0.34886237431619538 0.24448060393976689 0 0.32911855669721352 0.25489471412132347 0 0.33404490678619919 0.24023796860917501 0 0.34886237431619538 0.24448060393976689 0 0.32911855669721352 0.25489471412132347 0 0.33404490678619919 0.24023796860917501 0 0.31619694167337459 0.24192394235601081 0 0.33404490678619919 0.24023796860917501 0 0.31619694167337459 0.24192394235601081 0 0.32830159539841119 0.23096171069145011 0 0.31619694167337459 0.24192394235601081 0 0.31838245093118261 0.22777789978470611 0 0.32830159539841119 0.23096171069145011 0 0.31838245093118261 0.22777789978470611 0 0.3288998437817644 0.21769683167863199 0 0.31295539079481272 0.2153445174164105 0 0.31838245093118261 0.22777789978470611 0 0.32830159539841119 0.23096171069145011 0 0.3288998437817644 0.21769683167863199 0 0.32830159539841119 0.23096171069145011 0 0.3288998437817644 0.21769683167863199 0 0.34398383381953512 0.22717191102872669 0 0.33404490678619919 0.24023796860917501 0 0.32830159539841119 0.23096171069145011 0 0.34398383381953512 0.22717191102872669 0 0.34249764588973602 0.2093693761166836 0 0.3288998437817644 0.21769683167863199 0 0.34398383381953512 0.22717191102872669 0 0.34249764588973602 0.2093693761166836 0 0.3288998437817644 0.21769683167863199 0 0.33188821182441491 0.20216642697192019 0 0.3288998437817644 0.21769683167863199 0 0.31295539079481272 0.2153445174164105 0 0.32253370041252383 0.2089336575775507 0 0.31295539079481272 0.2153445174164105 0 0.32253370041252383 0.2089336575775507 0 0.31639135524910339 0.2005268542432399 0 0.3288998437817644 0.21769683167863199 0 0.32253370041252383 0.2089336575775507 0 0.33188821182441491 0.20216642697192019 0 0.32253370041252383 0.2089336575775507 0 0.31639135524910339 0.2005268542432399 0 0.33188821182441491 0.20216642697192019 0 0.31639135524910339 0.2005268542432399 0 0.32681509260403913 0.1920219692402507 0 0.33188821182441491 0.20216642697192019 0 0.30709309235905641 0.1869570340640502 0 0.31639135524910339 0.2005268542432399 0 0.31881889761036569 0.1854219373277422 0 0.31639135524910339 0.2005268542432399 0 0.32681509260403913 0.1920219692402507 0 0.31881889761036569 0.1854219373277422 0 0.32681509260403913 0.1920219692402507 0 0.33502444193091119 0.18977492897867859 0 0.32831745427908171 0.18279300438700771 0 0.32681509260403913 0.1920219692402507 0 0.33502444193091119 0.18977492897867859 0 0.33188821182441491 0.20216642697192019 0 0.34249764588973602 0.2093693761166836 0 0.33188821182441491 0.20216642697192019 0 0.34091090633618432 0.1967175043519192 0 0.33502444193091119 0.18977492897867859 0 0.33188821182441491 0.20216642697192019 0 0.34091090633618432 0.1967175043519192 0 0.33502444193091119 0.18977492897867859 0 0.34091090633618432 0.1967175043519192 0 0.34118273693947071 0.1825210855824565 0 0.34091090633618432 0.1967175043519192 0 0.35353864827267212 0.2002726907117828 0 0.34118273693947071 0.1825210855824565 0 0.36389254841458141 0.20755543057207329 0 0.35212340299636841 0.1872048273621269 0 0.35353864827267212 0.2002726907117828 0 0.36389254841458141 0.20755543057207329 0 0.35212340299636841 0.1872048273621269 0 0.35353864827267212 0.2002726907117828 0 0.34118273693947071 0.1825210855824565 0 0.35353864827267212 0.2002726907117828 0 0.34118273693947071 0.1825210855824565 0 0.35212340299636841 0.1872048273621269 0 0.34249764588973602 0.2093693761166836 0 0.34091090633618432 0.1967175043519192 0 0.35353864827267212 0.2002726907117828 0 0.36322280575464377 0.19436429240703471 0 0.36389254841458141 0.20755543057207329 0 0.35212340299636841 0.1872048273621269 0 0.36322280575464377 0.19436429240703471 0 0.37197708108182242 0.19631020153447981 0 0.36804754566750858 0.1850702049493122 0 0.37197708108182242 0.19631020153447981 0 0.36804754566750858 0.1850702049493122 0 0.37529403419154378 0.18772634304468541 0 0.37197708108182242 0.19631020153447981 0 0.36389254841458141 0.20755543057207329 0 0.37889865730974348 0.2042801973367217 0 0.36322280575464377 0.19436429240703471 0 0.37197708108182242 0.19631020153447981 0 0.36389254841458141 0.20755543057207329 0 0.36389254841458141 0.20755543057207329 0 0.37566169383279441 0.2279060337820196 0 0.37590819707959822 0.2144039440121849 0 0.36389254841458141 0.20755543057207329 0 0.37566169383279441 0.2279060337820196 0 0.36389254841458141 0.20755543057207329 0 0.37590819707959822 0.2144039440121849 0 0.37889865730974348 0.2042801973367217 0 0.34249764588973602 0.2093693761166836 0 0.35359574370385738 0.21365108808783129 0 0.34398383381953512 0.22717191102872669 0 0.36389254841458141 0.20755543057207329 0 0.35359574370385738 0.21365108808783129 0 0.35906556948285823 0.22353884303650259 0 0.35353864827267212 0.2002726907117828 0 0.36389254841458141 0.20755543057207329 0 0.35359574370385738 0.21365108808783129 0 0.34249764588973602 0.2093693761166836 0 0.35353864827267212 0.2002726907117828 0 0.35359574370385738 0.21365108808783129 0 0.34398383381953512 0.22717191102872669 0 0.35906556948285823 0.22353884303650259 0 0.35720584778748499 0.2358138235884393 0 0.35359574370385738 0.21365108808783129 0 0.34398383381953512 0.22717191102872669 0 0.35906556948285823 0.22353884303650259 0 0.36389254841458141 0.20755543057207329 0 0.35906556948285823 0.22353884303650259 0 0.37566169383279441 0.2279060337820196 0 0.35906556948285823 0.22353884303650259 0 0.35720584778748499 0.2358138235884393 0 0.37566169383279441 0.2279060337820196 0 0.36720602747749242 0.24250135208496509 0 0.35720584778748499 0.2358138235884393 0 0.37566169383279441 0.2279060337820196 0 0.36720602747749242 0.24250135208496509 0 0.37651171172395248 0.24044944526756429 0 0.37566169383279441 0.2279060337820196 0 0.37467765881038639 0.24619981178543321 0 0.36720602747749242 0.24250135208496509 0 0.37651171172395248 0.24044944526756429 0 0.36689291458651291 0.25550809628106669 0 0.37467765881038639 0.24619981178543321 0 0.36720602747749242 0.24250135208496509 0 0.3463549899220188 0.26275955557016772 0 0.36720602747749242 0.24250135208496509 0 0.34886237431619538 0.24448060393976689 0 0.34398383381953512 0.22717191102872669 0 0.34886237431619538 0.24448060393976689 0 0.35720584778748499 0.2358138235884393 0 0.36720602747749242 0.24250135208496509 0 0.34886237431619538 0.24448060393976689 0 0.35720584778748499 0.2358138235884393 0 0.32974606878186241 0.15551729457715691 0 0.31647091427306762 0.14701787532380389 0 0.34572334863831078 0.15298562255011061 0 0.3405875503442698 0.1414820375070987 0 0.32687629883838581 0.14046270706700861 0 0.34572334863831078 0.15298562255011061 0 0.32974606878186241 0.15551729457715691 0 0.33505459291583217 0.15966199929104161 0 0.34572334863831078 0.15298562255011061 0 0.31647091427306762 0.14701787532380389 0 0.34572334863831078 0.15298562255011061 0 0.32687629883838581 0.14046270706700861 0 0.31647091427306762 0.14701787532380389 0 0.34572334863831078 0.15298562255011061 0 0.3405875503442698 0.1414820375070987 0 0.33834141819609043 0.1306514005167432 0 0.35140913570429239 0.1418284198945324 0 0.33834141819609043 0.1306514005167432 0 0.32687629883838581 0.14046270706700861 0 0.31936076079223302 0.12982502937519891 0 0.32776194051788382 0.1156708372280906 0 0.33834141819609043 0.1306514005167432 0 0.31936076079223302 0.12982502937519891 0 0.3405875503442698 0.1414820375070987 0 0.33834141819609043 0.1306514005167432 0 0.32687629883838581 0.14046270706700861 0 0.30313585209747851 0.12785953469376149 0 0.31936076079223302 0.12982502937519891 0 0.31647091427306762 0.14701787532380389 0 0.32687629883838581 0.14046270706700861 0 0.31936076079223302 0.12982502937519891 0 0.31647091427306762 0.14701787532380389 0 0.32974606878186241 0.15551729457715691 0 0.31647091427306762 0.14701787532380389 0 0.32882682560626919 0.1647694804531302 0 0.31647091427306762 0.14701787532380389 0 0.32882682560626919 0.1647694804531302 0 0.31647091427306762 0.14701787532380389 0 0.31576474273497518 0.14985035126902771 0 0.31859831326341431 0.15709600802269319 0 0.31576474273497518 0.14985035126902771 0 0.31505517833431013 0.1553468781303112 0 0.31859831326341431 0.15709600802269319 0 0.31647091427306762 0.14701787532380389 0 0.31576474273497518 0.14985035126902771 0 0.31289091139011987 0.15036288577791829 0 0.31576474273497518 0.14985035126902771 0 0.31289091139011987 0.15036288577791829 0 0.31361008956645231 0.15236693682385 0 0.31209569557027161 0.15797093572074411 0 0.31072952580640389 0.1539076321181426 0 0.31505517833431013 0.1553468781303112 0 0.31576474273497518 0.14985035126902771 0 0.31505517833431013 0.1553468781303112 0 0.31361008956645231 0.15236693682385 0 0.31072952580640389 0.1539076321181426 0 0.31505517833431013 0.1553468781303112 0 0.31361008956645231 0.15236693682385 0 0.31647091427306762 0.14701787532380389 0 0.31859831326341431 0.15709600802269319 0 0.32882682560626919 0.1647694804531302 0 0.31505517833431013 0.1553468781303112 0 0.31537120756423692 0.15986383778677421 0 0.31859831326341431 0.15709600802269319 0 0.31209569557027161 0.15797093572074411 0 0.31505517833431013 0.1553468781303112 0 0.31537120756423692 0.15986383778677421 0 0.31537120756423692 0.15986383778677421 0 0.31859831326341431 0.15709600802269319 0 0.31934341242611919 0.16598091414871649 0 0.31176343822706909 0.16292445291140581 0 0.31209569557027161 0.15797093572074411 0 0.31537120756423692 0.15986383778677421 0 0.31176343822706909 0.16292445291140581 0 0.31537120756423692 0.15986383778677421 0 0.31934341242611919 0.16598091414871649 0 0.3121162015775123 0.1703784892653567 0 0.31934341242611919 0.16598091414871649 0 0.31964423237023748 0.1746589234891226 0 0.3121162015775123 0.1703784892653567 0 0.31176343822706909 0.16292445291140581 0 0.31934341242611919 0.16598091414871649 0 0.31934341242611919 0.16598091414871649 0 0.32746293232423568 0.17414468161208671 0 0.32882682560626919 0.1647694804531302 0 0.31934341242611919 0.16598091414871649 0 0.31964423237023748 0.1746589234891226 0 0.32746293232423568 0.17414468161208671 0 0.31859831326341431 0.15709600802269319 0 0.31934341242611919 0.16598091414871649 0 0.32882682560626919 0.1647694804531302 0 0.31210373096038613 0.1784360676417554 0 0.30709309235905641 0.1869570340640502 0 0.31881889761036569 0.1854219373277422 0 0.31210373096038613 0.1784360676417554 0 0.31881889761036569 0.1854219373277422 0 0.31964423237023748 0.1746589234891226 0 0.31210373096038613 0.1784360676417554 0 0.3121162015775123 0.1703784892653567 0 0.31964423237023748 0.1746589234891226 0 0.31964423237023748 0.1746589234891226 0 0.32746293232423568 0.17414468161208671 0 0.32831745427908171 0.18279300438700771 0 0.32681509260403913 0.1920219692402507 0 0.31881889761036569 0.1854219373277422 0 0.32831745427908171 0.18279300438700771 0 0.31881889761036569 0.1854219373277422 0 0.31964423237023748 0.1746589234891226 0 0.32831745427908171 0.18279300438700771 0 0.32746293232423568 0.17414468161208671 0 0.34118273693947071 0.1825210855824565 0 0.32882682560626919 0.1647694804531302 0 0.34118273693947071 0.1825210855824565 0 0.32882682560626919 0.1647694804531302 0 0.32746293232423568 0.17414468161208671 0 0.32831745427908171 0.18279300438700771 0 0.34118273693947071 0.1825210855824565 0 0.33502444193091119 0.18977492897867859 0 0.32831745427908171 0.18279300438700771 0 0.34118273693947071 0.1825210855824565 0 0.34118273693947071 0.1825210855824565 0 0.32882682560626919 0.1647694804531302 0 0.34035425757815541 0.16685422415218051 0 0.33505459291583217 0.15966199929104161 0 0.32882682560626919 0.1647694804531302 0 0.34035425757815541 0.16685422415218051 0 0.32974606878186241 0.15551729457715691 0 0.33505459291583217 0.15966199929104161 0 0.32882682560626919 0.1647694804531302 0 0.33505459291583217 0.15966199929104161 0 0.34035425757815541 0.16685422415218051 0 0.34572334863831078 0.15298562255011061 0 0.35250575787515048 0.16940623343080391 0 0.35564509875190092 0.16043819800958939 0 0.34572334863831078 0.15298562255011061 0 0.34035425757815541 0.16685422415218051 0 0.35250575787515048 0.16940623343080391 0 0.34572334863831078 0.15298562255011061 0 0.35564509875190092 0.16043819800958939 0 0.374975783003554 0.15895336977641719 0 0.34572334863831078 0.15298562255011061 0 0.35250575787515048 0.16940623343080391 0 0.35564509875190092 0.16043819800958939 0 0.36107132056506308 0.1692092488678712 0 0.35250575787515048 0.16940623343080391 0 0.35212340299636841 0.1872048273621269 0 0.36011711872110441 0.17974527964294501 0 0.34035425757815541 0.16685422415218051 0 0.35250575787515048 0.16940623343080391 0 0.35212340299636841 0.1872048273621269 0 0.34118273693947071 0.1825210855824565 0 0.34035425757815541 0.16685422415218051 0 0.35212340299636841 0.1872048273621269 0 0.34035425757815541 0.16685422415218051 0 0.35212340299636841 0.1872048273621269 0 0.35250575787515048 0.16940623343080391 0 0.36011711872110441 0.17974527964294501 0 0.36107132056506308 0.1692092488678712 0 0.36322280575464377 0.19436429240703471 0 0.35212340299636841 0.1872048273621269 0 0.36011711872110441 0.17974527964294501 0 0.36322280575464377 0.19436429240703471 0 0.36011711872110441 0.17974527964294501 0 0.36804754566750858 0.1850702049493122 0 0.36011711872110441 0.17974527964294501 0 0.36791354215017552 0.175886167894624 0 0.36804754566750858 0.1850702049493122 0 0.36011711872110441 0.17974527964294501 0 0.36791354215017552 0.175886167894624 0 0.36107132056506308 0.1692092488678712 0 0.37390813841001957 0.1731272104850364 0 0.36791354215017552 0.175886167894624 0 0.36915014928040218 0.16790300847465531 0 0.37390813841001957 0.1731272104850364 0 0.36791354215017552 0.175886167894624 0 0.37486535111461827 0.18058254961959391 0 0.36791354215017552 0.175886167894624 0 0.37486535111461827 0.18058254961959391 0 0.36804754566750858 0.1850702049493122 0 0.37486535111461827 0.18058254961959391 0 0.36804754566750858 0.1850702049493122 0 0.37529403419154378 0.18772634304468541 0 0.35564509875190092 0.16043819800958939 0 0.36507645137992623 0.16248058682792799 0 0.374975783003554 0.15895336977641719 0 0.35564509875190092 0.16043819800958939 0 0.36507645137992623 0.16248058682792799 0 0.36107132056506308 0.1692092488678712 0 0.36507645137992623 0.16248058682792799 0 0.36107132056506308 0.1692092488678712 0 0.36915014928040218 0.16790300847465531 0 0.36791354215017552 0.175886167894624 0 0.36107132056506308 0.1692092488678712 0 0.36915014928040218 0.16790300847465531 0 0.37390813841001957 0.1731272104850364 0 0.36915014928040218 0.16790300847465531 0 0.37522228866324497 0.16521920190555969 0 0.36507645137992623 0.16248058682792799 0 0.36915014928040218 0.16790300847465531 0 0.37110616808178182 0.16363904174614 0 0.36915014928040218 0.16790300847465531 0 0.37110616808178182 0.16363904174614 0 0.37522228866324497 0.16521920190555969 0 0.37110616808178182 0.16363904174614 0 0.374975783003554 0.15895336977641719 0 0.37522228866324497 0.16521920190555969 0 0.36507645137992623 0.16248058682792799 0 0.37110616808178182 0.16363904174614 0 0.374975783003554 0.15895336977641719 0 0.374975783003554 0.15895336977641719 0 0.34572334863831078 0.15298562255011061 0 0.374975783003554 0.15895336977641719 0 0.37281441208475657 0.1488256075388924 0 0.36206270574735933 0.14803185033278621 0 0.374975783003554 0.15895336977641719 0 0.36206270574735933 0.14803185033278621 0 0.34572334863831078 0.15298562255011061 0 0.37281441208475657 0.1488256075388924 0 0.36206270574735933 0.14803185033278621 0 0.37387538596952352 0.14031521578252801 0 0.36206270574735933 0.14803185033278621 0 0.35140913570429239 0.1418284198945324 0 0.34572334863831078 0.15298562255011061 0 0.3405875503442698 0.1414820375070987 0 0.35140913570429239 0.1418284198945324 0 0.34572334863831078 0.15298562255011061 0 0.36206270574735933 0.14803185033278621 0 0.35140913570429239 0.1418284198945324 0 0.35926879239963178 0.1310453541691062 0 0.33834141819609043 0.1306514005167432 0 0.35140913570429239 0.1418284198945324 0 0.35926879239963178 0.1310453541691062 0 0.35926879239963178 0.1310453541691062 0 0.37387538596952352 0.14031521578252801 0 0.38040268001195021 0.1251160331139205 0 0.36206270574735933 0.14803185033278621 0 0.35926879239963178 0.1310453541691062 0 0.37387538596952352 0.14031521578252801 0 0.37387538596952352 0.14031521578252801 0 0.38040268001195021 0.1251160331139205 0 0.38709039337764822 0.1392017780304875 0 0.38040268001195021 0.1251160331139205 0 0.38709039337764822 0.1392017780304875 0 0.39601398960537432 0.129408072964493 0 0.38709039337764822 0.1392017780304875 0 0.39601398960537432 0.129408072964493 0 0.40006448229325758 0.14134306032912181 0 0.39601398960537432 0.129408072964493 0 0.40006448229325758 0.14134306032912181 0 0.41074987336253982 0.13122837004622651 0 0.39601398960537432 0.129408072964493 0 0.41074987336253982 0.13122837004622651 0 0.40408438037122918 0.1211878451396604 0 0.40242815090187029 0.15080119693130889 0 0.39184204876719381 0.1510262917290236 0 0.40422821736879722 0.1649211170027238 0 0.40242815090187029 0.15080119693130889 0 0.40006448229325758 0.14134306032912181 0 0.41130564603455022 0.1428822030409001 0 0.40242815090187029 0.15080119693130889 0 0.40006448229325758 0.14134306032912181 0 0.39184204876719381 0.1510262917290236 0 0.38709039337764822 0.1392017780304875 0 0.40006448229325758 0.14134306032912181 0 0.39184204876719381 0.1510262917290236 0 0.374975783003554 0.15895336977641719 0 0.39184204876719381 0.1510262917290236 0 0.38034377361858968 0.14800199426383831 0 0.38709039337764822 0.1392017780304875 0 0.39184204876719381 0.1510262917290236 0 0.38034377361858968 0.14800199426383831 0 0.37387538596952352 0.14031521578252801 0 0.38709039337764822 0.1392017780304875 0 0.38034377361858968 0.14800199426383831 0 0.37281441208475657 0.1488256075388924 0 0.37387538596952352 0.14031521578252801 0 0.38034377361858968 0.14800199426383831 0 0.374975783003554 0.15895336977641719 0 0.37281441208475657 0.1488256075388924 0 0.38034377361858968 0.14800199426383831 0 0.374975783003554 0.15895336977641719 0 0.37522228866324497 0.16521920190555969 0 0.38853807344717128 0.16735999291507089 0 0.37522228866324497 0.16521920190555969 0 0.38853807344717128 0.16735999291507089 0 0.39778477696709441 0.17994835067664761 0 0.374975783003554 0.15895336977641719 0 0.39184204876719381 0.1510262917290236 0 0.40422821736879722 0.1649211170027238 0 0.374975783003554 0.15895336977641719 0 0.40422821736879722 0.1649211170027238 0 0.374975783003554 0.15895336977641719 0 0.38853807344717128 0.16735999291507089 0 0.40422821736879722 0.1649211170027238 0 0.37390813841001957 0.1731272104850364 0 0.37522228866324497 0.16521920190555969 0 0.3813329315531423 0.17654846723240589 0 0.3826959147153205 0.1851369041114993 0 0.3813329315531423 0.17654846723240589 0 0.39778477696709441 0.17994835067664761 0 0.37522228866324497 0.16521920190555969 0 0.3813329315531423 0.17654846723240589 0 0.39778477696709441 0.17994835067664761 0 0.37522228866324497 0.16521920190555969 0 0.39778477696709441 0.17994835067664761 0 0.37486535111461827 0.18058254961959391 0 0.3826959147153205 0.1851369041114993 0 0.3813329315531423 0.17654846723240589 0 0.37486535111461827 0.18058254961959391 0 0.3826959147153205 0.1851369041114993 0 0.37529403419154378 0.18772634304468541 0 0.37390813841001957 0.1731272104850364 0 0.37486535111461827 0.18058254961959391 0 0.3813329315531423 0.17654846723240589 0 0.3826959147153205 0.1851369041114993 0 0.39778477696709441 0.17994835067664761 0 0.38795441814569259 0.19231246784505479 0 0.39778477696709441 0.17994835067664761 0 0.40422821736879722 0.1649211170027238 0 0.41418358905558811 0.17947370308762201 0 0.38853807344717128 0.16735999291507089 0 0.39778477696709441 0.17994835067664761 0 0.40422821736879722 0.1649211170027238 0 0.40242815090187029 0.15080119693130889 0 0.40422821736879722 0.1649211170027238 0 0.41075659096563027 0.15314279776828801 0 0.40422821736879722 0.1649211170027238 0 0.41505972532049962 0.16173256508244829 0 0.41075659096563027 0.15314279776828801 0 0.40422821736879722 0.1649211170027238 0 0.41592178723989898 0.16850454948661389 0 0.41418358905558811 0.17947370308762201 0 0.40422821736879722 0.1649211170027238 0 0.41592178723989898 0.16850454948661389 0 0.41505972532049962 0.16173256508244829 0 0.41592178723989898 0.16850454948661389 0 0.41931685088467519 0.1643115550870996 0 0.41505972532049962 0.16173256508244829 0 0.41592178723989898 0.16850454948661389 0 0.41931685088467519 0.1643115550870996 0 0.42498133191290433 0.16712238423355641 0 0.41592178723989898 0.16850454948661389 0 0.41418358905558811 0.17947370308762201 0 0.42498133191290433 0.16712238423355641 0 0.41931685088467519 0.1643115550870996 0 0.42057130711481938 0.15897849046915569 0 0.41505972532049962 0.16173256508244829 0 0.41931685088467519 0.1643115550870996 0 0.42057130711481938 0.15897849046915569 0 0.42498133191290433 0.16712238423355641 0 0.42057130711481938 0.15897849046915569 0 0.41505972532049962 0.16173256508244829 0 0.41782038421840623 0.15374586653373021 0 0.41418358905558811 0.17947370308762201 0 0.42498133191290433 0.16712238423355641 0 0.42034726527094501 0.1946774994477336 0 0.39778477696709441 0.17994835067664761 0 0.41418358905558811 0.17947370308762201 0 0.42034726527094501 0.1946774994477336 0 0.39778477696709441 0.17994835067664761 0 0.42034726527094501 0.1946774994477336 0 0.42888967479028678 0.17479688357581169 0 0.43100570636692148 0.1809177677334641 0 0.42034726527094501 0.1946774994477336 0 0.42888967479028678 0.17479688357581169 0 0.42498133191290433 0.16712238423355641 0 0.42034726527094501 0.1946774994477336 0 0.42498133191290433 0.16712238423355641 0 0.42034726527094501 0.1946774994477336 0 0.42888967479028678 0.17479688357581169 0 0.43100570636692148 0.1809177677334641 0 0.43976355205206807 0.1727286608720876 0 0.42057130711481938 0.15897849046915569 0 0.42498133191290433 0.16712238423355641 0 0.42220719377609589 0.15013316776017499 0 0.42888967479028678 0.17479688357581169 0 0.42498133191290433 0.16712238423355641 0 0.43171912272805801 0.16725335808442021 0 0.42738199739281763 0.16181066184046269 0 0.42498133191290433 0.16712238423355641 0 0.43171912272805801 0.16725335808442021 0 0.42738199739281763 0.16181066184046269 0 0.43171912272805801 0.16725335808442021 0 0.43813911667114691 0.1633639447848502 0 0.43171912272805801 0.16725335808442021 0 0.43813911667114691 0.1633639447848502 0 0.43976355205206807 0.1727286608720876 0 0.42888967479028678 0.17479688357581169 0 0.43171912272805801 0.16725335808442021 0 0.43976355205206807 0.1727286608720876 0 0.42738199739281763 0.16181066184046269 0 0.44155046526719322 0.1514816482118071 0 0.43813911667114691 0.1633639447848502 0 0.42738199739281763 0.16181066184046269 0 0.43779890304548419 0.14424627101430759 0 0.44155046526719322 0.1514816482118071 0 0.42738199739281763 0.16181066184046269 0 0.43283551401758358 0.1351146572481752 0 0.42738199739281763 0.16181066184046269 0 0.43283551401758358 0.1351146572481752 0 0.42961539855486269 0.1395672690193788 0 0.42738199739281763 0.16181066184046269 0 0.42498133191290433 0.16712238423355641 0 0.42961539855486269 0.1395672690193788 0 0.42738199739281763 0.16181066184046269 0 0.43283551401758358 0.1351146572481752 0 0.43779890304548419 0.14424627101430759 0 0.42498133191290433 0.16712238423355641 0 0.42220719377609589 0.15013316776017499 0 0.42961539855486269 0.1395672690193788 0 0.42498133191290433 0.16712238423355641 0 0.42961539855486269 0.1395672690193788 0 0.42220719377609589 0.15013316776017499 0 0.4248334350215186 0.14168492498928939 0 0.42050665267728571 0.14199714850859979 0 0.42220719377609589 0.15013316776017499 0 0.4248334350215186 0.14168492498928939 0 0.42961539855486269 0.1395672690193788 0 0.42961539855486269 0.1395672690193788 0 0.43424946519682123 0.1120121538052013 0 0.43283551401758358 0.1351146572481752 0 0.43979864371996141 0.13510529519752271 0 0.43779890304548419 0.14424627101430759 0 0.42501587302512539 0.1321478482608468 0 0.42961539855486269 0.1395672690193788 0 0.42883013797835862 0.1238833212465956 0 0.42961539855486269 0.1395672690193788 0 0.43424946519682123 0.1120121538052013 0 0.42883013797835862 0.1238833212465956 0 0.43283551401758358 0.1351146572481752 0 0.42961539855486269 0.1395672690193788 0 0.43424946519682123 0.1120121538052013 0 0.43283551401758358 0.1351146572481752 0 0.43931385365439579 0.1250328920743275 0 0.43979864371996141 0.13510529519752271 0 0.42501587302512539 0.1321478482608468 0 0.42206675942826571 0.12689177369750901 0 0.42883013797835862 0.1238833212465956 0 0.42501587302512539 0.1321478482608468 0 0.42206675942826571 0.12689177369750901 0 0.41964970470782198 0.13396958013369101 0 0.4248334350215186 0.14168492498928939 0 0.42961539855486269 0.1395672690193788 0 0.42399172808542568 0.13776284544312459 0 0.42501587302512539 0.1321478482608468 0 0.42961539855486269 0.1395672690193788 0 0.42399172808542568 0.13776284544312459 0 0.42501587302512539 0.1321478482608468 0 0.42399172808542568 0.13776284544312459 0 0.41964970470782198 0.13396958013369101 0 0.4248334350215186 0.14168492498928939 0 0.42399172808542568 0.13776284544312459 0 0.42050665267728571 0.14199714850859979 0 0.42399172808542568 0.13776284544312459 0 0.41964970470782198 0.13396958013369101 0 0.42050665267728571 0.14199714850859979 0 0.41964970470782198 0.13396958013369101 0 0.41130564603455022 0.1428822030409001 0 0.42050665267728571 0.14199714850859979 0 0.41964970470782198 0.13396958013369101 0 0.41691670812843151 0.12871536388956331 0 0.41074987336253982 0.13122837004622651 0 0.41691670812843151 0.12871536388956331 0 0.41074987336253982 0.13122837004622651 0 0.41520049501509843 0.1227717316808269 0 0.42206675942826571 0.12689177369750901 0 0.41691670812843151 0.12871536388956331 0 0.41520049501509843 0.1227717316808269 0 0.42206675942826571 0.12689177369750901 0 0.41964970470782198 0.13396958013369101 0 0.41691670812843151 0.12871536388956331 0 0.41074987336253982 0.13122837004622651 0 0.41520049501509843 0.1227717316808269 0 0.40408438037122918 0.1211878451396604 0 0.41964970470782198 0.13396958013369101 0 0.41074987336253982 0.13122837004622651 0 0.41130564603455022 0.1428822030409001 0 0.40006448229325758 0.14134306032912181 0 0.41074987336253982 0.13122837004622651 0 0.41130564603455022 0.1428822030409001 0 0.41130564603455022 0.1428822030409001 0 0.41075659096563027 0.15314279776828801 0 0.41712184693287457 0.14783609056751451 0 0.40242815090187029 0.15080119693130889 0 0.41130564603455022 0.1428822030409001 0 0.41075659096563027 0.15314279776828801 0 0.41505972532049962 0.16173256508244829 0 0.41075659096563027 0.15314279776828801 0 0.41782038421840623 0.15374586653373021 0 0.42057130711481938 0.15897849046915569 0 0.42220719377609589 0.15013316776017499 0 0.41782038421840623 0.15374586653373021 0 0.41075659096563027 0.15314279776828801 0 0.41782038421840623 0.15374586653373021 0 0.41712184693287457 0.14783609056751451 0 0.42220719377609589 0.15013316776017499 0 0.41782038421840623 0.15374586653373021 0 0.41712184693287457 0.14783609056751451 0 0.42220719377609589 0.15013316776017499 0 0.42050665267728571 0.14199714850859979 0 0.41712184693287457 0.14783609056751451 0 0.41130564603455022 0.1428822030409001 0 0.42050665267728571 0.14199714850859979 0 0.41712184693287457 0.14783609056751451 0 0.38743083925100702 0.24825663699196601 0 0.40984635127942348 0.24034224566111209 0 0.40805876316201861 0.24454917125733991 0 0.38743083925100702 0.24825663699196601 0 0.40984635127942348 0.24034224566111209 0 0.38710158673244799 0.25397304876845839 0 0.38825911952508718 0.2496888568010899 0 0.40805876316201861 0.24454917125733991 0 0.40011810480571119 0.23736522047936509 0 0.38743083925100702 0.24825663699196601 0 0.40984635127942348 0.24034224566111209 0 0.38710158673244799 0.25397304876845839 0 0.40805876316201861 0.24454917125733991 0 0.38743083925100702 0.24825663699196601 0 0.38825911952508718 0.2496888568010899 0 0.40805876316201861 0.24454917125733991 0 0.40028832984864138 0.2531567014991386 0 0.4063717063049434 0.25145482945124908 0 0.40805876316201861 0.24454917125733991 0 0.40011810480571119 0.23736522047936509 0 0.40594187901925688 0.22991579436425921 0 0.40984635127942348 0.24034224566111209 0 0.40011810480571119 0.23736522047936509 0 0.39151936224226502 0.2370605755519628 0 0.39443191015558671 0.2290173818390408 0 0.40011810480571119 0.23736522047936509 0 0.39151936224226502 0.2370605755519628 0 0.38743083925100702 0.24825663699196601 0 0.36689291458651291 0.25550809628106669 0 0.37467765881038639 0.24619981178543321 0 0.38743083925100702 0.24825663699196601 0 0.38743083925100702 0.24825663699196601 0 0.37566169383279441 0.2279060337820196 0 0.39151936224226502 0.2370605755519628 0 0.38743083925100702 0.24825663699196601 0 0.38605955482234799 0.23247440975969599 0 0.38743083925100702 0.24825663699196601 0 0.38605955482234799 0.23247440975969599 0 0.37566169383279441 0.2279060337820196 0 0.38743083925100702 0.24825663699196601 0 0.37651171172395248 0.24044944526756429 0 0.37566169383279441 0.2279060337820196 0 0.38743083925100702 0.24825663699196601 0 0.38825911952508718 0.2496888568010899 0 0.37467765881038639 0.24619981178543321 0 0.38743083925100702 0.24825663699196601 0 0.37651171172395248 0.24044944526756429 0 0.38605955482234799 0.23247440975969599 0 0.37566169383279441 0.2279060337820196 0 0.38517988876127351 0.217874114357925 0 0.37566169383279441 0.2279060337820196 0 0.38517988876127351 0.217874114357925 0 0.37590819707959822 0.2144039440121849 0 0.38605955482234799 0.23247440975969599 0 0.39443191015558671 0.2290173818390408 0 0.38517988876127351 0.217874114357925 0 0.39443191015558671 0.2290173818390408 0 0.40003140131726039 0.21806185485484469 0 0.38517988876127351 0.217874114357925 0 0.39151936224226502 0.2370605755519628 0 0.38605955482234799 0.23247440975969599 0 0.39443191015558671 0.2290173818390408 0 0.40011810480571119 0.23736522047936509 0 0.39443191015558671 0.2290173818390408 0 0.40594187901925688 0.22991579436425921 0 0.39443191015558671 0.2290173818390408 0 0.40594187901925688 0.22991579436425921 0 0.40003140131726039 0.21806185485484469 0 0.40003140131726039 0.21806185485484469 0 0.39344278470359961 0.205254990837338 0 0.40641922960401727 0.20685976105329901 0 0.40003140131726039 0.21806185485484469 0 0.39344278470359961 0.205254990837338 0 0.38517988876127351 0.217874114357925 0 0.38517988876127351 0.217874114357925 0 0.37590819707959822 0.2144039440121849 0 0.37889865730974348 0.2042801973367217 0 0.39344278470359961 0.205254990837338 0 0.38517988876127351 0.217874114357925 0 0.37889865730974348 0.2042801973367217 0 0.39344278470359961 0.205254990837338 0 0.37889865730974348 0.2042801973367217 0 0.38795441814569259 0.19231246784505479 0 0.37197708108182242 0.19631020153447981 0 0.37889865730974348 0.2042801973367217 0 0.38795441814569259 0.19231246784505479 0 0.37197708108182242 0.19631020153447981 0 0.37529403419154378 0.18772634304468541 0 0.38795441814569259 0.19231246784505479 0 0.3826959147153205 0.1851369041114993 0 0.37529403419154378 0.18772634304468541 0 0.38795441814569259 0.19231246784505479 0 0.39778477696709441 0.17994835067664761 0 0.38795441814569259 0.19231246784505479 0 0.40118969493826973 0.1958106139720146 0 0.39344278470359961 0.205254990837338 0 0.38795441814569259 0.19231246784505479 0 0.40118969493826973 0.1958106139720146 0 0.39344278470359961 0.205254990837338 0 0.40118969493826973 0.1958106139720146 0 0.40641922960401727 0.20685976105329901 0 0.39778477696709441 0.17994835067664761 0 0.40118969493826973 0.1958106139720146 0 0.42034726527094501 0.1946774994477336 0 0.40118969493826973 0.1958106139720146 0 0.42034726527094501 0.1946774994477336 0 0.40641922960401727 0.20685976105329901 0 0.43100570636692148 0.1809177677334641 0 0.42034726527094501 0.1946774994477336 0 0.43271459852590061 0.19509361126115499 0 0.43100570636692148 0.1809177677334641 0 0.43271459852590061 0.19509361126115499 0 0.44605663606361079 0.20154879846424101 0 0.43271459852590061 0.19509361126115499 0 0.43344878640212492 0.20323037939918129 0 0.44605663606361079 0.20154879846424101 0 0.42034726527094501 0.1946774994477336 0 0.43271459852590061 0.19509361126115499 0 0.43344878640212492 0.20323037939918129 0 0.42034726527094501 0.1946774994477336 0 0.43344878640212492 0.20323037939918129 0 0.42034726527094501 0.1946774994477336 0 0.43344878640212492 0.20323037939918129 0 0.41564922007101068 0.22261304435196511 0 0.43344878640212492 0.20323037939918129 0 0.43147365790485831 0.21857375747917901 0 0.41564922007101068 0.22261304435196511 0 0.43344878640212492 0.20323037939918129 0 0.43732757266130368 0.21159981822864291 0 0.43147365790485831 0.21857375747917901 0 0.43732757266130368 0.21159981822864291 0 0.43147365790485831 0.21857375747917901 0 0.44036623403508968 0.22043109725053239 0 0.42034726527094501 0.1946774994477336 0 0.40641922960401727 0.20685976105329901 0 0.41564922007101068 0.22261304435196511 0 0.42034726527094501 0.1946774994477336 0 0.41564922007101068 0.22261304435196511 0 0.40003140131726039 0.21806185485484469 0 0.40641922960401727 0.20685976105329901 0 0.41564922007101068 0.22261304435196511 0 0.40594187901925688 0.22991579436425921 0 0.40003140131726039 0.21806185485484469 0 0.41564922007101068 0.22261304435196511 0 0.40594187901925688 0.22991579436425921 0 0.41511334749031997 0.2319990945308894 0 0.40984635127942348 0.24034224566111209 0 0.40594187901925688 0.22991579436425921 0 0.41511334749031997 0.2319990945308894 0 0.41564922007101068 0.22261304435196511 0 0.41511334749031997 0.2319990945308894 0 0.41564922007101068 0.22261304435196511 0 0.42901593959158901 0.23512529374622121 0 0.43147365790485831 0.21857375747917901 0 0.42901593959158901 0.23512529374622121 0 0.44036623403508968 0.22043109725053239 0 0.43147365790485831 0.21857375747917901 0 0.41564922007101068 0.22261304435196511 0 0.42901593959158901 0.23512529374622121 0 0.42901593959158901 0.23512529374622121 0 0.43023462224611481 0.24697649924138429 0 0.43878525801922391 0.2437991562871745 0 0.43813325040641182 0.25110539576759139 0 0.43023462224611481 0.24697649924138429 0 0.43878525801922391 0.2437991562871745 0 0.42901593959158901 0.23512529374622121 0 0.43023462224611481 0.24697649924138429 0 0.41932865494196331 0.24883874102536499 0 0.42560231519730157 0.25340816509022912 0 0.43023462224611481 0.24697649924138429 0 0.41932865494196331 0.24883874102536499 0 0.42901593959158901 0.23512529374622121 0 0.41932865494196331 0.24883874102536499 0 0.40805876316201861 0.24454917125733991 0 0.42901593959158901 0.23512529374622121 0 0.40984635127942348 0.24034224566111209 0 0.40805876316201861 0.24454917125733991 0 0.42901593959158901 0.23512529374622121 0 0.40805876316201861 0.24454917125733991 0 0.41511334749031997 0.2319990945308894 0 0.42901593959158901 0.23512529374622121 0 0.40984635127942348 0.24034224566111209 0 0.41099676279550601 0.25134095280765473 0 0.41932865494196331 0.24883874102536499 0 0.40805876316201861 0.24454917125733991 0 0.41099676279550601 0.25134095280765473 0 0.4063717063049434 0.25145482945124908 0 0.40805876316201861 0.24454917125733991 0 0.45911608151752431 0.24175090365698851 0 0.45850495180863238 0.23317828074918279 0 0.47615849545698918 0.24281085992579499 0 0.46274340138698961 0.25127112480823849 0 0.45911608151752431 0.24175090365698851 0 0.47615849545698918 0.24281085992579499 0 0.45911608151752431 0.24175090365698851 0 0.44754093826054892 0.23751304459859349 0 0.45850495180863238 0.23317828074918279 0 0.46274340138698961 0.25127112480823849 0 0.45911608151752431 0.24175090365698851 0 0.44968272882243682 0.2472523439071648 0 0.42901593959158901 0.23512529374622121 0 0.43878525801922391 0.2437991562871745 0 0.44754093826054892 0.23751304459859349 0 0.44968272882243682 0.2472523439071648 0 0.43878525801922391 0.2437991562871745 0 0.44754093826054892 0.23751304459859349 0 0.43813325040641182 0.25110539576759139 0 0.44968272882243682 0.2472523439071648 0 0.43878525801922391 0.2437991562871745 0 0.45911608151752431 0.24175090365698851 0 0.44968272882243682 0.2472523439071648 0 0.44754093826054892 0.23751304459859349 0 0.44754093826054892 0.23751304459859349 0 0.44997311602115952 0.2257014162351024 0 0.45850495180863238 0.23317828074918279 0 0.42901593959158901 0.23512529374622121 0 0.44997311602115952 0.2257014162351024 0 0.42901593959158901 0.23512529374622121 0 0.44036623403508968 0.22043109725053239 0 0.44997311602115952 0.2257014162351024 0 0.42901593959158901 0.23512529374622121 0 0.44754093826054892 0.23751304459859349 0 0.44997311602115952 0.2257014162351024 0 0.44036623403508968 0.22043109725053239 0 0.44997311602115952 0.2257014162351024 0 0.44655030753330621 0.21178325935062689 0 0.44997311602115952 0.2257014162351024 0 0.46110756576029999 0.222179829195018 0 0.44655030753330621 0.21178325935062689 0 0.45850495180863238 0.23317828074918279 0 0.46110756576029999 0.222179829195018 0 0.47615849545698918 0.24281085992579499 0 0.46110756576029999 0.222179829195018 0 0.47615849545698918 0.24281085992579499 0 0.44997311602115952 0.2257014162351024 0 0.45850495180863238 0.23317828074918279 0 0.46110756576029999 0.222179829195018 0 0.46110756576029999 0.222179829195018 0 0.46256168465873693 0.20560687871125929 0 0.47879332259294599 0.2158064917313707 0 0.46110756576029999 0.222179829195018 0 0.44605663606361079 0.20154879846424101 0 0.46110756576029999 0.222179829195018 0 0.46256168465873693 0.20560687871125929 0 0.44605663606361079 0.20154879846424101 0 0.46110756576029999 0.222179829195018 0 0.44655030753330621 0.21178325935062689 0 0.44605663606361079 0.20154879846424101 0 0.43732757266130368 0.21159981822864291 0 0.44036623403508968 0.22043109725053239 0 0.44655030753330621 0.21178325935062689 0 0.43344878640212492 0.20323037939918129 0 0.44655030753330621 0.21178325935062689 0 0.44605663606361079 0.20154879846424101 0 0.43344878640212492 0.20323037939918129 0 0.43732757266130368 0.21159981822864291 0 0.44655030753330621 0.21178325935062689 0 0.43344878640212492 0.20323037939918129 0 0.44655030753330621 0.21178325935062689 0 0.44605663606361079 0.20154879846424101 0 0.45858509325620289 0.1917625784065192 0 0.44621931633813322 0.18469908509922031 0 0.43100570636692148 0.1809177677334641 0 0.44605663606361079 0.20154879846424101 0 0.44621931633813322 0.18469908509922031 0 0.43100570636692148 0.1809177677334641 0 0.44605663606361079 0.20154879846424101 0 0.46256168465873693 0.20560687871125929 0 0.44605663606361079 0.20154879846424101 0 0.45858509325620289 0.1917625784065192 0 0.46256168465873693 0.20560687871125929 0 0.45858509325620289 0.1917625784065192 0 0.47293218968165052 0.1977478680980585 0 0.47293218968165052 0.1977478680980585 0 0.5 0.199766803088234 0 0.47651930974504542 0.1769670978085035 0 0.45858509325620289 0.1917625784065192 0 0.47293218968165052 0.1977478680980585 0 0.47651930974504542 0.1769670978085035 0 0.5 0.199766803088234 0 0.47879332259294599 0.2158064917313707 0 0.5 0.22672671136985981 0 0.46256168465873693 0.20560687871125929 0 0.47293218968165052 0.1977478680980585 0 0.47879332259294599 0.2158064917313707 0 0.47293218968165052 0.1977478680980585 0 0.5 0.199766803088234 0 0.47879332259294599 0.2158064917313707 0 0.46110756576029999 0.222179829195018 0 0.47879332259294599 0.2158064917313707 0 0.47615849545698918 0.24281085992579499 0 0.47879332259294599 0.2158064917313707 0 0.5 0.22672671136985981 0 0.47615849545698918 0.24281085992579499 0 0.5 0.25368661965148542 0 0.5 0.22672671136985981 0 0.47615849545698918 0.24281085992579499 0 0.45804178051783367 0.15241722768743621 0 0.45875151015138621 0.13240064708376151 0 0.44742789482986522 0.1377190925735701 0 0.45804178051783367 0.15241722768743621 0 0.4738363016510147 0.1296466833962964 0 0.45804178051783367 0.15241722768743621 0 0.45875151015138621 0.13240064708376151 0 0.4738363016510147 0.1296466833962964 0 0.45875151015138621 0.13240064708376151 0 0.4738363016510147 0.1296466833962964 0 0.46207304366949697 0.11701831589105779 0 0.45875151015138621 0.13240064708376151 0 0.44742789482986522 0.1377190925735701 0 0.45237853008872042 0.12520191587044671 0 0.44742789482986522 0.1377190925735701 0 0.45237853008872042 0.12520191587044671 0 0.44361772409678119 0.1270007300823271 0 0.44361772409678119 0.1270007300823271 0 0.43931385365439579 0.1250328920743275 0 0.43979864371996141 0.13510529519752271 0 0.44742789482986522 0.1377190925735701 0 0.44361772409678119 0.1270007300823271 0 0.43979864371996141 0.13510529519752271 0 0.44742789482986522 0.1377190925735701 0 0.43979864371996141 0.13510529519752271 0 0.43779890304548419 0.14424627101430759 0 0.44742789482986522 0.1377190925735701 0 0.43779890304548419 0.14424627101430759 0 0.44155046526719322 0.1514816482118071 0 0.45804178051783367 0.15241722768743621 0 0.44742789482986522 0.1377190925735701 0 0.44155046526719322 0.1514816482118071 0 0.45804178051783367 0.15241722768743621 0 0.44155046526719322 0.1514816482118071 0 0.44663610169202078 0.16330582031519411 0 0.44663610169202078 0.16330582031519411 0 0.43976355205206807 0.1727286608720876 0 0.45568559395186259 0.17653762001978959 0 0.44155046526719322 0.1514816482118071 0 0.43813911667114691 0.1633639447848502 0 0.44663610169202078 0.16330582031519411 0 0.43813911667114691 0.1633639447848502 0 0.44663610169202078 0.16330582031519411 0 0.43976355205206807 0.1727286608720876 0 0.43976355205206807 0.1727286608720876 0 0.44621931633813322 0.18469908509922031 0 0.45568559395186259 0.17653762001978959 0 0.43100570636692148 0.1809177677334641 0 0.43976355205206807 0.1727286608720876 0 0.44621931633813322 0.18469908509922031 0 0.45858509325620289 0.1917625784065192 0 0.45568559395186259 0.17653762001978959 0 0.47651930974504542 0.1769670978085035 0 0.45858509325620289 0.1917625784065192 0 0.44621931633813322 0.18469908509922031 0 0.45568559395186259 0.17653762001978959 0 0.45804178051783367 0.15241722768743621 0 0.44663610169202078 0.16330582031519411 0 0.45568559395186259 0.17653762001978959 0 0.45804178051783367 0.15241722768743621 0 0.45568559395186259 0.17653762001978959 0 0.47651930974504542 0.1769670978085035 0 0.45804178051783367 0.15241722768743621 0 0.47651930974504542 0.1769670978085035 0 0.47919197963227611 0.15022470101577379 0 0.5 0.199766803088234 0 0.47651930974504542 0.1769670978085035 0 0.5 0.17280689480660821 0 0.5 0.17280689480660821 0 0.5 0.14584698652498229 0 0.47919197963227611 0.15022470101577379 0 0.47651930974504542 0.1769670978085035 0 0.5 0.17280689480660821 0 0.47919197963227611 0.15022470101577379 0 0.5 0.14584698652498229 0 0.47919197963227611 0.15022470101577379 0 0.48848009831081712 0.13286224168127711 0 0.45804178051783367 0.15241722768743621 0 0.47919197963227611 0.15022470101577379 0 0.4738363016510147 0.1296466833962964 0 0.47919197963227611 0.15022470101577379 0 0.4738363016510147 0.1296466833962964 0 0.48848009831081712 0.13286224168127711 0 0.4738363016510147 0.1296466833962964 0 0.48848009831081712 0.13286224168127711 0 0.48937221027079469 0.11970575922597659 0 0.5 0.14584698652498229 0 0.48848009831081712 0.13286224168127711 0 0.5 0.11888707824335649 0 0.48848009831081712 0.13286224168127711 0 0.5 0.11888707824335649 0 0.48937221027079469 0.11970575922597659 0 0.48937221027079469 0.11970575922597659 0 0.48963082278419562 0.1068761391051567 0 0.5 0.11888707824335649 0 0.48937221027079469 0.11970575922597659 0 0.48963082278419562 0.1068761391051567 0 0.5 0.11888707824335649 0 0.48963082278419562 0.1068761391051567 0 0.49999999999999922 0.09192716996173067 0 0.48963082278419562 0.1068761391051567 0 0.49999999999999922 0.09192716996173067 0 0.47372831752986561 0.109110077157241 0 0.47786315193325779 0.092273565197005511 0 0.46469976227972709 0.1005253842510737 0 0.48963082278419562 0.1068761391051567 0 0.47372831752986561 0.109110077157241 0 0.47786315193325779 0.092273565197005511 0 0.4738363016510147 0.1296466833962964 0 0.48963082278419562 0.1068761391051567 0 0.4738363016510147 0.1296466833962964 0 0.48963082278419562 0.1068761391051567 0 0.47372831752986561 0.109110077157241 0 0.4738363016510147 0.1296466833962964 0 0.48937221027079469 0.11970575922597659 0 0.48963082278419562 0.1068761391051567 0 0.4738363016510147 0.1296466833962964 0 0.47372831752986561 0.109110077157241 0 0.46207304366949697 0.11701831589105779 0 0.49022206983604688 0.077544708181510172 0 0.49081331688789831 0.048213277257863313 0 0.49022206983604688 0.077544708181510172 0 0.49081331688789831 0.048213277257863313 0 0.5 0.062077003155106343 0 0.49022206983604688 0.077544708181510172 0 0.49999999999999922 0.09192716996173067 0 0.5 0.062077003155106343 0 0.48963082278419562 0.1068761391051567 0 0.49022206983604688 0.077544708181510172 0 0.47786315193325779 0.092273565197005511 0 0.48963082278419562 0.1068761391051567 0 0.49022206983604688 0.077544708181510172 0 0.48963082278419562 0.1068761391051567 0 0.49022206983604688 0.077544708181510172 0 0.49999999999999922 0.09192716996173067 0 0.49022206983604688 0.077544708181510172 0 0.47786315193325779 0.092273565197005511 0 0.46338370348457503 0.078531604078750261 0 0.49022206983604688 0.077544708181510172 0 0.46338370348457503 0.078531604078750261 0 0.47068833065323901 0.053273203562075711 0 0.46338370348457503 0.078531604078750261 0 0.44801256871555462 0.056286247113651211 0 0.47068833065323901 0.053273203562075711 0 0.46338370348457503 0.078531604078750261 0 0.46469976227972709 0.1005253842510737 0 0.4496091988538124 0.095763246627087351 0 0.47786315193325779 0.092273565197005511 0 0.46338370348457503 0.078531604078750261 0 0.46469976227972709 0.1005253842510737 0 0.46338370348457503 0.078531604078750261 0 0.44374254726711559 0.081722648063599662 0 0.4496091988538124 0.095763246627087351 0 0.44374254726711559 0.081722648063599662 0 0.43454821507124852 0.069021432910899752 0 0.44801256871555462 0.056286247113651211 0 0.46338370348457503 0.078531604078750261 0 0.44374254726711559 0.081722648063599662 0 0.44801256871555462 0.056286247113651211 0 0.46207304366949697 0.11701831589105779 0 0.45364394732066748 0.1079142264518604 0 0.45200387085814719 0.1163219748678912 0 0.45875151015138621 0.13240064708376151 0 0.45237853008872042 0.12520191587044671 0 0.46207304366949697 0.11701831589105779 0 0.45237853008872042 0.12520191587044671 0 0.46207304366949697 0.11701831589105779 0 0.45200387085814719 0.1163219748678912 0 0.47372831752986561 0.109110077157241 0 0.46207304366949697 0.11701831589105779 0 0.46469976227972709 0.1005253842510737 0 0.46207304366949697 0.11701831589105779 0 0.46469976227972709 0.1005253842510737 0 0.45364394732066748 0.1079142264518604 0 0.46469976227972709 0.1005253842510737 0 0.45364394732066748 0.1079142264518604 0 0.4496091988538124 0.095763246627087351 0 0.45364394732066748 0.1079142264518604 0 0.44656553109810893 0.10575195861325511 0 0.4496091988538124 0.095763246627087351 0 0.44374254726711559 0.081722648063599662 0 0.43828903064234959 0.1084186526558874 0 0.44374254726711559 0.081722648063599662 0 0.4496091988538124 0.095763246627087351 0 0.43828903064234959 0.1084186526558874 0 0.45364394732066748 0.1079142264518604 0 0.44656553109810893 0.10575195861325511 0 0.44596531578671827 0.1122087012385295 0 0.44656553109810893 0.10575195861325511 0 0.43828903064234959 0.1084186526558874 0 0.44596531578671827 0.1122087012385295 0 0.44656553109810893 0.10575195861325511 0 0.4496091988538124 0.095763246627087351 0 0.43828903064234959 0.1084186526558874 0 0.43931385365439579 0.1250328920743275 0 0.43828903064234959 0.1084186526558874 0 0.44202835579530292 0.11952512518772521 0 0.43828903064234959 0.1084186526558874 0 0.44596531578671827 0.1122087012385295 0 0.44202835579530292 0.11952512518772521 0 0.44596531578671827 0.1122087012385295 0 0.44595851742513271 0.1192667148875614 0 0.44202835579530292 0.11952512518772521 0 0.45364394732066748 0.1079142264518604 0 0.44596531578671827 0.1122087012385295 0 0.45200387085814719 0.1163219748678912 0 0.44596531578671827 0.1122087012385295 0 0.45200387085814719 0.1163219748678912 0 0.44595851742513271 0.1192667148875614 0 0.45237853008872042 0.12520191587044671 0 0.44361772409678119 0.1270007300823271 0 0.44595851742513271 0.1192667148875614 0 0.45237853008872042 0.12520191587044671 0 0.45200387085814719 0.1163219748678912 0 0.44595851742513271 0.1192667148875614 0 0.44361772409678119 0.1270007300823271 0 0.43931385365439579 0.1250328920743275 0 0.44202835579530292 0.11952512518772521 0 0.44361772409678119 0.1270007300823271 0 0.44595851742513271 0.1192667148875614 0 0.44202835579530292 0.11952512518772521 0 0.43283551401758358 0.1351146572481752 0 0.43931385365439579 0.1250328920743275 0 0.43828903064234959 0.1084186526558874 0 0.43283551401758358 0.1351146572481752 0 0.43828903064234959 0.1084186526558874 0 0.43283551401758358 0.1351146572481752 0 0.43828903064234959 0.1084186526558874 0 0.43424946519682123 0.1120121538052013 0 0.43828903064234959 0.1084186526558874 0 0.43424946519682123 0.1120121538052013 0 0.42885647177024011 0.10859523695790869 0 0.43424946519682123 0.1120121538052013 0 0.42626173578224602 0.1155592583917304 0 0.42883013797835862 0.1238833212465956 0 0.43424946519682123 0.1120121538052013 0 0.42626173578224602 0.1155592583917304 0 0.42885647177024011 0.10859523695790869 0 0.42626173578224602 0.1155592583917304 0 0.42031919315042399 0.10925566655091069 0 0.42885647177024011 0.10859523695790869 0 0.42626173578224602 0.1155592583917304 0 0.42883013797835862 0.1238833212465956 0 0.42212801783333198 0.1211792462749661 0 0.42626173578224602 0.1155592583917304 0 0.42212801783333198 0.1211792462749661 0 0.41888069576159109 0.1165853372313182 0 0.42206675942826571 0.12689177369750901 0 0.42883013797835862 0.1238833212465956 0 0.42212801783333198 0.1211792462749661 0 0.42206675942826571 0.12689177369750901 0 0.42212801783333198 0.1211792462749661 0 0.41520049501509843 0.1227717316808269 0 0.41520049501509843 0.1227717316808269 0 0.41888069576159109 0.1165853372313182 0 0.41169350662465548 0.1137511650044568 0 0.42212801783333198 0.1211792462749661 0 0.41520049501509843 0.1227717316808269 0 0.41888069576159109 0.1165853372313182 0 0.42626173578224602 0.1155592583917304 0 0.41888069576159109 0.1165853372313182 0 0.42031919315042399 0.10925566655091069 0 0.41888069576159109 0.1165853372313182 0 0.41169350662465548 0.1137511650044568 0 0.42031919315042399 0.10925566655091069 0 0.41520049501509843 0.1227717316808269 0 0.41169350662465548 0.1137511650044568 0 0.40408438037122918 0.1211878451396604 0 0.41169350662465548 0.1137511650044568 0 0.41055392064863339 0.10253129573622349 0 0.39968308329822272 0.1099632880212707 0 0.41169350662465548 0.1137511650044568 0 0.41055392064863339 0.10253129573622349 0 0.42031919315042399 0.10925566655091069 0 0.41055392064863339 0.10253129573622349 0 0.42031919315042399 0.10925566655091069 0 0.42516293407936001 0.097730453385813668 0 0.41055392064863339 0.10253129573622349 0 0.42516293407936001 0.097730453385813668 0 0.40969959730959521 0.088754308951437863 0 0.44374254726711559 0.081722648063599662 0 0.43828903064234959 0.1084186526558874 0 0.42516293407936001 0.097730453385813668 0 0.42031919315042399 0.10925566655091069 0 0.42516293407936001 0.097730453385813668 0 0.42885647177024011 0.10859523695790869 0 0.43828903064234959 0.1084186526558874 0 0.42516293407936001 0.097730453385813668 0 0.42885647177024011 0.10859523695790869 0 0.44374254726711559 0.081722648063599662 0 0.42516293407936001 0.097730453385813668 0 0.42342839080985539 0.079289830379034879 0 0.44374254726711559 0.081722648063599662 0 0.42342839080985539 0.079289830379034879 0 0.43454821507124852 0.069021432910899752 0 0.42342839080985539 0.079289830379034879 0 0.43454821507124852 0.069021432910899752 0 0.42315532539957218 0.058661843334024001 0 0.42342839080985539 0.079289830379034879 0 0.40914545194209911 0.071485609564843705 0 0.42315532539957218 0.058661843334024001 0 0.40914545194209911 0.071485609564843705 0 0.40843039223626287 0.059475539213269341 0 0.42315532539957218 0.058661843334024001 0 0.42516293407936001 0.097730453385813668 0 0.42342839080985539 0.079289830379034879 0 0.40969959730959521 0.088754308951437863 0 0.42342839080985539 0.079289830379034879 0 0.40914545194209911 0.071485609564843705 0 0.40969959730959521 0.088754308951437863 0 0.40969959730959521 0.088754308951437863 0 0.39594830929984681 0.079127968291099679 0 0.3967652094295433 0.095732892503451475 0 0.40914545194209911 0.071485609564843705 0 0.40969959730959521 0.088754308951437863 0 0.39594830929984681 0.079127968291099679 0 0.40914545194209911 0.071485609564843705 0 0.39790594320102518 0.066876343511378264 0 0.40843039223626287 0.059475539213269341 0 0.40914545194209911 0.071485609564843705 0 0.39594830929984681 0.079127968291099679 0 0.39790594320102518 0.066876343511378264 0 0.39594830929984681 0.079127968291099679 0 0.39790594320102518 0.066876343511378264 0 0.38672790390806622 0.064603400750583906 0 0.39790594320102518 0.066876343511378264 0 0.38672790390806622 0.064603400750583906 0 0.39538345588891899 0.057339288122103579 0 0.37218066484668322 0.071556363146405774 0 0.38672790390806622 0.064603400750583906 0 0.37757486673858798 0.086750718556758116 0 0.38672790390806622 0.064603400750583906 0 0.37757486673858798 0.086750718556758116 0 0.39594830929984681 0.079127968291099679 0 0.38672790390806622 0.064603400750583906 0 0.37757486673858798 0.086750718556758116 0 0.37218066484668322 0.071556363146405774 0 0.38672790390806622 0.064603400750583906 0 0.3850652289356008 0.060745035976355853 0 0.39594830929984681 0.079127968291099679 0 0.37757486673858798 0.086750718556758116 0 0.3967652094295433 0.095732892503451475 0 0.37757486673858798 0.086750718556758116 0 0.38509247298073962 0.107262758924239 0 0.3967652094295433 0.095732892503451475 0 0.3684218295691099 0.1088980363629322 0 0.37757486673858798 0.086750718556758116 0 0.38509247298073962 0.107262758924239 0 0.38040268001195021 0.1251160331139205 0 0.38509247298073962 0.107262758924239 0 0.39251543912936571 0.1188510421925682 0 0.3684218295691099 0.1088980363629322 0 0.38040268001195021 0.1251160331139205 0 0.38509247298073962 0.107262758924239 0 0.38040268001195021 0.1251160331139205 0 0.39601398960537432 0.129408072964493 0 0.39251543912936571 0.1188510421925682 0 0.38509247298073962 0.107262758924239 0 0.39251543912936571 0.1188510421925682 0 0.39968308329822272 0.1099632880212707 0 0.39601398960537432 0.129408072964493 0 0.39251543912936571 0.1188510421925682 0 0.40408438037122918 0.1211878451396604 0 0.39251543912936571 0.1188510421925682 0 0.40408438037122918 0.1211878451396604 0 0.39968308329822272 0.1099632880212707 0 0.41169350662465548 0.1137511650044568 0 0.40408438037122918 0.1211878451396604 0 0.39968308329822272 0.1099632880212707 0 0.41055392064863339 0.10253129573622349 0 0.39968308329822272 0.1099632880212707 0 0.3967652094295433 0.095732892503451475 0 0.41055392064863339 0.10253129573622349 0 0.40969959730959521 0.088754308951437863 0 0.3967652094295433 0.095732892503451475 0 0.38509247298073962 0.107262758924239 0 0.39968308329822272 0.1099632880212707 0 0.3967652094295433 0.095732892503451475 0 0.40225499104735712 0.0055571414600919487 0 0.38982781875799322 0.02013798340487748 0 0.40095923432652281 0.032892883588255747 0 0.40225499104735712 0.0055571414600919487 0 0.40095923432652281 0.032892883588255747 0 0.41489447587880279 0.026578092158714661 0 0.40225499104735712 0.0055571414600919487 0 0.40095923432652281 0.032892883588255747 0 0.38982781875799322 0.02013798340487748 0 0.38883989333379149 0.034632392820164448 0 0.40095923432652281 0.032892883588255747 0 0.40225499104735712 0.0055571414600919487 0 0.38252354203690109 0.0067354487879814646 0 0.39361439243422369 -0.0085510178686497174 0 0.40225499104735712 0.0055571414600919487 0 0.38252354203690109 0.0067354487879814646 0 0.38982781875799322 0.02013798340487748 0 0.36849572231199829 0.022033052291418231 0 0.38982781875799322 0.02013798340487748 0 0.38883989333379149 0.034632392820164448 0 0.36849572231199829 0.022033052291418231 0 0.38883989333379149 0.034632392820164448 0 0.36849572231199829 0.022033052291418231 0 0.38252354203690109 0.0067354487879814646 0 0.38982781875799322 0.02013798340487748 0 0.36674866338864692 0.046406419455025237 0 0.37734786905831008 0.037695570486944698 0 0.38290950858464862 0.047182100964964307 0 0.36849572231199829 0.022033052291418231 0 0.37734786905831008 0.037695570486944698 0 0.38883989333379149 0.034632392820164448 0 0.37734786905831008 0.037695570486944698 0 0.38624455301357358 0.040491536804120799 0 0.38290950858464862 0.047182100964964307 0 0.38624455301357358 0.040491536804120799 0 0.38883989333379149 0.034632392820164448 0 0.3958809410775444 0.042456082944409751 0 0.38624455301357358 0.040491536804120799 0 0.38290950858464862 0.047182100964964307 0 0.3958809410775444 0.042456082944409751 0 0.37734786905831008 0.037695570486944698 0 0.38624455301357358 0.040491536804120799 0 0.38883989333379149 0.034632392820164448 0 0.38672790390806622 0.064603400750583906 0 0.3850652289356008 0.060745035976355853 0 0.3958809410775444 0.042456082944409751 0 0.38425349606972048 0.052117851746962637 0 0.3850652289356008 0.060745035976355853 0 0.3958809410775444 0.042456082944409751 0 0.37522327912169939 0.054381046480790222 0 0.38425349606972048 0.052117851746962637 0 0.3850652289356008 0.060745035976355853 0 0.37522327912169939 0.054381046480790222 0 0.38425349606972048 0.052117851746962637 0 0.38290950858464862 0.047182100964964307 0 0.38425349606972048 0.052117851746962637 0 0.38290950858464862 0.047182100964964307 0 0.3958809410775444 0.042456082944409751 0 0.38672790390806622 0.064603400750583906 0 0.3958809410775444 0.042456082944409751 0 0.38672790390806622 0.064603400750583906 0 0.39538345588891899 0.057339288122103579 0 0.3958809410775444 0.042456082944409751 0 0.39790594320102518 0.066876343511378264 0 0.39538345588891899 0.057339288122103579 0 0.40101903536904021 0.055421325282042383 0 0.39538345588891899 0.057339288122103579 0 0.40101903536904021 0.055421325282042383 0 0.3958809410775444 0.042456082944409751 0 0.40101903536904021 0.055421325282042383 0 0.3958809410775444 0.042456082944409751 0 0.40918406435558469 0.047231733348910628 0 0.40101903536904021 0.055421325282042383 0 0.40843039223626287 0.059475539213269341 0 0.40918406435558469 0.047231733348910628 0 0.39790594320102518 0.066876343511378264 0 0.40101903536904021 0.055421325282042383 0 0.40843039223626287 0.059475539213269341 0 0.38883989333379149 0.034632392820164448 0 0.40095923432652281 0.032892883588255747 0 0.40918406435558469 0.047231733348910628 0 0.38883989333379149 0.034632392820164448 0 0.40918406435558469 0.047231733348910628 0 0.38883989333379149 0.034632392820164448 0 0.3958809410775444 0.042456082944409751 0 0.40918406435558469 0.047231733348910628 0 0.40095923432652281 0.032892883588255747 0 0.41114177683204961 0.036580455481660161 0 0.40918406435558469 0.047231733348910628 0 0.40095923432652281 0.032892883588255747 0 0.41114177683204961 0.036580455481660161 0 0.41489447587880279 0.026578092158714661 0 0.41114177683204961 0.036580455481660161 0 0.40918406435558469 0.047231733348910628 0 0.42424284770812742 0.041128751104945682 0 0.41114177683204961 0.036580455481660161 0 0.42424284770812742 0.041128751104945682 0 0.41489447587880279 0.026578092158714661 0 0.40918406435558469 0.047231733348910628 0 0.42315532539957218 0.058661843334024001 0 0.42424284770812742 0.041128751104945682 0 0.40843039223626287 0.059475539213269341 0 0.40918406435558469 0.047231733348910628 0 0.42315532539957218 0.058661843334024001 0 0.42315532539957218 0.058661843334024001 0 0.42424284770812742 0.041128751104945682 0 0.43800387248573952 0.042656567500015057 0 0.43454821507124852 0.069021432910899752 0 0.42315532539957218 0.058661843334024001 0 0.44801256871555462 0.056286247113651211 0 0.42315532539957218 0.058661843334024001 0 0.44801256871555462 0.056286247113651211 0 0.43800387248573952 0.042656567500015057 0 0.42424284770812742 0.041128751104945682 0 0.43867634788033238 0.02716906047474902 0 0.43800387248573952 0.042656567500015057 0 0.42424284770812742 0.041128751104945682 0 0.42492746993046132 0.01324191339265 0 0.42424284770812742 0.041128751104945682 0 0.42492746993046132 0.01324191339265 0 0.43867634788033238 0.02716906047474902 0 0.42424284770812742 0.041128751104945682 0 0.41489447587880279 0.026578092158714661 0 0.42492746993046132 0.01324191339265 0 0.40225499104735712 0.0055571414600919487 0 0.42492746993046132 0.01324191339265 0 0.41271323756968847 -0.0068874300950638031 0 0.40225499104735712 0.0055571414600919487 0 0.41489447587880279 0.026578092158714661 0 0.42492746993046132 0.01324191339265 0 0.42492746993046132 0.01324191339265 0 0.44900602116003419 0.0088929668807739004 0 0.44202564452823778 -0.01084437810448592 0 0.44900602116003419 0.0088929668807739004 0 0.43867634788033238 0.02716906047474902 0 0.45593227272511111 0.030036935472705441 0 0.42492746993046132 0.01324191339265 0 0.44900602116003419 0.0088929668807739004 0 0.43867634788033238 0.02716906047474902 0 0.45593227272511111 0.030036935472705441 0 0.47590773347159288 0.032074295231092863 0 0.47070018315196638 0.0099662135286033657 0 0.44900602116003419 0.0088929668807739004 0 0.45593227272511111 0.030036935472705441 0 0.47070018315196638 0.0099662135286033657 0 0.44900602116003419 0.0088929668807739004 0 0.47070018315196638 0.0099662135286033657 0 0.46339264056249801 -0.0101062496848357 0 0.45593227272511111 0.030036935472705441 0 0.44801256871555462 0.056286247113651211 0 0.43800387248573952 0.042656567500015057 0 0.43867634788033238 0.02716906047474902 0 0.45593227272511111 0.030036935472705441 0 0.43800387248573952 0.042656567500015057 0 0.45593227272511111 0.030036935472705441 0 0.44801256871555462 0.056286247113651211 0 0.47068833065323901 0.053273203562075711 0 0.45593227272511111 0.030036935472705441 0 0.47068833065323901 0.053273203562075711 0 0.47590773347159288 0.032074295231092863 0 0.49022206983604688 0.077544708181510172 0 0.47068833065323901 0.053273203562075711 0 0.49081331688789831 0.048213277257863313 0 0.47068833065323901 0.053273203562075711 0 0.47590773347159288 0.032074295231092863 0 0.49081331688789831 0.048213277257863313 0 0.5 0.032226836348481891 0 0.49081331688789831 0.048213277257863313 0 0.49140456393974957 0.018881846334216482 0 0.49081331688789831 0.048213277257863313 0 0.49140456393974957 0.018881846334216482 0 0.47590773347159288 0.032074295231092863 0 0.49081331688789831 0.048213277257863313 0 0.49140456393974957 0.018881846334216482 0 0.5 0.032226836348481891 0 0.49081331688789831 0.048213277257863313 0 0.5 0.062077003155106343 0 0.47590773347159288 0.032074295231092863 0 0.47070018315196638 0.0099662135286033657 0 0.49140456393974957 0.018881846334216482 0 0.5 0.032226836348481891 0 0.49140456393974957 0.018881846334216482 0 0.5 0.0023766695418576682 0 0.49140456393974957 0.018881846334216482 0 0.49199581099160089 -0.01044958458943023 0 0.49140456393974957 0.018881846334216482 0 0.5 0.0023766695418576682 0 0.49199581099160089 -0.01044958458943023 0 0.47070018315196638 0.0099662135286033657 0 0.49140456393974957 0.018881846334216482 0 0.49199581099160089 -0.01044958458943023 0 0.5 0.0023766695418576682 0 0.49199581099160089 -0.01044958458943023 0 0.49999999999999972 -0.027473497264766542 0 0.47070018315196638 0.0099662135286033657 0 0.49199581099160089 -0.01044958458943023 0 0.46339264056249801 -0.0101062496848357 0 0.49199581099160089 -0.01044958458943023 0 0.47395164194643979 -0.027618900916845761 0 0.46339264056249801 -0.0101062496848357 0 0.49199581099160089 -0.01044958458943023 0 0.49258705804345149 -0.039781015513076938 0 0.49199581099160089 -0.01044958458943023 0 0.49999999999999972 -0.027473497264766542 0 0.49258705804345149 -0.039781015513076938 0 0.49199581099160089 -0.01044958458943023 0 0.47395164194643979 -0.027618900916845761 0 0.49258705804345149 -0.039781015513076938 0 0.49999999999999972 -0.027473497264766542 0 0.49258705804345149 -0.039781015513076938 0 0.49999999999999972 -0.027473497264766542 0 0.49258705804345149 -0.039781015513076938 0 0.5 -0.054532796285212737 0 0.49258705804345149 -0.039781015513076938 0 0.49297427798567162 -0.058990777239412331 0 0.49258705804345149 -0.039781015513076938 0 0.48285586217512372 -0.055937471536790233 0 0.49258705804345149 -0.039781015513076938 0 0.5 -0.054532796285212737 0 0.49297427798567162 -0.058990777239412331 0 0.49258705804345149 -0.039781015513076938 0 0.49297427798567162 -0.058990777239412331 0 0.48285586217512372 -0.055937471536790233 0 0.49297427798567162 -0.058990777239412331 0 0.48285586217512372 -0.055937471536790233 0 0.48584991916044579 -0.064307872690691409 0 0.48285586217512372 -0.055937471536790233 0 0.47601940503349649 -0.043150262197270792 0 0.46541916161217078 -0.058364836084716702 0 0.48285586217512372 -0.055937471536790233 0 0.46541916161217078 -0.058364836084716702 0 0.47312466630679639 -0.072093927560503882 0 0.47395164194643979 -0.027618900916845761 0 0.49258705804345149 -0.039781015513076938 0 0.47601940503349649 -0.043150262197270792 0 0.49258705804345149 -0.039781015513076938 0 0.48285586217512372 -0.055937471536790233 0 0.47601940503349649 -0.043150262197270792 0 0.47395164194643979 -0.027618900916845761 0 0.47601940503349649 -0.043150262197270792 0 0.46311578374710061 -0.042802706603644942 0 0.47395164194643979 -0.027618900916845761 0 0.46311578374710061 -0.042802706603644942 0 0.45267654159670939 -0.03058381490762958 0 0.46311578374710061 -0.042802706603644942 0 0.45274985795020523 -0.045892694107953713 0 0.45267654159670939 -0.03058381490762958 0 0.46311578374710061 -0.042802706603644942 0 0.45774887341260972 -0.051093270398134598 0 0.45274985795020523 -0.045892694107953713 0 0.46541916161217078 -0.058364836084716702 0 0.45774887341260972 -0.051093270398134598 0 0.44971069034096228 -0.057312844796223103 0 0.46311578374710061 -0.042802706603644942 0 0.46541916161217078 -0.058364836084716702 0 0.45774887341260972 -0.051093270398134598 0 0.47601940503349649 -0.043150262197270792 0 0.46311578374710061 -0.042802706603644942 0 0.46541916161217078 -0.058364836084716702 0 0.45774887341260972 -0.051093270398134598 0 0.44971069034096228 -0.057312844796223103 0 0.45274985795020523 -0.045892694107953713 0 0.44971069034096228 -0.057312844796223103 0 0.44296949673594072 -0.042056236220664088 0 0.42629671437512878 -0.042531762031941457 0 0.45115835640751878 -0.065744208719247951 0 0.43214376282896882 -0.054493830639847252 0 0.44971069034096228 -0.057312844796223103 0 0.42629671437512878 -0.042531762031941457 0 0.44971069034096228 -0.057312844796223103 0 0.45115835640751878 -0.065744208719247951 0 0.43214376282896882 -0.054493830639847252 0 0.44971069034096228 -0.057312844796223103 0 0.45274985795020523 -0.045892694107953713 0 0.44296949673594072 -0.042056236220664088 0 0.45274985795020523 -0.045892694107953713 0 0.44296949673594072 -0.042056236220664088 0 0.45267654159670939 -0.03058381490762958 0 0.44296949673594072 -0.042056236220664088 0 0.43805354695881837 -0.028810858820005138 0 0.45267654159670939 -0.03058381490762958 0 0.45267654159670939 -0.03058381490762958 0 0.44202564452823778 -0.01084437810448592 0 0.46339264056249801 -0.0101062496848357 0 0.43805354695881837 -0.028810858820005138 0 0.45267654159670939 -0.03058381490762958 0 0.44202564452823778 -0.01084437810448592 0 0.44900602116003419 0.0088929668807739004 0 0.44202564452823778 -0.01084437810448592 0 0.46339264056249801 -0.0101062496848357 0 0.47395164194643979 -0.027618900916845761 0 0.45267654159670939 -0.03058381490762958 0 0.46339264056249801 -0.0101062496848357 0 0.47848832985178802 -0.1102183821819377 0 0.46376518391457972 -0.12981095665039361 0 0.48339705170826602 -0.13035982314943859 0 0.47848832985178802 -0.1102183821819377 0 0.46376518391457972 -0.12981095665039361 0 0.46980359469853572 -0.1197897076648328 0 0.47848832985178802 -0.1102183821819377 0 0.46376518391457972 -0.12981095665039361 0 0.46980359469853572 -0.1197897076648328 0 0.47848832985178802 -0.1102183821819377 0 0.46825575941164532 -0.10965945059734419 0 0.47848832985178802 -0.1102183821819377 0 0.5 -0.1198691799125074 0 0.48339705170826602 -0.13035982314943859 0 0.47848832985178802 -0.1102183821819377 0 0.5 -0.1198691799125074 0 0.49999999999999861 -0.094642378651977235 0 0.47848832985178802 -0.1102183821819377 0 0.49999999999999861 -0.094642378651977235 0 0.49321147578899482 -0.090625807713480916 0 0.47848832985178802 -0.1102183821819377 0 0.49321147578899482 -0.090625807713480916 0 0.47848832985178802 -0.1102183821819377 0 0.46995229443574082 -0.1014309660595869 0 0.4742594496689021 -0.092615343864389202 0 0.47848832985178802 -0.1102183821819377 0 0.4742594496689021 -0.092615343864389202 0 0.49321147578899482 -0.090625807713480916 0 0.47848832985178802 -0.1102183821819377 0 0.46995229443574082 -0.1014309660595869 0 0.46825575941164532 -0.10965945059734419 0 0.46995229443574082 -0.1014309660595869 0 0.4742594496689021 -0.092615343864389202 0 0.46646562634055633 -0.09386346017358313 0 0.4742594496689021 -0.092615343864389202 0 0.49321147578899482 -0.090625807713480916 0 0.47017294998607029 -0.076994586798646125 0 0.49321147578899482 -0.090625807713480916 0 0.47312466630679639 -0.072093927560503882 0 0.47017294998607029 -0.076994586798646125 0 0.49321147578899482 -0.090625807713480916 0 0.47017294998607029 -0.076994586798646125 0 0.4742594496689021 -0.092615343864389202 0 0.46634457919384692 -0.083350733071309635 0 0.46646562634055633 -0.09386346017358313 0 0.4742594496689021 -0.092615343864389202 0 0.47017294998607029 -0.076994586798646125 0 0.46634457919384692 -0.083350733071309635 0 0.49619370675653612 -0.086657254894478092 0 0.47312466630679639 -0.072093927560503882 0 0.49321147578899482 -0.090625807713480916 0 0.49619370675653612 -0.086657254894478092 0 0.47312466630679639 -0.072093927560503882 0 0.49321147578899482 -0.090625807713480916 0 0.49619370675653612 -0.086657254894478092 0 0.49321147578899482 -0.090625807713480916 0 0.49619370675653612 -0.086657254894478092 0 0.49735129563638281 -0.090246395756465217 0 0.49619370675653612 -0.086657254894478092 0 0.49999999999999861 -0.089060141765924417 0 0.49735129563638281 -0.090246395756465217 0 0.49619370675653612 -0.086657254894478092 0 0.49999999999999861 -0.089060141765924417 0 0.49999999999999861 -0.094642378651977235 0 0.49321147578899482 -0.090625807713480916 0 0.49735129563638281 -0.090246395756465217 0 0.49999999999999861 -0.094642378651977235 0 0.49321147578899482 -0.090625807713480916 0 0.49999999999999861 -0.094642378651977235 0 0.49999999999999861 -0.089060141765924417 0 0.49735129563638281 -0.090246395756465217 0 0.49619370675653612 -0.086657254894478092 0 0.50000000000000211 -0.081592095305658974 0 0.48962851404189012 -0.072728385538148962 0 0.49619370675653612 -0.086657254894478092 0 0.49999999999999861 -0.089060141765924417 0 0.50000000000000211 -0.081592095305658974 0 0.49619370675653612 -0.086657254894478092 0 0.50000000000000211 -0.081592095305658974 0 0.49619370675653612 -0.086657254894478092 0 0.48962851404189012 -0.072728385538148962 0 0.47312466630679639 -0.072093927560503882 0 0.49297427798567162 -0.058990777239412331 0 0.50000000000000211 -0.081592095305658974 0 0.48962851404189012 -0.072728385538148962 0 0.5 -0.054532796285212737 0 0.49297427798567162 -0.058990777239412331 0 0.50000000000000211 -0.081592095305658974 0 0.49297427798567162 -0.058990777239412331 0 0.48962851404189012 -0.072728385538148962 0 0.48584991916044579 -0.064307872690691409 0 0.48285586217512372 -0.055937471536790233 0 0.48584991916044579 -0.064307872690691409 0 0.47312466630679639 -0.072093927560503882 0 0.48962851404189012 -0.072728385538148962 0 0.48584991916044579 -0.064307872690691409 0 0.47312466630679639 -0.072093927560503882 0 0.48285586217512372 -0.055937471536790233 0 0.47312466630679639 -0.072093927560503882 0 0.47312466630679639 -0.072093927560503882 0 0.47017294998607029 -0.076994586798646125 0 0.46541916161217078 -0.058364836084716702 0 0.44971069034096228 -0.057312844796223103 0 0.47312466630679639 -0.072093927560503882 0 0.44971069034096228 -0.057312844796223103 0 0.47312466630679639 -0.072093927560503882 0 0.47312466630679639 -0.072093927560503882 0 0.47017294998607029 -0.076994586798646125 0 0.45115835640751878 -0.065744208719247951 0 0.44971069034096228 -0.057312844796223103 0 0.47312466630679639 -0.072093927560503882 0 0.45115835640751878 -0.065744208719247951 0 0.47017294998607029 -0.076994586798646125 0 0.45115835640751878 -0.065744208719247951 0 0.47017294998607029 -0.076994586798646125 0 0.4573311064707532 -0.077714381449990572 0 0.45115835640751878 -0.065744208719247951 0 0.45115835640751878 -0.065744208719247951 0 0.4362301830162208 -0.070473512679485151 0 0.43214376282896882 -0.054493830639847252 0 0.45115835640751878 -0.065744208719247951 0 0.4471189013521234 -0.075506172208895814 0 0.4362301830162208 -0.070473512679485151 0 0.4471189013521234 -0.075506172208895814 0 0.44057101865035803 -0.083260789943837885 0 0.4362301830162208 -0.070473512679485151 0 0.4573311064707532 -0.077714381449990572 0 0.45115835640751878 -0.065744208719247951 0 0.4471189013521234 -0.075506172208895814 0 0.44057101865035803 -0.083260789943837885 0 0.4504557485420152 -0.086363137462727294 0 0.44136974605144308 -0.1008360367532723 0 0.4471189013521234 -0.075506172208895814 0 0.44057101865035803 -0.083260789943837885 0 0.4504557485420152 -0.086363137462727294 0 0.4573311064707532 -0.077714381449990572 0 0.4471189013521234 -0.075506172208895814 0 0.4504557485420152 -0.086363137462727294 0 0.4504557485420152 -0.086363137462727294 0 0.45882149751924051 -0.091005038427720647 0 0.45823823293146387 -0.084608322602937033 0 0.4504557485420152 -0.086363137462727294 0 0.45882149751924051 -0.091005038427720647 0 0.45478999863151759 -0.10122892611880011 0 0.4573311064707532 -0.077714381449990572 0 0.45823823293146387 -0.084608322602937033 0 0.46634457919384692 -0.083350733071309635 0 0.4573311064707532 -0.077714381449990572 0 0.4504557485420152 -0.086363137462727294 0 0.45823823293146387 -0.084608322602937033 0 0.47017294998607029 -0.076994586798646125 0 0.4573311064707532 -0.077714381449990572 0 0.46634457919384692 -0.083350733071309635 0 0.47017294998607029 -0.076994586798646125 0 0.46634457919384692 -0.083350733071309635 0 0.45882149751924051 -0.091005038427720647 0 0.46634457919384692 -0.083350733071309635 0 0.46646562634055633 -0.09386346017358313 0 0.45882149751924051 -0.091005038427720647 0 0.45823823293146387 -0.084608322602937033 0 0.46634457919384692 -0.083350733071309635 0 0.45882149751924051 -0.091005038427720647 0 0.46229230690581252 -0.1007981934806805 0 0.46646562634055633 -0.09386346017358313 0 0.46995229443574082 -0.1014309660595869 0 0.46229230690581252 -0.1007981934806805 0 0.46646562634055633 -0.09386346017358313 0 0.46995229443574082 -0.1014309660595869 0 0.46229230690581252 -0.1007981934806805 0 0.46825575941164532 -0.10965945059734419 0 0.46229230690581252 -0.1007981934806805 0 0.46074171495769511 -0.109824167696665 0 0.46825575941164532 -0.10965945059734419 0 0.46229230690581252 -0.1007981934806805 0 0.45478999863151759 -0.10122892611880011 0 0.46074171495769511 -0.109824167696665 0 0.45882149751924051 -0.091005038427720647 0 0.46229230690581252 -0.1007981934806805 0 0.45478999863151759 -0.10122892611880011 0 0.4504557485420152 -0.086363137462727294 0 0.45478999863151759 -0.10122892611880011 0 0.44136974605144308 -0.1008360367532723 0 0.45478999863151759 -0.10122892611880011 0 0.44136974605144308 -0.1008360367532723 0 0.45505897781290011 -0.11854698289173481 0 0.44136974605144308 -0.1008360367532723 0 0.45505897781290011 -0.11854698289173481 0 0.45505897781290011 -0.11854698289173481 0 0.42820915951309818 -0.1162839919565892 0 0.44136974605144308 -0.1008360367532723 0 0.45505897781290011 -0.11854698289173481 0 0.42820915951309818 -0.1162839919565892 0 0.45505897781290011 -0.11854698289173481 0 0.42820915951309818 -0.1162839919565892 0 0.44057562190611399 -0.12997369199362011 0 0.45505897781290011 -0.11854698289173481 0 0.46376518391457972 -0.12981095665039361 0 0.45478999863151759 -0.10122892611880011 0 0.45505897781290011 -0.11854698289173481 0 0.46074171495769511 -0.109824167696665 0 0.46980359469853572 -0.1197897076648328 0 0.45505897781290011 -0.11854698289173481 0 0.46074171495769511 -0.109824167696665 0 0.46980359469853572 -0.1197897076648328 0 0.46074171495769511 -0.109824167696665 0 0.46825575941164532 -0.10965945059734419 0 0.46980359469853572 -0.1197897076648328 0 0.45505897781290011 -0.11854698289173481 0 0.46980359469853572 -0.1197897076648328 0 0.45505897781290011 -0.11854698289173481 0 0.46376518391457972 -0.12981095665039361 0 0.42820915951309818 -0.1162839919565892 0 0.40135934121329608 -0.11402100102144599 0 0.42820915951309818 -0.1162839919565892 0 0.41557082861872602 -0.1015099959664085 0 0.40135934121329608 -0.11402100102144599 0 0.41175386903683969 -0.1248553976370905 0 0.42820915951309818 -0.1162839919565892 0 0.40135934121329608 -0.11402100102144599 0 0.44136974605144308 -0.1008360367532723 0 0.42820915951309818 -0.1162839919565892 0 0.41557082861872602 -0.1015099959664085 0 0.44136974605144308 -0.1008360367532723 0 0.41557082861872602 -0.1015099959664085 0 0.42768051428998738 -0.083125090614808855 0 0.41557082861872602 -0.1015099959664085 0 0.40135934121329608 -0.11402100102144599 0 0.41557082861872602 -0.1015099959664085 0 0.40614226120986008 -0.076450084924399364 0 0.40117119400379841 -0.099952937508594589 0 0.41557082861872602 -0.1015099959664085 0 0.42768051428998738 -0.083125090614808855 0 0.40614226120986008 -0.076450084924399364 0 0.44136974605144308 -0.1008360367532723 0 0.42768051428998738 -0.083125090614808855 0 0.44057101865035803 -0.083260789943837885 0 0.44136974605144308 -0.1008360367532723 0 0.42768051428998738 -0.083125090614808855 0 0.44057101865035803 -0.083260789943837885 0 0.42768051428998738 -0.083125090614808855 0 0.4362301830162208 -0.070473512679485151 0 0.42768051428998738 -0.083125090614808855 0 0.4362301830162208 -0.070473512679485151 0 0.42116249697035107 -0.069848903487581201 0 0.4362301830162208 -0.070473512679485151 0 0.42116249697035107 -0.069848903487581201 0 0.43214376282896882 -0.054493830639847252 0 0.42768051428998738 -0.083125090614808855 0 0.42116249697035107 -0.069848903487581201 0 0.40614226120986008 -0.076450084924399364 0 0.42116249697035107 -0.069848903487581201 0 0.40614226120986008 -0.076450084924399364 0 0.41841841219472159 -0.056339065240192318 0 0.40614226120986008 -0.076450084924399364 0 0.38764276873729592 -0.076866116550238214 0 0.39256525790004138 -0.062403065823825023 0 0.40614226120986008 -0.076450084924399364 0 0.40484650448902582 -0.049114342796235652 0 0.40614226120986008 -0.076450084924399364 0 0.40484650448902582 -0.049114342796235652 0 0.39256525790004138 -0.062403065823825023 0 0.37680564080728779 -0.068723262782962341 0 0.38764276873729592 -0.076866116550238214 0 0.39256525790004138 -0.062403065823825023 0 0.37680564080728779 -0.068723262782962341 0 0.38764276873729592 -0.076866116550238214 0 0.37490085054651162 -0.082155585246791674 0 0.38764276873729592 -0.076866116550238214 0 0.3883991410789166 -0.094986109923514847 0 0.37490085054651162 -0.082155585246791674 0 0.3883991410789166 -0.094986109923514847 0 0.37490085054651162 -0.082155585246791674 0 0.36922409297354142 -0.096701827198606455 0 0.40614226120986008 -0.076450084924399364 0 0.38764276873729592 -0.076866116550238214 0 0.3883991410789166 -0.094986109923514847 0 0.40614226120986008 -0.076450084924399364 0 0.40117119400379841 -0.099952937508594589 0 0.3883991410789166 -0.094986109923514847 0 0.40117119400379841 -0.099952937508594589 0 0.3883991410789166 -0.094986109923514847 0 0.38860235979811641 -0.11294580069867111 0 0.41557082861872602 -0.1015099959664085 0 0.40117119400379841 -0.099952937508594589 0 0.40135934121329608 -0.11402100102144599 0 0.40117119400379841 -0.099952937508594589 0 0.38860235979811641 -0.11294580069867111 0 0.40135934121329608 -0.11402100102144599 0 0.37947436298086301 -0.1045240376017042 0 0.3883991410789166 -0.094986109923514847 0 0.38860235979811641 -0.11294580069867111 0 0.3883991410789166 -0.094986109923514847 0 0.36922409297354142 -0.096701827198606455 0 0.37947436298086301 -0.1045240376017042 0 0.3883991410789166 -0.094986109923514847 0 0.36922409297354142 -0.096701827198606455 0 0.37947436298086301 -0.1045240376017042 0 0.38860235979811641 -0.11294580069867111 0 0.37167185807287761 -0.11346241258602451 0 0.38860235979811641 -0.11294580069867111 0 0.37167185807287761 -0.11346241258602451 0 0.38295297505005249 -0.1302249446019971 0 0.38860235979811641 -0.11294580069867111 0 0.40135934121329608 -0.11402100102144599 0 0.38295297505005249 -0.1302249446019971 0 0.41175386903683969 -0.1248553976370905 0 0.40135934121329608 -0.11402100102144599 0 0.40095730074538971 -0.1320645110756441 0 0.40135934121329608 -0.11402100102144599 0 0.38295297505005249 -0.1302249446019971 0 0.38860235979811641 -0.11294580069867111 0 0.40135934121329608 -0.11402100102144599 0 0.41456033186622132 -0.021578167952180882 0 0.41846660029514471 -0.029031036874195379 0 0.42561209215279511 -0.01464492431964568 0 0.41456033186622132 -0.021578167952180882 0 0.40710064828154058 -0.030413416899445479 0 0.40355074776819139 -0.02177860066807185 0 0.41456033186622132 -0.021578167952180882 0 0.41846660029514471 -0.029031036874195379 0 0.40710064828154058 -0.030413416899445479 0 0.41456033186622132 -0.021578167952180882 0 0.41271323756968847 -0.0068874300950638031 0 0.40355074776819139 -0.02177860066807185 0 0.42492746993046132 0.01324191339265 0 0.41271323756968847 -0.0068874300950638031 0 0.42561209215279511 -0.01464492431964568 0 0.41456033186622132 -0.021578167952180882 0 0.41271323756968847 -0.0068874300950638031 0 0.42561209215279511 -0.01464492431964568 0 0.42492746993046132 0.01324191339265 0 0.42561209215279511 -0.01464492431964568 0 0.42492746993046132 0.01324191339265 0 0.44202564452823778 -0.01084437810448592 0 0.42561209215279511 -0.01464492431964568 0 0.43805354695881837 -0.028810858820005138 0 0.44202564452823778 -0.01084437810448592 0 0.42561209215279511 -0.01464492431964568 0 0.41846660029514471 -0.029031036874195379 0 0.42561209215279511 -0.01464492431964568 0 0.42629671437512878 -0.042531762031941457 0 0.43805354695881837 -0.028810858820005138 0 0.42561209215279511 -0.01464492431964568 0 0.42629671437512878 -0.042531762031941457 0 0.42561209215279511 -0.01464492431964568 0 0.42629671437512878 -0.042531762031941457 0 0.44296949673594072 -0.042056236220664088 0 0.43805354695881837 -0.028810858820005138 0 0.42629671437512878 -0.042531762031941457 0 0.42629671437512878 -0.042531762031941457 0 0.42634966159281851 -0.044688470387087183 0 0.42634966159281851 -0.044688470387087183 0 0.42263067023141532 -0.04959421298909767 0 0.41948282516863111 -0.042564886349376649 0 0.42629671437512878 -0.042531762031941457 0 0.42634966159281851 -0.044688470387087183 0 0.41948282516863111 -0.042564886349376649 0 0.44971069034096228 -0.057312844796223103 0 0.42629671437512878 -0.042531762031941457 0 0.43214376282896882 -0.054493830639847252 0 0.42629671437512878 -0.042531762031941457 0 0.42634966159281851 -0.044688470387087183 0 0.43214376282896882 -0.054493830639847252 0 0.43214376282896882 -0.054493830639847252 0 0.42263067023141532 -0.04959421298909767 0 0.41841841219472159 -0.056339065240192318 0 0.42634966159281851 -0.044688470387087183 0 0.43214376282896882 -0.054493830639847252 0 0.42263067023141532 -0.04959421298909767 0 0.42116249697035107 -0.069848903487581201 0 0.43214376282896882 -0.054493830639847252 0 0.41841841219472159 -0.056339065240192318 0 0.40614226120986008 -0.076450084924399364 0 0.41841841219472159 -0.056339065240192318 0 0.40484650448902582 -0.049114342796235652 0 0.42263067023141532 -0.04959421298909767 0 0.41841841219472159 -0.056339065240192318 0 0.41503643136225221 -0.045596569439311459 0 0.41841841219472159 -0.056339065240192318 0 0.41503643136225221 -0.045596569439311459 0 0.40484650448902582 -0.049114342796235652 0 0.40710064828154058 -0.030413416899445479 0 0.41503643136225221 -0.045596569439311459 0 0.40484650448902582 -0.049114342796235652 0 0.41846660029514471 -0.029031036874195379 0 0.40710064828154058 -0.030413416899445479 0 0.42629671437512878 -0.042531762031941457 0 0.40710064828154058 -0.030413416899445479 0 0.42629671437512878 -0.042531762031941457 0 0.41948282516863111 -0.042564886349376649 0 0.40710064828154058 -0.030413416899445479 0 0.42629671437512878 -0.042531762031941457 0 0.42263067023141532 -0.04959421298909767 0 0.41948282516863111 -0.042564886349376649 0 0.41503643136225221 -0.045596569439311459 0 0.40710064828154058 -0.030413416899445479 0 0.41948282516863111 -0.042564886349376649 0 0.41503643136225221 -0.045596569439311459 0 0.40484650448902582 -0.049114342796235652 0 0.39036741755932308 -0.040607851373931192 0 0.393561829139917 -0.030178618156218119 0 0.40484650448902582 -0.049114342796235652 0 0.393561829139917 -0.030178618156218119 0 0.40355074776819139 -0.02177860066807185 0 0.40484650448902582 -0.049114342796235652 0 0.40355074776819139 -0.02177860066807185 0 0.40710064828154058 -0.030413416899445479 0 0.40484650448902582 -0.049114342796235652 0 0.40355074776819139 -0.02177860066807185 0 0.40484650448902582 -0.049114342796235652 0 0.3907718625089332 -0.050853657939036623 0 0.39036741755932308 -0.040607851373931192 0 0.40484650448902582 -0.049114342796235652 0 0.3907718625089332 -0.050853657939036623 0 0.39256525790004138 -0.062403065823825023 0 0.37680564080728779 -0.068723262782962341 0 0.39256525790004138 -0.062403065823825023 0 0.37923132925844483 -0.055197270129045559 0 0.3907718625089332 -0.050853657939036623 0 0.39256525790004138 -0.062403065823825023 0 0.37923132925844483 -0.055197270129045559 0 0.3907718625089332 -0.050853657939036623 0 0.37923132925844483 -0.055197270129045559 0 0.38058755405000361 -0.044086579031588899 0 0.37923132925844483 -0.055197270129045559 0 0.38058755405000361 -0.044086579031588899 0 0.3688709770808889 -0.047684126888789813 0 0.39036741755932308 -0.040607851373931192 0 0.38253389456265152 -0.033339779655561383 0 0.393561829139917 -0.030178618156218119 0 0.3907718625089332 -0.050853657939036623 0 0.39036741755932308 -0.040607851373931192 0 0.38058755405000361 -0.044086579031588899 0 0.39036741755932308 -0.040607851373931192 0 0.38058755405000361 -0.044086579031588899 0 0.38253389456265152 -0.033339779655561383 0 0.38253389456265152 -0.033339779655561383 0 0.37412152348603689 -0.027676838713283219 0 0.37174984332978012 -0.036836788203168921 0 0.38058755405000361 -0.044086579031588899 0 0.38253389456265152 -0.033339779655561383 0 0.37174984332978012 -0.036836788203168921 0 0.37580749604373148 -0.01634456818302113 0 0.38528302211247978 -0.022243302254165011 0 0.39361439243422369 -0.0085510178686497174 0 0.38253389456265152 -0.033339779655561383 0 0.38528302211247978 -0.022243302254165011 0 0.37412152348603689 -0.027676838713283219 0 0.37580749604373148 -0.01634456818302113 0 0.38528302211247978 -0.022243302254165011 0 0.37412152348603689 -0.027676838713283219 0 0.38253389456265152 -0.033339779655561383 0 0.38528302211247978 -0.022243302254165011 0 0.393561829139917 -0.030178618156218119 0 0.38528302211247978 -0.022243302254165011 0 0.393561829139917 -0.030178618156218119 0 0.39404996256296099 -0.018569633851383532 0 0.393561829139917 -0.030178618156218119 0 0.39404996256296099 -0.018569633851383532 0 0.40355074776819139 -0.02177860066807185 0 0.39404996256296099 -0.018569633851383532 0 0.40355074776819139 -0.02177860066807185 0 0.39361439243422369 -0.0085510178686497174 0 0.38528302211247978 -0.022243302254165011 0 0.39404996256296099 -0.018569633851383532 0 0.39361439243422369 -0.0085510178686497174 0 0.40225499104735712 0.0055571414600919487 0 0.41271323756968847 -0.0068874300950638031 0 0.40355074776819139 -0.02177860066807185 0 0.40225499104735712 0.0055571414600919487 0 0.40355074776819139 -0.02177860066807185 0 0.39361439243422369 -0.0085510178686497174 0 0.40225499104735712 0.0055571414600919487 0 0.40355074776819139 -0.02177860066807185 0 0.37580749604373148 -0.01634456818302113 0 0.39361439243422369 -0.0085510178686497174 0 0.37245117985273513 -0.0043477990582807607 0 0.38252354203690109 0.0067354487879814646 0 0.39361439243422369 -0.0085510178686497174 0 0.37245117985273513 -0.0043477990582807607 0 0.37245117985273513 -0.0043477990582807607 0 0.3650754398300603 -0.012948292001264331 0 0.35674185338391229 -0.0051836605579625864 0 0.3654642924504018 0.0061638334601938349 0 0.37245117985273513 -0.0043477990582807607 0 0.35674185338391229 -0.0051836605579625864 0 0.37580749604373148 -0.01634456818302113 0 0.37245117985273513 -0.0043477990582807607 0 0.3650754398300603 -0.012948292001264331 0 0.3650754398300603 -0.012948292001264331 0 0.35681303624600141 -0.016774284202452899 0 0.35674185338391229 -0.0051836605579625864 0 0.37412152348603689 -0.027676838713283219 0 0.36503520346978668 -0.022509170400363172 0 0.36482451149080358 -0.03107430615188439 0 0.37580749604373148 -0.01634456818302113 0 0.37412152348603689 -0.027676838713283219 0 0.36503520346978668 -0.022509170400363172 0 0.37580749604373148 -0.01634456818302113 0 0.3650754398300603 -0.012948292001264331 0 0.36503520346978668 -0.022509170400363172 0 0.3650754398300603 -0.012948292001264331 0 0.36503520346978668 -0.022509170400363172 0 0.35681303624600141 -0.016774284202452899 0 0.36503520346978668 -0.022509170400363172 0 0.36482451149080358 -0.03107430615188439 0 0.35518798349304798 -0.028568303178915209 0 0.35518798349304798 -0.028568303178915209 0 0.34621007899342371 -0.031060747997419039 0 0.34276048597613251 -0.014871006071638619 0 0.35518798349304798 -0.028568303178915209 0 0.35681303624600141 -0.016774284202452899 0 0.34276048597613251 -0.014871006071638619 0 0.36503520346978668 -0.022509170400363172 0 0.35518798349304798 -0.028568303178915209 0 0.35681303624600141 -0.016774284202452899 0 0.3481515512902057 0.0094337117626711146 0 0.35674185338391229 -0.0051836605579625864 0 0.34276048597613251 -0.014871006071638619 0 0.3481515512902057 0.0094337117626711146 0 0.34276048597613251 -0.014871006071638619 0 0.35681303624600141 -0.016774284202452899 0 0.35674185338391229 -0.0051836605579625864 0 0.34276048597613251 -0.014871006071638619 0 0.3300625678273989 -0.005156065376405658 0 0.34276048597613251 -0.014871006071638619 0 0.33489971093878212 -0.022565209460597511 0 0.34182094924321188 0.0055131091066776688 0 0.3300625678273989 -0.005156065376405658 0 0.34276048597613251 -0.014871006071638619 0 0.3300625678273989 -0.005156065376405658 0 0.33489971093878212 -0.022565209460597511 0 0.32362041585567147 -0.01451512086194484 0 0.34621007899342371 -0.031060747997419039 0 0.34276048597613251 -0.014871006071638619 0 0.33736942066205849 -0.039175723905948152 0 0.34276048597613251 -0.014871006071638619 0 0.33489971093878212 -0.022565209460597511 0 0.33736942066205849 -0.039175723905948152 0 0.34276048597613251 -0.014871006071638619 0 0.33736942066205849 -0.039175723905948152 0 0.32819112396193961 -0.03087776820930908 0 0.33489971093878212 -0.022565209460597511 0 0.32394794688159179 -0.023590594273305291 0 0.32819112396193961 -0.03087776820930908 0 0.33489971093878212 -0.022565209460597511 0 0.33209224902456569 -0.034546112454866787 0 0.32394794688159179 -0.023590594273305291 0 0.3153337047573595 -0.017473649535025119 0 0.32362041585567147 -0.01451512086194484 0 0.33489971093878212 -0.022565209460597511 0 0.32394794688159179 -0.023590594273305291 0 0.32362041585567147 -0.01451512086194484 0 0.32394794688159179 -0.023590594273305291 0 0.31648645991877677 -0.025863277597234419 0 0.3214208946373453 -0.031521328021920342 0 0.32819112396193961 -0.03087776820930908 0 0.32394794688159179 -0.023590594273305291 0 0.3214208946373453 -0.031521328021920342 0 0.31648645991877677 -0.025863277597234419 0 0.31332669801664459 -0.032653999646228463 0 0.3214208946373453 -0.031521328021920342 0 0.31648645991877677 -0.025863277597234419 0 0.31332669801664459 -0.032653999646228463 0 0.30840305530094259 -0.024076816509692851 0 0.31648645991877677 -0.025863277597234419 0 0.3153337047573595 -0.017473649535025119 0 0.30840305530094259 -0.024076816509692851 0 0.32394794688159179 -0.023590594273305291 0 0.31648645991877677 -0.025863277597234419 0 0.3153337047573595 -0.017473649535025119 0 0.3153337047573595 -0.017473649535025119 0 0.31326154193058459 -0.0060169499919069582 0 0.32362041585567147 -0.01451512086194484 0 0.32068242961533377 0.0061106030629028869 0 0.3300625678273989 -0.005156065376405658 0 0.31326154193058459 -0.0060169499919069582 0 0.3300625678273989 -0.005156065376405658 0 0.31326154193058459 -0.0060169499919069582 0 0.32362041585567147 -0.01451512086194484 0 0.31699137168635971 -0.050533812814234469 0 0.3183622264696756 -0.064376166803237572 0 0.30260626249585187 -0.058003311883603047 0 0.32607404864551293 -0.053514074645597251 0 0.31699137168635971 -0.050533812814234469 0 0.32446903249845932 -0.044805052297630349 0 0.32607404864551293 -0.053514074645597251 0 0.31699137168635971 -0.050533812814234469 0 0.3183622264696756 -0.064376166803237572 0 0.31699137168635971 -0.050533812814234469 0 0.31927875260037508 -0.039865513329840757 0 0.32446903249845932 -0.044805052297630349 0 0.31699137168635971 -0.050533812814234469 0 0.31927875260037508 -0.039865513329840757 0 0.30895673260811007 -0.041586294683428088 0 0.31927875260037508 -0.039865513329840757 0 0.31332669801664459 -0.032653999646228463 0 0.30895673260811007 -0.041586294683428088 0 0.31927875260037508 -0.039865513329840757 0 0.31332669801664459 -0.032653999646228463 0 0.3214208946373453 -0.031521328021920342 0 0.31927875260037508 -0.039865513329840757 0 0.3214208946373453 -0.031521328021920342 0 0.32697396105589638 -0.038065847139854718 0 0.32819112396193961 -0.03087776820930908 0 0.3214208946373453 -0.031521328021920342 0 0.32697396105589638 -0.038065847139854718 0 0.32607404864551293 -0.053514074645597251 0 0.32446903249845932 -0.044805052297630349 0 0.33302702850415222 -0.042046013558624543 0 0.31927875260037508 -0.039865513329840757 0 0.32697396105589638 -0.038065847139854718 0 0.32446903249845932 -0.044805052297630349 0 0.33302702850415222 -0.042046013558624543 0 0.33736942066205849 -0.039175723905948152 0 0.34952242584245569 -0.041627958833174147 0 0.33489971093878212 -0.022565209460597511 0 0.33209224902456569 -0.034546112454866787 0 0.33736942066205849 -0.039175723905948152 0 0.32697396105589638 -0.038065847139854718 0 0.32446903249845932 -0.044805052297630349 0 0.33302702850415222 -0.042046013558624543 0 0.32819112396193961 -0.03087776820930908 0 0.32697396105589638 -0.038065847139854718 0 0.33209224902456569 -0.034546112454866787 0 0.32697396105589638 -0.038065847139854718 0 0.33302702850415222 -0.042046013558624543 0 0.33209224902456569 -0.034546112454866787 0 0.33302702850415222 -0.042046013558624543 0 0.33209224902456569 -0.034546112454866787 0 0.33736942066205849 -0.039175723905948152 0 0.33302702850415222 -0.042046013558624543 0 0.35535226919907931 -0.052569709949439963 0 0.34153803668615851 -0.070231779016161747 0 0.32607404864551293 -0.053514074645597251 0 0.33302702850415222 -0.042046013558624543 0 0.34153803668615851 -0.070231779016161747 0 0.33302702850415222 -0.042046013558624543 0 0.34153803668615851 -0.070231779016161747 0 0.35535226919907931 -0.052569709949439963 0 0.36379097136456401 -0.06223545454115488 0 0.34153803668615851 -0.070231779016161747 0 0.33302702850415222 -0.042046013558624543 0 0.35535226919907931 -0.052569709949439963 0 0.34952242584245569 -0.041627958833174147 0 0.34621007899342371 -0.031060747997419039 0 0.33736942066205849 -0.039175723905948152 0 0.34952242584245569 -0.041627958833174147 0 0.35518798349304798 -0.028568303178915209 0 0.34621007899342371 -0.031060747997419039 0 0.34952242584245569 -0.041627958833174147 0 0.35535226919907931 -0.052569709949439963 0 0.34952242584245569 -0.041627958833174147 0 0.3609138217500219 -0.039635606238651103 0 0.35518798349304798 -0.028568303178915209 0 0.34952242584245569 -0.041627958833174147 0 0.3609138217500219 -0.039635606238651103 0 0.36482451149080358 -0.03107430615188439 0 0.35518798349304798 -0.028568303178915209 0 0.3609138217500219 -0.039635606238651103 0 0.36482451149080358 -0.03107430615188439 0 0.3609138217500219 -0.039635606238651103 0 0.37174984332978012 -0.036836788203168921 0 0.3609138217500219 -0.039635606238651103 0 0.37174984332978012 -0.036836788203168921 0 0.3688709770808889 -0.047684126888789813 0 0.35535226919907931 -0.052569709949439963 0 0.3609138217500219 -0.039635606238651103 0 0.3688709770808889 -0.047684126888789813 0 0.38058755405000361 -0.044086579031588899 0 0.37174984332978012 -0.036836788203168921 0 0.3688709770808889 -0.047684126888789813 0 0.37412152348603689 -0.027676838713283219 0 0.36482451149080358 -0.03107430615188439 0 0.37174984332978012 -0.036836788203168921 0 0.35535226919907931 -0.052569709949439963 0 0.36379097136456401 -0.06223545454115488 0 0.3688709770808889 -0.047684126888789813 0 0.37923132925844483 -0.055197270129045559 0 0.36379097136456401 -0.06223545454115488 0 0.3688709770808889 -0.047684126888789813 0 0.37680564080728779 -0.068723262782962341 0 0.37923132925844483 -0.055197270129045559 0 0.36379097136456401 -0.06223545454115488 0 0.37680564080728779 -0.068723262782962341 0 0.36379097136456401 -0.06223545454115488 0 0.36094757515552439 -0.079006578480529915 0 0.37680564080728779 -0.068723262782962341 0 0.37490085054651162 -0.082155585246791674 0 0.36094757515552439 -0.079006578480529915 0 0.36094757515552439 -0.079006578480529915 0 0.36922409297354142 -0.096701827198606455 0 0.35004904486816618 -0.098417544473698382 0 0.37490085054651162 -0.082155585246791674 0 0.36094757515552439 -0.079006578480529915 0 0.36922409297354142 -0.096701827198606455 0 0.35004904486816618 -0.098417544473698382 0 0.34153803668615851 -0.070231779016161747 0 0.36094757515552439 -0.079006578480529915 0 0.35004904486816618 -0.098417544473698382 0 0.34153803668615851 -0.070231779016161747 0 0.36379097136456401 -0.06223545454115488 0 0.36094757515552439 -0.079006578480529915 0 0.34153803668615851 -0.070231779016161747 0 0.37167185807287761 -0.11346241258602451 0 0.35729782687748668 -0.1224232163281227 0 0.36834301720830293 -0.1321852586222127 0 0.37167185807287761 -0.11346241258602451 0 0.35004904486816618 -0.098417544473698382 0 0.35729782687748668 -0.1224232163281227 0 0.37947436298086301 -0.1045240376017042 0 0.37167185807287761 -0.11346241258602451 0 0.36922409297354142 -0.096701827198606455 0 0.37167185807287761 -0.11346241258602451 0 0.36922409297354142 -0.096701827198606455 0 0.35004904486816618 -0.098417544473698382 0 0.36922409297354142 -0.096701827198606455 0 0.35004904486816618 -0.098417544473698382 0 0.35004904486816618 -0.098417544473698382 0 0.35729782687748668 -0.1224232163281227 0 0.35729782687748668 -0.1224232163281227 0 0.33937323648176448 -0.11833606120292429 0 0.34515188335384589 -0.13015137162225771 0 0.35004904486816618 -0.098417544473698382 0 0.35729782687748668 -0.1224232163281227 0 0.33937323648176448 -0.11833606120292429 0 0.33937323648176448 -0.11833606120292429 0 0.32572246360517171 -0.1005942031964024 0 0.32197047621050567 -0.12202724385873261 0 0.35004904486816618 -0.098417544473698382 0 0.33937323648176448 -0.11833606120292429 0 0.32572246360517171 -0.1005942031964024 0 0.35004904486816618 -0.098417544473698382 0 0.32572246360517171 -0.1005942031964024 0 0.32572246360517171 -0.1005942031964024 0 0.30139588234217729 -0.1027708619191067 0 0.32572246360517171 -0.1005942031964024 0 0.31224787802278048 -0.083135552257780521 0 0.30139588234217729 -0.1027708619191067 0 0.32572246360517171 -0.1005942031964024 0 0.32197047621050567 -0.12202724385873261 0 0.30139588234217729 -0.1027708619191067 0 0.32607404864551293 -0.053514074645597251 0 0.34153803668615851 -0.070231779016161747 0 0.3183622264696756 -0.064376166803237572 0 0.35004904486816618 -0.098417544473698382 0 0.32572246360517171 -0.1005942031964024 0 0.34153803668615851 -0.070231779016161747 0 0.32572246360517171 -0.1005942031964024 0 0.34153803668615851 -0.070231779016161747 0 0.31224787802278048 -0.083135552257780521 0 0.34153803668615851 -0.070231779016161747 0 0.3183622264696756 -0.064376166803237572 0 0.31224787802278048 -0.083135552257780521 0 0.3183622264696756 -0.064376166803237572 0 0.31224787802278048 -0.083135552257780521 0 0.30260626249585187 -0.058003311883603047 0 0.31224787802278048 -0.083135552257780521 0 0.28768564897897708 -0.079212431896236196 0 0.30260626249585187 -0.058003311883603047 0 0.31224787802278048 -0.083135552257780521 0 0.28768564897897708 -0.079212431896236196 0 0.30139588234217729 -0.1027708619191067 0 0.28768564897897708 -0.079212431896236196 0 0.30139588234217729 -0.1027708619191067 0 0.27882909727820898 -0.098431872915506646 0 0.28768564897897708 -0.079212431896236196 0 0.28679475279240813 -0.049688216630347323 0 0.28768564897897708 -0.079212431896236196 0 0.27074249253182359 -0.062234080741053417 0 0.28679475279240813 -0.049688216630347323 0 0.32197047621050567 -0.12202724385873261 0 0.30139588234217729 -0.1027708619191067 0 0.3055284986724322 -0.13187167800030389 0 0.30139588234217729 -0.1027708619191067 0 0.27894370479650821 -0.1235005680661046 0 0.27882909727820898 -0.098431872915506646 0 0.30139588234217729 -0.1027708619191067 0 0.27894370479650821 -0.1235005680661046 0 0.3055284986724322 -0.13187167800030389 0 0.27894370479650821 -0.1235005680661046 0 0.25813406033465791 -0.10474764002266811 0 0.24568474533025289 -0.1324058594048389 0 0.27882909727820898 -0.098431872915506646 0 0.25813406033465791 -0.10474764002266811 0 0.26338486502251762 -0.082721516093943043 0 0.27894370479650821 -0.1235005680661046 0 0.27882909727820898 -0.098431872915506646 0 0.25813406033465791 -0.10474764002266811 0 0.28768564897897708 -0.079212431896236196 0 0.26338486502251762 -0.082721516093943043 0 0.27074249253182359 -0.062234080741053417 0 0.28768564897897708 -0.079212431896236196 0 0.27882909727820898 -0.098431872915506646 0 0.26338486502251762 -0.082721516093943043 0 0.25813406033465791 -0.10474764002266811 0 0.26338486502251762 -0.082721516093943043 0 0.2346456727933289 -0.088972169602324333 0 0.26338486502251762 -0.082721516093943043 0 0.25027221821810919 -0.062730901385869536 0 0.27074249253182359 -0.062234080741053417 0 0.25027221821810919 -0.062730901385869536 0 0.25866620113783989 -0.046757675169255372 0 0.24214582632319651 -0.041520736204954882 0 0.25027221821810919 -0.062730901385869536 0 0.27074249253182359 -0.062234080741053417 0 0.25866620113783989 -0.046757675169255372 0 0.27074249253182359 -0.062234080741053417 0 0.27274943607909707 -0.04555071074447007 0 0.25866620113783989 -0.046757675169255372 0 0.27074249253182359 -0.062234080741053417 0 0.27274943607909707 -0.04555071074447007 0 0.28679475279240813 -0.049688216630347323 0 0.2767143356650838 -0.032292132107032023 0 0.27274943607909707 -0.04555071074447007 0 0.28679475279240813 -0.049688216630347323 0 0.2767143356650838 -0.032292132107032023 0 0.27274943607909707 -0.04555071074447007 0 0.26220933985042849 -0.032433202213526531 0 0.26220933985042849 -0.032433202213526531 0 0.25866620113783989 -0.046757675169255372 0 0.2532759523207152 -0.036614299393221493 0 0.25866620113783989 -0.046757675169255372 0 0.2532759523207152 -0.036614299393221493 0 0.24214582632319651 -0.041520736204954882 0 0.27274943607909707 -0.04555071074447007 0 0.26220933985042849 -0.032433202213526531 0 0.25866620113783989 -0.046757675169255372 0 0.26220933985042849 -0.032433202213526531 0 0.2532759523207152 -0.036614299393221493 0 0.25008244197139601 -0.025745583985149201 0 0.26220933985042849 -0.032433202213526531 0 0.25008244197139601 -0.025745583985149201 0 0.25276484127923371 -0.019516755232441469 0 0.25276484127923371 -0.019516755232441469 0 0.2631263141168535 -0.01125441421893807 0 0.26938603737576161 -0.017193929449815432 0 0.2767143356650838 -0.032292132107032023 0 0.26220933985042849 -0.032433202213526531 0 0.25276484127923371 -0.019516755232441469 0 0.2767143356650838 -0.032292132107032023 0 0.25276484127923371 -0.019516755232441469 0 0.25276484127923371 -0.019516755232441469 0 0.2631263141168535 -0.01125441421893807 0 0.2578183078052394 -0.0046775058104196422 0 0.2631263141168535 -0.01125441421893807 0 0.2578183078052394 -0.0046775058104196422 0 0.27253607000717928 -0.0036294663830757521 0 0.28501296041926999 0.0093602139014304017 0 0.27253607000717928 -0.0036294663830757521 0 0.28590385660583911 -0.020164001364458319 0 0.27253607000717928 -0.0036294663830757521 0 0.26938603737576161 -0.017193929449815432 0 0.28590385660583911 -0.020164001364458319 0 0.2631263141168535 -0.01125441421893807 0 0.27253607000717928 -0.0036294663830757521 0 0.26938603737576161 -0.017193929449815432 0 0.2767143356650838 -0.032292132107032023 0 0.25276484127923371 -0.019516755232441469 0 0.26938603737576161 -0.017193929449815432 0 0.2767143356650838 -0.032292132107032023 0 0.26938603737576161 -0.017193929449815432 0 0.28590385660583911 -0.020164001364458319 0 0.28590385660583911 -0.020164001364458319 0 0.29760161202640079 -0.0085083226429117434 0 0.29806866300600232 -0.02335687215564727 0 0.28590385660583911 -0.020164001364458319 0 0.29806866300600232 -0.02335687215564727 0 0.29464805436186231 -0.035657180291698107 0 0.28501296041926999 0.0093602139014304017 0 0.28590385660583911 -0.020164001364458319 0 0.29760161202640079 -0.0085083226429117434 0 0.28501296041926999 0.0093602139014304017 0 0.28590385660583911 -0.020164001364458319 0 0.31326154193058459 -0.0060169499919069582 0 0.29760161202640079 -0.0085083226429117434 0 0.30577042202405452 -0.01501283471095622 0 0.3074944344823875 0.011496651727256489 0 0.31326154193058459 -0.0060169499919069582 0 0.29760161202640079 -0.0085083226429117434 0 0.3153337047573595 -0.017473649535025119 0 0.31326154193058459 -0.0060169499919069582 0 0.30577042202405452 -0.01501283471095622 0 0.29806866300600232 -0.02335687215564727 0 0.30401943581703561 -0.03187052840786414 0 0.29464805436186231 -0.035657180291698107 0 0.29806866300600232 -0.02335687215564727 0 0.30840305530094259 -0.024076816509692851 0 0.30401943581703561 -0.03187052840786414 0 0.30577042202405452 -0.01501283471095622 0 0.29806866300600232 -0.02335687215564727 0 0.30840305530094259 -0.024076816509692851 0 0.29760161202640079 -0.0085083226429117434 0 0.30577042202405452 -0.01501283471095622 0 0.29806866300600232 -0.02335687215564727 0 0.3153337047573595 -0.017473649535025119 0 0.30577042202405452 -0.01501283471095622 0 0.30840305530094259 -0.024076816509692851 0 0.31332669801664459 -0.032653999646228463 0 0.30840305530094259 -0.024076816509692851 0 0.30401943581703561 -0.03187052840786414 0 0.30895673260811007 -0.041586294683428088 0 0.30260626249585187 -0.058003311883603047 0 0.29464805436186231 -0.035657180291698107 0 0.31332669801664459 -0.032653999646228463 0 0.30401943581703561 -0.03187052840786414 0 0.30895673260811007 -0.041586294683428088 0 0.30401943581703561 -0.03187052840786414 0 0.30895673260811007 -0.041586294683428088 0 0.29464805436186231 -0.035657180291698107 0 0.31699137168635971 -0.050533812814234469 0 0.30895673260811007 -0.041586294683428088 0 0.30260626249585187 -0.058003311883603047 0 0.30260626249585187 -0.058003311883603047 0 0.28679475279240813 -0.049688216630347323 0 0.29464805436186231 -0.035657180291698107 0 0.28768564897897708 -0.079212431896236196 0 0.30260626249585187 -0.058003311883603047 0 0.28679475279240813 -0.049688216630347323 0 0.28590385660583911 -0.020164001364458319 0 0.28679475279240813 -0.049688216630347323 0 0.29464805436186231 -0.035657180291698107 0 0.2767143356650838 -0.032292132107032023 0 0.28590385660583911 -0.020164001364458319 0 0.28679475279240813 -0.049688216630347323 0 0.28590385660583911 -0.020164001364458319 0 0.28679475279240813 -0.049688216630347323 0 0.29312572746286258 -0.20464563655242321 0 0.2848905136040118 -0.21720780253161859 0 0.2748317695671269 -0.2029203773905677 0 0.29312572746286258 -0.20464563655242321 0 0.2848905136040118 -0.21720780253161859 0 0.29989462272369211 -0.21714261987732519 0 0.29312572746286258 -0.20464563655242321 0 0.29510061914484631 -0.18758566281289751 0 0.2748317695671269 -0.2029203773905677 0 0.29510061914484631 -0.18758566281289751 0 0.30810068829884613 -0.2023073199081532 0 0.31352743949684381 -0.19134333435782239 0 0.29312572746286258 -0.20464563655242321 0 0.29510061914484631 -0.18758566281289751 0 0.30810068829884613 -0.2023073199081532 0 0.30810068829884613 -0.2023073199081532 0 0.29989462272369211 -0.21714261987732519 0 0.31544247245285928 -0.21292718535401231 0 0.29312572746286258 -0.20464563655242321 0 0.30810068829884613 -0.2023073199081532 0 0.29989462272369211 -0.21714261987732519 0 0.29989462272369211 -0.21714261987732519 0 0.30560114146447892 -0.2332258170388897 0 0.28820716764299942 -0.23139212569834081 0 0.29989462272369211 -0.21714261987732519 0 0.30560114146447892 -0.2332258170388897 0 0.31544247245285928 -0.21292718535401231 0 0.30560114146447892 -0.2332258170388897 0 0.31544247245285928 -0.21292718535401231 0 0.30560114146447892 -0.2332258170388897 0 0.29480530898933488 -0.25549319402309201 0 0.30560114146447892 -0.2332258170388897 0 0.30635858180106529 -0.24734379049848129 0 0.29480530898933488 -0.25549319402309201 0 0.30560114146447892 -0.2332258170388897 0 0.28826513947595322 -0.25029027606684112 0 0.30560114146447892 -0.2332258170388897 0 0.30635858180106529 -0.24734379049848129 0 0.31780496560718419 -0.24087842070372761 0 0.28820716764299942 -0.23139212569834081 0 0.27883740060271311 -0.2401928824517327 0 0.28826513947595322 -0.25029027606684112 0 0.30560114146447892 -0.2332258170388897 0 0.28820716764299942 -0.23139212569834081 0 0.28826513947595322 -0.25029027606684112 0 0.30560114146447892 -0.2332258170388897 0 0.29480530898933488 -0.25549319402309201 0 0.28826513947595322 -0.25029027606684112 0 0.2848905136040118 -0.21720780253161859 0 0.29989462272369211 -0.21714261987732519 0 0.28820716764299942 -0.23139212569834081 0 0.2848905136040118 -0.21720780253161859 0 0.28820716764299942 -0.23139212569834081 0 0.26839328062337792 -0.22993825313943619 0 0.28820716764299942 -0.23139212569834081 0 0.26839328062337792 -0.22993825313943619 0 0.27883740060271311 -0.2401928824517327 0 0.27048401466852201 -0.24915087490231269 0 0.27883740060271311 -0.2401928824517327 0 0.28826513947595322 -0.25029027606684112 0 0.26839328062337792 -0.22993825313943619 0 0.27048401466852201 -0.24915087490231269 0 0.27883740060271311 -0.2401928824517327 0 0.26839328062337792 -0.22993825313943619 0 0.27048401466852201 -0.24915087490231269 0 0.25616369049222548 -0.24239128145182301 0 0.26839328062337792 -0.22993825313943619 0 0.25616369049222548 -0.24239128145182301 0 0.24900600388781791 -0.2290071461893943 0 0.26839328062337792 -0.22993825313943619 0 0.25273416985964109 -0.2120531155792281 0 0.24900600388781791 -0.2290071461893943 0 0.26839328062337792 -0.22993825313943619 0 0.25273416985964109 -0.2120531155792281 0 0.2748317695671269 -0.2029203773905677 0 0.2848905136040118 -0.21720780253161859 0 0.26839328062337792 -0.22993825313943619 0 0.2748317695671269 -0.2029203773905677 0 0.2748317695671269 -0.2029203773905677 0 0.25725343700597442 -0.19058501030067529 0 0.27225077538701159 -0.17699572447292669 0 0.29510061914484631 -0.18758566281289751 0 0.2748317695671269 -0.2029203773905677 0 0.27225077538701159 -0.17699572447292669 0 0.25273416985964109 -0.2120531155792281 0 0.2748317695671269 -0.2029203773905677 0 0.25725343700597442 -0.19058501030067529 0 0.25725343700597442 -0.19058501030067529 0 0.27225077538701159 -0.17699572447292669 0 0.24849357928226631 -0.1676643122024345 0 0.27225077538701159 -0.17699572447292669 0 0.27100995347559198 -0.1482826141826081 0 0.24849357928226631 -0.1676643122024345 0 0.27225077538701159 -0.17699572447292669 0 0.27100995347559198 -0.1482826141826081 0 0.2963351616209311 -0.16415936896037731 0 0.27100995347559198 -0.1482826141826081 0 0.24568474533025289 -0.1324058594048389 0 0.24849357928226631 -0.1676643122024345 0 0.27894370479650821 -0.1235005680661046 0 0.27100995347559198 -0.1482826141826081 0 0.24568474533025289 -0.1324058594048389 0 0.27100995347559198 -0.1482826141826081 0 0.24568474533025289 -0.1324058594048389 0 0.27894370479650821 -0.1235005680661046 0 0.27100995347559198 -0.1482826141826081 0 0.29157677225247458 -0.14475492780598631 0 0.27894370479650821 -0.1235005680661046 0 0.29157677225247458 -0.14475492780598631 0 0.3055284986724322 -0.13187167800030389 0 0.27100995347559198 -0.1482826141826081 0 0.29157677225247458 -0.14475492780598631 0 0.2963351616209311 -0.16415936896037731 0 0.27100995347559198 -0.1482826141826081 0 0.2963351616209311 -0.16415936896037731 0 0.29157677225247458 -0.14475492780598631 0 0.31050680525198321 -0.15435951756777611 0 0.2963351616209311 -0.16415936896037731 0 0.29157677225247458 -0.14475492780598631 0 0.31050680525198321 -0.15435951756777611 0 0.3055284986724322 -0.13187167800030389 0 0.29510061914484631 -0.18758566281289751 0 0.27225077538701159 -0.17699572447292669 0 0.2963351616209311 -0.16415936896037731 0 0.31050680525198321 -0.15435951756777611 0 0.2963351616209311 -0.16415936896037731 0 0.31611074439250769 -0.172274431936218 0 0.29510061914484631 -0.18758566281289751 0 0.2963351616209311 -0.16415936896037731 0 0.3062066529752917 -0.17966192442265569 0 0.29510061914484631 -0.18758566281289751 0 0.3062066529752917 -0.17966192442265569 0 0.31352743949684381 -0.19134333435782239 0 0.2963351616209311 -0.16415936896037731 0 0.3062066529752917 -0.17966192442265569 0 0.31611074439250769 -0.172274431936218 0 0.3062066529752917 -0.17966192442265569 0 0.31611074439250769 -0.172274431936218 0 0.31352743949684381 -0.19134333435782239 0 0.33512513442961972 -0.17232992198425751 0 0.32528380344123969 -0.19262855366913509 0 0.31352743949684381 -0.19134333435782239 0 0.31611074439250769 -0.172274431936218 0 0.33512513442961972 -0.17232992198425751 0 0.31352743949684381 -0.19134333435782239 0 0.33512513442961972 -0.17232992198425751 0 0.31352743949684381 -0.19134333435782239 0 0.31611074439250769 -0.172274431936218 0 0.32746654159065369 -0.16169162856024241 0 0.33512513442961972 -0.17232992198425751 0 0.31050680525198321 -0.15435951756777611 0 0.31611074439250769 -0.172274431936218 0 0.32746654159065369 -0.16169162856024241 0 0.32746654159065369 -0.16169162856024241 0 0.3392974456473824 -0.1637241542497887 0 0.33512513442961972 -0.17232992198425751 0 0.32746654159065369 -0.16169162856024241 0 0.3392974456473824 -0.1637241542497887 0 0.33695891029772101 -0.15065815465988691 0 0.3392974456473824 -0.1637241542497887 0 0.34243102869239028 -0.15637169274733401 0 0.33695891029772101 -0.15065815465988691 0 0.3392974456473824 -0.1637241542497887 0 0.33512513442961972 -0.17232992198425751 0 0.3392974456473824 -0.1637241542497887 0 0.33512513442961972 -0.17232992198425751 0 0.34983587165821339 -0.1593794050834019 0 0.33512513442961972 -0.17232992198425751 0 0.34983587165821339 -0.1593794050834019 0 0.33512513442961972 -0.17232992198425751 0 0.32528380344123969 -0.19262855366913509 0 0.33717063597825148 -0.18473263600813189 0 0.33512513442961972 -0.17232992198425751 0 0.35006875833889439 -0.17444774385257469 0 0.33717063597825148 -0.18473263600813189 0 0.33512513442961972 -0.17232992198425751 0 0.32528380344123969 -0.19262855366913509 0 0.32197047621050567 -0.12202724385873261 0 0.32290404469847772 -0.14281985405472711 0 0.33499303616757059 -0.1363109016814206 0 0.32197047621050567 -0.12202724385873261 0 0.3055284986724322 -0.13187167800030389 0 0.32290404469847772 -0.14281985405472711 0 0.31050680525198321 -0.15435951756777611 0 0.32746654159065369 -0.16169162856024241 0 0.32290404469847772 -0.14281985405472711 0 0.31050680525198321 -0.15435951756777611 0 0.3055284986724322 -0.13187167800030389 0 0.32290404469847772 -0.14281985405472711 0 0.32746654159065369 -0.16169162856024241 0 0.32290404469847772 -0.14281985405472711 0 0.33695891029772101 -0.15065815465988691 0 0.34243102869239028 -0.15637169274733401 0 0.33695891029772101 -0.15065815465988691 0 0.34894343388856169 -0.14353530727656319 0 0.33695891029772101 -0.15065815465988691 0 0.33499303616757059 -0.1363109016814206 0 0.34894343388856169 -0.14353530727656319 0 0.32290404469847772 -0.14281985405472711 0 0.33695891029772101 -0.15065815465988691 0 0.33499303616757059 -0.1363109016814206 0 0.33937323648176448 -0.11833606120292429 0 0.32197047621050567 -0.12202724385873261 0 0.33499303616757059 -0.1363109016814206 0 0.33937323648176448 -0.11833606120292429 0 0.33499303616757059 -0.1363109016814206 0 0.34515188335384589 -0.13015137162225771 0 0.33499303616757059 -0.1363109016814206 0 0.34515188335384589 -0.13015137162225771 0 0.34894343388856169 -0.14353530727656319 0 0.35729782687748668 -0.1224232163281227 0 0.34515188335384589 -0.13015137162225771 0 0.34894343388856169 -0.14353530727656319 0 0.35729782687748668 -0.1224232163281227 0 0.34894343388856169 -0.14353530727656319 0 0.36454660888680779 -0.1464288881825469 0 0.34894343388856169 -0.14353530727656319 0 0.36454660888680779 -0.1464288881825469 0 0.34983587165821339 -0.1593794050834019 0 0.34243102869239028 -0.15637169274733401 0 0.34894343388856169 -0.14353530727656319 0 0.34983587165821339 -0.1593794050834019 0 0.36454660888680779 -0.1464288881825469 0 0.34983587165821339 -0.1593794050834019 0 0.36454660888680779 -0.1464288881825469 0 0.34983587165821339 -0.1593794050834019 0 0.36773353450711338 -0.15698297720979479 0 0.36454660888680779 -0.1464288881825469 0 0.38295297505005249 -0.1302249446019971 0 0.37561091871899799 -0.1480533809211643 0 0.36454660888680779 -0.1464288881825469 0 0.36773353450711338 -0.15698297720979479 0 0.36454660888680779 -0.1464288881825469 0 0.36773353450711338 -0.15698297720979479 0 0.37561091871899799 -0.1480533809211643 0 0.36773353450711338 -0.15698297720979479 0 0.37561091871899799 -0.1480533809211643 0 0.3771247630648128 -0.157885923951923 0 0.37167185807287761 -0.11346241258602451 0 0.36834301720830293 -0.1321852586222127 0 0.38295297505005249 -0.1302249446019971 0 0.35729782687748668 -0.1224232163281227 0 0.36454660888680779 -0.1464288881825469 0 0.35729782687748668 -0.1224232163281227 0 0.36454660888680779 -0.1464288881825469 0 0.36834301720830293 -0.1321852586222127 0 0.36454660888680779 -0.1464288881825469 0 0.36834301720830293 -0.1321852586222127 0 0.38295297505005249 -0.1302249446019971 0 0.36454660888680779 -0.1464288881825469 0 0.38295297505005249 -0.1302249446019971 0 0.35006875833889439 -0.17444774385257469 0 0.36919280359451911 -0.17063022471860559 0 0.34799558288450572 -0.1914954221587003 0 0.36919280359451911 -0.17063022471860559 0 0.34799558288450572 -0.1914954221587003 0 0.33717063597825148 -0.18473263600813189 0 0.35006875833889439 -0.17444774385257469 0 0.34799558288450572 -0.1914954221587003 0 0.34983587165821339 -0.1593794050834019 0 0.35966390461759279 -0.16474748626513849 0 0.36773353450711338 -0.15698297720979479 0 0.33512513442961972 -0.17232992198425751 0 0.35006875833889439 -0.17444774385257469 0 0.34983587165821339 -0.1593794050834019 0 0.3392974456473824 -0.1637241542497887 0 0.34243102869239028 -0.15637169274733401 0 0.34983587165821339 -0.1593794050834019 0 0.35006875833889439 -0.17444774385257469 0 0.34983587165821339 -0.1593794050834019 0 0.35966390461759279 -0.16474748626513849 0 0.35006875833889439 -0.17444774385257469 0 0.35966390461759279 -0.16474748626513849 0 0.36919280359451911 -0.17063022471860559 0 0.35966390461759279 -0.16474748626513849 0 0.36773353450711338 -0.15698297720979479 0 0.36919280359451911 -0.17063022471860559 0 0.36773353450711338 -0.15698297720979479 0 0.36919280359451911 -0.17063022471860559 0 0.3771247630648128 -0.157885923951923 0 0.36919280359451911 -0.17063022471860559 0 0.37433615171217749 -0.1899152871006021 0 0.38068989614137638 -0.17718137460984781 0 0.36919280359451911 -0.17063022471860559 0 0.37433615171217749 -0.1899152871006021 0 0.34799558288450572 -0.1914954221587003 0 0.37433615171217749 -0.1899152871006021 0 0.35965771244492362 -0.20119467706344871 0 0.34799558288450572 -0.1914954221587003 0 0.37433615171217749 -0.1899152871006021 0 0.36145195539903402 -0.21573726187366571 0 0.37433615171217749 -0.1899152871006021 0 0.37488268491145182 -0.1997144233745772 0 0.36145195539903402 -0.21573726187366571 0 0.37433615171217749 -0.1899152871006021 0 0.35965771244492362 -0.20119467706344871 0 0.36145195539903402 -0.21573726187366571 0 0.37488268491145182 -0.1997144233745772 0 0.36892526057749597 -0.22217252143789229 0 0.37936788332702509 -0.21107609881352871 0 0.37488268491145182 -0.1997144233745772 0 0.36892526057749597 -0.22217252143789229 0 0.37488268491145182 -0.1997144233745772 0 0.36145195539903402 -0.21573726187366571 0 0.36892526057749597 -0.22217252143789229 0 0.34552599748785329 -0.20986131213380141 0 0.34799558288450572 -0.1914954221587003 0 0.33952527505532609 -0.208620316996424 0 0.36145195539903402 -0.21573726187366571 0 0.35426572798371092 -0.20742177173867321 0 0.35114379269118012 -0.2167653945540978 0 0.35965771244492362 -0.20119467706344871 0 0.36145195539903402 -0.21573726187366571 0 0.35426572798371092 -0.20742177173867321 0 0.34552599748785329 -0.20986131213380141 0 0.35114379269118012 -0.2167653945540978 0 0.3377811576744531 -0.22076391409439919 0 0.35426572798371092 -0.20742177173867321 0 0.34552599748785329 -0.20986131213380141 0 0.35114379269118012 -0.2167653945540978 0 0.35426572798371092 -0.20742177173867321 0 0.34552599748785329 -0.20986131213380141 0 0.34799558288450572 -0.1914954221587003 0 0.35965771244492362 -0.20119467706344871 0 0.35426572798371092 -0.20742177173867321 0 0.34799558288450572 -0.1914954221587003 0 0.34799558288450572 -0.1914954221587003 0 0.32679836217449232 -0.21236061959879499 0 0.32528380344123969 -0.19262855366913509 0 0.33717063597825148 -0.18473263600813189 0 0.34799558288450572 -0.1914954221587003 0 0.32528380344123969 -0.19262855366913509 0 0.34799558288450572 -0.1914954221587003 0 0.32679836217449232 -0.21236061959879499 0 0.34799558288450572 -0.1914954221587003 0 0.33952527505532609 -0.208620316996424 0 0.32679836217449232 -0.21236061959879499 0 0.34552599748785329 -0.20986131213380141 0 0.33952527505532609 -0.208620316996424 0 0.3377811576744531 -0.22076391409439919 0 0.33952527505532609 -0.208620316996424 0 0.32679836217449232 -0.21236061959879499 0 0.3377811576744531 -0.22076391409439919 0 0.32679836217449232 -0.21236061959879499 0 0.31544247245285928 -0.21292718535401231 0 0.32528380344123969 -0.19262855366913509 0 0.30810068829884613 -0.2023073199081532 0 0.32528380344123969 -0.19262855366913509 0 0.31352743949684381 -0.19134333435782239 0 0.31544247245285928 -0.21292718535401231 0 0.32528380344123969 -0.19262855366913509 0 0.30810068829884613 -0.2023073199081532 0 0.31544247245285928 -0.21292718535401231 0 0.32528380344123969 -0.19262855366913509 0 0.31780496560718419 -0.24087842070372761 0 0.33011892513046681 -0.232669956800061 0 0.3298455907982431 -0.24615516722296901 0 0.31780496560718419 -0.24087842070372761 0 0.3298455907982431 -0.24615516722296901 0 0.31852702710394631 -0.25367689820505651 0 0.30635858180106529 -0.24734379049848129 0 0.31780496560718419 -0.24087842070372761 0 0.31852702710394631 -0.25367689820505651 0 0.30560114146447892 -0.2332258170388897 0 0.31780496560718419 -0.24087842070372761 0 0.32120384770231519 -0.22915653257474031 0 0.30560114146447892 -0.2332258170388897 0 0.32679836217449232 -0.21236061959879499 0 0.31544247245285928 -0.21292718535401231 0 0.30560114146447892 -0.2332258170388897 0 0.32679836217449232 -0.21236061959879499 0 0.32120384770231519 -0.22915653257474031 0 0.30560114146447892 -0.2332258170388897 0 0.32679836217449232 -0.21236061959879499 0 0.32679836217449232 -0.21236061959879499 0 0.32120384770231519 -0.22915653257474031 0 0.32861115883315661 -0.2240610994298021 0 0.32120384770231519 -0.22915653257474031 0 0.33011892513046681 -0.232669956800061 0 0.32861115883315661 -0.2240610994298021 0 0.31780496560718419 -0.24087842070372761 0 0.32120384770231519 -0.22915653257474031 0 0.33011892513046681 -0.232669956800061 0 0.33011892513046681 -0.232669956800061 0 0.3377811576744531 -0.22076391409439919 0 0.33894680765940233 -0.229761904922024 0 0.33011892513046681 -0.232669956800061 0 0.33894680765940233 -0.229761904922024 0 0.33806278575233828 -0.23887599820319419 0 0.32679836217449232 -0.21236061959879499 0 0.32861115883315661 -0.2240610994298021 0 0.3377811576744531 -0.22076391409439919 0 0.33011892513046681 -0.232669956800061 0 0.32861115883315661 -0.2240610994298021 0 0.3377811576744531 -0.22076391409439919 0 0.3377811576744531 -0.22076391409439919 0 0.33894680765940233 -0.229761904922024 0 0.349824362080351 -0.22673775059044179 0 0.33894680765940233 -0.229761904922024 0 0.33806278575233828 -0.23887599820319419 0 0.349824362080351 -0.22673775059044179 0 0.33806278575233828 -0.23887599820319419 0 0.34310357933249258 -0.24863535911735701 0 0.349824362080351 -0.22673775059044179 0 0.33011892513046681 -0.232669956800061 0 0.33806278575233828 -0.23887599820319419 0 0.3298455907982431 -0.24615516722296901 0 0.33806278575233828 -0.23887599820319419 0 0.3298455907982431 -0.24615516722296901 0 0.34310357933249258 -0.24863535911735701 0 0.34310357933249258 -0.24863535911735701 0 0.34856775908589038 -0.24155923664672929 0 0.35347629889361332 -0.250997389944911 0 0.34310357933249258 -0.24863535911735701 0 0.34856775908589038 -0.24155923664672929 0 0.349824362080351 -0.22673775059044179 0 0.34310357933249258 -0.24863535911735701 0 0.349824362080351 -0.22673775059044179 0 0.35467766277839641 -0.23682228319012841 0 0.36296783624354029 -0.24463061950120751 0 0.35467766277839641 -0.23682228319012841 0 0.3553660711969055 -0.24401908912064729 0 0.36296783624354029 -0.24463061950120751 0 0.34856775908589038 -0.24155923664672929 0 0.35467766277839641 -0.23682228319012841 0 0.3553660711969055 -0.24401908912064729 0 0.34856775908589038 -0.24155923664672929 0 0.3553660711969055 -0.24401908912064729 0 0.35347629889361332 -0.250997389944911 0 0.3553660711969055 -0.24401908912064729 0 0.36296783624354029 -0.24463061950120751 0 0.35347629889361332 -0.250997389944911 0 0.36145195539903402 -0.21573726187366571 0 0.34856775908589038 -0.24155923664672929 0 0.36145195539903402 -0.21573726187366571 0 0.34856775908589038 -0.24155923664672929 0 0.349824362080351 -0.22673775059044179 0 0.36145195539903402 -0.21573726187366571 0 0.34856775908589038 -0.24155923664672929 0 0.35467766277839641 -0.23682228319012841 0 0.35114379269118012 -0.2167653945540978 0 0.3377811576744531 -0.22076391409439919 0 0.349824362080351 -0.22673775059044179 0 0.36145195539903402 -0.21573726187366571 0 0.35114379269118012 -0.2167653945540978 0 0.349824362080351 -0.22673775059044179 0 0.36892526057749597 -0.22217252143789229 0 0.36296783624354029 -0.24463061950120751 0 0.3701274247105833 -0.2318109389480793 0 0.36892526057749597 -0.22217252143789229 0 0.36296783624354029 -0.24463061950120751 0 0.36145195539903402 -0.21573726187366571 0 0.35467766277839641 -0.23682228319012841 0 0.36892526057749597 -0.22217252143789229 0 0.3701274247105833 -0.2318109389480793 0 0.36892526057749597 -0.22217252143789229 0 0.37722542122783942 -0.2309392844275053 0 0.35467766277839641 -0.23682228319012841 0 0.36892526057749597 -0.22217252143789229 0 0.36296783624354029 -0.24463061950120751 0 0.3701274247105833 -0.2318109389480793 0 0.36296783624354029 -0.24463061950120751 0 0.37095131159797418 -0.25215008344978762 0 0.3701274247105833 -0.2318109389480793 0 0.37095131159797418 -0.25215008344978762 0 0.3701274247105833 -0.2318109389480793 0 0.37800101613023152 -0.24517721695337161 0 0.37095131159797418 -0.25215008344978762 0 0.36296783624354029 -0.24463061950120751 0 0.37095131159797418 -0.25215008344978762 0 0.3701274247105833 -0.2318109389480793 0 0.37800101613023152 -0.24517721695337161 0 0.38119180725770357 -0.2384634855932774 0 0.37800101613023152 -0.24517721695337161 0 0.38119180725770357 -0.2384634855932774 0 0.38893676448669923 -0.2421808899085969 0 0.38893676448669923 -0.2421808899085969 0 0.39301192452087791 -0.23206755156330311 0 0.38496364938306371 -0.2319445176641344 0 0.38119180725770357 -0.2384634855932774 0 0.38893676448669923 -0.2421808899085969 0 0.38496364938306371 -0.2319445176641344 0 0.37800101613023152 -0.24517721695337161 0 0.38893676448669923 -0.2421808899085969 0 0.38307300162638303 -0.25123603607322542 0 0.38893676448669923 -0.2421808899085969 0 0.38307300162638303 -0.25123603607322542 0 0.39496829309798548 -0.2505260588971524 0 0.38893676448669923 -0.2421808899085969 0 0.40006198367648932 -0.2447207128058459 0 0.39496829309798548 -0.2505260588971524 0 0.38893676448669923 -0.2421808899085969 0 0.39902215130848012 -0.23724304055131301 0 0.39301192452087791 -0.23206755156330311 0 0.38893676448669923 -0.2421808899085969 0 0.39902215130848012 -0.23724304055131301 0 0.40006198367648932 -0.2447207128058459 0 0.39902215130848012 -0.23724304055131301 0 0.40552197070579032 -0.23590380556907681 0 0.40006198367648932 -0.2447207128058459 0 0.40552197070579032 -0.23590380556907681 0 0.40006198367648932 -0.2447207128058459 0 0.41169383919295749 -0.24102956592291119 0 0.40006198367648932 -0.2447207128058459 0 0.40591759153700602 -0.24992151464819001 0 0.39496829309798548 -0.2505260588971524 0 0.40006198367648932 -0.2447207128058459 0 0.40591759153700602 -0.24992151464819001 0 0.41169383919295749 -0.24102956592291119 0 0.40413117098234658 -0.22252069674927041 0 0.40435734824181851 -0.22095650609010459 0 0.39301192452087791 -0.23206755156330311 0 0.40435734824181851 -0.22095650609010459 0 0.39301192452087791 -0.23206755156330311 0 0.40413117098234658 -0.22252069674927041 0 0.40435734824181851 -0.22095650609010459 0 0.40413117098234658 -0.22252069674927041 0 0.40435734824181851 -0.22095650609010459 0 0.40691327453436521 -0.22373410570723959 0 0.40413117098234658 -0.22252069674927041 0 0.40609235663667559 -0.2261783122881279 0 0.40287199595868722 -0.2287953837658035 0 0.40413117098234658 -0.22252069674927041 0 0.40609235663667559 -0.2261783122881279 0 0.40691327453436521 -0.22373410570723959 0 0.40609235663667559 -0.2261783122881279 0 0.40287199595868722 -0.2287953837658035 0 0.4079835195510918 -0.2298215348869562 0 0.40413117098234658 -0.22252069674927041 0 0.40287199595868722 -0.2287953837658035 0 0.39301192452087791 -0.23206755156330311 0 0.39902215130848012 -0.23724304055131301 0 0.40552197070579032 -0.23590380556907681 0 0.40287199595868722 -0.2287953837658035 0 0.40552197070579032 -0.23590380556907681 0 0.40287199595868722 -0.2287953837658035 0 0.4079835195510918 -0.2298215348869562 0 0.39902215130848012 -0.23724304055131301 0 0.40287199595868722 -0.2287953837658035 0 0.39301192452087791 -0.23206755156330311 0 0.40435734824181851 -0.22095650609010459 0 0.3950685198838455 -0.22274209439333451 0 0.39458814263651482 -0.2157681001456693 0 0.40435734824181851 -0.22095650609010459 0 0.39301192452087791 -0.23206755156330311 0 0.3950685198838455 -0.22274209439333451 0 0.39301192452087791 -0.23206755156330311 0 0.3950685198838455 -0.22274209439333451 0 0.38773930617134561 -0.2226773224713359 0 0.3950685198838455 -0.22274209439333451 0 0.38773930617134561 -0.2226773224713359 0 0.39458814263651482 -0.2157681001456693 0 0.38773930617134561 -0.2226773224713359 0 0.38496364938306371 -0.2319445176641344 0 0.37938190300046498 -0.22496583543413079 0 0.39301192452087791 -0.23206755156330311 0 0.38773930617134561 -0.2226773224713359 0 0.38496364938306371 -0.2319445176641344 0 0.3701274247105833 -0.2318109389480793 0 0.38119180725770357 -0.2384634855932774 0 0.37722542122783942 -0.2309392844275053 0 0.38119180725770357 -0.2384634855932774 0 0.38496364938306371 -0.2319445176641344 0 0.37722542122783942 -0.2309392844275053 0 0.38496364938306371 -0.2319445176641344 0 0.37722542122783942 -0.2309392844275053 0 0.37938190300046498 -0.22496583543413079 0 0.36892526057749597 -0.22217252143789229 0 0.37938190300046498 -0.22496583543413079 0 0.38040788154911759 -0.21804503213654741 0 0.36892526057749597 -0.22217252143789229 0 0.37722542122783942 -0.2309392844275053 0 0.37938190300046498 -0.22496583543413079 0 0.38773930617134561 -0.2226773224713359 0 0.37938190300046498 -0.22496583543413079 0 0.38040788154911759 -0.21804503213654741 0 0.36892526057749597 -0.22217252143789229 0 0.38040788154911759 -0.21804503213654741 0 0.37936788332702509 -0.21107609881352871 0 0.38040788154911759 -0.21804503213654741 0 0.37936788332702509 -0.21107609881352871 0 0.38661852847357259 -0.21318626406596139 0 0.37488268491145182 -0.1997144233745772 0 0.37936788332702509 -0.21107609881352871 0 0.38600506112348743 -0.20226225305266499 0 0.37936788332702509 -0.21107609881352871 0 0.38661852847357259 -0.21318626406596139 0 0.38600506112348743 -0.20226225305266499 0 0.38661852847357259 -0.21318626406596139 0 0.38600506112348743 -0.20226225305266499 0 0.39221499435735552 -0.2077546258111243 0 0.38773930617134561 -0.2226773224713359 0 0.38040788154911759 -0.21804503213654741 0 0.38661852847357259 -0.21318626406596139 0 0.38773930617134561 -0.2226773224713359 0 0.38661852847357259 -0.21318626406596139 0 0.39458814263651482 -0.2157681001456693 0 0.37488268491145182 -0.1997144233745772 0 0.38506895474284308 -0.19044896164302089 0 0.38068989614137638 -0.17718137460984781 0 0.37433615171217749 -0.1899152871006021 0 0.37488268491145182 -0.1997144233745772 0 0.38068989614137638 -0.17718137460984781 0 0.37488268491145182 -0.1997144233745772 0 0.38068989614137638 -0.17718137460984781 0 0.37488268491145182 -0.1997144233745772 0 0.38600506112348743 -0.20226225305266499 0 0.38506895474284308 -0.19044896164302089 0 0.38506895474284308 -0.19044896164302089 0 0.39338906313706029 -0.19154107519989741 0 0.38984616529131022 -0.18094306328490101 0 0.38600506112348743 -0.20226225305266499 0 0.38506895474284308 -0.19044896164302089 0 0.39338906313706029 -0.19154107519989741 0 0.38600506112348743 -0.20226225305266499 0 0.39338906313706029 -0.19154107519989741 0 0.39401498605862251 -0.2003447419525386 0 0.39401498605862251 -0.2003447419525386 0 0.39992219717652949 -0.20603874368935779 0 0.40840145705307029 -0.1929883662249639 0 0.39338906313706029 -0.19154107519989741 0 0.39401498605862251 -0.2003447419525386 0 0.40840145705307029 -0.1929883662249639 0 0.40435734824181851 -0.22095650609010459 0 0.39992219717652949 -0.20603874368935779 0 0.40840145705307029 -0.1929883662249639 0 0.38661852847357259 -0.21318626406596139 0 0.39458814263651482 -0.2157681001456693 0 0.39221499435735552 -0.2077546258111243 0 0.39458814263651482 -0.2157681001456693 0 0.39221499435735552 -0.2077546258111243 0 0.39992219717652949 -0.20603874368935779 0 0.38600506112348743 -0.20226225305266499 0 0.39401498605862251 -0.2003447419525386 0 0.39221499435735552 -0.2077546258111243 0 0.39401498605862251 -0.2003447419525386 0 0.39221499435735552 -0.2077546258111243 0 0.39992219717652949 -0.20603874368935779 0 0.40435734824181851 -0.22095650609010459 0 0.39458814263651482 -0.2157681001456693 0 0.39992219717652949 -0.20603874368935779 0 0.40435734824181851 -0.22095650609010459 0 0.41780311928902691 -0.2167643167330755 0 0.42404002497752008 -0.2016804418703993 0 0.40435734824181851 -0.22095650609010459 0 0.40840145705307029 -0.1929883662249639 0 0.40435734824181851 -0.22095650609010459 0 0.42404002497752008 -0.2016804418703993 0 0.40435734824181851 -0.22095650609010459 0 0.40840145705307029 -0.1929883662249639 0 0.42404002497752008 -0.2016804418703993 0 0.40840145705307029 -0.1929883662249639 0 0.42404002497752008 -0.2016804418703993 0 0.42452123635744943 -0.18233469880287501 0 0.42404002497752008 -0.2016804418703993 0 0.44372270171322142 -0.18240437765069351 0 0.42404002497752008 -0.2016804418703993 0 0.44372270171322142 -0.18240437765069351 0 0.4386822046398039 -0.2031531987561366 0 0.42404002497752008 -0.2016804418703993 0 0.42452123635744943 -0.18233469880287501 0 0.44372270171322142 -0.18240437765069351 0 0.41780311928902691 -0.2167643167330755 0 0.42835028801948272 -0.21393997704602499 0 0.42054048785123749 -0.22409776322134439 0 0.41780311928902691 -0.2167643167330755 0 0.42404002497752008 -0.2016804418703993 0 0.42835028801948272 -0.21393997704602499 0 0.42404002497752008 -0.2016804418703993 0 0.42835028801948272 -0.21393997704602499 0 0.4386822046398039 -0.2031531987561366 0 0.42835028801948272 -0.21393997704602499 0 0.43177793310838269 -0.22474738263700439 0 0.44345739491074088 -0.21664454916153289 0 0.42835028801948272 -0.21393997704602499 0 0.44345739491074088 -0.21664454916153289 0 0.4386822046398039 -0.2031531987561366 0 0.42835028801948272 -0.21393997704602499 0 0.43177793310838269 -0.22474738263700439 0 0.42054048785123749 -0.22409776322134439 0 0.43177793310838269 -0.22474738263700439 0 0.42536356231791422 -0.23187883064709669 0 0.42054048785123749 -0.22409776322134439 0 0.43177793310838269 -0.22474738263700439 0 0.43317842050885919 -0.23605113817466869 0 0.44083607628648008 -0.22992286100420339 0 0.43177793310838269 -0.22474738263700439 0 0.42536356231791422 -0.23187883064709669 0 0.43317842050885919 -0.23605113817466869 0 0.43317842050885919 -0.23605113817466869 0 0.43352159872874269 -0.24725831033418741 0 0.42360257686609493 -0.2410859229044485 0 0.43317842050885919 -0.23605113817466869 0 0.43352159872874269 -0.24725831033418741 0 0.44210866996674941 -0.2435162957473786 0 0.43352159872874269 -0.24725831033418741 0 0.42360257686609493 -0.2410859229044485 0 0.42551217877313807 -0.25075895756755467 0 0.42536356231791422 -0.23187883064709669 0 0.43317842050885919 -0.23605113817466869 0 0.42360257686609493 -0.2410859229044485 0 0.42536356231791422 -0.23187883064709669 0 0.42360257686609493 -0.2410859229044485 0 0.41771839325499638 -0.2334119462980172 0 0.42360257686609493 -0.2410859229044485 0 0.41169383919295749 -0.24102956592291119 0 0.41771839325499638 -0.2334119462980172 0 0.42360257686609493 -0.2410859229044485 0 0.41634669363834959 -0.24963579672108979 0 0.41169383919295749 -0.24102956592291119 0 0.42360257686609493 -0.2410859229044485 0 0.41634669363834959 -0.24963579672108979 0 0.42551217877313807 -0.25075895756755467 0 0.40591759153700602 -0.24992151464819001 0 0.41634669363834959 -0.24963579672108979 0 0.41169383919295749 -0.24102956592291119 0 0.41169383919295749 -0.24102956592291119 0 0.41149833454703622 -0.23381259548163061 0 0.41771839325499638 -0.2334119462980172 0 0.40552197070579032 -0.23590380556907681 0 0.41169383919295749 -0.24102956592291119 0 0.41149833454703622 -0.23381259548163061 0 0.40552197070579032 -0.23590380556907681 0 0.41149833454703622 -0.23381259548163061 0 0.4079835195510918 -0.2298215348869562 0 0.41149833454703622 -0.23381259548163061 0 0.41311536365083162 -0.22864616098025589 0 0.4079835195510918 -0.2298215348869562 0 0.41311536365083162 -0.22864616098025589 0 0.4079835195510918 -0.2298215348869562 0 0.40886559485786439 -0.22617156269154981 0 0.40609235663667559 -0.2261783122881279 0 0.4079835195510918 -0.2298215348869562 0 0.40886559485786439 -0.22617156269154981 0 0.40691327453436521 -0.22373410570723959 0 0.40886559485786439 -0.22617156269154981 0 0.41172744735507572 -0.22314689543750441 0 0.40609235663667559 -0.2261783122881279 0 0.40691327453436521 -0.22373410570723959 0 0.40886559485786439 -0.22617156269154981 0 0.40435734824181851 -0.22095650609010459 0 0.41780311928902691 -0.2167643167330755 0 0.41172744735507572 -0.22314689543750441 0 0.40435734824181851 -0.22095650609010459 0 0.40691327453436521 -0.22373410570723959 0 0.41172744735507572 -0.22314689543750441 0 0.41311536365083162 -0.22864616098025589 0 0.40886559485786439 -0.22617156269154981 0 0.41172744735507572 -0.22314689543750441 0 0.41311536365083162 -0.22864616098025589 0 0.41172744735507572 -0.22314689543750441 0 0.42054048785123749 -0.22409776322134439 0 0.41780311928902691 -0.2167643167330755 0 0.41172744735507572 -0.22314689543750441 0 0.42054048785123749 -0.22409776322134439 0 0.42536356231791422 -0.23187883064709669 0 0.42054048785123749 -0.22409776322134439 0 0.41771839325499638 -0.2334119462980172 0 0.41311536365083162 -0.22864616098025589 0 0.42054048785123749 -0.22409776322134439 0 0.41771839325499638 -0.2334119462980172 0 0.41149833454703622 -0.23381259548163061 0 0.41311536365083162 -0.22864616098025589 0 0.41771839325499638 -0.2334119462980172 0 0.40095730074538971 -0.1320645110756441 0 0.40036204118329632 -0.15015816849629959 0 0.41648967467557502 -0.13705208649468259 0 0.40095730074538971 -0.1320645110756441 0 0.3924922572662356 -0.14029794870837509 0 0.38295297505005249 -0.1302249446019971 0 0.40135934121329608 -0.11402100102144599 0 0.40095730074538971 -0.1320645110756441 0 0.38295297505005249 -0.1302249446019971 0 0.3924922572662356 -0.14029794870837509 0 0.38295297505005249 -0.1302249446019971 0 0.38569671208620387 -0.14874417065955969 0 0.38295297505005249 -0.1302249446019971 0 0.37561091871899799 -0.1480533809211643 0 0.38569671208620387 -0.14874417065955969 0 0.37561091871899799 -0.1480533809211643 0 0.38569671208620387 -0.14874417065955969 0 0.3771247630648128 -0.157885923951923 0 0.40095730074538971 -0.1320645110756441 0 0.3924922572662356 -0.14029794870837509 0 0.40036204118329632 -0.15015816849629959 0 0.38569671208620387 -0.14874417065955969 0 0.40036204118329632 -0.15015816849629959 0 0.3872203480253209 -0.16409331232753871 0 0.3924922572662356 -0.14029794870837509 0 0.38569671208620387 -0.14874417065955969 0 0.40036204118329632 -0.15015816849629959 0 0.40036204118329632 -0.15015816849629959 0 0.39985299238272859 -0.16401152105948341 0 0.41244556586432268 -0.1650202263598233 0 0.39985299238272859 -0.16401152105948341 0 0.39938401445797478 -0.1767743770542721 0 0.41244556586432268 -0.1650202263598233 0 0.39985299238272859 -0.16401152105948341 0 0.3872203480253209 -0.16409331232753871 0 0.39938401445797478 -0.1767743770542721 0 0.40036204118329632 -0.15015816849629959 0 0.39985299238272859 -0.16401152105948341 0 0.3872203480253209 -0.16409331232753871 0 0.36919280359451911 -0.17063022471860559 0 0.3872203480253209 -0.16409331232753871 0 0.38068989614137638 -0.17718137460984781 0 0.38569671208620387 -0.14874417065955969 0 0.3771247630648128 -0.157885923951923 0 0.3872203480253209 -0.16409331232753871 0 0.36919280359451911 -0.17063022471860559 0 0.3771247630648128 -0.157885923951923 0 0.3872203480253209 -0.16409331232753871 0 0.3872203480253209 -0.16409331232753871 0 0.38068989614137638 -0.17718137460984781 0 0.3872203480253209 -0.16409331232753871 0 0.38068989614137638 -0.17718137460984781 0 0.38984616529131022 -0.18094306328490101 0 0.37433615171217749 -0.1899152871006021 0 0.38068989614137638 -0.17718137460984781 0 0.38506895474284308 -0.19044896164302089 0 0.38068989614137638 -0.17718137460984781 0 0.38984616529131022 -0.18094306328490101 0 0.39338906313706029 -0.19154107519989741 0 0.38984616529131022 -0.18094306328490101 0 0.39938401445797478 -0.1767743770542721 0 0.39338906313706029 -0.19154107519989741 0 0.40840145705307029 -0.1929883662249639 0 0.39938401445797478 -0.1767743770542721 0 0.3872203480253209 -0.16409331232753871 0 0.38984616529131022 -0.18094306328490101 0 0.39938401445797478 -0.1767743770542721 0 0.40840145705307029 -0.1929883662249639 0 0.39938401445797478 -0.1767743770542721 0 0.41244556586432268 -0.1650202263598233 0 0.40840145705307029 -0.1929883662249639 0 0.41244556586432268 -0.1650202263598233 0 0.40840145705307029 -0.1929883662249639 0 0.42452123635744943 -0.18233469880287501 0 0.41244556586432268 -0.1650202263598233 0 0.42452123635744943 -0.18233469880287501 0 0.43312863810379021 -0.16944797377182319 0 0.41244556586432268 -0.1650202263598233 0 0.42452123635744943 -0.18233469880287501 0 0.43312863810379021 -0.16944797377182319 0 0.44372270171322142 -0.18240437765069351 0 0.43312863810379021 -0.16944797377182319 0 0.42728091942487723 -0.15602627794959761 0 0.44534314893689891 -0.15957729569029061 0 0.43312863810379021 -0.16944797377182319 0 0.41244556586432268 -0.1650202263598233 0 0.42728091942487723 -0.15602627794959761 0 0.42728091942487723 -0.15602627794959761 0 0.44534314893689891 -0.15957729569029061 0 0.41244556586432268 -0.1650202263598233 0 0.41648967467557502 -0.13705208649468259 0 0.40036204118329632 -0.15015816849629959 0 0.41244556586432268 -0.1650202263598233 0 0.41648967467557502 -0.13705208649468259 0 0.41244556586432268 -0.1650202263598233 0 0.42728091942487723 -0.15602627794959761 0 0.41648967467557502 -0.13705208649468259 0 0.42728091942487723 -0.15602627794959761 0 0.41648967467557502 -0.13705208649468259 0 0.44043421025455892 -0.14614990440047301 0 0.41648967467557502 -0.13705208649468259 0 0.44057562190611399 -0.12997369199362011 0 0.44043421025455892 -0.14614990440047301 0 0.42820915951309818 -0.1162839919565892 0 0.41648967467557502 -0.13705208649468259 0 0.44057562190611399 -0.12997369199362011 0 0.41175386903683969 -0.1248553976370905 0 0.42820915951309818 -0.1162839919565892 0 0.41648967467557502 -0.13705208649468259 0 0.41175386903683969 -0.1248553976370905 0 0.40095730074538971 -0.1320645110756441 0 0.41648967467557502 -0.13705208649468259 0 0.46376518391457972 -0.12981095665039361 0 0.45500412383808209 -0.1414695874011529 0 0.46674827241225658 -0.14831464428839061 0 0.46376518391457972 -0.12981095665039361 0 0.45500412383808209 -0.1414695874011529 0 0.46376518391457972 -0.12981095665039361 0 0.45360097686791889 -0.12995030473422539 0 0.45500412383808209 -0.1414695874011529 0 0.45505897781290011 -0.11854698289173481 0 0.46376518391457972 -0.12981095665039361 0 0.45360097686791889 -0.12995030473422539 0 0.44057562190611399 -0.12997369199362011 0 0.44043421025455892 -0.14614990440047301 0 0.45500412383808209 -0.1414695874011529 0 0.45505897781290011 -0.11854698289173481 0 0.45360097686791889 -0.12995030473422539 0 0.44057562190611399 -0.12997369199362011 0 0.45360097686791889 -0.12995030473422539 0 0.44057562190611399 -0.12997369199362011 0 0.45500412383808209 -0.1414695874011529 0 0.42728091942487723 -0.15602627794959761 0 0.44043421025455892 -0.14614990440047301 0 0.44534314893689891 -0.15957729569029061 0 0.44043421025455892 -0.14614990440047301 0 0.45791177274580641 -0.1528004868734946 0 0.44534314893689891 -0.15957729569029061 0 0.44043421025455892 -0.14614990440047301 0 0.45791177274580641 -0.1528004868734946 0 0.45500412383808209 -0.1414695874011529 0 0.45791177274580641 -0.1528004868734946 0 0.45500412383808209 -0.1414695874011529 0 0.46674827241225658 -0.14831464428839061 0 0.45791177274580641 -0.1528004868734946 0 0.46674827241225658 -0.14831464428839061 0 0.46812268843270988 -0.15850845550146081 0 0.46340537844892032 -0.16312831343098541 0 0.44534314893689891 -0.15957729569029061 0 0.45791177274580641 -0.1528004868734946 0 0.46340537844892032 -0.16312831343098541 0 0.44534314893689891 -0.15957729569029061 0 0.45791177274580641 -0.1528004868734946 0 0.46340537844892032 -0.16312831343098541 0 0.46812268843270988 -0.15850845550146081 0 0.46340537844892032 -0.16312831343098541 0 0.46812268843270988 -0.15850845550146081 0 0.43312863810379021 -0.16944797377182319 0 0.44534314893689891 -0.15957729569029061 0 0.44372270171322142 -0.18240437765069351 0 0.46340537844892032 -0.16312831343098541 0 0.44534314893689891 -0.15957729569029061 0 0.44372270171322142 -0.18240437765069351 0 0.46340537844892032 -0.16312831343098541 0 0.44372270171322142 -0.18240437765069351 0 0.44372270171322142 -0.18240437765069351 0 0.46699229789224428 -0.17651500010205609 0 0.46547181443023522 -0.18827898639353169 0 0.46340537844892032 -0.16312831343098541 0 0.44372270171322142 -0.18240437765069351 0 0.46699229789224428 -0.17651500010205609 0 0.46699229789224428 -0.17651500010205609 0 0.4835610062418732 -0.18260832541609179 0 0.47880058862697172 -0.16615499761897781 0 0.46699229789224428 -0.17651500010205609 0 0.4835610062418732 -0.18260832541609179 0 0.46547181443023522 -0.18827898639353169 0 0.4835610062418732 -0.18260832541609179 0 0.49419579880502279 -0.1691816818069718 0 0.47880058862697172 -0.16615499761897781 0 0.4835610062418732 -0.18260832541609179 0 0.50000000000000022 -0.17669108018172189 0 0.49419579880502279 -0.1691816818069718 0 0.50000000000000022 -0.17669108018172189 0 0.49419579880502279 -0.1691816818069718 0 0.49999999999999561 -0.17032278243356769 0 0.50000000000000022 -0.17669108018172189 0 0.49419579880502279 -0.1691816818069718 0 0.49419579880502279 -0.1691816818069718 0 0.47898049135980109 -0.14949631922868281 0 0.49419579880502279 -0.1691816818069718 0 0.49999999999999561 -0.17032278243356769 0 0.5 -0.14509598117303751 0 0.49419579880502279 -0.1691816818069718 0 0.47880058862697172 -0.16615499761897781 0 0.49419579880502279 -0.1691816818069718 0 0.49999999999999561 -0.17032278243356769 0 0.49419579880502279 -0.1691816818069718 0 0.47736956792735252 -0.15833121968889671 0 0.47898049135980109 -0.14949631922868281 0 0.49419579880502279 -0.1691816818069718 0 0.47736956792735252 -0.15833121968889671 0 0.47880058862697172 -0.16615499761897781 0 0.46340537844892032 -0.16312831343098541 0 0.47880058862697172 -0.16615499761897781 0 0.46340537844892032 -0.16312831343098541 0 0.46699229789224428 -0.17651500010205609 0 0.47880058862697172 -0.16615499761897781 0 0.46340537844892032 -0.16312831343098541 0 0.46812268843270988 -0.15850845550146081 0 0.47880058862697172 -0.16615499761897781 0 0.46812268843270988 -0.15850845550146081 0 0.47736956792735252 -0.15833121968889671 0 0.47880058862697172 -0.16615499761897781 0 0.46376518391457972 -0.12981095665039361 0 0.46674827241225658 -0.14831464428839061 0 0.47898049135980109 -0.14949631922868281 0 0.46674827241225658 -0.14831464428839061 0 0.46812268843270988 -0.15850845550146081 0 0.47736956792735252 -0.15833121968889671 0 0.46674827241225658 -0.14831464428839061 0 0.47736956792735252 -0.15833121968889671 0 0.47898049135980109 -0.14949631922868281 0 0.49419579880502279 -0.1691816818069718 0 0.47898049135980109 -0.14949631922868281 0 0.5 -0.14509598117303751 0 0.47898049135980109 -0.14949631922868281 0 0.5 -0.14509598117303751 0 0.48339705170826602 -0.13035982314943859 0 0.5 -0.1198691799125074 0 0.5 -0.14509598117303751 0 0.48339705170826602 -0.13035982314943859 0 0.46376518391457972 -0.12981095665039361 0 0.47898049135980109 -0.14949631922868281 0 0.48339705170826602 -0.13035982314943859 0 0.46376518391457972 -0.12981095665039361 0 0.47898049135980109 -0.14949631922868281 0 0.4680973010733756 -0.23455772011726411 0 0.45255440066560843 -0.23044637021225689 0 0.46311956367126972 -0.21713668249776569 0 0.4680973010733756 -0.23455772011726411 0 0.45876540539555349 -0.2405905644203995 0 0.4650122572706723 -0.25066071303216658 0 0.45325326598664373 -0.24984375735912309 0 0.45876540539555349 -0.2405905644203995 0 0.4650122572706723 -0.25066071303216658 0 0.4680973010733756 -0.23455772011726411 0 0.45876540539555349 -0.2405905644203995 0 0.45255440066560843 -0.23044637021225689 0 0.45325326598664373 -0.24984375735912309 0 0.45876540539555349 -0.2405905644203995 0 0.44210866996674941 -0.2435162957473786 0 0.45876540539555349 -0.2405905644203995 0 0.44210866996674941 -0.2435162957473786 0 0.45255440066560843 -0.23044637021225689 0 0.45325326598664373 -0.24984375735912309 0 0.44210866996674941 -0.2435162957473786 0 0.44630923294714742 -0.25580220288950278 0 0.43352159872874269 -0.24725831033418741 0 0.44210866996674941 -0.2435162957473786 0 0.43868143438780582 -0.25367486517498161 0 0.44210866996674941 -0.2435162957473786 0 0.44083607628648008 -0.22992286100420339 0 0.45255440066560843 -0.23044637021225689 0 0.43317842050885919 -0.23605113817466869 0 0.44210866996674941 -0.2435162957473786 0 0.44083607628648008 -0.22992286100420339 0 0.45255440066560843 -0.23044637021225689 0 0.44345739491074088 -0.21664454916153289 0 0.46311956367126972 -0.21713668249776569 0 0.44083607628648008 -0.22992286100420339 0 0.45255440066560843 -0.23044637021225689 0 0.44345739491074088 -0.21664454916153289 0 0.43177793310838269 -0.22474738263700439 0 0.44083607628648008 -0.22992286100420339 0 0.44345739491074088 -0.21664454916153289 0 0.44345739491074088 -0.21664454916153289 0 0.4386822046398039 -0.2031531987561366 0 0.45384061357805427 -0.20109664805203251 0 0.44372270171322142 -0.18240437765069351 0 0.4386822046398039 -0.2031531987561366 0 0.45384061357805427 -0.20109664805203251 0 0.44372270171322142 -0.18240437765069351 0 0.46547181443023522 -0.18827898639353169 0 0.45384061357805427 -0.20109664805203251 0 0.46547181443023522 -0.18827898639353169 0 0.45384061357805427 -0.20109664805203251 0 0.47443347846362333 -0.20251427341793449 0 0.44345739491074088 -0.21664454916153289 0 0.45384061357805427 -0.20109664805203251 0 0.46311956367126972 -0.21713668249776569 0 0.45384061357805427 -0.20109664805203251 0 0.46311956367126972 -0.21713668249776569 0 0.47443347846362333 -0.20251427341793449 0 0.46311956367126972 -0.21713668249776569 0 0.47443347846362333 -0.20251427341793449 0 0.48238665555215898 -0.22244824225730589 0 0.4835610062418732 -0.18260832541609179 0 0.46547181443023522 -0.18827898639353169 0 0.47443347846362333 -0.20251427341793449 0 0.4835610062418732 -0.18260832541609179 0 0.50000000000000022 -0.17669108018172189 0 0.5 -0.2055220225328058 0 0.4835610062418732 -0.18260832541609179 0 0.47443347846362333 -0.20251427341793449 0 0.5 -0.2055220225328058 0 0.47443347846362333 -0.20251427341793449 0 0.5 -0.2055220225328058 0 0.48238665555215898 -0.22244824225730589 0 0.5 -0.2055220225328058 0 0.5 -0.23435296488388971 0 0.48238665555215898 -0.22244824225730589 0 0.4680973010733756 -0.23455772011726411 0 0.46311956367126972 -0.21713668249776569 0 0.48238665555215898 -0.22244824225730589 0 0.4680973010733756 -0.23455772011726411 0 0.481843351221731 -0.24793746853750051 0 0.4650122572706723 -0.25066071303216658 0 0.4680973010733756 -0.23455772011726411 0 0.48238665555215898 -0.22244824225730589 0 0.481843351221731 -0.24793746853750051 0 0.5 -0.23435296488388971 0 0.48238665555215898 -0.22244824225730589 0 0.481843351221731 -0.24793746853750051 0 0.5 -0.23435296488388971 0 0.481843351221731 -0.24793746853750051 0 0.5 -0.26318390723497392 0 0.481843351221731 -0.24793746853750051 0 0.5 -0.26318390723497392 0 0.48454695686930088 -0.26954816042728269 0 0.5 -0.26318390723497392 0 0.48454695686930088 -0.26954816042728269 0 0.50000000000000178 -0.29201484958605789 0 0.48454695686930088 -0.26954816042728269 0 0.46987978313345102 -0.27080924135940132 0 0.4780648818395602 -0.28459782979996839 0 0.48454695686930088 -0.26954816042728269 0 0.46987978313345102 -0.27080924135940132 0 0.47286028778660899 -0.26081057180962058 0 0.481843351221731 -0.24793746853750051 0 0.47286028778660899 -0.26081057180962058 0 0.4650122572706723 -0.25066071303216658 0 0.481843351221731 -0.24793746853750051 0 0.48454695686930088 -0.26954816042728269 0 0.47286028778660899 -0.26081057180962058 0 0.4650122572706723 -0.25066071303216658 0 0.45399613546537548 -0.25811383155140788 0 0.46066698934192218 -0.2637152737473244 0 0.45325326598664373 -0.24984375735912309 0 0.4650122572706723 -0.25066071303216658 0 0.45399613546537548 -0.25811383155140788 0 0.45399613546537548 -0.25811383155140788 0 0.46066698934192218 -0.2637152737473244 0 0.44732272323209138 -0.26374316670173842 0 0.47286028778660899 -0.26081057180962058 0 0.4650122572706723 -0.25066071303216658 0 0.46066698934192218 -0.2637152737473244 0 0.46987978313345102 -0.27080924135940132 0 0.47286028778660899 -0.26081057180962058 0 0.46066698934192218 -0.2637152737473244 0 0.46987978313345102 -0.27080924135940132 0 0.4556751335651319 -0.27512738538578402 0 0.4780648818395602 -0.28459782979996839 0 0.46987978313345102 -0.27080924135940132 0 0.46066698934192218 -0.2637152737473244 0 0.4556751335651319 -0.27512738538578402 0 0.4556751335651319 -0.27512738538578402 0 0.4780648818395602 -0.28459782979996839 0 0.4556751335651319 -0.27512738538578402 0 0.454270051019176 -0.27929604592742258 0 0.4780648818395602 -0.28459782979996839 0 0.46066698934192218 -0.2637152737473244 0 0.4556751335651319 -0.27512738538578402 0 0.44732272323209138 -0.26374316670173842 0 0.4556751335651319 -0.27512738538578402 0 0.44732272323209138 -0.26374316670173842 0 0.43351270034769668 -0.26668365328564742 0 0.4556751335651319 -0.27512738538578402 0 0.44352972485845188 -0.27366636602623817 0 0.43351270034769668 -0.26668365328564742 0 0.454270051019176 -0.27929604592742258 0 0.4304752201987917 -0.27399426205487692 0 0.454270051019176 -0.27929604592742258 0 0.44352972485845188 -0.27366636602623817 0 0.4304752201987917 -0.27399426205487692 0 0.454270051019176 -0.27929604592742258 0 0.43971788691347019 -0.28365672375438289 0 0.4304752201987917 -0.27399426205487692 0 0.4556751335651319 -0.27512738538578402 0 0.43351270034769668 -0.26668365328564742 0 0.4556751335651319 -0.27512738538578402 0 0.454270051019176 -0.27929604592742258 0 0.44352972485845188 -0.27366636602623817 0 0.43957050044275459 -0.25925458787357858 0 0.44630923294714742 -0.25580220288950278 0 0.44732272323209138 -0.26374316670173842 0 0.43957050044275459 -0.25925458787357858 0 0.44732272323209138 -0.26374316670173842 0 0.43351270034769668 -0.26668365328564742 0 0.44210866996674941 -0.2435162957473786 0 0.43868143438780582 -0.25367486517498161 0 0.44630923294714742 -0.25580220288950278 0 0.43957050044275459 -0.25925458787357858 0 0.43868143438780582 -0.25367486517498161 0 0.44630923294714742 -0.25580220288950278 0 0.45325326598664373 -0.24984375735912309 0 0.45399613546537548 -0.25811383155140788 0 0.44630923294714742 -0.25580220288950278 0 0.45399613546537548 -0.25811383155140788 0 0.44630923294714742 -0.25580220288950278 0 0.44732272323209138 -0.26374316670173842 0 0.44527469882982068 -0.30437008246477582 0 0.45250646217310492 -0.29398945568270102 0 0.4614209868343162 -0.3032495185934605 0 0.44527469882982068 -0.30437008246477582 0 0.44649185476236392 -0.32330009841981672 0 0.42528975602758401 -0.30333029704980558 0 0.44527469882982068 -0.30437008246477582 0 0.4614209868343162 -0.3032495185934605 0 0.44649185476236392 -0.32330009841981672 0 0.43930109497058423 -0.29208484567943388 0 0.43971788691347019 -0.28365672375438289 0 0.44757521238298892 -0.28642368517650729 0 0.454270051019176 -0.27929604592742258 0 0.43971788691347019 -0.28365672375438289 0 0.44757521238298892 -0.28642368517650729 0 0.44757521238298892 -0.28642368517650729 0 0.45250646217310492 -0.29398945568270102 0 0.45409055554478139 -0.28619481848163542 0 0.454270051019176 -0.27929604592742258 0 0.44757521238298892 -0.28642368517650729 0 0.45409055554478139 -0.28619481848163542 0 0.44527469882982068 -0.30437008246477582 0 0.43930109497058423 -0.29208484567943388 0 0.45250646217310492 -0.29398945568270102 0 0.43930109497058423 -0.29208484567943388 0 0.44757521238298892 -0.28642368517650729 0 0.45250646217310492 -0.29398945568270102 0 0.45250646217310492 -0.29398945568270102 0 0.4591299506431073 -0.28920051966464477 0 0.46089839477937428 -0.29481397097071887 0 0.46151802279688298 -0.28477135714153617 0 0.4654267677309879 -0.28798201134313078 0 0.4780648818395602 -0.28459782979996839 0 0.454270051019176 -0.27929604592742258 0 0.46151802279688298 -0.28477135714153617 0 0.4780648818395602 -0.28459782979996839 0 0.454270051019176 -0.27929604592742258 0 0.4780648818395602 -0.28459782979996839 0 0.45250646217310492 -0.29398945568270102 0 0.4591299506431073 -0.28920051966464477 0 0.45409055554478139 -0.28619481848163542 0 0.454270051019176 -0.27929604592742258 0 0.45409055554478139 -0.28619481848163542 0 0.46151802279688298 -0.28477135714153617 0 0.4591299506431073 -0.28920051966464477 0 0.45409055554478139 -0.28619481848163542 0 0.46151802279688298 -0.28477135714153617 0 0.4591299506431073 -0.28920051966464477 0 0.46151802279688298 -0.28477135714153617 0 0.4654267677309879 -0.28798201134313078 0 0.4591299506431073 -0.28920051966464477 0 0.46089839477937428 -0.29481397097071887 0 0.4654267677309879 -0.28798201134313078 0 0.46089839477937428 -0.29481397097071887 0 0.4654267677309879 -0.28798201134313078 0 0.46726488772491309 -0.29413984096835799 0 0.4654267677309879 -0.28798201134313078 0 0.46726488772491309 -0.29413984096835799 0 0.47252886817641959 -0.29120243687540881 0 0.4614209868343162 -0.3032495185934605 0 0.47224033196484938 -0.30762163975578749 0 0.46948344893675081 -0.32024212612328168 0 0.46089839477937428 -0.29481397097071887 0 0.46726488772491309 -0.29413984096835799 0 0.4614209868343162 -0.3032495185934605 0 0.46726488772491309 -0.29413984096835799 0 0.4614209868343162 -0.3032495185934605 0 0.47440189945395422 -0.29831699189602179 0 0.45250646217310492 -0.29398945568270102 0 0.46089839477937428 -0.29481397097071887 0 0.4614209868343162 -0.3032495185934605 0 0.47224033196484938 -0.30762163975578749 0 0.48365499263437661 -0.308677922410386 0 0.46948344893675081 -0.32024212612328168 0 0.4614209868343162 -0.3032495185934605 0 0.47224033196484938 -0.30762163975578749 0 0.47440189945395422 -0.29831699189602179 0 0.47440189945395422 -0.29831699189602179 0 0.48365499263437661 -0.308677922410386 0 0.48461297498668371 -0.29441536475262181 0 0.47224033196484938 -0.30762163975578749 0 0.47440189945395422 -0.29831699189602179 0 0.48365499263437661 -0.308677922410386 0 0.4654267677309879 -0.28798201134313078 0 0.47252886817641959 -0.29120243687540881 0 0.4780648818395602 -0.28459782979996839 0 0.47252886817641959 -0.29120243687540881 0 0.4772969681637016 -0.29153350633710479 0 0.4780648818395602 -0.28459782979996839 0 0.46726488772491309 -0.29413984096835799 0 0.47440189945395422 -0.29831699189602179 0 0.47252886817641959 -0.29120243687540881 0 0.47440189945395422 -0.29831699189602179 0 0.47252886817641959 -0.29120243687540881 0 0.4772969681637016 -0.29153350633710479 0 0.47440189945395422 -0.29831699189602179 0 0.4772969681637016 -0.29153350633710479 0 0.48461297498668371 -0.29441536475262181 0 0.4772969681637016 -0.29153350633710479 0 0.4780648818395602 -0.28459782979996839 0 0.48461297498668371 -0.29441536475262181 0 0.48454695686930088 -0.26954816042728269 0 0.4780648818395602 -0.28459782979996839 0 0.50000000000000178 -0.29201484958605789 0 0.4780648818395602 -0.28459782979996839 0 0.50000000000000178 -0.29201484958605789 0 0.4780648818395602 -0.28459782979996839 0 0.50000000000000178 -0.29201484958605789 0 0.48461297498668371 -0.29441536475262181 0 0.48365499263437661 -0.308677922410386 0 0.50000000000000178 -0.29201484958605789 0 0.48461297498668371 -0.29441536475262181 0 0.48365499263437661 -0.308677922410386 0 0.50000000000000178 -0.29201484958605789 0 0.5 -0.32045219172962619 0 0.48365499263437661 -0.308677922410386 0 0.5 -0.32045219172962619 0 0.48529250124074352 -0.3340690622957958 0 0.5 -0.32045219172962619 0 0.48529250124074352 -0.3340690622957958 0 0.5 -0.34888953387319438 0 0.48529250124074352 -0.3340690622957958 0 0.48458855430783249 -0.35277355128774762 0 0.46769395349714382 -0.34326989978982791 0 0.48529250124074352 -0.3340690622957958 0 0.46948344893675081 -0.32024212612328168 0 0.46769395349714382 -0.34326989978982791 0 0.48365499263437661 -0.308677922410386 0 0.48529250124074352 -0.3340690622957958 0 0.46948344893675081 -0.32024212612328168 0 0.47492333452151031 -0.36490278644300672 0 0.50000000000000333 -0.37732687601676268 0 0.4820323595071761 -0.38207329490708469 0 0.48458855430783249 -0.35277355128774762 0 0.47492333452151031 -0.36490278644300672 0 0.50000000000000333 -0.37732687601676268 0 0.47492333452151031 -0.36490278644300672 0 0.50000000000000333 -0.37732687601676268 0 0.5 -0.34888953387319438 0 0.48458855430783249 -0.35277355128774762 0 0.50000000000000333 -0.37732687601676268 0 0.48529250124074352 -0.3340690622957958 0 0.5 -0.34888953387319438 0 0.48458855430783249 -0.35277355128774762 0 0.48458855430783249 -0.35277355128774762 0 0.47492333452151031 -0.36490278644300672 0 0.46769395349714382 -0.34326989978982791 0 0.47492333452151031 -0.36490278644300672 0 0.4498466690430164 -0.35247869686925187 0 0.45394092447316392 -0.3812206669912665 0 0.47492333452151031 -0.36490278644300672 0 0.4498466690430164 -0.35247869686925187 0 0.46769395349714382 -0.34326989978982791 0 0.4498466690430164 -0.35247869686925187 0 0.46769395349714382 -0.34326989978982791 0 0.44218702196102438 -0.33828006793792142 0 0.47492333452151031 -0.36490278644300672 0 0.4498466690430164 -0.35247869686925187 0 0.4498466690430164 -0.35247869686925187 0 0.43963942372322612 -0.36857543963155348 0 0.45394092447316392 -0.3812206669912665 0 0.4614209868343162 -0.3032495185934605 0 0.46948344893675081 -0.32024212612328168 0 0.44649185476236392 -0.32330009841981672 0 0.46948344893675081 -0.32024212612328168 0 0.46769395349714382 -0.34326989978982791 0 0.44649185476236392 -0.32330009841981672 0 0.46769395349714382 -0.34326989978982791 0 0.44649185476236392 -0.32330009841981672 0 0.46769395349714382 -0.34326989978982791 0 0.44218702196102438 -0.33828006793792142 0 0.44649185476236392 -0.32330009841981672 0 0.4498466690430164 -0.35247869686925187 0 0.44218702196102438 -0.33828006793792142 0 0.4247700035645226 -0.34005460729549719 0 0.44218702196102438 -0.33828006793792142 0 0.44649185476236392 -0.32330009841981672 0 0.43201732823198552 -0.3285694924160415 0 0.44649185476236392 -0.32330009841981672 0 0.42528975602758401 -0.30333029704980558 0 0.44649185476236392 -0.32330009841981672 0 0.43201732823198552 -0.3285694924160415 0 0.42528975602758401 -0.30333029704980558 0 0.43201732823198552 -0.3285694924160415 0 0.41754996824271379 -0.32131432276598282 0 0.42528975602758401 -0.30333029704980558 0 0.44218702196102438 -0.33828006793792142 0 0.43201732823198552 -0.3285694924160415 0 0.4247700035645226 -0.34005460729549719 0 0.43201732823198552 -0.3285694924160415 0 0.4247700035645226 -0.34005460729549719 0 0.41754996824271379 -0.32131432276598282 0 0.4247700035645226 -0.34005460729549719 0 0.41244907084208787 -0.33903788092069709 0 0.41754996824271379 -0.32131432276598282 0 0.41244907084208787 -0.33903788092069709 0 0.41754996824271379 -0.32131432276598282 0 0.4022785011488958 -0.31697251324624898 0 0.41244907084208787 -0.33903788092069709 0 0.4022785011488958 -0.31697251324624898 0 0.41754996824271379 -0.32131432276598282 0 0.4022785011488958 -0.31697251324624898 0 0.40826276283354029 -0.30397695486272652 0 0.4498466690430164 -0.35247869686925187 0 0.43963942372322612 -0.36857543963155348 0 0.42261964053528001 -0.36110324859514542 0 0.42261964053528001 -0.36110324859514542 0 0.41039295068023529 -0.37210905144403078 0 0.43279021022847203 -0.38316861626959359 0 0.43963942372322612 -0.36857543963155348 0 0.42261964053528001 -0.36110324859514542 0 0.43279021022847203 -0.38316861626959359 0 0.42261964053528001 -0.36110324859514542 0 0.43279021022847203 -0.38316861626959359 0 0.4498466690430164 -0.35247869686925187 0 0.4247700035645226 -0.34005460729549719 0 0.42261964053528001 -0.36110324859514542 0 0.4498466690430164 -0.35247869686925187 0 0.4247700035645226 -0.34005460729549719 0 0.41244907084208787 -0.33903788092069709 0 0.42261964053528001 -0.36110324859514542 0 0.41244907084208787 -0.33903788092069709 0 0.42261964053528001 -0.36110324859514542 0 0.40488954783993553 -0.35708720218695739 0 0.4247700035645226 -0.34005460729549719 0 0.41244907084208787 -0.33903788092069709 0 0.42261964053528001 -0.36110324859514542 0 0.42261964053528001 -0.36110324859514542 0 0.41039295068023529 -0.37210905144403078 0 0.40488954783993553 -0.35708720218695739 0 0.41039295068023529 -0.37210905144403078 0 0.39580141819244868 -0.36666655240940138 0 0.39873616709476301 -0.38396412323139673 0 0.41039295068023529 -0.37210905144403078 0 0.39580141819244868 -0.36666655240940138 0 0.40488954783993553 -0.35708720218695739 0 0.39580141819244868 -0.36666655240940138 0 0.40488954783993553 -0.35708720218695739 0 0.38937086101617852 -0.35539896025544532 0 0.41244907084208787 -0.33903788092069709 0 0.40488954783993553 -0.35708720218695739 0 0.39844761780420662 -0.34557523114865363 0 0.40488954783993553 -0.35708720218695739 0 0.39844761780420662 -0.34557523114865363 0 0.38937086101617852 -0.35539896025544532 0 0.39844761780420662 -0.34557523114865363 0 0.38937086101617852 -0.35539896025544532 0 0.3874041410097081 -0.34241828556351711 0 0.37814452130203668 -0.34893766324755421 0 0.38937086101617852 -0.35539896025544532 0 0.37561756433113103 -0.36477342492917691 0 0.37814452130203668 -0.34893766324755421 0 0.38937086101617852 -0.35539896025544532 0 0.3874041410097081 -0.34241828556351711 0 0.39580141819244868 -0.36666655240940138 0 0.38937086101617852 -0.35539896025544532 0 0.37561756433113103 -0.36477342492917691 0 0.37561756433113103 -0.36477342492917691 0 0.39873616709476301 -0.38396412323139673 0 0.39580141819244868 -0.36666655240940138 0 0.37561756433113103 -0.36477342492917691 0 0.39873616709476301 -0.38396412323139673 0 0.4022785011488958 -0.31697251324624898 0 0.38691993599485808 -0.32639476866743861 0 0.38494985414737232 -0.31004140296801103 0 0.4022785011488958 -0.31697251324624898 0 0.3981244683131227 -0.33393382681665112 0 0.38691993599485808 -0.32639476866743861 0 0.3981244683131227 -0.33393382681665112 0 0.3874041410097081 -0.34241828556351711 0 0.38691993599485808 -0.32639476866743861 0 0.41244907084208787 -0.33903788092069709 0 0.4022785011488958 -0.31697251324624898 0 0.3981244683131227 -0.33393382681665112 0 0.41244907084208787 -0.33903788092069709 0 0.39844761780420662 -0.34557523114865363 0 0.3981244683131227 -0.33393382681665112 0 0.39844761780420662 -0.34557523114865363 0 0.3981244683131227 -0.33393382681665112 0 0.3874041410097081 -0.34241828556351711 0 0.3874041410097081 -0.34241828556351711 0 0.38691993599485808 -0.32639476866743861 0 0.37463954807267658 -0.33581164242928252 0 0.37814452130203668 -0.34893766324755421 0 0.3874041410097081 -0.34241828556351711 0 0.37463954807267658 -0.33581164242928252 0 0.38691993599485808 -0.32639476866743861 0 0.37374650825930361 -0.32115459083486991 0 0.37463954807267658 -0.33581164242928252 0 0.38691993599485808 -0.32639476866743861 0 0.38494985414737232 -0.31004140296801103 0 0.37374650825930361 -0.32115459083486991 0 0.38494985414737232 -0.31004140296801103 0 0.39210793145570372 -0.29490714557180081 0 0.3728147760388606 -0.29815308837317578 0 0.38494985414737232 -0.31004140296801103 0 0.3728147760388606 -0.29815308837317578 0 0.37374650825930361 -0.32115459083486991 0 0.4022785011488958 -0.31697251324624898 0 0.39210793145570372 -0.29490714557180081 0 0.40826276283354029 -0.30397695486272652 0 0.4022785011488958 -0.31697251324624898 0 0.39210793145570372 -0.29490714557180081 0 0.4022785011488958 -0.31697251324624898 0 0.38494985414737232 -0.31004140296801103 0 0.39210793145570372 -0.29490714557180081 0 0.39210793145570372 -0.29490714557180081 0 0.40408765729280399 -0.28336049567979438 0 0.38193736176251158 -0.27284177789735259 0 0.39210793145570372 -0.29490714557180081 0 0.40408765729280399 -0.28336049567979438 0 0.40826276283354029 -0.30397695486272652 0 0.39210793145570372 -0.29490714557180081 0 0.37974876142145497 -0.28635258802490299 0 0.38193736176251158 -0.27284177789735259 0 0.39210793145570372 -0.29490714557180081 0 0.37974876142145497 -0.28635258802490299 0 0.3728147760388606 -0.29815308837317578 0 0.39210793145570372 -0.29490714557180081 0 0.38193736176251158 -0.27284177789735259 0 0.40408765729280399 -0.28336049567979438 0 0.38193736176251158 -0.27284177789735259 0 0.38288555855802331 -0.26339069430978401 0 0.37974876142145497 -0.28635258802490299 0 0.38193736176251158 -0.27284177789735259 0 0.37188304381841758 -0.27515158591148181 0 0.37663482912986412 -0.2658212615920264 0 0.38193736176251158 -0.27284177789735259 0 0.37188304381841758 -0.27515158591148181 0 0.37663482912986412 -0.2658212615920264 0 0.38193736176251158 -0.27284177789735259 0 0.38288555855802331 -0.26339069430978401 0 0.37800101613023152 -0.24517721695337161 0 0.37969381788558099 -0.25383132341644732 0 0.38307300162638303 -0.25123603607322542 0 0.37969381788558099 -0.25383132341644732 0 0.38288555855802331 -0.26339069430978401 0 0.37095131159797418 -0.25215008344978762 0 0.38288555855802331 -0.26339069430978401 0 0.37095131159797418 -0.25215008344978762 0 0.37800101613023152 -0.24517721695337161 0 0.37969381788558099 -0.25383132341644732 0 0.37095131159797418 -0.25215008344978762 0 0.37969381788558099 -0.25383132341644732 0 0.38355820151529307 -0.25720258629606763 0 0.38307300162638303 -0.25123603607322542 0 0.37663482912986412 -0.2658212615920264 0 0.38288555855802331 -0.26339069430978401 0 0.37095131159797418 -0.25215008344978762 0 0.37969381788558099 -0.25383132341644732 0 0.38288555855802331 -0.26339069430978401 0 0.38355820151529307 -0.25720258629606763 0 0.38288555855802331 -0.26339069430978401 0 0.3862648518781362 -0.26005796158388172 0 0.39225343402075402 -0.26152628889412949 0 0.3862648518781362 -0.26005796158388172 0 0.38882566400006108 -0.25702810000254289 0 0.39225343402075402 -0.26152628889412949 0 0.38288555855802331 -0.26339069430978401 0 0.3862648518781362 -0.26005796158388172 0 0.38355820151529307 -0.25720258629606763 0 0.3862648518781362 -0.26005796158388172 0 0.38355820151529307 -0.25720258629606763 0 0.38882566400006108 -0.25702810000254289 0 0.38882566400006108 -0.25702810000254289 0 0.38307300162638303 -0.25123603607322542 0 0.39496829309798548 -0.2505260588971524 0 0.38355820151529307 -0.25720258629606763 0 0.38882566400006108 -0.25702810000254289 0 0.38307300162638303 -0.25123603607322542 0 0.38288555855802331 -0.26339069430978401 0 0.39225343402075402 -0.26152628889412949 0 0.40668038937840728 -0.26869247818233111 0 0.38882566400006108 -0.25702810000254289 0 0.39496829309798548 -0.2505260588971524 0 0.39495436857019439 -0.25664383515655248 0 0.39496829309798548 -0.2505260588971524 0 0.39495436857019439 -0.25664383515655248 0 0.40103927042696519 -0.25623214594146471 0 0.39495436857019439 -0.25664383515655248 0 0.39225343402075402 -0.26152628889412949 0 0.39810558606589219 -0.26175184638282267 0 0.39495436857019439 -0.25664383515655248 0 0.39810558606589219 -0.26175184638282267 0 0.40103927042696519 -0.25623214594146471 0 0.38882566400006108 -0.25702810000254289 0 0.39495436857019439 -0.25664383515655248 0 0.39225343402075402 -0.26152628889412949 0 0.40429387825038149 -0.26122909792303228 0 0.40103927042696519 -0.25623214594146471 0 0.41135026713026163 -0.25823992118551059 0 0.39225343402075402 -0.26152628889412949 0 0.39810558606589219 -0.26175184638282267 0 0.40668038937840728 -0.26869247818233111 0 0.39810558606589219 -0.26175184638282267 0 0.40429387825038149 -0.26122909792303228 0 0.40668038937840728 -0.26869247818233111 0 0.39810558606589219 -0.26175184638282267 0 0.40429387825038149 -0.26122909792303228 0 0.40103927042696519 -0.25623214594146471 0 0.40591759153700602 -0.24992151464819001 0 0.40103927042696519 -0.25623214594146471 0 0.41135026713026163 -0.25823992118551059 0 0.40591759153700602 -0.24992151464819001 0 0.39496829309798548 -0.2505260588971524 0 0.40103927042696519 -0.25623214594146471 0 0.40408765729280399 -0.28336049567979438 0 0.38288555855802331 -0.26339069430978401 0 0.40668038937840728 -0.26869247818233111 0 0.38288555855802331 -0.26339069430978401 0 0.40668038937840728 -0.26869247818233111 0 0.40408765729280399 -0.28336049567979438 0 0.38288555855802331 -0.26339069430978401 0 0.40408765729280399 -0.28336049567979438 0 0.40668038937840728 -0.26869247818233111 0 0.41705278071645341 -0.27813300396266899 0 0.40668038937840728 -0.26869247818233111 0 0.41705278071645341 -0.27813300396266899 0 0.4304752201987917 -0.27399426205487692 0 0.40668038937840728 -0.26869247818233111 0 0.41135026713026163 -0.25823992118551059 0 0.4304752201987917 -0.27399426205487692 0 0.40668038937840728 -0.26869247818233111 0 0.4304752201987917 -0.27399426205487692 0 0.40591759153700602 -0.24992151464819001 0 0.41634669363834959 -0.24963579672108979 0 0.41135026713026163 -0.25823992118551059 0 0.40429387825038149 -0.26122909792303228 0 0.40668038937840728 -0.26869247818233111 0 0.41135026713026163 -0.25823992118551059 0 0.41634669363834959 -0.24963579672108979 0 0.42551217877313807 -0.25075895756755467 0 0.42374965023769562 -0.25633747601516499 0 0.41634669363834959 -0.24963579672108979 0 0.41135026713026163 -0.25823992118551059 0 0.42374965023769562 -0.25633747601516499 0 0.41135026713026163 -0.25823992118551059 0 0.42374965023769562 -0.25633747601516499 0 0.43351270034769668 -0.26668365328564742 0 0.41135026713026163 -0.25823992118551059 0 0.43351270034769668 -0.26668365328564742 0 0.42551217877313807 -0.25075895756755467 0 0.42374965023769562 -0.25633747601516499 0 0.43202641129903191 -0.25636905131602289 0 0.43957050044275459 -0.25925458787357858 0 0.43202641129903191 -0.25636905131602289 0 0.43351270034769668 -0.26668365328564742 0 0.42374965023769562 -0.25633747601516499 0 0.43202641129903191 -0.25636905131602289 0 0.43351270034769668 -0.26668365328564742 0 0.43352159872874269 -0.24725831033418741 0 0.43868143438780582 -0.25367486517498161 0 0.43202641129903191 -0.25636905131602289 0 0.43352159872874269 -0.24725831033418741 0 0.42551217877313807 -0.25075895756755467 0 0.43202641129903191 -0.25636905131602289 0 0.43957050044275459 -0.25925458787357858 0 0.43868143438780582 -0.25367486517498161 0 0.43202641129903191 -0.25636905131602289 0 0.41135026713026163 -0.25823992118551059 0 0.43351270034769668 -0.26668365328564742 0 0.4304752201987917 -0.27399426205487692 0 0.41705278071645341 -0.27813300396266899 0 0.4304752201987917 -0.27399426205487692 0 0.42696785599581022 -0.28648477993367361 0 0.44352972485845188 -0.27366636602623817 0 0.43351270034769668 -0.26668365328564742 0 0.4304752201987917 -0.27399426205487692 0 0.43930109497058423 -0.29208484567943388 0 0.42696785599581022 -0.28648477993367361 0 0.42528975602758401 -0.30333029704980558 0 0.43930109497058423 -0.29208484567943388 0 0.43971788691347019 -0.28365672375438289 0 0.42696785599581022 -0.28648477993367361 0 0.43971788691347019 -0.28365672375438289 0 0.4304752201987917 -0.27399426205487692 0 0.42696785599581022 -0.28648477993367361 0 0.44527469882982068 -0.30437008246477582 0 0.43930109497058423 -0.29208484567943388 0 0.42528975602758401 -0.30333029704980558 0 0.40408765729280399 -0.28336049567979438 0 0.42528975602758401 -0.30333029704980558 0 0.40826276283354029 -0.30397695486272652 0 0.41754996824271379 -0.32131432276598282 0 0.42528975602758401 -0.30333029704980558 0 0.40826276283354029 -0.30397695486272652 0 0.40408765729280399 -0.28336049567979438 0 0.41705278071645341 -0.27813300396266899 0 0.42696785599581022 -0.28648477993367361 0 0.40408765729280399 -0.28336049567979438 0 0.42528975602758401 -0.30333029704980558 0 0.40408765729280399 -0.28336049567979438 0 0.42696785599581022 -0.28648477993367361 0 0.42528975602758401 -0.30333029704980558 0 0.43990733962562101 -0.5 0 0.46855617934859839 -0.46226587825174331 0 0.44782474200869521 -0.46271785858276743 0 0.5 -0.5 0 0.5 -0.44679248905907892 0 0.46855617934859839 -0.46226587825174331 0 0.43990733962562101 -0.5 0 0.5 -0.5 0 0.46855617934859839 -0.46226587825174331 0 0.5 -0.44679248905907892 0 0.46855617934859839 -0.46226587825174331 0 0.47353167491107168 -0.42511286595822328 0 0.46855617934859839 -0.46226587825174331 0 0.45007331954620261 -0.43897205591039018 0 0.47353167491107168 -0.42511286595822328 0 0.46855617934859839 -0.46226587825174331 0 0.44782474200869521 -0.46271785858276743 0 0.45007331954620261 -0.43897205591039018 0 0.44782474200869521 -0.46271785858276743 0 0.45007331954620261 -0.43897205591039018 0 0.42609386770603352 -0.45226689537701098 0 0.45007331954620261 -0.43897205591039018 0 0.44693758288981422 -0.40675993606104682 0 0.47353167491107168 -0.42511286595822328 0 0.45007331954620261 -0.43897205591039018 0 0.44693758288981422 -0.40675993606104682 0 0.43271622777999608 -0.42974477256621252 0 0.44693758288981422 -0.40675993606104682 0 0.47353167491107168 -0.42511286595822328 0 0.47030544024581261 -0.3964900893427164 0 0.5 -0.44679248905907892 0 0.47353167491107168 -0.42511286595822328 0 0.5 -0.40703412463723071 0 0.47353167491107168 -0.42511286595822328 0 0.5 -0.40703412463723071 0 0.47030544024581261 -0.3964900893427164 0 0.5 -0.40703412463723071 0 0.47030544024581261 -0.3964900893427164 0 0.4820323595071761 -0.38207329490708469 0 0.5 -0.40703412463723071 0 0.50000000000000333 -0.37732687601676268 0 0.4820323595071761 -0.38207329490708469 0 0.47492333452151031 -0.36490278644300672 0 0.4820323595071761 -0.38207329490708469 0 0.45394092447316392 -0.3812206669912665 0 0.47030544024581261 -0.3964900893427164 0 0.4820323595071761 -0.38207329490708469 0 0.45394092447316392 -0.3812206669912665 0 0.44693758288981422 -0.40675993606104682 0 0.47030544024581261 -0.3964900893427164 0 0.45394092447316392 -0.3812206669912665 0 0.44693758288981422 -0.40675993606104682 0 0.47030544024581261 -0.3964900893427164 0 0.44693758288981422 -0.40675993606104682 0 0.45394092447316392 -0.3812206669912665 0 0.43468085985890498 -0.39728684635028511 0 0.45394092447316392 -0.3812206669912665 0 0.43279021022847203 -0.38316861626959359 0 0.43468085985890498 -0.39728684635028511 0 0.43963942372322612 -0.36857543963155348 0 0.45394092447316392 -0.3812206669912665 0 0.43279021022847203 -0.38316861626959359 0 0.43279021022847203 -0.38316861626959359 0 0.43468085985890498 -0.39728684635028511 0 0.41584058147410452 -0.38687939942995431 0 0.43468085985890498 -0.39728684635028511 0 0.42185476985839487 -0.40315482153361648 0 0.42356972553381589 -0.41702978277937719 0 0.43468085985890498 -0.39728684635028511 0 0.42185476985839487 -0.40315482153361648 0 0.41584058147410452 -0.38687939942995431 0 0.42185476985839487 -0.40315482153361648 0 0.39873616709476301 -0.38396412323139673 0 0.39843227293545908 -0.40706855297959221 0 0.42185476985839487 -0.40315482153361648 0 0.39873616709476301 -0.38396412323139673 0 0.42185476985839487 -0.40315482153361648 0 0.41584058147410452 -0.38687939942995431 0 0.39873616709476301 -0.38396412323139673 0 0.41039295068023529 -0.37210905144403078 0 0.43279021022847203 -0.38316861626959359 0 0.41584058147410452 -0.38687939942995431 0 0.41039295068023529 -0.37210905144403078 0 0.41584058147410452 -0.38687939942995431 0 0.39873616709476301 -0.38396412323139673 0 0.37561756433113103 -0.36477342492917691 0 0.39873616709476301 -0.38396412323139673 0 0.37421512685727248 -0.3793752250404136 0 0.39873616709476301 -0.38396412323139673 0 0.38508730312424599 -0.39286382053335439 0 0.37421512685727248 -0.3793752250404136 0 0.38508730312424599 -0.39286382053335439 0 0.37154302805255351 -0.39233324384433799 0 0.37421512685727248 -0.3793752250404136 0 0.37993976894775611 -0.40348212841998038 0 0.38508730312424599 -0.39286382053335439 0 0.39843227293545908 -0.40706855297959221 0 0.37993976894775611 -0.40348212841998038 0 0.38508730312424599 -0.39286382053335439 0 0.37154302805255351 -0.39233324384433799 0 0.39873616709476301 -0.38396412323139673 0 0.38508730312424599 -0.39286382053335439 0 0.39843227293545908 -0.40706855297959221 0 0.39843227293545908 -0.40706855297959221 0 0.4002018681778175 -0.42729962949770761 0 0.41101465912637192 -0.41363819669757329 0 0.39843227293545908 -0.40706855297959221 0 0.38263211910070988 -0.43136496896549781 0 0.37993976894775611 -0.40348212841998038 0 0.39843227293545908 -0.40706855297959221 0 0.38208588390235998 -0.41447976765955008 0 0.39843227293545908 -0.40706855297959221 0 0.38208588390235998 -0.41447976765955008 0 0.38263211910070988 -0.43136496896549781 0 0.37993976894775611 -0.40348212841998038 0 0.38208588390235998 -0.41447976765955008 0 0.37284343444113999 -0.41197713120425572 0 0.38208588390235998 -0.41447976765955008 0 0.38263211910070988 -0.43136496896549781 0 0.36855456066177761 -0.42459469165299502 0 0.38263211910070988 -0.43136496896549781 0 0.36855456066177761 -0.42459469165299502 0 0.39843227293545908 -0.40706855297959221 0 0.38263211910070988 -0.43136496896549781 0 0.4002018681778175 -0.42729962949770761 0 0.38263211910070988 -0.43136496896549781 0 0.40436299340337167 -0.44181593217125448 0 0.38263211910070988 -0.43136496896549781 0 0.4002018681778175 -0.42729962949770761 0 0.40436299340337167 -0.44181593217125448 0 0.4002018681778175 -0.42729962949770761 0 0.41690664322411369 -0.43369519270323681 0 0.42356972553381589 -0.41702978277937719 0 0.4002018681778175 -0.42729962949770761 0 0.42356972553381589 -0.41702978277937719 0 0.4002018681778175 -0.42729962949770761 0 0.41690664322411369 -0.43369519270323681 0 0.40436299340337167 -0.44181593217125448 0 0.42185476985839487 -0.40315482153361648 0 0.39843227293545908 -0.40706855297959221 0 0.41101465912637192 -0.41363819669757329 0 0.4002018681778175 -0.42729962949770761 0 0.41101465912637192 -0.41363819669757329 0 0.42356972553381589 -0.41702978277937719 0 0.42185476985839487 -0.40315482153361648 0 0.41101465912637192 -0.41363819669757329 0 0.42356972553381589 -0.41702978277937719 0 0.44693758288981422 -0.40675993606104682 0 0.42356972553381589 -0.41702978277937719 0 0.43271622777999608 -0.42974477256621252 0 0.44693758288981422 -0.40675993606104682 0 0.42356972553381589 -0.41702978277937719 0 0.44693758288981422 -0.40675993606104682 0 0.43468085985890498 -0.39728684635028511 0 0.42356972553381589 -0.41702978277937719 0 0.41690664322411369 -0.43369519270323681 0 0.42356972553381589 -0.41702978277937719 0 0.43271622777999608 -0.42974477256621252 0 0.45007331954620261 -0.43897205591039018 0 0.43271622777999608 -0.42974477256621252 0 0.42609386770603352 -0.45226689537701098 0 0.41690664322411369 -0.43369519270323681 0 0.43271622777999608 -0.42974477256621252 0 0.42609386770603352 -0.45226689537701098 0 0.44782474200869521 -0.46271785858276743 0 0.42609386770603352 -0.45226689537701098 0 0.41909828956072681 -0.47772454198183789 0 0.44782474200869521 -0.46271785858276743 0 0.42609386770603352 -0.45226689537701098 0 0.42609386770603352 -0.45226689537701098 0 0.40814928885061358 -0.45933290235106911 0 0.41909828956072681 -0.47772454198183789 0 0.42609386770603352 -0.45226689537701098 0 0.40436299340337167 -0.44181593217125448 0 0.42609386770603352 -0.45226689537701098 0 0.40814928885061358 -0.45933290235106911 0 0.40436299340337167 -0.44181593217125448 0 0.41690664322411369 -0.43369519270323681 0 0.42609386770603352 -0.45226689537701098 0 0.40436299340337167 -0.44181593217125448 0 0.40814928885061358 -0.45933290235106911 0 0.40436299340337167 -0.44181593217125448 0 0.38853817704762161 -0.44921493251107558 0 0.38263211910070988 -0.43136496896549781 0 0.40436299340337167 -0.44181593217125448 0 0.38853817704762161 -0.44921493251107558 0 0.38263211910070988 -0.43136496896549781 0 0.36972505160406938 -0.45121259097831962 0 0.38263211910070988 -0.43136496896549781 0 0.38853817704762161 -0.44921493251107558 0 0.36972505160406938 -0.45121259097831962 0 0.38853817704762161 -0.44921493251107558 0 0.38951240901253131 -0.46846467213091308 0 0.36972505160406938 -0.45121259097831962 0 0.40814928885061358 -0.45933290235106911 0 0.38951240901253131 -0.46846467213091308 0 0.41909828956072681 -0.47772454198183789 0 0.40814928885061358 -0.45933290235106911 0 0.38853817704762161 -0.44921493251107558 0 0.38951240901253131 -0.46846467213091308 0 0.38951240901253131 -0.46846467213091308 0 0.39391957549512607 -0.5 0 0.41909828956072681 -0.47772454198183789 0 0.38951240901253131 -0.46846467213091308 0 0.39391957549512607 -0.5 0 0.35681798410742888 -0.47106021299114131 0 0.43990733962562101 -0.5 0 0.44782474200869521 -0.46271785858276743 0 0.41909828956072681 -0.47772454198183789 0 0.43990733962562101 -0.5 0 0.39391957549512607 -0.5 0 0.41909828956072681 -0.47772454198183789 0 0.33179239873092481 -0.50000000000000022 0 0.31182505776931879 -0.49634149831663882 0 0.33179239873092481 -0.50000000000000022 0 0.31113231101668831 -0.5 0 0.31182505776931879 -0.49634149831663882 0 0.32016855352668711 -0.48455692892313967 0 0.33179239873092481 -0.50000000000000022 0 0.31182505776931879 -0.49634149831663882 0 0.32016855352668711 -0.48455692892313967 0 0.31094942502033651 -0.48690621495658409 0 0.31182505776931879 -0.49634149831663882 0 0.32016855352668711 -0.48455692892313967 0 0.31574955657780218 -0.47087735903723671 0 0.32413311613304918 -0.47488516367930061 0 0.32016855352668711 -0.48455692892313967 0 0.31149193380053619 -0.47919281312432399 0 0.31094942502033651 -0.48690621495658409 0 0.32016855352668711 -0.48455692892313967 0 0.31574955657780218 -0.47087735903723671 0 0.31149193380053619 -0.47919281312432399 0 0.31574955657780218 -0.47087735903723671 0 0.32413311613304918 -0.47488516367930061 0 0.32305229532472329 -0.4645063994729931 0 0.32413311613304918 -0.47488516367930061 0 0.33150246308560061 -0.46850336791104041 0 0.32305229532472329 -0.4645063994729931 0 0.32016855352668711 -0.48455692892313967 0 0.32413311613304918 -0.47488516367930061 0 0.33273361157756742 -0.48340679898292488 0 0.33273361157756742 -0.48340679898292488 0 0.3427607019683665 -0.4719969257659441 0 0.34391091661078838 -0.49090783500396301 0 0.33273361157756742 -0.48340679898292488 0 0.3427607019683665 -0.4719969257659441 0 0.33150246308560061 -0.46850336791104041 0 0.32413311613304918 -0.47488516367930061 0 0.33273361157756742 -0.48340679898292488 0 0.33150246308560061 -0.46850336791104041 0 0.33273361157756742 -0.48340679898292488 0 0.33179239873092481 -0.50000000000000022 0 0.34391091661078838 -0.49090783500396301 0 0.32016855352668711 -0.48455692892313967 0 0.33273361157756742 -0.48340679898292488 0 0.33179239873092481 -0.50000000000000022 0 0.39391957549512607 -0.5 0 0.33179239873092481 -0.50000000000000022 0 0.34391091661078838 -0.49090783500396301 0 0.39391957549512607 -0.5 0 0.34391091661078838 -0.49090783500396301 0 0.35681798410742888 -0.47106021299114131 0 0.3427607019683665 -0.4719969257659441 0 0.34391091661078838 -0.49090783500396301 0 0.35681798410742888 -0.47106021299114131 0 0.34391091661078838 -0.49090783500396301 0 0.35681798410742888 -0.47106021299114131 0 0.3427607019683665 -0.4719969257659441 0 0.35135407971462912 -0.45932762920308762 0 0.34024515671418443 -0.45877571050350813 0 0.35681798410742888 -0.47106021299114131 0 0.35135407971462912 -0.45932762920308762 0 0.36972505160406938 -0.45121259097831962 0 0.38951240901253131 -0.46846467213091308 0 0.35681798410742888 -0.47106021299114131 0 0.36972505160406938 -0.45121259097831962 0 0.3427607019683665 -0.4719969257659441 0 0.35681798410742888 -0.47106021299114131 0 0.35135407971462912 -0.45932762920308762 0 0.35135407971462912 -0.45932762920308762 0 0.35044678615145802 -0.4453464288889934 0 0.34024515671418443 -0.45877571050350813 0 0.35681798410742888 -0.47106021299114131 0 0.36972505160406938 -0.45121259097831962 0 0.38263211910070988 -0.43136496896549781 0 0.36972505160406938 -0.45121259097831962 0 0.36454365197497779 -0.43851780766496767 0 0.36972505160406938 -0.45121259097831962 0 0.36454365197497779 -0.43851780766496767 0 0.35044678615145802 -0.4453464288889934 0 0.36454365197497779 -0.43851780766496767 0 0.35044678615145802 -0.4453464288889934 0 0.35558196801429071 -0.43505747069692752 0 0.35135407971462912 -0.45932762920308762 0 0.36972505160406938 -0.45121259097831962 0 0.35044678615145802 -0.4453464288889934 0 0.35044678615145802 -0.4453464288889934 0 0.34698453289731612 -0.43274915832975042 0 0.35558196801429071 -0.43505747069692752 0 0.35044678615145802 -0.4453464288889934 0 0.34096001911691348 -0.43945042957457059 0 0.34698453289731612 -0.43274915832975042 0 0.34096001911691348 -0.43945042957457059 0 0.33231008860136901 -0.43967442109015131 0 0.33695452524670161 -0.44791834546974602 0 0.35044678615145802 -0.4453464288889934 0 0.34096001911691348 -0.43945042957457059 0 0.33695452524670161 -0.44791834546974602 0 0.33231008860136901 -0.43967442109015131 0 0.33695452524670161 -0.44791834546974602 0 0.32749060494309362 -0.44626586894491421 0 0.33695452524670161 -0.44791834546974602 0 0.32786360673077519 -0.45616215462515131 0 0.32749060494309362 -0.44626586894491421 0 0.35044678615145802 -0.4453464288889934 0 0.33695452524670161 -0.44791834546974602 0 0.34024515671418443 -0.45877571050350813 0 0.3427607019683665 -0.4719969257659441 0 0.34024515671418443 -0.45877571050350813 0 0.33150246308560061 -0.46850336791104041 0 0.34024515671418443 -0.45877571050350813 0 0.33150246308560061 -0.46850336791104041 0 0.32786360673077519 -0.45616215462515131 0 0.33695452524670161 -0.44791834546974602 0 0.34024515671418443 -0.45877571050350813 0 0.32786360673077519 -0.45616215462515131 0 0.32786360673077519 -0.45616215462515131 0 0.3163341947992806 -0.45858381728256031 0 0.31917100592389558 -0.44918203403498802 0 0.32786360673077519 -0.45616215462515131 0 0.32305229532472329 -0.4645063994729931 0 0.3163341947992806 -0.45858381728256031 0 0.33150246308560061 -0.46850336791104041 0 0.32786360673077519 -0.45616215462515131 0 0.32305229532472329 -0.4645063994729931 0 0.31574955657780218 -0.47087735903723671 0 0.3163341947992806 -0.45858381728256031 0 0.30671636200760732 -0.46284698899374949 0 0.31574955657780218 -0.47087735903723671 0 0.32305229532472329 -0.4645063994729931 0 0.3163341947992806 -0.45858381728256031 0 0.3163341947992806 -0.45858381728256031 0 0.31917100592389558 -0.44918203403498802 0 0.31097112329497589 -0.45296186311069858 0 0.31917100592389558 -0.44918203403498802 0 0.31071351928806712 -0.44330732561311259 0 0.31097112329497589 -0.45296186311069858 0 0.32179097648857741 -0.43904013855857288 0 0.31194092093056142 -0.43271949472030091 0 0.31071351928806712 -0.44330732561311259 0 0.31917100592389558 -0.44918203403498802 0 0.32179097648857741 -0.43904013855857288 0 0.31071351928806712 -0.44330732561311259 0 0.31917100592389558 -0.44918203403498802 0 0.32179097648857741 -0.43904013855857288 0 0.32749060494309362 -0.44626586894491421 0 0.33231008860136901 -0.43967442109015131 0 0.32179097648857741 -0.43904013855857288 0 0.32749060494309362 -0.44626586894491421 0 0.32786360673077519 -0.45616215462515131 0 0.31917100592389558 -0.44918203403498802 0 0.32749060494309362 -0.44626586894491421 0 0.32639543949104932 -0.42564947860353819 0 0.32183570544549323 -0.43117921315501612 0 0.31846494043496398 -0.42480096428486741 0 0.32179097648857741 -0.43904013855857288 0 0.32183570544549323 -0.43117921315501612 0 0.32906204980735448 -0.43255339696342732 0 0.32639543949104932 -0.42564947860353819 0 0.32183570544549323 -0.43117921315501612 0 0.32906204980735448 -0.43255339696342732 0 0.33231008860136901 -0.43967442109015131 0 0.32179097648857741 -0.43904013855857288 0 0.32906204980735448 -0.43255339696342732 0 0.32179097648857741 -0.43904013855857288 0 0.32183570544549323 -0.43117921315501612 0 0.31194092093056142 -0.43271949472030091 0 0.32183570544549323 -0.43117921315501612 0 0.31846494043496398 -0.42480096428486741 0 0.31194092093056142 -0.43271949472030091 0 0.31846494043496398 -0.42480096428486741 0 0.31070867091783749 -0.42029912752249032 0 0.31194092093056142 -0.43271949472030091 0 0.31846494043496398 -0.42480096428486741 0 0.32197878754646908 -0.41490638486604481 0 0.31070867091783749 -0.42029912752249032 0 0.32197878754646908 -0.41490638486604481 0 0.31158644214776188 -0.40906253825837052 0 0.31070867091783749 -0.42029912752249032 0 0.31935716336825121 -0.40682052782204747 0 0.32197878754646908 -0.41490638486604481 0 0.31158644214776188 -0.40906253825837052 0 0.31935716336825121 -0.40682052782204747 0 0.32197878754646908 -0.41490638486604481 0 0.32655979085807191 -0.40439827488945118 0 0.32197878754646908 -0.41490638486604481 0 0.33224065280811438 -0.41306207800650019 0 0.32655979085807191 -0.40439827488945118 0 0.32639543949104932 -0.42564947860353819 0 0.31846494043496398 -0.42480096428486741 0 0.32197878754646908 -0.41490638486604481 0 0.32639543949104932 -0.42564947860353819 0 0.32197878754646908 -0.41490638486604481 0 0.33118191280540721 -0.41937008404542891 0 0.33118191280540721 -0.41937008404542891 0 0.34166466164994191 -0.41928297964508637 0 0.33447222569484431 -0.42615766124607379 0 0.33118191280540721 -0.41937008404542891 0 0.33224065280811438 -0.41306207800650019 0 0.34166466164994191 -0.41928297964508637 0 0.32197878754646908 -0.41490638486604481 0 0.33118191280540721 -0.41937008404542891 0 0.33224065280811438 -0.41306207800650019 0 0.33224065280811438 -0.41306207800650019 0 0.34051839654045862 -0.41111134461497151 0 0.32655979085807191 -0.40439827488945118 0 0.34051839654045862 -0.41111134461497151 0 0.32655979085807191 -0.40439827488945118 0 0.33224065280811438 -0.41306207800650019 0 0.34051839654045862 -0.41111134461497151 0 0.34166466164994191 -0.41928297964508637 0 0.34166466164994191 -0.41928297964508637 0 0.34174229158810732 -0.42679190738159389 0 0.34745848170810811 -0.42544154528252348 0 0.34174229158810732 -0.42679190738159389 0 0.33447222569484431 -0.42615766124607379 0 0.33760235600557348 -0.43281834702967692 0 0.34166466164994191 -0.41928297964508637 0 0.34174229158810732 -0.42679190738159389 0 0.33447222569484431 -0.42615766124607379 0 0.32639543949104932 -0.42564947860353819 0 0.33447222569484431 -0.42615766124607379 0 0.32906204980735448 -0.43255339696342732 0 0.32639543949104932 -0.42564947860353819 0 0.33118191280540721 -0.41937008404542891 0 0.33447222569484431 -0.42615766124607379 0 0.33231008860136901 -0.43967442109015131 0 0.32906204980735448 -0.43255339696342732 0 0.33760235600557348 -0.43281834702967692 0 0.33447222569484431 -0.42615766124607379 0 0.32906204980735448 -0.43255339696342732 0 0.33760235600557348 -0.43281834702967692 0 0.34096001911691348 -0.43945042957457059 0 0.33231008860136901 -0.43967442109015131 0 0.33760235600557348 -0.43281834702967692 0 0.34096001911691348 -0.43945042957457059 0 0.33760235600557348 -0.43281834702967692 0 0.34698453289731612 -0.43274915832975042 0 0.34174229158810732 -0.42679190738159389 0 0.33760235600557348 -0.43281834702967692 0 0.34698453289731612 -0.43274915832975042 0 0.34166466164994191 -0.41928297964508637 0 0.34745848170810811 -0.42544154528252348 0 0.35074130087200678 -0.42257244067142258 0 0.34174229158810732 -0.42679190738159389 0 0.34698453289731612 -0.43274915832975042 0 0.34745848170810811 -0.42544154528252348 0 0.34698453289731612 -0.43274915832975042 0 0.34745848170810811 -0.42544154528252348 0 0.35327750244038392 -0.42790567415854752 0 0.34745848170810811 -0.42544154528252348 0 0.35074130087200678 -0.42257244067142258 0 0.35327750244038392 -0.42790567415854752 0 0.35074130087200678 -0.42257244067142258 0 0.35327750244038392 -0.42790567415854752 0 0.35682885633875477 -0.42240758993046518 0 0.35327750244038392 -0.42790567415854752 0 0.35682885633875477 -0.42240758993046518 0 0.36030244897227748 -0.43004883270033728 0 0.34698453289731612 -0.43274915832975042 0 0.35327750244038392 -0.42790567415854752 0 0.35558196801429071 -0.43505747069692752 0 0.35327750244038392 -0.42790567415854752 0 0.35558196801429071 -0.43505747069692752 0 0.36030244897227748 -0.43004883270033728 0 0.38263211910070988 -0.43136496896549781 0 0.36454365197497779 -0.43851780766496767 0 0.36855456066177761 -0.42459469165299502 0 0.36454365197497779 -0.43851780766496767 0 0.35558196801429071 -0.43505747069692752 0 0.36030244897227748 -0.43004883270033728 0 0.36454365197497779 -0.43851780766496767 0 0.36030244897227748 -0.43004883270033728 0 0.36855456066177761 -0.42459469165299502 0 0.35682885633875477 -0.42240758993046518 0 0.36030244897227748 -0.43004883270033728 0 0.36855456066177761 -0.42459469165299502 0 0.37284343444113999 -0.41197713120425572 0 0.3643297851962724 -0.41430396154828258 0 0.36930717349753389 -0.40302510674047037 0 0.36855456066177761 -0.42459469165299502 0 0.37284343444113999 -0.41197713120425572 0 0.3643297851962724 -0.41430396154828258 0 0.38208588390235998 -0.41447976765955008 0 0.36855456066177761 -0.42459469165299502 0 0.37284343444113999 -0.41197713120425572 0 0.36855456066177761 -0.42459469165299502 0 0.3643297851962724 -0.41430396154828258 0 0.35447700222284573 -0.41782441434049078 0 0.36855456066177761 -0.42459469165299502 0 0.35447700222284573 -0.41782441434049078 0 0.35682885633875477 -0.42240758993046518 0 0.36855456066177761 -0.42459469165299502 0 0.35447700222284573 -0.41782441434049078 0 0.3643297851962724 -0.41430396154828258 0 0.35916289797594569 -0.40459529076245437 0 0.36930717349753389 -0.40302510674047037 0 0.3643297851962724 -0.41430396154828258 0 0.35621572038108668 -0.40994228481217021 0 0.35916289797594569 -0.40459529076245437 0 0.3643297851962724 -0.41430396154828258 0 0.35621572038108668 -0.40994228481217021 0 0.35447700222284573 -0.41782441434049078 0 0.35621572038108668 -0.40994228481217021 0 0.35447700222284573 -0.41782441434049078 0 0.34689319612928299 -0.40304547259745321 0 0.35682885633875477 -0.42240758993046518 0 0.35447700222284573 -0.41782441434049078 0 0.35074130087200678 -0.42257244067142258 0 0.35682885633875477 -0.42240758993046518 0 0.35447700222284573 -0.41782441434049078 0 0.34051839654045862 -0.41111134461497151 0 0.34166466164994191 -0.41928297964508637 0 0.35447700222284573 -0.41782441434049078 0 0.34166466164994191 -0.41928297964508637 0 0.35074130087200678 -0.42257244067142258 0 0.35447700222284573 -0.41782441434049078 0 0.34051839654045862 -0.41111134461497151 0 0.35447700222284573 -0.41782441434049078 0 0.35447700222284573 -0.41782441434049078 0 0.34689319612928299 -0.40304547259745321 0 0.34051839654045862 -0.41111134461497151 0 0.35447700222284573 -0.41782441434049078 0 0.34689319612928299 -0.40304547259745321 0 0.34689319612928299 -0.40304547259745321 0 0.35115397365301843 -0.39337011688482743 0 0.35433680779112858 -0.39922387708554319 0 0.34689319612928299 -0.40304547259745321 0 0.35115397365301843 -0.39337011688482743 0 0.33930939003571903 -0.38826653085441631 0 0.35115397365301843 -0.39337011688482743 0 0.35433680779112858 -0.39922387708554319 0 0.36048393413744018 -0.39577153125578829 0 0.35115397365301843 -0.39337011688482743 0 0.36048393413744018 -0.39577153125578829 0 0.35676225844649578 -0.38382087794741498 0 0.35621572038108668 -0.40994228481217021 0 0.34689319612928299 -0.40304547259745321 0 0.35916289797594569 -0.40459529076245437 0 0.35433680779112858 -0.39922387708554319 0 0.35916289797594569 -0.40459529076245437 0 0.36048393413744018 -0.39577153125578829 0 0.34689319612928299 -0.40304547259745321 0 0.35433680779112858 -0.39922387708554319 0 0.35916289797594569 -0.40459529076245437 0 0.35916289797594569 -0.40459529076245437 0 0.36048393413744018 -0.39577153125578829 0 0.36930717349753389 -0.40302510674047037 0 0.36048393413744018 -0.39577153125578829 0 0.37154302805255351 -0.39233324384433799 0 0.35676225844649578 -0.38382087794741498 0 0.36048393413744018 -0.39577153125578829 0 0.37154302805255351 -0.39233324384433799 0 0.36930717349753389 -0.40302510674047037 0 0.37993976894775611 -0.40348212841998038 0 0.37284343444113999 -0.41197713120425572 0 0.36930717349753389 -0.40302510674047037 0 0.37993976894775611 -0.40348212841998038 0 0.37154302805255351 -0.39233324384433799 0 0.36930717349753389 -0.40302510674047037 0 0.37421512685727248 -0.3793752250404136 0 0.35676225844649578 -0.38382087794741498 0 0.37154302805255351 -0.39233324384433799 0 0.37421512685727248 -0.3793752250404136 0 0.35676225844649578 -0.38382087794741498 0 0.37421512685727248 -0.3793752250404136 0 0.35676225844649578 -0.38382087794741498 0 0.3583686331716463 -0.36874453544543828 0 0.35676225844649578 -0.38382087794741498 0 0.34681339374223108 -0.37702713482020922 0 0.33930939003571903 -0.38826653085441631 0 0.35115397365301843 -0.39337011688482743 0 0.35676225844649578 -0.38382087794741498 0 0.33930939003571903 -0.38826653085441631 0 0.35676225844649578 -0.38382087794741498 0 0.34681339374223108 -0.37702713482020922 0 0.3583686331716463 -0.36874453544543828 0 0.35676225844649578 -0.38382087794741498 0 0.33930939003571903 -0.38826653085441631 0 0.34681339374223108 -0.37702713482020922 0 0.33558480418236381 -0.38100824436019842 0 0.33930939003571903 -0.38826653085441631 0 0.33112375294470853 -0.39035160366152261 0 0.33930939003571903 -0.38826653085441631 0 0.33558480418236381 -0.38100824436019842 0 0.33112375294470853 -0.39035160366152261 0 0.33930939003571903 -0.38826653085441631 0 0.33558480418236381 -0.38100824436019842 0 0.33112375294470853 -0.39035160366152261 0 0.33558480418236381 -0.38100824436019842 0 0.33112375294470853 -0.39035160366152261 0 0.32467599198283043 -0.38138950632941571 0 0.33558480418236381 -0.38100824436019842 0 0.33930939003571903 -0.38826653085441631 0 0.34689319612928299 -0.40304547259745321 0 0.33930939003571903 -0.38826653085441631 0 0.34689319612928299 -0.40304547259745321 0 0.33930939003571903 -0.38826653085441631 0 0.3361364471485222 -0.39739317228102938 0 0.34051839654045862 -0.41111134461497151 0 0.34689319612928299 -0.40304547259745321 0 0.33940090036038317 -0.40358561487437011 0 0.34689319612928299 -0.40304547259745321 0 0.3361364471485222 -0.39739317228102938 0 0.33940090036038317 -0.40358561487437011 0 0.34051839654045862 -0.41111134461497151 0 0.33940090036038317 -0.40358561487437011 0 0.33405556162326921 -0.40279247000402629 0 0.3361364471485222 -0.39739317228102938 0 0.33940090036038317 -0.40358561487437011 0 0.33405556162326921 -0.40279247000402629 0 0.3361364471485222 -0.39739317228102938 0 0.33405556162326921 -0.40279247000402629 0 0.32799803975153868 -0.39689819097488183 0 0.34051839654045862 -0.41111134461497151 0 0.33405556162326921 -0.40279247000402629 0 0.32655979085807191 -0.40439827488945118 0 0.33405556162326921 -0.40279247000402629 0 0.32799803975153868 -0.39689819097488183 0 0.32655979085807191 -0.40439827488945118 0 0.33112375294470853 -0.39035160366152261 0 0.33930939003571903 -0.38826653085441631 0 0.3361364471485222 -0.39739317228102938 0 0.33112375294470853 -0.39035160366152261 0 0.3361364471485222 -0.39739317228102938 0 0.32799803975153868 -0.39689819097488183 0 0.33112375294470853 -0.39035160366152261 0 0.32799803975153868 -0.39689819097488183 0 0.33112375294470853 -0.39035160366152261 0 0.32090058304012958 -0.39910407024328848 0 0.3127353497001697 -0.39503555912460941 0 0.33112375294470853 -0.39035160366152261 0 0.3127353497001697 -0.39503555912460941 0 0.33112375294470853 -0.39035160366152261 0 0.32799803975153868 -0.39689819097488183 0 0.32090058304012958 -0.39910407024328848 0 0.32799803975153868 -0.39689819097488183 0 0.32655979085807191 -0.40439827488945118 0 0.32090058304012958 -0.39910407024328848 0 0.31935716336825121 -0.40682052782204747 0 0.32655979085807191 -0.40439827488945118 0 0.32090058304012958 -0.39910407024328848 0 0.31935716336825121 -0.40682052782204747 0 0.32090058304012958 -0.39910407024328848 0 0.3127353497001697 -0.39503555912460941 0 0.31935716336825121 -0.40682052782204747 0 0.3127353497001697 -0.39503555912460941 0 0.31158644214776188 -0.40906253825837052 0 0.33112375294470853 -0.39035160366152261 0 0.3127353497001697 -0.39503555912460941 0 0.32467599198283043 -0.38138950632941571 0 0.3127353497001697 -0.39503555912460941 0 0.31474964396718819 -0.3772615068392689 0 0.32467599198283043 -0.38138950632941571 0 0.3127353497001697 -0.39503555912460941 0 0.31474964396718819 -0.3772615068392689 0 0.30224840073360881 -0.38505472787516432 0 0.31474964396718819 -0.3772615068392689 0 0.30224840073360881 -0.38505472787516432 0 0.30013637794867171 -0.37073228217573662 0 0.3127353497001697 -0.39503555912460941 0 0.30499476296135369 -0.40435862328179772 0 0.29434694645563092 -0.39971951458769639 0 0.3127353497001697 -0.39503555912460941 0 0.30224840073360881 -0.38505472787516432 0 0.29434694645563092 -0.39971951458769639 0 0.3127353497001697 -0.39503555912460941 0 0.29434694645563092 -0.39971951458769639 0 0.3127353497001697 -0.39503555912460941 0 0.30499476296135369 -0.40435862328179772 0 0.31158644214776188 -0.40906253825837052 0 0.30499476296135369 -0.40435862328179772 0 0.29434694645563092 -0.39971951458769639 0 0.30131031354185228 -0.41361688115651463 0 0.29434694645563092 -0.39971951458769639 0 0.28238047239829811 -0.39935928116365088 0 0.29001611809481798 -0.4155835184240646 0 0.29434694645563092 -0.39971951458769639 0 0.28238047239829811 -0.39935928116365088 0 0.28781563803133658 -0.38618982779898398 0 0.30224840073360881 -0.38505472787516432 0 0.29434694645563092 -0.39971951458769639 0 0.28781563803133658 -0.38618982779898398 0 0.30224840073360881 -0.38505472787516432 0 0.28781563803133658 -0.38618982779898398 0 0.30013637794867171 -0.37073228217573662 0 0.28781563803133658 -0.38618982779898398 0 0.26203870277274582 -0.37934523136326359 0 0.26985945934139821 -0.39337195858285923 0 0.28781563803133658 -0.38618982779898398 0 0.26203870277274582 -0.37934523136326359 0 0.27780594594458519 -0.36669876328692952 0 0.28781563803133658 -0.38618982779898398 0 0.26203870277274582 -0.37934523136326359 0 0.26203870277274582 -0.37934523136326359 0 0.26985945934139821 -0.39337195858285923 0 0.24863835229281159 -0.39568287632597959 0 0.26985945934139821 -0.39337195858285923 0 0.26842413121179892 -0.40628257626241832 0 0.24863835229281159 -0.39568287632597959 0 0.28238047239829811 -0.39935928116365088 0 0.28781563803133658 -0.38618982779898398 0 0.26985945934139821 -0.39337195858285923 0 0.28238047239829811 -0.39935928116365088 0 0.26985945934139821 -0.39337195858285923 0 0.26842413121179892 -0.40628257626241832 0 0.28238047239829811 -0.39935928116365088 0 0.26842413121179892 -0.40628257626241832 0 0.29001611809481798 -0.4155835184240646 0 0.26842413121179892 -0.40628257626241832 0 0.27045541286113212 -0.42336015650499981 0 0.29001611809481798 -0.4155835184240646 0 0.26842413121179892 -0.40628257626241832 0 0.25292401482276122 -0.41759658032181679 0 0.27045541286113212 -0.42336015650499981 0 0.26842413121179892 -0.40628257626241832 0 0.25292401482276122 -0.41759658032181679 0 0.24863835229281159 -0.39568287632597959 0 0.25292401482276122 -0.41759658032181679 0 0.27045541286113212 -0.42336015650499981 0 0.26122874256718243 -0.4383130826805729 0 0.25292401482276122 -0.41759658032181679 0 0.26122874256718243 -0.4383130826805729 0 0.2365895636218279 -0.43770218208003681 0 0.27045541286113212 -0.42336015650499981 0 0.28337832976716459 -0.44331759193571968 0 0.26122874256718243 -0.4383130826805729 0 0.29001611809481798 -0.4155835184240646 0 0.2998636626874589 -0.42752787151269939 0 0.28337832976716459 -0.44331759193571968 0 0.29001611809481798 -0.4155835184240646 0 0.28337832976716459 -0.44331759193571968 0 0.27045541286113212 -0.42336015650499981 0 0.29001611809481798 -0.4155835184240646 0 0.28337832976716459 -0.44331759193571968 0 0.29434694645563092 -0.39971951458769639 0 0.29001611809481798 -0.4155835184240646 0 0.30131031354185228 -0.41361688115651463 0 0.30131031354185228 -0.41361688115651463 0 0.31070867091783749 -0.42029912752249032 0 0.2998636626874589 -0.42752787151269939 0 0.29001611809481798 -0.4155835184240646 0 0.30131031354185228 -0.41361688115651463 0 0.2998636626874589 -0.42752787151269939 0 0.30499476296135369 -0.40435862328179772 0 0.30131031354185228 -0.41361688115651463 0 0.31158644214776188 -0.40906253825837052 0 0.30131031354185228 -0.41361688115651463 0 0.31158644214776188 -0.40906253825837052 0 0.31070867091783749 -0.42029912752249032 0 0.31070867091783749 -0.42029912752249032 0 0.31194092093056142 -0.43271949472030091 0 0.2998636626874589 -0.42752787151269939 0 0.31194092093056142 -0.43271949472030091 0 0.2998636626874589 -0.42752787151269939 0 0.29944687121405211 -0.44231552607316132 0 0.29944687121405211 -0.44231552607316132 0 0.30219651445882062 -0.4533470774792453 0 0.28931332587268249 -0.45485073332354592 0 0.29944687121405211 -0.44231552607316132 0 0.31071351928806712 -0.44330732561311259 0 0.30219651445882062 -0.4533470774792453 0 0.31194092093056142 -0.43271949472030091 0 0.29944687121405211 -0.44231552607316132 0 0.31071351928806712 -0.44330732561311259 0 0.31071351928806712 -0.44330732561311259 0 0.31097112329497589 -0.45296186311069858 0 0.30219651445882062 -0.4533470774792453 0 0.3163341947992806 -0.45858381728256031 0 0.31097112329497589 -0.45296186311069858 0 0.30671636200760732 -0.46284698899374949 0 0.31097112329497589 -0.45296186311069858 0 0.30671636200760732 -0.46284698899374949 0 0.30219651445882062 -0.4533470774792453 0 0.30671636200760732 -0.46284698899374949 0 0.2949158929571426 -0.46654897127240891 0 0.30451321014952698 -0.4731437695221512 0 0.30671636200760732 -0.46284698899374949 0 0.30219651445882062 -0.4533470774792453 0 0.2949158929571426 -0.46654897127240891 0 0.30219651445882062 -0.4533470774792453 0 0.28931332587268249 -0.45485073332354592 0 0.2949158929571426 -0.46654897127240891 0 0.28931332587268249 -0.45485073332354592 0 0.28337832976716459 -0.44331759193571968 0 0.27674054143951032 -0.47105166544737442 0 0.28931332587268249 -0.45485073332354592 0 0.28235208737062351 -0.46874530956905253 0 0.27674054143951032 -0.47105166544737442 0 0.28931332587268249 -0.45485073332354592 0 0.2949158929571426 -0.46654897127240891 0 0.28235208737062351 -0.46874530956905253 0 0.29944687121405211 -0.44231552607316132 0 0.28931332587268249 -0.45485073332354592 0 0.28337832976716459 -0.44331759193571968 0 0.2998636626874589 -0.42752787151269939 0 0.29944687121405211 -0.44231552607316132 0 0.28337832976716459 -0.44331759193571968 0 0.28337832976716459 -0.44331759193571968 0 0.26122874256718243 -0.4383130826805729 0 0.27073526411126447 -0.45495301000527177 0 0.25328987021894461 -0.45294897523559302 0 0.26122874256718243 -0.4383130826805729 0 0.2365895636218279 -0.43770218208003681 0 0.25328987021894461 -0.45294897523559302 0 0.26122874256718243 -0.4383130826805729 0 0.27073526411126447 -0.45495301000527177 0 0.25328987021894461 -0.45294897523559302 0 0.27073526411126447 -0.45495301000527177 0 0.25023987491308308 -0.48194348897924172 0 0.28337832976716459 -0.44331759193571968 0 0.27674054143951032 -0.47105166544737442 0 0.28337832976716459 -0.44331759193571968 0 0.27073526411126447 -0.45495301000527177 0 0.27674054143951032 -0.47105166544737442 0 0.27073526411126447 -0.45495301000527177 0 0.27674054143951032 -0.47105166544737442 0 0.25023987491308308 -0.48194348897924172 0 0.28235208737062351 -0.46874530956905253 0 0.27674054143951032 -0.47105166544737442 0 0.28280929938781513 -0.47989336948864347 0 0.28235208737062351 -0.46874530956905253 0 0.27674054143951032 -0.47105166544737442 0 0.27674054143951032 -0.47105166544737442 0 0.26981213558821487 -0.50000000000000089 0 0.28280929938781513 -0.47989336948864347 0 0.27674054143951032 -0.47105166544737442 0 0.25023987491308308 -0.48194348897924172 0 0.26118909736633872 -0.48992984467080058 0 0.27674054143951032 -0.47105166544737442 0 0.25023987491308308 -0.48194348897924172 0 0.26472228294454481 -0.50000000000000033 0 0.24725991076381679 -0.5 0 0.2444306519463407 -0.49665406892738712 0 0.26472228294454481 -0.50000000000000033 0 0.2444306519463407 -0.49665406892738712 0 0.25023987491308308 -0.48194348897924172 0 0.26118909736633872 -0.48992984467080058 0 0.2444306519463407 -0.49665406892738712 0 0.26118909736633872 -0.48992984467080058 0 0.26472228294454481 -0.50000000000000033 0 0.2444306519463407 -0.49665406892738712 0 0.26118909736633872 -0.48992984467080058 0 0.26472228294454481 -0.50000000000000033 0 0.26981213558821487 -0.50000000000000089 0 0.27674054143951032 -0.47105166544737442 0 0.26981213558821487 -0.50000000000000089 0 0.26981213558821487 -0.50000000000000089 0 0.28686708932535671 -0.48896999775433081 0 0.28280929938781513 -0.47989336948864347 0 0.27674054143951032 -0.47105166544737442 0 0.26118909736633872 -0.48992984467080058 0 0.26981213558821487 -0.50000000000000089 0 0.26981213558821487 -0.50000000000000089 0 0.29047222330245159 -0.5 0 0.28686708932535671 -0.48896999775433081 0 0.29185771680771272 -0.49268299663327719 0 0.29047222330245159 -0.5 0 0.28686708932535671 -0.48896999775433081 0 0.29185771680771272 -0.49268299663327719 0 0.29454788087988742 -0.48449056499709542 0 0.30203434716856892 -0.4861634934091788 0 0.29185771680771272 -0.49268299663327719 0 0.29454788087988742 -0.48449056499709542 0 0.28686708932535671 -0.48896999775433081 0 0.28686708932535671 -0.48896999775433081 0 0.28280929938781513 -0.47989336948864347 0 0.29174402974532138 -0.47890798470386359 0 0.28280929938781513 -0.47989336948864347 0 0.28946167631134362 -0.47300697208673242 0 0.29174402974532138 -0.47890798470386359 0 0.28235208737062351 -0.46874530956905253 0 0.28280929938781513 -0.47989336948864347 0 0.28946167631134362 -0.47300697208673242 0 0.2949158929571426 -0.46654897127240891 0 0.28235208737062351 -0.46874530956905253 0 0.28946167631134362 -0.47300697208673242 0 0.28946167631134362 -0.47300697208673242 0 0.29604788204230559 -0.47412593422169602 0 0.29174402974532138 -0.47890798470386359 0 0.2949158929571426 -0.46654897127240891 0 0.28946167631134362 -0.47300697208673242 0 0.29604788204230559 -0.47412593422169602 0 0.29454788087988742 -0.48449056499709542 0 0.29174402974532138 -0.47890798470386359 0 0.29960460104819348 -0.47902197352332421 0 0.29604788204230559 -0.47412593422169602 0 0.29174402974532138 -0.47890798470386359 0 0.29960460104819348 -0.47902197352332421 0 0.29454788087988742 -0.48449056499709542 0 0.28686708932535671 -0.48896999775433081 0 0.29174402974532138 -0.47890798470386359 0 0.29454788087988742 -0.48449056499709542 0 0.29960460104819348 -0.47902197352332421 0 0.30203434716856892 -0.4861634934091788 0 0.29960460104819348 -0.47902197352332421 0 0.30451321014952698 -0.4731437695221512 0 0.30565118627963211 -0.48061342870654078 0 0.29960460104819348 -0.47902197352332421 0 0.30565118627963211 -0.48061342870654078 0 0.30203434716856892 -0.4861634934091788 0 0.29604788204230559 -0.47412593422169602 0 0.29960460104819348 -0.47902197352332421 0 0.30451321014952698 -0.4731437695221512 0 0.2949158929571426 -0.46654897127240891 0 0.29604788204230559 -0.47412593422169602 0 0.30451321014952698 -0.4731437695221512 0 0.31574955657780218 -0.47087735903723671 0 0.30671636200760732 -0.46284698899374949 0 0.30451321014952698 -0.4731437695221512 0 0.31574955657780218 -0.47087735903723671 0 0.30451321014952698 -0.4731437695221512 0 0.31149193380053619 -0.47919281312432399 0 0.30451321014952698 -0.4731437695221512 0 0.30565118627963211 -0.48061342870654078 0 0.31149193380053619 -0.47919281312432399 0 0.30565118627963211 -0.48061342870654078 0 0.31149193380053619 -0.47919281312432399 0 0.31094942502033651 -0.48690621495658409 0 0.30565118627963211 -0.48061342870654078 0 0.31094942502033651 -0.48690621495658409 0 0.30203434716856892 -0.4861634934091788 0 0.29185771680771272 -0.49268299663327719 0 0.31113231101668831 -0.5 0 0.31182505776931879 -0.49634149831663882 0 0.29185771680771272 -0.49268299663327719 0 0.31182505776931879 -0.49634149831663882 0 0.29185771680771272 -0.49268299663327719 0 0.31182505776931879 -0.49634149831663882 0 0.3041666366914843 -0.4905235508289198 0 0.29185771680771272 -0.49268299663327719 0 0.29047222330245159 -0.5 0 0.31113231101668831 -0.5 0 0.31094942502033651 -0.48690621495658409 0 0.31182505776931879 -0.49634149831663882 0 0.3041666366914843 -0.4905235508289198 0 0.31094942502033651 -0.48690621495658409 0 0.3041666366914843 -0.4905235508289198 0 0.30203434716856892 -0.4861634934091788 0 0.29185771680771272 -0.49268299663327719 0 0.3041666366914843 -0.4905235508289198 0 0.30203434716856892 -0.4861634934091788 0 0.32966201383677562 -0.29243057617118751 0 0.34786770353616142 -0.28836769528406969 0 0.35038228944561489 -0.30417926984586341 0 0.32966201383677562 -0.29243057617118751 0 0.3363827965846341 -0.27053296764427232 0 0.34786770353616142 -0.28836769528406969 0 0.32966201383677562 -0.29243057617118751 0 0.3363827965846341 -0.27053296764427232 0 0.32966201383677562 -0.29243057617118751 0 0.33721098418413009 -0.31222887887023981 0 0.35038228944561489 -0.30417926984586341 0 0.32966201383677562 -0.29243057617118751 0 0.33721098418413009 -0.31222887887023981 0 0.3229412310889172 -0.31432818469810281 0 0.32966201383677562 -0.29243057617118751 0 0.3229412310889172 -0.31432818469810281 0 0.32966201383677562 -0.29243057617118751 0 0.3229412310889172 -0.31432818469810281 0 0.31102472813389148 -0.30398166101151142 0 0.32966201383677562 -0.29243057617118751 0 0.32170760806883658 -0.2794067832334669 0 0.31005663702169051 -0.28787670192791759 0 0.32966201383677562 -0.29243057617118751 0 0.31005663702169051 -0.28787670192791759 0 0.31102472813389148 -0.30398166101151142 0 0.32170760806883658 -0.2794067832334669 0 0.31005663702169051 -0.28787670192791759 0 0.31134056716802588 -0.27684223838082078 0 0.31900232944618051 -0.26710350815015688 0 0.32170760806883658 -0.2794067832334669 0 0.3363827965846341 -0.27053296764427232 0 0.31900232944618051 -0.26710350815015688 0 0.32170760806883658 -0.2794067832334669 0 0.31134056716802588 -0.27684223838082078 0 0.31900232944618051 -0.26710350815015688 0 0.31852702710394631 -0.25367689820505651 0 0.30849503770388609 -0.25968585024770569 0 0.31900232944618051 -0.26710350815015688 0 0.31852702710394631 -0.25367689820505651 0 0.32937226465309932 -0.25722078006796228 0 0.3298455907982431 -0.24615516722296901 0 0.31852702710394631 -0.25367689820505651 0 0.32937226465309932 -0.25722078006796228 0 0.31900232944618051 -0.26710350815015688 0 0.32937226465309932 -0.25722078006796228 0 0.3363827965846341 -0.27053296764427232 0 0.34310357933249258 -0.24863535911735701 0 0.32937226465309932 -0.25722078006796228 0 0.3363827965846341 -0.27053296764427232 0 0.34310357933249258 -0.24863535911735701 0 0.3363827965846341 -0.27053296764427232 0 0.34310357933249258 -0.24863535911735701 0 0.3363827965846341 -0.27053296764427232 0 0.34930430224964237 -0.26121694726853462 0 0.3298455907982431 -0.24615516722296901 0 0.34310357933249258 -0.24863535911735701 0 0.32937226465309932 -0.25722078006796228 0 0.32966201383677562 -0.29243057617118751 0 0.32170760806883658 -0.2794067832334669 0 0.3363827965846341 -0.27053296764427232 0 0.3363827965846341 -0.27053296764427232 0 0.3547166122104678 -0.27573580659035268 0 0.34930430224964237 -0.26121694726853462 0 0.3363827965846341 -0.27053296764427232 0 0.3547166122104678 -0.27573580659035268 0 0.34786770353616142 -0.28836769528406969 0 0.3547166122104678 -0.27573580659035268 0 0.35884222422700401 -0.26018321304578013 0 0.3547166122104678 -0.27573580659035268 0 0.34930430224964237 -0.26121694726853462 0 0.35884222422700401 -0.26018321304578013 0 0.3547166122104678 -0.27573580659035268 0 0.35884222422700401 -0.26018321304578013 0 0.36310220154717132 -0.26963674460228432 0 0.34310357933249258 -0.24863535911735701 0 0.34930430224964237 -0.26121694726853462 0 0.35347629889361332 -0.250997389944911 0 0.36296783624354029 -0.24463061950120751 0 0.35884222422700401 -0.26018321304578013 0 0.35347629889361332 -0.250997389944911 0 0.34930430224964237 -0.26121694726853462 0 0.35884222422700401 -0.26018321304578013 0 0.35347629889361332 -0.250997389944911 0 0.37663482912986412 -0.2658212615920264 0 0.37095131159797418 -0.25215008344978762 0 0.37188304381841758 -0.27515158591148181 0 0.35884222422700401 -0.26018321304578013 0 0.37095131159797418 -0.25215008344978762 0 0.36310220154717132 -0.26963674460228432 0 0.37095131159797418 -0.25215008344978762 0 0.37188304381841758 -0.27515158591148181 0 0.36296783624354029 -0.24463061950120751 0 0.35884222422700401 -0.26018321304578013 0 0.36296783624354029 -0.24463061950120751 0 0.35884222422700401 -0.26018321304578013 0 0.37095131159797418 -0.25215008344978762 0 0.37095131159797418 -0.25215008344978762 0 0.36310220154717132 -0.26963674460228432 0 0.37188304381841758 -0.27515158591148181 0 0.3547166122104678 -0.27573580659035268 0 0.36310220154717132 -0.26963674460228432 0 0.36193515570787038 -0.28620947472344149 0 0.36310220154717132 -0.26963674460228432 0 0.37188304381841758 -0.27515158591148181 0 0.36193515570787038 -0.28620947472344149 0 0.37188304381841758 -0.27515158591148181 0 0.3728147760388606 -0.29815308837317578 0 0.36193515570787038 -0.28620947472344149 0 0.35038228944561489 -0.30417926984586341 0 0.3728147760388606 -0.29815308837317578 0 0.37974876142145497 -0.28635258802490299 0 0.37188304381841758 -0.27515158591148181 0 0.3728147760388606 -0.29815308837317578 0 0.37188304381841758 -0.27515158591148181 0 0.36193515570787038 -0.28620947472344149 0 0.3728147760388606 -0.29815308837317578 0 0.3547166122104678 -0.27573580659035268 0 0.36193515570787038 -0.28620947472344149 0 0.34786770353616142 -0.28836769528406969 0 0.36193515570787038 -0.28620947472344149 0 0.34786770353616142 -0.28836769528406969 0 0.35038228944561489 -0.30417926984586341 0 0.33721098418413009 -0.31222887887023981 0 0.35038228944561489 -0.30417926984586341 0 0.34707291309617311 -0.320620891719271 0 0.3728147760388606 -0.29815308837317578 0 0.37374650825930361 -0.32115459083486991 0 0.35038228944561489 -0.30417926984586341 0 0.3728147760388606 -0.29815308837317578 0 0.36171352038226479 -0.31324485827547988 0 0.3728147760388606 -0.29815308837317578 0 0.36171352038226479 -0.31324485827547988 0 0.37374650825930361 -0.32115459083486991 0 0.36171352038226479 -0.31324485827547988 0 0.36192304680195791 -0.32584464030133281 0 0.37374650825930361 -0.32115459083486991 0 0.36192304680195791 -0.32584464030133281 0 0.37374650825930361 -0.32115459083486991 0 0.37463954807267658 -0.33581164242928252 0 0.36192304680195791 -0.32584464030133281 0 0.37463954807267658 -0.33581164242928252 0 0.36745642971168491 -0.34456344691637641 0 0.36192304680195791 -0.32584464030133281 0 0.36745642971168491 -0.34456344691637641 0 0.35249896156749888 -0.34558272662695733 0 0.37814452130203668 -0.34893766324755421 0 0.37463954807267658 -0.33581164242928252 0 0.36745642971168491 -0.34456344691637641 0 0.34707291309617311 -0.320620891719271 0 0.35249896156749888 -0.34558272662695733 0 0.33687826278073318 -0.33261602095051163 0 0.36192304680195791 -0.32584464030133281 0 0.34707291309617311 -0.320620891719271 0 0.35249896156749888 -0.34558272662695733 0 0.36192304680195791 -0.32584464030133281 0 0.35249896156749888 -0.34558272662695733 0 0.35249896156749888 -0.34558272662695733 0 0.33687826278073318 -0.33261602095051163 0 0.35038228944561489 -0.30417926984586341 0 0.36171352038226479 -0.31324485827547988 0 0.34707291309617311 -0.320620891719271 0 0.36171352038226479 -0.31324485827547988 0 0.36192304680195791 -0.32584464030133281 0 0.34707291309617311 -0.320620891719271 0 0.37561756433113103 -0.36477342492917691 0 0.35249896156749888 -0.34558272662695733 0 0.3583686331716463 -0.36874453544543828 0 0.37561756433113103 -0.36477342492917691 0 0.37421512685727248 -0.3793752250404136 0 0.3583686331716463 -0.36874453544543828 0 0.37814452130203668 -0.34893766324755421 0 0.37561756433113103 -0.36477342492917691 0 0.36745642971168491 -0.34456344691637641 0 0.37561756433113103 -0.36477342492917691 0 0.35249896156749888 -0.34558272662695733 0 0.37561756433113103 -0.36477342492917691 0 0.36745642971168491 -0.34456344691637641 0 0.35249896156749888 -0.34558272662695733 0 0.35249896156749888 -0.34558272662695733 0 0.34404188287493082 -0.36329548549357749 0 0.33550922088314139 -0.34887861524814301 0 0.35249896156749888 -0.34558272662695733 0 0.34404188287493082 -0.36329548549357749 0 0.3583686331716463 -0.36874453544543828 0 0.35249896156749888 -0.34558272662695733 0 0.34404188287493082 -0.36329548549357749 0 0.34681339374223108 -0.37702713482020922 0 0.34404188287493082 -0.36329548549357749 0 0.3583686331716463 -0.36874453544543828 0 0.33558480418236381 -0.38100824436019842 0 0.32541926390047582 -0.36119814824763841 0 0.34681339374223108 -0.37702713482020922 0 0.33558480418236381 -0.38100824436019842 0 0.34404188287493082 -0.36329548549357749 0 0.33558480418236381 -0.38100824436019842 0 0.34404188287493082 -0.36329548549357749 0 0.33558480418236381 -0.38100824436019842 0 0.32467599198283043 -0.38138950632941571 0 0.32541926390047582 -0.36119814824763841 0 0.33558480418236381 -0.38100824436019842 0 0.34404188287493082 -0.36329548549357749 0 0.32541926390047582 -0.36119814824763841 0 0.34404188287493082 -0.36329548549357749 0 0.33550922088314139 -0.34887861524814301 0 0.32541926390047582 -0.36119814824763841 0 0.33550922088314139 -0.34887861524814301 0 0.32541926390047582 -0.36119814824763841 0 0.31525372361858789 -0.34138805213507839 0 0.32541926390047582 -0.36119814824763841 0 0.31525372361858789 -0.34138805213507839 0 0.30701705875096857 -0.35491896866508921 0 0.32541926390047582 -0.36119814824763841 0 0.31525372361858789 -0.34138805213507839 0 0.31474964396718819 -0.3772615068392689 0 0.32467599198283043 -0.38138950632941571 0 0.32541926390047582 -0.36119814824763841 0 0.32541926390047582 -0.36119814824763841 0 0.31183058614182613 -0.36602772648193332 0 0.30701705875096857 -0.35491896866508921 0 0.31474964396718819 -0.3772615068392689 0 0.32541926390047582 -0.36119814824763841 0 0.31183058614182613 -0.36602772648193332 0 0.33721098418413009 -0.31222887887023981 0 0.33687826278073318 -0.33261602095051163 0 0.3229412310889172 -0.31432818469810281 0 0.33721098418413009 -0.31222887887023981 0 0.34707291309617311 -0.320620891719271 0 0.33687826278073318 -0.33261602095051163 0 0.33550922088314139 -0.34887861524814301 0 0.33687826278073318 -0.33261602095051163 0 0.31525372361858789 -0.34138805213507839 0 0.35249896156749888 -0.34558272662695733 0 0.33550922088314139 -0.34887861524814301 0 0.33687826278073318 -0.33261602095051163 0 0.32206779211077602 -0.32853317162405449 0 0.31525372361858789 -0.34138805213507839 0 0.30508818333670001 -0.32157795602251837 0 0.33687826278073318 -0.33261602095051163 0 0.32206779211077602 -0.32853317162405449 0 0.31525372361858789 -0.34138805213507839 0 0.3229412310889172 -0.31432818469810281 0 0.30508818333670001 -0.32157795602251837 0 0.31102472813389148 -0.30398166101151142 0 0.33687826278073318 -0.33261602095051163 0 0.32206779211077602 -0.32853317162405449 0 0.3229412310889172 -0.31432818469810281 0 0.32206779211077602 -0.32853317162405449 0 0.3229412310889172 -0.31432818469810281 0 0.30508818333670001 -0.32157795602251837 0 0.31525372361858789 -0.34138805213507839 0 0.30508818333670001 -0.32157795602251837 0 0.31525372361858789 -0.34138805213507839 0 0.30508818333670001 -0.32157795602251837 0 0.29965436593333578 -0.33790124584029918 0 0.30508818333670001 -0.32157795602251837 0 0.29965436593333578 -0.33790124584029918 0 0.28392283604202329 -0.33203893976644278 0 0.29965436593333578 -0.33790124584029918 0 0.28392283604202329 -0.33203893976644278 0 0.28893023198721401 -0.35310244970804999 0 0.30508818333670001 -0.32157795602251837 0 0.28620271513769219 -0.31454562812183429 0 0.29891947207127562 -0.30910298327709468 0 0.30508818333670001 -0.32157795602251837 0 0.28392283604202329 -0.33203893976644278 0 0.28620271513769219 -0.31454562812183429 0 0.30013637794867171 -0.37073228217573662 0 0.30701705875096857 -0.35491896866508921 0 0.28893023198721401 -0.35310244970804999 0 0.30013637794867171 -0.37073228217573662 0 0.31183058614182613 -0.36602772648193332 0 0.30701705875096857 -0.35491896866508921 0 0.31474964396718819 -0.3772615068392689 0 0.30013637794867171 -0.37073228217573662 0 0.31183058614182613 -0.36602772648193332 0 0.29965436593333578 -0.33790124584029918 0 0.30701705875096857 -0.35491896866508921 0 0.28893023198721401 -0.35310244970804999 0 0.31525372361858789 -0.34138805213507839 0 0.29965436593333578 -0.33790124584029918 0 0.30701705875096857 -0.35491896866508921 0 0.28781563803133658 -0.38618982779898398 0 0.30013637794867171 -0.37073228217573662 0 0.27780594594458519 -0.36669876328692952 0 0.30013637794867171 -0.37073228217573662 0 0.28893023198721401 -0.35310244970804999 0 0.27780594594458519 -0.36669876328692952 0 0.26203870277274582 -0.37934523136326359 0 0.27780594594458519 -0.36669876328692952 0 0.25773743381932501 -0.36254186934301419 0 0.28893023198721401 -0.35310244970804999 0 0.27780594594458519 -0.36669876328692952 0 0.27040603974096827 -0.34687334150667293 0 0.28392283604202329 -0.33203893976644278 0 0.28893023198721401 -0.35310244970804999 0 0.27040603974096827 -0.34687334150667293 0 0.27780594594458519 -0.36669876328692952 0 0.27040603974096827 -0.34687334150667293 0 0.25773743381932501 -0.36254186934301419 0 0.27040603974096827 -0.34687334150667293 0 0.25162197908875961 -0.34456270195990157 0 0.25773743381932501 -0.36254186934301419 0 0.26203870277274582 -0.37934523136326359 0 0.25773743381932501 -0.36254186934301419 0 0.23626176751415501 -0.37250063492754321 0 0.28392283604202329 -0.33203893976644278 0 0.28620271513769219 -0.31454562812183429 0 0.26241781156390342 -0.32229532497569918 0 0.28392283604202329 -0.33203893976644278 0 0.27040603974096827 -0.34687334150667293 0 0.26241781156390342 -0.32229532497569918 0 0.27040603974096827 -0.34687334150667293 0 0.25162197908875961 -0.34456270195990157 0 0.26241781156390342 -0.32229532497569918 0 0.25162197908875961 -0.34456270195990157 0 0.26241781156390342 -0.32229532497569918 0 0.25162197908875961 -0.34456270195990157 0 0.26241781156390342 -0.32229532497569918 0 0.240261122555846 -0.32774950805267211 0 0.26241781156390342 -0.32229532497569918 0 0.24797784063920411 -0.30339675165726998 0 0.240261122555846 -0.32774950805267211 0 0.26241781156390342 -0.32229532497569918 0 0.27321364403904719 -0.30002794799149679 0 0.24797784063920411 -0.30339675165726998 0 0.25906316608217139 -0.28281659713112112 0 0.27321364403904719 -0.30002794799149679 0 0.24797784063920411 -0.30339675165726998 0 0.25906316608217139 -0.28281659713112112 0 0.24559882288735391 -0.2867123037079129 0 0.24797784063920411 -0.30339675165726998 0 0.27321364403904719 -0.30002794799149679 0 0.28400947651419112 -0.2777605710072944 0 0.27321364403904719 -0.30002794799149679 0 0.28561019985435748 -0.29169368677296392 0 0.28400947651419112 -0.2777605710072944 0 0.27321364403904719 -0.30002794799149679 0 0.28400947651419112 -0.2777605710072944 0 0.28114931365624363 -0.27987232978876031 0 0.25906316608217139 -0.28281659713112112 0 0.27321364403904719 -0.30002794799149679 0 0.28114931365624363 -0.27987232978876031 0 0.26241781156390342 -0.32229532497569918 0 0.27321364403904719 -0.30002794799149679 0 0.28620271513769219 -0.31454562812183429 0 0.26241781156390342 -0.32229532497569918 0 0.27321364403904719 -0.30002794799149679 0 0.28620271513769219 -0.31454562812183429 0 0.27321364403904719 -0.30002794799149679 0 0.28841684325241362 -0.30257074330415862 0 0.28620271513769219 -0.31454562812183429 0 0.28841684325241362 -0.30257074330415862 0 0.29891947207127562 -0.30910298327709468 0 0.28841684325241362 -0.30257074330415862 0 0.29891947207127562 -0.30910298327709468 0 0.29813818515969548 -0.29748347035740319 0 0.28841684325241362 -0.30257074330415862 0 0.28561019985435748 -0.29169368677296392 0 0.29813818515969548 -0.29748347035740319 0 0.27321364403904719 -0.30002794799149679 0 0.28841684325241362 -0.30257074330415862 0 0.28561019985435748 -0.29169368677296392 0 0.28561019985435748 -0.29169368677296392 0 0.28961411174658591 -0.28219347827741648 0 0.28400947651419112 -0.2777605710072944 0 0.2959423922711239 -0.28607661812384322 0 0.28961411174658591 -0.28219347827741648 0 0.29364805036664282 -0.27724470730639372 0 0.28561019985435748 -0.29169368677296392 0 0.2959423922711239 -0.28607661812384322 0 0.28961411174658591 -0.28219347827741648 0 0.28561019985435748 -0.29169368677296392 0 0.2959423922711239 -0.28607661812384322 0 0.29813818515969548 -0.29748347035740319 0 0.2959423922711239 -0.28607661812384322 0 0.31005663702169051 -0.28787670192791759 0 0.29813818515969548 -0.29748347035740319 0 0.31005663702169051 -0.28787670192791759 0 0.31102472813389148 -0.30398166101151142 0 0.29813818515969548 -0.29748347035740319 0 0.2959423922711239 -0.28607661812384322 0 0.31005663702169051 -0.28787670192791759 0 0.30209065597562079 -0.27783596679350259 0 0.30508818333670001 -0.32157795602251837 0 0.31102472813389148 -0.30398166101151142 0 0.29891947207127562 -0.30910298327709468 0 0.31102472813389148 -0.30398166101151142 0 0.29891947207127562 -0.30910298327709468 0 0.29813818515969548 -0.29748347035740319 0 0.30165905139084181 -0.26213853748403942 0 0.29679504937069651 -0.26967280739794741 0 0.29480530898933488 -0.25549319402309201 0 0.30165905139084181 -0.26213853748403942 0 0.30255746889663709 -0.25631915810270989 0 0.30849503770388609 -0.25968585024770569 0 0.30165905139084181 -0.26213853748403942 0 0.30255746889663709 -0.25631915810270989 0 0.29480530898933488 -0.25549319402309201 0 0.30635858180106529 -0.24734379049848129 0 0.30255746889663709 -0.25631915810270989 0 0.29480530898933488 -0.25549319402309201 0 0.30635858180106529 -0.24734379049848129 0 0.30255746889663709 -0.25631915810270989 0 0.30849503770388609 -0.25968585024770569 0 0.30635858180106529 -0.24734379049848129 0 0.31852702710394631 -0.25367689820505651 0 0.30849503770388609 -0.25968585024770569 0 0.30165905139084181 -0.26213853748403942 0 0.30849503770388609 -0.25968585024770569 0 0.30632245718026663 -0.26913714005029138 0 0.31900232944618051 -0.26710350815015688 0 0.30849503770388609 -0.25968585024770569 0 0.30632245718026663 -0.26913714005029138 0 0.31900232944618051 -0.26710350815015688 0 0.30632245718026663 -0.26913714005029138 0 0.31134056716802588 -0.27684223838082078 0 0.30632245718026663 -0.26913714005029138 0 0.31134056716802588 -0.27684223838082078 0 0.30209065597562079 -0.27783596679350259 0 0.31005663702169051 -0.28787670192791759 0 0.31134056716802588 -0.27684223838082078 0 0.30209065597562079 -0.27783596679350259 0 0.2959423922711239 -0.28607661812384322 0 0.30209065597562079 -0.27783596679350259 0 0.29364805036664282 -0.27724470730639372 0 0.30209065597562079 -0.27783596679350259 0 0.29679504937069651 -0.26967280739794741 0 0.29364805036664282 -0.27724470730639372 0 0.30165905139084181 -0.26213853748403942 0 0.30632245718026663 -0.26913714005029138 0 0.29679504937069651 -0.26967280739794741 0 0.30632245718026663 -0.26913714005029138 0 0.30209065597562079 -0.27783596679350259 0 0.29679504937069651 -0.26967280739794741 0 0.2917041120500799 -0.27146617941005979 0 0.28400947651419112 -0.2777605710072944 0 0.29480530898933488 -0.25549319402309201 0 0.28400947651419112 -0.2777605710072944 0 0.28353053914662812 -0.26533034424548069 0 0.29480530898933488 -0.25549319402309201 0 0.28400947651419112 -0.2777605710072944 0 0.29480530898933488 -0.25549319402309201 0 0.29679504937069651 -0.26967280739794741 0 0.2917041120500799 -0.27146617941005979 0 0.29364805036664282 -0.27724470730639372 0 0.2917041120500799 -0.27146617941005979 0 0.29364805036664282 -0.27724470730639372 0 0.28926267500953412 -0.27715961731557193 0 0.28961411174658591 -0.28219347827741648 0 0.29364805036664282 -0.27724470730639372 0 0.28926267500953412 -0.27715961731557193 0 0.28400947651419112 -0.2777605710072944 0 0.28114931365624363 -0.27987232978876031 0 0.2792161107956686 -0.27148545574389282 0 0.28961411174658591 -0.28219347827741648 0 0.28926267500953412 -0.27715961731557193 0 0.28400947651419112 -0.2777605710072944 0 0.2917041120500799 -0.27146617941005979 0 0.28926267500953412 -0.27715961731557193 0 0.28400947651419112 -0.2777605710072944 0 0.28400947651419112 -0.2777605710072944 0 0.28353053914662812 -0.26533034424548069 0 0.2792161107956686 -0.27148545574389282 0 0.28438253127483593 -0.25961713735755149 0 0.28353053914662812 -0.26533034424548069 0 0.29480530898933488 -0.25549319402309201 0 0.29679504937069651 -0.26967280739794741 0 0.2917041120500799 -0.27146617941005979 0 0.29480530898933488 -0.25549319402309201 0 0.28438253127483593 -0.25961713735755149 0 0.29480530898933488 -0.25549319402309201 0 0.28826513947595322 -0.25029027606684112 0 0.28438253127483593 -0.25961713735755149 0 0.28826513947595322 -0.25029027606684112 0 0.27092913748742747 -0.26735473509479241 0 0.27048401466852201 -0.24915087490231269 0 0.27092913748742747 -0.26735473509479241 0 0.25813887505379007 -0.26055424525756882 0 0.27048401466852201 -0.24915087490231269 0 0.28826513947595322 -0.25029027606684112 0 0.27092913748742747 -0.26735473509479241 0 0.28826513947595322 -0.25029027606684112 0 0.27092913748742747 -0.26735473509479241 0 0.28438253127483593 -0.25961713735755149 0 0.28353053914662812 -0.26533034424548069 0 0.27092913748742747 -0.26735473509479241 0 0.28114931365624363 -0.27987232978876031 0 0.27092913748742747 -0.26735473509479241 0 0.25813887505379007 -0.26055424525756882 0 0.25906316608217139 -0.28281659713112112 0 0.28114931365624363 -0.27987232978876031 0 0.25813887505379007 -0.26055424525756882 0 0.28114931365624363 -0.27987232978876031 0 0.25813887505379007 -0.26055424525756882 0 0.28114931365624363 -0.27987232978876031 0 0.2792161107956686 -0.27148545574389282 0 0.27092913748742747 -0.26735473509479241 0 0.28353053914662812 -0.26533034424548069 0 0.2792161107956686 -0.27148545574389282 0 0.27092913748742747 -0.26735473509479241 0 0.25906316608217139 -0.28281659713112112 0 0.25813887505379007 -0.26055424525756882 0 0.24285141878178701 -0.27290047073129031 0 0.27048401466852201 -0.24915087490231269 0 0.25616369049222548 -0.24239128145182301 0 0.25813887505379007 -0.26055424525756882 0 0.25813887505379007 -0.26055424525756882 0 0.2351284364513366 -0.24123616072637741 0 0.25813887505379007 -0.26055424525756882 0 0.235190605724831 -0.2596087940879972 0 0.2351284364513366 -0.24123616072637741 0 0.25813887505379007 -0.26055424525756882 0 0.235190605724831 -0.2596087940879972 0 0.24285141878178701 -0.27290047073129031 0 0.235190605724831 -0.2596087940879972 0 0.24285141878178701 -0.27290047073129031 0 0.22573690393765261 -0.27214020857707322 0 0.25906316608217139 -0.28281659713112112 0 0.24285141878178701 -0.27290047073129031 0 0.24559882288735391 -0.2867123037079129 0 0.24285141878178701 -0.27290047073129031 0 0.22573690393765261 -0.27214020857707322 0 0.23250286604625309 -0.28773539531197029 0 0.235190605724831 -0.2596087940879972 0 0.22573690393765261 -0.27214020857707322 0 0.21409739439958861 -0.2512128851476762 0 0.235190605724831 -0.2596087940879972 0 0.21409739439958861 -0.2512128851476762 0 0.2351284364513366 -0.24123616072637741 0 0.21409739439958861 -0.2512128851476762 0 0.20859434069330171 -0.27362247050502031 0 0.19255650290014989 -0.25917299242076808 0 0.22573690393765261 -0.27214020857707322 0 0.20859434069330171 -0.27362247050502031 0 0.21904043885872879 -0.28527355315406588 0 0.22573690393765261 -0.27214020857707322 0 0.21409739439958861 -0.2512128851476762 0 0.20859434069330171 -0.27362247050502031 0 0.20859434069330171 -0.27362247050502031 0 0.19404106983888911 -0.27959432261325828 0 0.19255650290014989 -0.25917299242076808 0 0.19404106983888911 -0.27959432261325828 0 0.19255650290014989 -0.25917299242076808 0 0.18245146977218371 -0.27092223820313899 0 0.19655972618181461 -0.31372358460843008 0 0.18088693648669019 -0.31648300148122133 0 0.1860132570414415 -0.3040288519923639 0 0.1979655557202199 -0.30284914749064812 0 0.19373814399293121 -0.29467876844174912 0 0.20577905454288459 -0.29331380472152208 0 0.1979655557202199 -0.30284914749064812 0 0.20773759684202739 -0.30850072768917502 0 0.19655972618181461 -0.31372358460843008 0 0.1979655557202199 -0.30284914749064812 0 0.19655972618181461 -0.31372358460843008 0 0.1860132570414415 -0.3040288519923639 0 0.1979655557202199 -0.30284914749064812 0 0.19373814399293121 -0.29467876844174912 0 0.1860132570414415 -0.3040288519923639 0 0.19373814399293121 -0.29467876844174912 0 0.1847626019094574 -0.28978207944510659 0 0.1860132570414415 -0.3040288519923639 0 0.20859434069330171 -0.27362247050502031 0 0.19404106983888911 -0.27959432261325828 0 0.20577905454288459 -0.29331380472152208 0 0.19404106983888911 -0.27959432261325828 0 0.19373814399293121 -0.29467876844174912 0 0.1847626019094574 -0.28978207944510659 0 0.19404106983888911 -0.27959432261325828 0 0.19373814399293121 -0.29467876844174912 0 0.20577905454288459 -0.29331380472152208 0 0.20859434069330171 -0.27362247050502031 0 0.20577905454288459 -0.29331380472152208 0 0.21904043885872879 -0.28527355315406588 0 0.20577905454288459 -0.29331380472152208 0 0.22258902907355221 -0.29955588665474392 0 0.21904043885872879 -0.28527355315406588 0 0.20577905454288459 -0.29331380472152208 0 0.20773759684202739 -0.30850072768917502 0 0.22258902907355221 -0.29955588665474392 0 0.20773759684202739 -0.30850072768917502 0 0.22258902907355221 -0.29955588665474392 0 0.22408979919404631 -0.31600342329868408 0 0.1979655557202199 -0.30284914749064812 0 0.20577905454288459 -0.29331380472152208 0 0.20773759684202739 -0.30850072768917502 0 0.22258902907355221 -0.29955588665474392 0 0.23250286604625309 -0.28773539531197029 0 0.24797784063920411 -0.30339675165726998 0 0.22258902907355221 -0.29955588665474392 0 0.24797784063920411 -0.30339675165726998 0 0.22408979919404631 -0.31600342329868408 0 0.22573690393765261 -0.27214020857707322 0 0.21904043885872879 -0.28527355315406588 0 0.23250286604625309 -0.28773539531197029 0 0.22258902907355221 -0.29955588665474392 0 0.21904043885872879 -0.28527355315406588 0 0.23250286604625309 -0.28773539531197029 0 0.23250286604625309 -0.28773539531197029 0 0.24559882288735391 -0.2867123037079129 0 0.24797784063920411 -0.30339675165726998 0 0.24285141878178701 -0.27290047073129031 0 0.23250286604625309 -0.28773539531197029 0 0.24559882288735391 -0.2867123037079129 0 0.24797784063920411 -0.30339675165726998 0 0.240261122555846 -0.32774950805267211 0 0.22408979919404631 -0.31600342329868408 0 0.25162197908875961 -0.34456270195990157 0 0.240261122555846 -0.32774950805267211 0 0.23250712528574599 -0.34841047902555711 0 0.240261122555846 -0.32774950805267211 0 0.2260337159469511 -0.33161062477125358 0 0.23250712528574599 -0.34841047902555711 0 0.2260337159469511 -0.33161062477125358 0 0.23250712528574599 -0.34841047902555711 0 0.20727681675216619 -0.33427908870810108 0 0.23250712528574599 -0.34841047902555711 0 0.20727681675216619 -0.33427908870810108 0 0.2260337159469511 -0.33161062477125358 0 0.22408979919404631 -0.31600342329868408 0 0.20727681675216619 -0.33427908870810108 0 0.240261122555846 -0.32774950805267211 0 0.2260337159469511 -0.33161062477125358 0 0.22408979919404631 -0.31600342329868408 0 0.25773743381932501 -0.36254186934301419 0 0.23626176751415501 -0.37250063492754321 0 0.23250712528574599 -0.34841047902555711 0 0.25773743381932501 -0.36254186934301419 0 0.23250712528574599 -0.34841047902555711 0 0.25162197908875961 -0.34456270195990157 0 0.25773743381932501 -0.36254186934301419 0 0.23250712528574599 -0.34841047902555711 0 0.23250712528574599 -0.34841047902555711 0 0.21048483225556419 -0.36565603849182282 0 0.21543787670147921 -0.34929716302719999 0 0.23626176751415501 -0.37250063492754321 0 0.23250712528574599 -0.34841047902555711 0 0.21048483225556419 -0.36565603849182282 0 0.23626176751415501 -0.37250063492754321 0 0.21048483225556419 -0.36565603849182282 0 0.23250712528574599 -0.34841047902555711 0 0.21543787670147921 -0.34929716302719999 0 0.20727681675216619 -0.33427908870810108 0 0.21048483225556419 -0.36565603849182282 0 0.21543787670147921 -0.34929716302719999 0 0.19599235687456951 -0.34654526538210112 0 0.21048483225556419 -0.36565603849182282 0 0.19599235687456951 -0.34654526538210112 0 0.18470789699697349 -0.35881144205610183 0 0.19599235687456951 -0.34654526538210112 0 0.18470789699697349 -0.35881144205610183 0 0.21048483225556419 -0.36565603849182282 0 0.19254439771955439 -0.37268667114858472 0 0.18470789699697349 -0.35881144205610183 0 0.21048483225556419 -0.36565603849182282 0 0.19254439771955439 -0.37268667114858472 0 0.20286746917010379 -0.38028884502310001 0 0.21048483225556419 -0.36565603849182282 0 0.18470789699697349 -0.35881144205610183 0 0.22408979919404631 -0.31600342329868408 0 0.20727681675216619 -0.33427908870810108 0 0.20773759684202739 -0.30850072768917502 0 0.22408979919404631 -0.31600342329868408 0 0.20515034026455589 -0.31943167910274312 0 0.22408979919404631 -0.31600342329868408 0 0.20515034026455589 -0.31943167910274312 0 0.20727681675216619 -0.33427908870810108 0 0.20773759684202739 -0.30850072768917502 0 0.20515034026455589 -0.31943167910274312 0 0.19655972618181461 -0.31372358460843008 0 0.21543787670147921 -0.34929716302719999 0 0.19599235687456951 -0.34654526538210112 0 0.20727681675216619 -0.33427908870810108 0 0.19599235687456951 -0.34654526538210112 0 0.20727681675216619 -0.33427908870810108 0 0.18999667881308829 -0.33691358472722888 0 0.19599235687456951 -0.34654526538210112 0 0.18999667881308829 -0.33691358472722888 0 0.17760021125242501 -0.34658229278027303 0 0.20727681675216619 -0.33427908870810108 0 0.19008776235272501 -0.32465157120932531 0 0.20727681675216619 -0.33427908870810108 0 0.18999667881308829 -0.33691358472722888 0 0.19008776235272501 -0.32465157120932531 0 0.19599235687456951 -0.34654526538210112 0 0.20727681675216619 -0.33427908870810108 0 0.19008776235272501 -0.32465157120932531 0 0.19655972618181461 -0.31372358460843008 0 0.179026246833556 -0.33250970555634413 0 0.20515034026455589 -0.31943167910274312 0 0.20727681675216619 -0.33427908870810108 0 0.19008776235272501 -0.32465157120932531 0 0.19655972618181461 -0.31372358460843008 0 0.179026246833556 -0.33250970555634413 0 0.20515034026455589 -0.31943167910274312 0 0.19008776235272501 -0.32465157120932531 0 0.19655972618181461 -0.31372358460843008 0 0.19655972618181461 -0.31372358460843008 0 0.18088693648669019 -0.31648300148122133 0 0.179026246833556 -0.33250970555634413 0 0.18088693648669019 -0.31648300148122133 0 0.179026246833556 -0.33250970555634413 0 0.17031203928910049 -0.32199038121610962 0 0.18088693648669019 -0.31648300148122133 0 0.17031203928910049 -0.32199038121610962 0 0.17241589940530549 -0.30982727698434881 0 0.18999667881308829 -0.33691358472722888 0 0.19008776235272501 -0.32465157120932531 0 0.179026246833556 -0.33250970555634413 0 0.179026246833556 -0.33250970555634413 0 0.17760021125242501 -0.34658229278027303 0 0.16149276748529739 -0.35129582650425822 0 0.18999667881308829 -0.33691358472722888 0 0.179026246833556 -0.33250970555634413 0 0.17760021125242501 -0.34658229278027303 0 0.179026246833556 -0.33250970555634413 0 0.16149276748529739 -0.35129582650425822 0 0.179026246833556 -0.33250970555634413 0 0.16003888506347269 -0.34007108301582167 0 0.16284038458316541 -0.32960598242851807 0 0.179026246833556 -0.33250970555634413 0 0.16003888506347269 -0.34007108301582167 0 0.16149276748529739 -0.35129582650425822 0 0.16003888506347269 -0.34007108301582167 0 0.16284038458316541 -0.32960598242851807 0 0.14932995409888841 -0.33236384668207392 0 0.16284038458316541 -0.32960598242851807 0 0.1569194462489753 -0.31740352709106923 0 0.17031203928910049 -0.32199038121610962 0 0.16284038458316541 -0.32960598242851807 0 0.1569194462489753 -0.31740352709106923 0 0.14932995409888841 -0.33236384668207392 0 0.179026246833556 -0.33250970555634413 0 0.16284038458316541 -0.32960598242851807 0 0.17031203928910049 -0.32199038121610962 0 0.1569194462489753 -0.31740352709106923 0 0.17031203928910049 -0.32199038121610962 0 0.17241589940530549 -0.30982727698434881 0 0.1739111704475553 -0.37054745395144528 0 0.18470789699697349 -0.35881144205610183 0 0.16899037279376741 -0.36221490042657289 0 0.19254439771955439 -0.37268667114858472 0 0.1739111704475553 -0.37054745395144528 0 0.18470789699697349 -0.35881144205610183 0 0.1739111704475553 -0.37054745395144528 0 0.18470789699697349 -0.35881144205610183 0 0.18470789699697349 -0.35881144205610183 0 0.17760021125242501 -0.34658229278027303 0 0.1653620869165548 -0.3536745139692607 0 0.18470789699697349 -0.35881144205610183 0 0.1653620869165548 -0.3536745139692607 0 0.16899037279376741 -0.36221490042657289 0 0.18470789699697349 -0.35881144205610183 0 0.1653620869165548 -0.3536745139692607 0 0.19599235687456951 -0.34654526538210112 0 0.18470789699697349 -0.35881144205610183 0 0.17760021125242501 -0.34658229278027303 0 0.17760021125242501 -0.34658229278027303 0 0.16149276748529739 -0.35129582650425822 0 0.1653620869165548 -0.3536745139692607 0 0.16003888506347269 -0.34007108301582167 0 0.15686057787746929 -0.35087950349428437 0 0.16149276748529739 -0.35129582650425822 0 0.16149276748529739 -0.35129582650425822 0 0.16240679361777899 -0.35784841990695598 0 0.1653620869165548 -0.3536745139692607 0 0.16149276748529739 -0.35129582650425822 0 0.16240679361777899 -0.35784841990695598 0 0.15733284609643219 -0.36239899096350447 0 0.16482063582229189 -0.35922297726030411 0 0.1653620869165548 -0.3536745139692607 0 0.16899037279376741 -0.36221490042657289 0 0.16240679361777899 -0.35784841990695598 0 0.16482063582229189 -0.35922297726030411 0 0.1653620869165548 -0.3536745139692607 0 0.1739111704475553 -0.37054745395144528 0 0.16899037279376741 -0.36221490042657289 0 0.16211481481091011 -0.36838322448487348 0 0.16899037279376741 -0.36221490042657289 0 0.162958863294759 -0.36233952321700919 0 0.16211481481091011 -0.36838322448487348 0 0.16482063582229189 -0.35922297726030411 0 0.16899037279376741 -0.36221490042657289 0 0.162958863294759 -0.36233952321700919 0 0.16240679361777899 -0.35784841990695598 0 0.162958863294759 -0.36233952321700919 0 0.15733284609643219 -0.36239899096350447 0 0.16240679361777899 -0.35784841990695598 0 0.16482063582229189 -0.35922297726030411 0 0.162958863294759 -0.36233952321700919 0 0.15733284609643219 -0.36239899096350447 0 0.16211481481091011 -0.36838322448487348 0 0.1540054177171836 -0.37018878415580458 0 0.162958863294759 -0.36233952321700919 0 0.15733284609643219 -0.36239899096350447 0 0.16211481481091011 -0.36838322448487348 0 0.16211481481091011 -0.36838322448487348 0 0.1571954814538539 -0.37425505852090252 0 0.1540054177171836 -0.37018878415580458 0 0.16211481481091011 -0.36838322448487348 0 0.1571954814538539 -0.37425505852090252 0 0.16336975620121971 -0.37558279337619033 0 0.1739111704475553 -0.37054745395144528 0 0.16211481481091011 -0.36838322448487348 0 0.16336975620121971 -0.37558279337619033 0 0.16149276748529739 -0.35129582650425822 0 0.14395928813703879 -0.37008194745217221 0 0.14786323092275541 -0.35865027471339989 0 0.16149276748529739 -0.35129582650425822 0 0.14395928813703879 -0.37008194745217221 0 0.16149276748529739 -0.35129582650425822 0 0.15733284609643219 -0.36239899096350447 0 0.14395928813703879 -0.37008194745217221 0 0.14395928813703879 -0.37008194745217221 0 0.15046026387980799 -0.37445702382735102 0 0.13648674594455029 -0.37605160698701989 0 0.15733284609643219 -0.36239899096350447 0 0.14395928813703879 -0.37008194745217221 0 0.1540054177171836 -0.37018878415580458 0 0.14395928813703879 -0.37008194745217221 0 0.15046026387980799 -0.37445702382735102 0 0.1540054177171836 -0.37018878415580458 0 0.1571954814538539 -0.37425505852090252 0 0.15046026387980799 -0.37445702382735102 0 0.1540054177171836 -0.37018878415580458 0 0.14395928813703879 -0.37008194745217221 0 0.1409037209359679 -0.36341664485306002 0 0.14786323092275541 -0.35865027471339989 0 0.1409037209359679 -0.36341664485306002 0 0.14786323092275541 -0.35865027471339989 0 0.13535096016681769 -0.35792614103037468 0 0.15686057787746929 -0.35087950349428437 0 0.14786323092275541 -0.35865027471339989 0 0.13535096016681769 -0.35792614103037468 0 0.15686057787746929 -0.35087950349428437 0 0.13535096016681769 -0.35792614103037468 0 0.15686057787746929 -0.35087950349428437 0 0.14715010279016219 -0.34464232996706567 0 0.13535096016681769 -0.35792614103037468 0 0.15686057787746929 -0.35087950349428437 0 0.16149276748529739 -0.35129582650425822 0 0.14786323092275541 -0.35865027471339989 0 0.16003888506347269 -0.34007108301582167 0 0.15686057787746929 -0.35087950349428437 0 0.14715010279016219 -0.34464232996706567 0 0.14715010279016219 -0.34464232996706567 0 0.13535096016681769 -0.35792614103037468 0 0.13417013674416289 -0.3419710756127739 0 0.13535096016681769 -0.35792614103037468 0 0.13417013674416289 -0.3419710756127739 0 0.1213406798831813 -0.35225630791038748 0 0.12660214350457949 -0.36757268168728208 0 0.13648674594455029 -0.37605160698701989 0 0.1123191057426866 -0.370395491953185 0 0.13535096016681769 -0.35792614103037468 0 0.12660214350457949 -0.36757268168728208 0 0.1138413424561661 -0.36497277856646487 0 0.1409037209359679 -0.36341664485306002 0 0.13535096016681769 -0.35792614103037468 0 0.13644140451725961 -0.36700821621629331 0 0.14395928813703879 -0.37008194745217221 0 0.1409037209359679 -0.36341664485306002 0 0.13644140451725961 -0.36700821621629331 0 0.13535096016681769 -0.35792614103037468 0 0.13644140451725961 -0.36700821621629331 0 0.12660214350457949 -0.36757268168728208 0 0.14395928813703879 -0.37008194745217221 0 0.13644140451725961 -0.36700821621629331 0 0.13648674594455029 -0.37605160698701989 0 0.13644140451725961 -0.36700821621629331 0 0.12660214350457949 -0.36757268168728208 0 0.13648674594455029 -0.37605160698701989 0 0.1569194462489753 -0.31740352709106923 0 0.13578420053311571 -0.32381962349363841 0 0.1452573795736504 -0.30346108258865578 0 0.1569194462489753 -0.31740352709106923 0 0.14932995409888841 -0.33236384668207392 0 0.13578420053311571 -0.32381962349363841 0 0.16003888506347269 -0.34007108301582167 0 0.14715010279016219 -0.34464232996706567 0 0.14932995409888841 -0.33236384668207392 0 0.14715010279016219 -0.34464232996706567 0 0.14932995409888841 -0.33236384668207392 0 0.13417013674416289 -0.3419710756127739 0 0.13417013674416289 -0.3419710756127739 0 0.13578420053311571 -0.32381962349363841 0 0.1121860866060181 -0.34137815437218177 0 0.14932995409888841 -0.33236384668207392 0 0.13417013674416289 -0.3419710756127739 0 0.13578420053311571 -0.32381962349363841 0 0.13578420053311571 -0.32381962349363841 0 0.1259427589800228 -0.2938018560948964 0 0.1154669738289318 -0.32296337602057712 0 0.13578420053311571 -0.32381962349363841 0 0.1452573795736504 -0.30346108258865578 0 0.1259427589800228 -0.2938018560948964 0 0.1569194462489753 -0.31740352709106923 0 0.1452573795736504 -0.30346108258865578 0 0.16018000895666951 -0.29899147541897442 0 0.1452573795736504 -0.30346108258865578 0 0.14661046226779639 -0.28032450294349348 0 0.16018000895666951 -0.29899147541897442 0 0.1259427589800228 -0.2938018560948964 0 0.14661046226779639 -0.28032450294349348 0 0.1452573795736504 -0.30346108258865578 0 0.1259427589800228 -0.2938018560948964 0 0.14661046226779639 -0.28032450294349348 0 0.1259427589800228 -0.2938018560948964 0 0.14661046226779639 -0.28032450294349348 0 0.12319598099985871 -0.26979890523734851 0 0.15087775572515261 -0.26563526571438589 0 0.14661046226779639 -0.28032450294349348 0 0.12319598099985871 -0.26979890523734851 0 0.15087775572515261 -0.26563526571438589 0 0.12319598099985871 -0.26979890523734851 0 0.13522572268806199 -0.24734031978412491 0 0.15087775572515261 -0.26563526571438589 0 0.1539547824528123 -0.24985798083397259 0 0.13522572268806199 -0.24734031978412491 0 0.15087775572515261 -0.26563526571438589 0 0.14661046226779639 -0.28032450294349348 0 0.16727816555556979 -0.26684714979209062 0 0.14661046226779639 -0.28032450294349348 0 0.16727816555556979 -0.26684714979209062 0 0.16727816555556979 -0.26684714979209062 0 0.17457822020922231 -0.27692109365248868 0 0.1653418765577063 -0.28646360223066131 0 0.14661046226779639 -0.28032450294349348 0 0.16727816555556979 -0.26684714979209062 0 0.1653418765577063 -0.28646360223066131 0 0.15087775572515261 -0.26563526571438589 0 0.16727816555556979 -0.26684714979209062 0 0.165816738964841 -0.26234736918491502 0 0.165816738964841 -0.26234736918491502 0 0.16666681188750609 -0.23969293700039129 0 0.1539547824528123 -0.24985798083397259 0 0.165816738964841 -0.26234736918491502 0 0.17878440785046479 -0.24991483132568099 0 0.16666681188750609 -0.23969293700039129 0 0.15087775572515261 -0.26563526571438589 0 0.165816738964841 -0.26234736918491502 0 0.1539547824528123 -0.24985798083397259 0 0.165816738964841 -0.26234736918491502 0 0.16666681188750609 -0.23969293700039129 0 0.16727816555556979 -0.26684714979209062 0 0.165816738964841 -0.26234736918491502 0 0.1772241584548743 -0.26239684731659618 0 0.165816738964841 -0.26234736918491502 0 0.1772241584548743 -0.26239684731659618 0 0.17878440785046479 -0.24991483132568099 0 0.19255650290014989 -0.25917299242076808 0 0.1772241584548743 -0.26239684731659618 0 0.18245146977218371 -0.27092223820313899 0 0.19255650290014989 -0.25917299242076808 0 0.1772241584548743 -0.26239684731659618 0 0.17878440785046479 -0.24991483132568099 0 0.17457822020922231 -0.27692109365248868 0 0.18245146977218371 -0.27092223820313899 0 0.181652442726736 -0.28078315474497789 0 0.17457822020922231 -0.27692109365248868 0 0.17536001058858519 -0.2689832721618125 0 0.18245146977218371 -0.27092223820313899 0 0.16727816555556979 -0.26684714979209062 0 0.1772241584548743 -0.26239684731659618 0 0.17536001058858519 -0.2689832721618125 0 0.1772241584548743 -0.26239684731659618 0 0.17536001058858519 -0.2689832721618125 0 0.18245146977218371 -0.27092223820313899 0 0.16727816555556979 -0.26684714979209062 0 0.17457822020922231 -0.27692109365248868 0 0.17536001058858519 -0.2689832721618125 0 0.19404106983888911 -0.27959432261325828 0 0.18245146977218371 -0.27092223820313899 0 0.181652442726736 -0.28078315474497789 0 0.19404106983888911 -0.27959432261325828 0 0.181652442726736 -0.28078315474497789 0 0.1847626019094574 -0.28978207944510659 0 0.181652442726736 -0.28078315474497789 0 0.17617574356881091 -0.28661835786614692 0 0.1847626019094574 -0.28978207944510659 0 0.17457822020922231 -0.27692109365248868 0 0.17617574356881091 -0.28661835786614692 0 0.1653418765577063 -0.28646360223066131 0 0.17457822020922231 -0.27692109365248868 0 0.181652442726736 -0.28078315474497789 0 0.17617574356881091 -0.28661835786614692 0 0.17617574356881091 -0.28661835786614692 0 0.1745349896865829 -0.29646886067561812 0 0.1847626019094574 -0.28978207944510659 0 0.17617574356881091 -0.28661835786614692 0 0.1745349896865829 -0.29646886067561812 0 0.1653418765577063 -0.28646360223066131 0 0.1745349896865829 -0.29646886067561812 0 0.1847626019094574 -0.28978207944510659 0 0.1860132570414415 -0.3040288519923639 0 0.18088693648669019 -0.31648300148122133 0 0.1860132570414415 -0.3040288519923639 0 0.17241589940530549 -0.30982727698434881 0 0.1745349896865829 -0.29646886067561812 0 0.1860132570414415 -0.3040288519923639 0 0.17241589940530549 -0.30982727698434881 0 0.1745349896865829 -0.29646886067561812 0 0.17241589940530549 -0.30982727698434881 0 0.16018000895666951 -0.29899147541897442 0 0.1569194462489753 -0.31740352709106923 0 0.17241589940530549 -0.30982727698434881 0 0.16018000895666951 -0.29899147541897442 0 0.14661046226779639 -0.28032450294349348 0 0.16018000895666951 -0.29899147541897442 0 0.1653418765577063 -0.28646360223066131 0 0.1745349896865829 -0.29646886067561812 0 0.16018000895666951 -0.29899147541897442 0 0.1653418765577063 -0.28646360223066131 0 0.1987083411555266 -0.48911481787357991 0 0.20630695809783919 -0.49999999999999989 0 0.1834806236444968 -0.5 0 0.1987083411555266 -0.48911481787357991 0 0.1868061473602281 -0.48746485280054241 0 0.1834806236444968 -0.5 0 0.1987083411555266 -0.48911481787357991 0 0.19648662319283339 -0.47771127243657618 0 0.1868061473602281 -0.48746485280054241 0 0.19648662319283339 -0.47771127243657618 0 0.18261658360007069 -0.47754494117264912 0 0.1868061473602281 -0.48746485280054241 0 0.19189857476584071 -0.46911934670035199 0 0.19648662319283339 -0.47771127243657618 0 0.18261658360007069 -0.47754494117264912 0 0.19189857476584071 -0.46911934670035199 0 0.19648662319283339 -0.47771127243657618 0 0.2000841639684296 -0.4666643461850129 0 0.21098376501436081 -0.47775050158440369 0 0.2000841639684296 -0.4666643461850129 0 0.19822832164206541 -0.4626656906576978 0 0.19648662319283339 -0.47771127243657618 0 0.21098376501436081 -0.47775050158440369 0 0.2000841639684296 -0.4666643461850129 0 0.1987083411555266 -0.48911481787357991 0 0.19648662319283339 -0.47771127243657618 0 0.21098376501436081 -0.47775050158440369 0 0.21098376501436081 -0.47775050158440369 0 0.22772226077566929 -0.47334629572796172 0 0.2121068153328684 -0.46386557893480562 0 0.21098376501436081 -0.47775050158440369 0 0.19822832164206541 -0.4626656906576978 0 0.20630695809783919 -0.49999999999999989 0 0.22303265587280061 -0.49312570691644447 0 0.1987083411555266 -0.48911481787357991 0 0.21098376501436081 -0.47775050158440369 0 0.22303265587280061 -0.49312570691644447 0 0.1987083411555266 -0.48911481787357991 0 0.20630695809783919 -0.49999999999999989 0 0.22303265587280061 -0.49312570691644447 0 0.1987083411555266 -0.48911481787357991 0 0.22303265587280061 -0.49312570691644447 0 0.21098376501436081 -0.47775050158440369 0 0.22303265587280061 -0.49312570691644447 0 0.20630695809783919 -0.49999999999999989 0 0.22303265587280061 -0.49312570691644447 0 0.22979753858308891 -0.49999999999999972 0 0.22303265587280061 -0.49312570691644447 0 0.2444306519463407 -0.49665406892738712 0 0.22303265587280061 -0.49312570691644447 0 0.22979753858308891 -0.49999999999999972 0 0.2444306519463407 -0.49665406892738712 0 0.22303265587280061 -0.49312570691644447 0 0.22979753858308891 -0.49999999999999972 0 0.22979753858308891 -0.49999999999999972 0 0.24725991076381679 -0.5 0 0.2444306519463407 -0.49665406892738712 0 0.25023987491308308 -0.48194348897924172 0 0.22303265587280061 -0.49312570691644447 0 0.25023987491308308 -0.48194348897924172 0 0.22303265587280061 -0.49312570691644447 0 0.2444306519463407 -0.49665406892738712 0 0.25023987491308308 -0.48194348897924172 0 0.22772226077566929 -0.47334629572796172 0 0.23843801682145169 -0.4606317460904813 0 0.25023987491308308 -0.48194348897924172 0 0.22303265587280061 -0.49312570691644447 0 0.22772226077566929 -0.47334629572796172 0 0.21098376501436081 -0.47775050158440369 0 0.22303265587280061 -0.49312570691644447 0 0.22772226077566929 -0.47334629572796172 0 0.22772226077566929 -0.47334629572796172 0 0.22434851457773369 -0.45721778842957311 0 0.2121068153328684 -0.46386557893480562 0 0.22772226077566929 -0.47334629572796172 0 0.22434851457773369 -0.45721778842957311 0 0.23843801682145169 -0.4606317460904813 0 0.25328987021894461 -0.45294897523559302 0 0.25023987491308308 -0.48194348897924172 0 0.23843801682145169 -0.4606317460904813 0 0.25328987021894461 -0.45294897523559302 0 0.23843801682145169 -0.4606317460904813 0 0.2365895636218279 -0.43770218208003681 0 0.22434851457773369 -0.45721778842957311 0 0.2365895636218279 -0.43770218208003681 0 0.20840030004287161 -0.44343103041500498 0 0.22434851457773369 -0.45721778842957311 0 0.23843801682145169 -0.4606317460904813 0 0.2365895636218279 -0.43770218208003681 0 0.22434851457773369 -0.45721778842957311 0 0.20840030004287161 -0.44343103041500498 0 0.20840030004287161 -0.44343103041500498 0 0.2121068153328684 -0.46386557893480562 0 0.19822832164206541 -0.4626656906576978 0 0.22434851457773369 -0.45721778842957311 0 0.20840030004287161 -0.44343103041500498 0 0.2121068153328684 -0.46386557893480562 0 0.21098376501436081 -0.47775050158440369 0 0.2121068153328684 -0.46386557893480562 0 0.19822832164206541 -0.4626656906576978 0 0.19822832164206541 -0.4626656906576978 0 0.1831288995816894 -0.44480884944604671 0 0.18207718142580481 -0.46101048304982389 0 0.19822832164206541 -0.4626656906576978 0 0.1831288995816894 -0.44480884944604671 0 0.19189857476584071 -0.46911934670035199 0 0.19822832164206541 -0.4626656906576978 0 0.18207718142580481 -0.46101048304982389 0 0.19189857476584071 -0.46911934670035199 0 0.2000841639684296 -0.4666643461850129 0 0.19822832164206541 -0.4626656906576978 0 0.2000841639684296 -0.4666643461850129 0 0.19822832164206541 -0.4626656906576978 0 0.19822832164206541 -0.4626656906576978 0 0.18736609630760701 -0.43926160252178281 0 0.19822832164206541 -0.4626656906576978 0 0.18736609630760701 -0.43926160252178281 0 0.1831288995816894 -0.44480884944604671 0 0.20840030004287161 -0.44343103041500498 0 0.19822832164206541 -0.4626656906576978 0 0.18736609630760701 -0.43926160252178281 0 0.20840030004287161 -0.44343103041500498 0 0.19245208550800941 -0.42964427240043679 0 0.20840030004287161 -0.44343103041500498 0 0.19245208550800941 -0.42964427240043679 0 0.200530775279398 -0.4204304130330776 0 0.20840030004287161 -0.44343103041500498 0 0.19245208550800941 -0.42964427240043679 0 0.18736609630760701 -0.43926160252178281 0 0.19245208550800941 -0.42964427240043679 0 0.1896218513338013 -0.4155408205726599 0 0.200530775279398 -0.4204304130330776 0 0.1896218513338013 -0.4155408205726599 0 0.19862136335095301 -0.40755469284838891 0 0.1800011615574981 -0.40421721019552831 0 0.1896218513338013 -0.4155408205726599 0 0.19862136335095301 -0.40755469284838891 0 0.200530775279398 -0.4204304130330776 0 0.19862136335095301 -0.40755469284838891 0 0.21505094798535379 -0.41896219464651341 0 0.2173914118723102 -0.39498626893329092 0 0.19862136335095301 -0.40755469284838891 0 0.200530775279398 -0.4204304130330776 0 0.21505094798535379 -0.41896219464651341 0 0.20840030004287161 -0.44343103041500498 0 0.200530775279398 -0.4204304130330776 0 0.21505094798535379 -0.41896219464651341 0 0.2365895636218279 -0.43770218208003681 0 0.21505094798535379 -0.41896219464651341 0 0.2341188581190129 -0.41298602046152749 0 0.2365895636218279 -0.43770218208003681 0 0.20840030004287161 -0.44343103041500498 0 0.21505094798535379 -0.41896219464651341 0 0.25292401482276122 -0.41759658032181679 0 0.2365895636218279 -0.43770218208003681 0 0.2341188581190129 -0.41298602046152749 0 0.25292401482276122 -0.41759658032181679 0 0.2341188581190129 -0.41298602046152749 0 0.24863835229281159 -0.39568287632597959 0 0.21505094798535379 -0.41896219464651341 0 0.2341188581190129 -0.41298602046152749 0 0.2173914118723102 -0.39498626893329092 0 0.2341188581190129 -0.41298602046152749 0 0.24863835229281159 -0.39568287632597959 0 0.2173914118723102 -0.39498626893329092 0 0.26203870277274582 -0.37934523136326359 0 0.23626176751415501 -0.37250063492754321 0 0.24863835229281159 -0.39568287632597959 0 0.26203870277274582 -0.37934523136326359 0 0.23626176751415501 -0.37250063492754321 0 0.23626176751415501 -0.37250063492754321 0 0.24863835229281159 -0.39568287632597959 0 0.2173914118723102 -0.39498626893329092 0 0.23626176751415501 -0.37250063492754321 0 0.21048483225556419 -0.36565603849182282 0 0.2173914118723102 -0.39498626893329092 0 0.2173914118723102 -0.39498626893329092 0 0.20286746917010379 -0.38028884502310001 0 0.19025292788522419 -0.38863486739004022 0 0.21048483225556419 -0.36565603849182282 0 0.2173914118723102 -0.39498626893329092 0 0.20286746917010379 -0.38028884502310001 0 0.2173914118723102 -0.39498626893329092 0 0.19025292788522419 -0.38863486739004022 0 0.19862136335095301 -0.40755469284838891 0 0.2173914118723102 -0.39498626893329092 0 0.19025292788522419 -0.38863486739004022 0 0.19862136335095301 -0.40755469284838891 0 0.19025292788522419 -0.38863486739004022 0 0.1800011615574981 -0.40421721019552831 0 0.19254439771955439 -0.37268667114858472 0 0.20286746917010379 -0.38028884502310001 0 0.19025292788522419 -0.38863486739004022 0 0.19254439771955439 -0.37268667114858472 0 0.1739111704475553 -0.37054745395144528 0 0.19025292788522419 -0.38863486739004022 0 0.1739111704475553 -0.37054745395144528 0 0.19025292788522419 -0.38863486739004022 0 0.16311444389813801 -0.38228346584678968 0 0.19025292788522419 -0.38863486739004022 0 0.16311444389813801 -0.38228346584678968 0 0.19025292788522419 -0.38863486739004022 0 0.17933177855473911 -0.39208132747235419 0 0.16311444389813801 -0.38228346584678968 0 0.19025292788522419 -0.38863486739004022 0 0.1800011615574981 -0.40421721019552831 0 0.17933177855473911 -0.39208132747235419 0 0.1800011615574981 -0.40421721019552831 0 0.17269824727069219 -0.3957220219652009 0 0.16885353195041841 -0.39937385627305089 0 0.1800011615574981 -0.40421721019552831 0 0.17933177855473911 -0.39208132747235419 0 0.17269824727069219 -0.3957220219652009 0 0.17933177855473911 -0.39208132747235419 0 0.17269824727069219 -0.3957220219652009 0 0.17001219961495859 -0.38906997447019909 0 0.16885353195041841 -0.39937385627305089 0 0.1616569131168735 -0.38386779777447883 0 0.17269824727069219 -0.3957220219652009 0 0.16892838743362479 -0.39686871120241668 0 0.16777348152742261 -0.39035223840381522 0 0.16892838743362479 -0.39686871120241668 0 0.16885353195041841 -0.39937385627305089 0 0.1616569131168735 -0.38386779777447883 0 0.17269824727069219 -0.3957220219652009 0 0.16777348152742261 -0.39035223840381522 0 0.17001219961495859 -0.38906997447019909 0 0.1616632962073275 -0.40302827806940161 0 0.14852402054670499 -0.40388451289824479 0 0.16856603090005801 -0.40899548729143831 0 0.17269824727069219 -0.3957220219652009 0 0.16892838743362479 -0.39686871120241668 0 0.16885353195041841 -0.39937385627305089 0 0.16892838743362479 -0.39686871120241668 0 0.16885353195041841 -0.39937385627305089 0 0.16885353195041841 -0.39937385627305089 0 0.1616632962073275 -0.40302827806940161 0 0.16856603090005801 -0.40899548729143831 0 0.16885353195041841 -0.39937385627305089 0 0.16856603090005801 -0.40899548729143831 0 0.1616632962073275 -0.40302827806940161 0 0.16856603090005801 -0.40899548729143831 0 0.1616632962073275 -0.40302827806940161 0 0.1610985110238031 -0.39449134063406199 0 0.1563350715027976 -0.39789832159041572 0 0.16885353195041841 -0.39937385627305089 0 0.1616632962073275 -0.40302827806940161 0 0.1610985110238031 -0.39449134063406199 0 0.16885353195041841 -0.39937385627305089 0 0.1610985110238031 -0.39449134063406199 0 0.1616569131168735 -0.38386779777447883 0 0.1610985110238031 -0.39449134063406199 0 0.1563350715027976 -0.39789832159041572 0 0.15643016714452379 -0.39249435603139637 0 0.1610985110238031 -0.39449134063406199 0 0.15643016714452379 -0.39249435603139637 0 0.15799723260689341 -0.38784586036610641 0 0.17933177855473911 -0.39208132747235419 0 0.17001219961495859 -0.38906997447019909 0 0.16311444389813801 -0.38228346584678968 0 0.15799723260689341 -0.38784586036610641 0 0.1576473805976111 -0.38453091728400068 0 0.15491031737193181 -0.38893986465890967 0 0.1610985110238031 -0.39449134063406199 0 0.15799723260689341 -0.38784586036610641 0 0.1616569131168735 -0.38386779777447883 0 0.15643016714452379 -0.39249435603139637 0 0.15799723260689341 -0.38784586036610641 0 0.15491031737193181 -0.38893986465890967 0 0.15799723260689341 -0.38784586036610641 0 0.1576473805976111 -0.38453091728400068 0 0.1616569131168735 -0.38386779777447883 0 0.1576473805976111 -0.38453091728400068 0 0.1616569131168735 -0.38386779777447883 0 0.16065438614641381 -0.38170772202085568 0 0.15799723260689341 -0.38784586036610641 0 0.1616569131168735 -0.38386779777447883 0 0.1616569131168735 -0.38386779777447883 0 0.16557166020096459 -0.3862326866067809 0 0.16311444389813801 -0.38228346584678968 0 0.1616569131168735 -0.38386779777447883 0 0.16311444389813801 -0.38228346584678968 0 0.16777348152742261 -0.39035223840381522 0 0.16557166020096459 -0.3862326866067809 0 0.17001219961495859 -0.38906997447019909 0 0.16892838743362479 -0.39686871120241668 0 0.1616569131168735 -0.38386779777447883 0 0.16777348152742261 -0.39035223840381522 0 0.1616569131168735 -0.38386779777447883 0 0.16777348152742261 -0.39035223840381522 0 0.16557166020096459 -0.3862326866067809 0 0.16557166020096459 -0.3862326866067809 0 0.17001219961495859 -0.38906997447019909 0 0.16311444389813801 -0.38228346584678968 0 0.1739111704475553 -0.37054745395144528 0 0.16311444389813801 -0.38228346584678968 0 0.1739111704475553 -0.37054745395144528 0 0.16336975620121971 -0.37558279337619033 0 0.16311444389813801 -0.38228346584678968 0 0.1571954814538539 -0.37425505852090252 0 0.16336975620121971 -0.37558279337619033 0 0.16065438614641381 -0.38170772202085568 0 0.16336975620121971 -0.37558279337619033 0 0.16311444389813801 -0.38228346584678968 0 0.16065438614641381 -0.38170772202085568 0 0.1616569131168735 -0.38386779777447883 0 0.16065438614641381 -0.38170772202085568 0 0.16311444389813801 -0.38228346584678968 0 0.16065438614641381 -0.38170772202085568 0 0.1616569131168735 -0.38386779777447883 0 0.16311444389813801 -0.38228346584678968 0 0.16065438614641381 -0.38170772202085568 0 0.1571954814538539 -0.37425505852090252 0 0.16065438614641381 -0.38170772202085568 0 0.16065438614641381 -0.38170772202085568 0 0.15010180619902891 -0.38590943509027498 0 0.14398960886111681 -0.38311327750959417 0 0.15046026387980799 -0.37445702382735102 0 0.16065438614641381 -0.38170772202085568 0 0.13648674594455029 -0.37605160698701989 0 0.16065438614641381 -0.38170772202085568 0 0.14398960886111681 -0.38311327750959417 0 0.13648674594455029 -0.37605160698701989 0 0.16065438614641381 -0.38170772202085568 0 0.13648674594455029 -0.37605160698701989 0 0.1571954814538539 -0.37425505852090252 0 0.15046026387980799 -0.37445702382735102 0 0.16065438614641381 -0.38170772202085568 0 0.1576473805976111 -0.38453091728400068 0 0.16065438614641381 -0.38170772202085568 0 0.15010180619902891 -0.38590943509027498 0 0.15010180619902891 -0.38590943509027498 0 0.14383906210832401 -0.39215601135440231 0 0.15180970321719289 -0.3932963929074883 0 0.1576473805976111 -0.38453091728400068 0 0.15491031737193181 -0.38893986465890967 0 0.15010180619902891 -0.38590943509027498 0 0.15491031737193181 -0.38893986465890967 0 0.15010180619902891 -0.38590943509027498 0 0.15180970321719289 -0.3932963929074883 0 0.15010180619902891 -0.38590943509027498 0 0.14398960886111681 -0.38311327750959417 0 0.14383906210832401 -0.39215601135440231 0 0.14398960886111681 -0.38311327750959417 0 0.13648674594455029 -0.37605160698701989 0 0.13351669852906939 -0.38816532468536108 0 0.14398960886111681 -0.38311327750959417 0 0.13351669852906939 -0.38816532468536108 0 0.14383906210832401 -0.39215601135440231 0 0.13351669852906939 -0.38816532468536108 0 0.12523752281111489 -0.37951750311272059 0 0.1219225591251005 -0.38585027799746319 0 0.13648674594455029 -0.37605160698701989 0 0.13351669852906939 -0.38816532468536108 0 0.12523752281111489 -0.37951750311272059 0 0.13351669852906939 -0.38816532468536108 0 0.12495076081008009 -0.40292580149305018 0 0.1219225591251005 -0.38585027799746319 0 0.13701869227700711 -0.40029272539178318 0 0.1356274154307214 -0.41395500215171682 0 0.12495076081008009 -0.40292580149305018 0 0.13351669852906939 -0.38816532468536108 0 0.13701869227700711 -0.40029272539178318 0 0.12495076081008009 -0.40292580149305018 0 0.13351669852906939 -0.38816532468536108 0 0.13701869227700711 -0.40029272539178318 0 0.14383906210832401 -0.39215601135440231 0 0.13701869227700711 -0.40029272539178318 0 0.14852402054670499 -0.40388451289824479 0 0.1356274154307214 -0.41395500215171682 0 0.13701869227700711 -0.40029272539178318 0 0.14383906210832401 -0.39215601135440231 0 0.14852402054670499 -0.40388451289824479 0 0.14383906210832401 -0.39215601135440231 0 0.15180970321719289 -0.3932963929074883 0 0.14852402054670499 -0.40388451289824479 0 0.1563350715027976 -0.39789832159041572 0 0.15180970321719289 -0.3932963929074883 0 0.14852402054670499 -0.40388451289824479 0 0.1563350715027976 -0.39789832159041572 0 0.15643016714452379 -0.39249435603139637 0 0.15180970321719289 -0.3932963929074883 0 0.15643016714452379 -0.39249435603139637 0 0.15491031737193181 -0.38893986465890967 0 0.15180970321719289 -0.3932963929074883 0 0.1616632962073275 -0.40302827806940161 0 0.1563350715027976 -0.39789832159041572 0 0.14852402054670499 -0.40388451289824479 0 0.14852402054670499 -0.40388451289824479 0 0.1356274154307214 -0.41395500215171682 0 0.14883659945786759 -0.4268714988879721 0 0.14852402054670499 -0.40388451289824479 0 0.14883659945786759 -0.4268714988879721 0 0.1680294775213145 -0.42695200823439461 0 0.1356274154307214 -0.41395500215171682 0 0.13363958533830991 -0.43001899537342048 0 0.1202436167786107 -0.42004105947599513 0 0.1356274154307214 -0.41395500215171682 0 0.1202436167786107 -0.42004105947599513 0 0.12495076081008009 -0.40292580149305018 0 0.1356274154307214 -0.41395500215171682 0 0.13363958533830991 -0.43001899537342048 0 0.14883659945786759 -0.4268714988879721 0 0.13363958533830991 -0.43001899537342048 0 0.14883659945786759 -0.4268714988879721 0 0.14673792394680901 -0.44675172033442589 0 0.14883659945786759 -0.4268714988879721 0 0.157719690725725 -0.43819621584671259 0 0.14673792394680901 -0.44675172033442589 0 0.14883659945786759 -0.4268714988879721 0 0.1680294775213145 -0.42695200823439461 0 0.157719690725725 -0.43819621584671259 0 0.14852402054670499 -0.40388451289824479 0 0.1680294775213145 -0.42695200823439461 0 0.1680294775213145 -0.42695200823439461 0 0.16856603090005801 -0.40899548729143831 0 0.17650387097314771 -0.41585751438586832 0 0.1680294775213145 -0.42695200823439461 0 0.16856603090005801 -0.40899548729143831 0 0.14852402054670499 -0.40388451289824479 0 0.1680294775213145 -0.42695200823439461 0 0.16856603090005801 -0.40899548729143831 0 0.16885353195041841 -0.39937385627305089 0 0.16856603090005801 -0.40899548729143831 0 0.17650387097314771 -0.41585751438586832 0 0.16885353195041841 -0.39937385627305089 0 0.17650387097314771 -0.41585751438586832 0 0.1800011615574981 -0.40421721019552831 0 0.16885353195041841 -0.39937385627305089 0 0.17650387097314771 -0.41585751438586832 0 0.19245208550800941 -0.42964427240043679 0 0.1896218513338013 -0.4155408205726599 0 0.17650387097314771 -0.41585751438586832 0 0.16856603090005801 -0.40899548729143831 0 0.17650387097314771 -0.41585751438586832 0 0.1896218513338013 -0.4155408205726599 0 0.1800011615574981 -0.40421721019552831 0 0.17650387097314771 -0.41585751438586832 0 0.19245208550800941 -0.42964427240043679 0 0.17650387097314771 -0.41585751438586832 0 0.18736609630760701 -0.43926160252178281 0 0.1680294775213145 -0.42695200823439461 0 0.1831288995816894 -0.44480884944604671 0 0.1680294775213145 -0.42695200823439461 0 0.18736609630760701 -0.43926160252178281 0 0.1831288995816894 -0.44480884944604671 0 0.1680294775213145 -0.42695200823439461 0 0.17650387097314771 -0.41585751438586832 0 0.18736609630760701 -0.43926160252178281 0 0.19245208550800941 -0.42964427240043679 0 0.17650387097314771 -0.41585751438586832 0 0.17650387097314771 -0.41585751438586832 0 0.18736609630760701 -0.43926160252178281 0 0.1831288995816894 -0.44480884944604671 0 0.18207718142580481 -0.46101048304982389 0 0.1672747619769081 -0.4522096359300582 0 0.1680294775213145 -0.42695200823439461 0 0.1831288995816894 -0.44480884944604671 0 0.1672747619769081 -0.4522096359300582 0 0.18207718142580481 -0.46101048304982389 0 0.1672747619769081 -0.4522096359300582 0 0.16652004643250079 -0.47746726362572178 0 0.1672747619769081 -0.4522096359300582 0 0.16652004643250079 -0.47746726362572178 0 0.1672747619769081 -0.4522096359300582 0 0.15317569049155569 -0.46266367777167428 0 0.16652004643250079 -0.47746726362572178 0 0.1680294775213145 -0.42695200823439461 0 0.1672747619769081 -0.4522096359300582 0 0.157719690725725 -0.43819621584671259 0 0.1672747619769081 -0.4522096359300582 0 0.14673792394680901 -0.44675172033442589 0 0.1680294775213145 -0.42695200823439461 0 0.157719690725725 -0.43819621584671259 0 0.1672747619769081 -0.4522096359300582 0 0.13363958533830991 -0.43001899537342048 0 0.12697474283434881 -0.45455987192360908 0 0.1164495739394741 -0.44035941276237289 0 0.13363958533830991 -0.43001899537342048 0 0.12697474283434881 -0.45455987192360908 0 0.13363958533830991 -0.43001899537342048 0 0.14673792394680901 -0.44675172033442589 0 0.12697474283434881 -0.45455987192360908 0 0.12697474283434881 -0.45455987192360908 0 0.1426757183213663 -0.46031380149787859 0 0.1438145160127515 -0.47727993596180501 0 0.14673792394680901 -0.44675172033442589 0 0.12697474283434881 -0.45455987192360908 0 0.1426757183213663 -0.46031380149787859 0 0.12697474283434881 -0.45455987192360908 0 0.1438145160127515 -0.47727993596180501 0 0.14673792394680901 -0.44675172033442589 0 0.1426757183213663 -0.46031380149787859 0 0.15317569049155569 -0.46266367777167428 0 0.1672747619769081 -0.4522096359300582 0 0.14673792394680901 -0.44675172033442589 0 0.15317569049155569 -0.46266367777167428 0 0.1426757183213663 -0.46031380149787859 0 0.15317569049155569 -0.46266367777167428 0 0.1438145160127515 -0.47727993596180501 0 0.15317569049155569 -0.46266367777167428 0 0.1438145160127515 -0.47727993596180501 0 0.16652004643250079 -0.47746726362572178 0 0.12697474283434881 -0.45455987192360908 0 0.1438145160127515 -0.47727993596180501 0 0.1208043989110251 -0.47727993596180551 0 0.1438145160127515 -0.47727993596180501 0 0.1376441720894277 -0.5 0 0.1208043989110251 -0.47727993596180551 0 0.1438145160127515 -0.47727993596180501 0 0.1606542891911544 -0.50000000000000067 0 0.1438145160127515 -0.47727993596180501 0 0.1376441720894277 -0.5 0 0.1606542891911544 -0.50000000000000067 0 0.1438145160127515 -0.47727993596180501 0 0.1606542891911544 -0.50000000000000067 0 0.16652004643250079 -0.47746726362572178 0 0.1606542891911544 -0.50000000000000067 0 0.16652004643250079 -0.47746726362572178 0 0.17383523603958009 -0.4898022774425056 0 0.18207718142580481 -0.46101048304982389 0 0.16652004643250079 -0.47746726362572178 0 0.18261658360007069 -0.47754494117264912 0 0.19189857476584071 -0.46911934670035199 0 0.18207718142580481 -0.46101048304982389 0 0.18261658360007069 -0.47754494117264912 0 0.16652004643250079 -0.47746726362572178 0 0.18261658360007069 -0.47754494117264912 0 0.17383523603958009 -0.4898022774425056 0 0.18261658360007069 -0.47754494117264912 0 0.1868061473602281 -0.48746485280054241 0 0.17383523603958009 -0.4898022774425056 0 0.1606542891911544 -0.50000000000000067 0 0.1834806236444968 -0.5 0 0.17383523603958009 -0.4898022774425056 0 0.1868061473602281 -0.48746485280054241 0 0.1834806236444968 -0.5 0 0.17383523603958009 -0.4898022774425056 0 0.063453258220589975 -0.500000000000004 0 0.079876315119748353 -0.48294805107429339 0 0.059667162872076407 -0.480215891925931 0 0.063453258220589975 -0.500000000000004 0 0.079876315119748353 -0.48294805107429339 0 0.089043656604145482 -0.5 0 0.079876315119748353 -0.48294805107429339 0 0.073006583382560303 -0.46639383996106859 0 0.059667162872076407 -0.480215891925931 0 0.073006583382560303 -0.46639383996106859 0 0.055881067523562193 -0.46043178385185812 0 0.059667162872076407 -0.480215891925931 0 0.079876315119748353 -0.48294805107429339 0 0.1020200412420872 -0.48384698867873849 0 0.092067188397030764 -0.46723158588002189 0 0.079876315119748353 -0.48294805107429339 0 0.092067188397030764 -0.46723158588002189 0 0.073006583382560303 -0.46639383996106859 0 0.079876315119748353 -0.48294805107429339 0 0.089043656604145482 -0.5 0 0.1020200412420872 -0.48384698867873849 0 0.089043656604145482 -0.5 0 0.1146340549877011 -0.50000000000000178 0 0.1020200412420872 -0.48384698867873849 0 0.1376441720894277 -0.5 0 0.1146340549877011 -0.50000000000000178 0 0.1208043989110251 -0.47727993596180551 0 0.1146340549877011 -0.50000000000000178 0 0.1208043989110251 -0.47727993596180551 0 0.1020200412420872 -0.48384698867873849 0 0.1146340549877011 -0.50000000000000178 0 0.1208043989110251 -0.47727993596180551 0 0.1208043989110251 -0.47727993596180551 0 0.1020200412420872 -0.48384698867873849 0 0.11019600800066021 -0.46204074038816401 0 0.1020200412420872 -0.48384698867873849 0 0.11019600800066021 -0.46204074038816401 0 0.092067188397030764 -0.46723158588002189 0 0.11019600800066021 -0.46204074038816401 0 0.097914319864983682 -0.44617106039225418 0 0.092067188397030764 -0.46723158588002189 0 0.12697474283434881 -0.45455987192360908 0 0.1208043989110251 -0.47727993596180551 0 0.12697474283434881 -0.45455987192360908 0 0.1208043989110251 -0.47727993596180551 0 0.11019600800066021 -0.46204074038816401 0 0.12697474283434881 -0.45455987192360908 0 0.11019600800066021 -0.46204074038816401 0 0.1164495739394741 -0.44035941276237289 0 0.12697474283434881 -0.45455987192360908 0 0.1164495739394741 -0.44035941276237289 0 0.11019600800066021 -0.46204074038816401 0 0.1164495739394741 -0.44035941276237289 0 0.097914319864983682 -0.44617106039225418 0 0.1164495739394741 -0.44035941276237289 0 0.097914319864983682 -0.44617106039225418 0 0.1059244050445992 -0.42615895360113681 0 0.097914319864983682 -0.44617106039225418 0 0.082458352735205492 -0.43971873458769017 0 0.093468034545643341 -0.43289945008039021 0 0.082458352735205492 -0.43971873458769017 0 0.08292323090183279 -0.4539180960081618 0 0.069169710129383666 -0.45007525921977393 0 0.097914319864983682 -0.44617106039225418 0 0.082458352735205492 -0.43971873458769017 0 0.08292323090183279 -0.4539180960081618 0 0.097914319864983682 -0.44617106039225418 0 0.092067188397030764 -0.46723158588002189 0 0.08292323090183279 -0.4539180960081618 0 0.092067188397030764 -0.46723158588002189 0 0.08292323090183279 -0.4539180960081618 0 0.073006583382560303 -0.46639383996106859 0 0.08292323090183279 -0.4539180960081618 0 0.073006583382560303 -0.46639383996106859 0 0.069169710129383666 -0.45007525921977393 0 0.073006583382560303 -0.46639383996106859 0 0.069169710129383666 -0.45007525921977393 0 0.055881067523562193 -0.46043178385185812 0 0.069169710129383666 -0.45007525921977393 0 0.055881067523562193 -0.46043178385185812 0 0.082458352735205492 -0.43971873458769017 0 0.069169710129383666 -0.45007525921977393 0 0.06414835761139466 -0.43840681509974411 0 0.082458352735205492 -0.43971873458769017 0 0.069169710129383666 -0.45007525921977393 0 0.082458352735205492 -0.43971873458769017 0 0.06414835761139466 -0.43840681509974411 0 0.068806961032562342 -0.42558969539521407 0 0.068806961032562342 -0.42558969539521407 0 0.071556221247663643 -0.40931405757813089 0 0.057684099317291918 -0.41581773594269489 0 0.068806961032562342 -0.42558969539521407 0 0.071556221247663643 -0.40931405757813089 0 0.0870227804915151 -0.42053313450600632 0 0.071556221247663643 -0.40931405757813089 0 0.085503827510948094 -0.40920021468777479 0 0.0870227804915151 -0.42053313450600632 0 0.085503827510948094 -0.40920021468777479 0 0.0870227804915151 -0.42053313450600632 0 0.1007936295391231 -0.40883158638590772 0 0.082458352735205492 -0.43971873458769017 0 0.068806961032562342 -0.42558969539521407 0 0.0870227804915151 -0.42053313450600632 0 0.082458352735205492 -0.43971873458769017 0 0.0870227804915151 -0.42053313450600632 0 0.093468034545643341 -0.43289945008039021 0 0.0870227804915151 -0.42053313450600632 0 0.093468034545643341 -0.43289945008039021 0 0.1059244050445992 -0.42615895360113681 0 0.097914319864983682 -0.44617106039225418 0 0.093468034545643341 -0.43289945008039021 0 0.1059244050445992 -0.42615895360113681 0 0.13363958533830991 -0.43001899537342048 0 0.1164495739394741 -0.44035941276237289 0 0.1202436167786107 -0.42004105947599513 0 0.1164495739394741 -0.44035941276237289 0 0.1059244050445992 -0.42615895360113681 0 0.1202436167786107 -0.42004105947599513 0 0.1164495739394741 -0.44035941276237289 0 0.1059244050445992 -0.42615895360113681 0 0.1202436167786107 -0.42004105947599513 0 0.1007936295391231 -0.40883158638590772 0 0.12495076081008009 -0.40292580149305018 0 0.0870227804915151 -0.42053313450600632 0 0.1059244050445992 -0.42615895360113681 0 0.1007936295391231 -0.40883158638590772 0 0.1059244050445992 -0.42615895360113681 0 0.1202436167786107 -0.42004105947599513 0 0.1007936295391231 -0.40883158638590772 0 0.1007936295391231 -0.40883158638590772 0 0.097886433922471386 -0.39099592756584961 0 0.082642678765490557 -0.39812208028105428 0 0.1007936295391231 -0.40883158638590772 0 0.097886433922471386 -0.39099592756584961 0 0.12495076081008009 -0.40292580149305018 0 0.12495076081008009 -0.40292580149305018 0 0.1219225591251005 -0.38585027799746319 0 0.1095794286223612 -0.38327619618604458 0 0.097886433922471386 -0.39099592756584961 0 0.12495076081008009 -0.40292580149305018 0 0.097886433922471386 -0.39099592756584961 0 0.12495076081008009 -0.40292580149305018 0 0.1095794286223612 -0.38327619618604458 0 0.13648674594455029 -0.37605160698701989 0 0.12523752281111489 -0.37951750311272059 0 0.1123191057426866 -0.370395491953185 0 0.12523752281111489 -0.37951750311272059 0 0.11734789861539049 -0.37920125780465153 0 0.1123191057426866 -0.370395491953185 0 0.12523752281111489 -0.37951750311272059 0 0.11734789861539049 -0.37920125780465153 0 0.1219225591251005 -0.38585027799746319 0 0.11734789861539049 -0.37920125780465153 0 0.1095794286223612 -0.38327619618604458 0 0.1123191057426866 -0.370395491953185 0 0.11734789861539049 -0.37920125780465153 0 0.1219225591251005 -0.38585027799746319 0 0.1095794286223612 -0.38327619618604458 0 0.097886433922471386 -0.39099592756584961 0 0.10258350215703679 -0.37438400723156312 0 0.092331724745514543 -0.37201941610255518 0 0.097886433922471386 -0.39099592756584961 0 0.1095794286223612 -0.38327619618604458 0 0.10258350215703679 -0.37438400723156312 0 0.1095794286223612 -0.38327619618604458 0 0.1123191057426866 -0.370395491953185 0 0.10258350215703679 -0.37438400723156312 0 0.097886433922471386 -0.39099592756584961 0 0.07082210703486351 -0.37906605363864693 0 0.092331724745514543 -0.37201941610255518 0 0.097886433922471386 -0.39099592756584961 0 0.07082210703486351 -0.37906605363864693 0 0.07082210703486351 -0.37906605363864693 0 0.092331724745514543 -0.37201941610255518 0 0.097886433922471386 -0.39099592756584961 0 0.07082210703486351 -0.37906605363864693 0 0.075926420555056107 -0.39045114942504311 0 0.097886433922471386 -0.39099592756584961 0 0.082642678765490557 -0.39812208028105428 0 0.075926420555056107 -0.39045114942504311 0 0.085503827510948094 -0.40920021468777479 0 0.1007936295391231 -0.40883158638590772 0 0.082642678765490557 -0.39812208028105428 0 0.071556221247663643 -0.40931405757813089 0 0.085503827510948094 -0.40920021468777479 0 0.082642678765490557 -0.39812208028105428 0 0.071556221247663643 -0.40931405757813089 0 0.066895660614478047 -0.39619465267324222 0 0.054699888600245238 -0.40161168305570599 0 0.082642678765490557 -0.39812208028105428 0 0.066895660614478047 -0.39619465267324222 0 0.075926420555056107 -0.39045114942504311 0 0.071556221247663643 -0.40931405757813089 0 0.082642678765490557 -0.39812208028105428 0 0.066895660614478047 -0.39619465267324222 0 0.066895660614478047 -0.39619465267324222 0 0.064765417168545572 -0.38856897624211439 0 0.055953964481474522 -0.39263098113239342 0 0.066895660614478047 -0.39619465267324222 0 0.064765417168545572 -0.38856897624211439 0 0.075926420555056107 -0.39045114942504311 0 0.064765417168545572 -0.38856897624211439 0 0.07082210703486351 -0.37906605363864693 0 0.054228933156855889 -0.38450204434124707 0 0.064989858751823115 -0.37649521612926862 0 0.07082210703486351 -0.37906605363864693 0 0.054228933156855889 -0.38450204434124707 0 0.07082210703486351 -0.37906605363864693 0 0.054228933156855889 -0.38450204434124707 0 0.064989858751823115 -0.37649521612926862 0 0.07082210703486351 -0.37906605363864693 0 0.064765417168545572 -0.38856897624211439 0 0.07082210703486351 -0.37906605363864693 0 0.075926420555056107 -0.39045114942504311 0 0.054228933156855889 -0.38450204434124707 0 0.047543899967776082 -0.38947614362889121 0 0.055953964481474522 -0.39263098113239342 0 0.054228933156855889 -0.38450204434124707 0 0.047543899967776082 -0.38947614362889121 0 0.054228933156855889 -0.38450204434124707 0 0.054002209667557859 -0.3774895321531096 0 0.046296217844590731 -0.37885545838371171 0 0.054002209667557859 -0.3774895321531096 0 0.046296217844590731 -0.37885545838371171 0 0.050493828916961463 -0.37010540975821049 0 0.064989858751823115 -0.37649521612926862 0 0.054228933156855889 -0.38450204434124707 0 0.064989858751823115 -0.37649521612926862 0 0.054228933156855889 -0.38450204434124707 0 0.054002209667557859 -0.3774895321531096 0 0.064765417168545572 -0.38856897624211439 0 0.054228933156855889 -0.38450204434124707 0 0.055953964481474522 -0.39263098113239342 0 0.066895660614478047 -0.39619465267324222 0 0.055953964481474522 -0.39263098113239342 0 0.054699888600245238 -0.40161168305570599 0 0.047543899967776082 -0.38947614362889121 0 0.055953964481474522 -0.39263098113239342 0 0.054699888600245238 -0.40161168305570599 0 0.047543899967776082 -0.38947614362889121 0 0.054699888600245238 -0.40161168305570599 0 0.041798560445333387 -0.39905871248456343 0 0.047543899967776082 -0.38947614362889121 0 0.041798560445333387 -0.39905871248456343 0 0.033692595641701253 -0.39122983135888728 0 0.054699888600245238 -0.40161168305570599 0 0.041798560445333387 -0.39905871248456343 0 0.041597178760191228 -0.41135728763631818 0 0.041798560445333387 -0.39905871248456343 0 0.03155509899292093 -0.40104989199530228 0 0.041597178760191228 -0.41135728763631818 0 0.041798560445333387 -0.39905871248456343 0 0.03155509899292093 -0.40104989199530228 0 0.033692595641701253 -0.39122983135888728 0 0.054228933156855889 -0.38450204434124707 0 0.047543899967776082 -0.38947614362889121 0 0.033692595641701253 -0.39122983135888728 0 0.054228933156855889 -0.38450204434124707 0 0.033692595641701253 -0.39122983135888728 0 0.046296217844590731 -0.37885545838371171 0 0.033692595641701253 -0.39122983135888728 0 0.038011406510588507 -0.37901211174696681 0 0.02902297182466634 -0.38200567690414228 0 0.054228933156855889 -0.38450204434124707 0 0.033692595641701253 -0.39122983135888728 0 0.033692595641701253 -0.39122983135888728 0 0.046296217844590731 -0.37885545838371171 0 0.038011406510588507 -0.37901211174696681 0 0.046296217844590731 -0.37885545838371171 0 0.038011406510588507 -0.37901211174696681 0 0.042025102471618538 -0.37247013266474832 0 0.038011406510588507 -0.37901211174696681 0 0.02902297182466634 -0.38200567690414228 0 0.035326827055349133 -0.37256763208376398 0 0.02902297182466634 -0.38200567690414228 0 0.035326827055349133 -0.37256763208376398 0 0.02623177818715404 -0.37372060255406581 0 0.019473192102571039 -0.38756365146087379 0 0.02623177818715404 -0.37372060255406581 0 0.011149816155222141 -0.3642631188038995 0 0.02902297182466634 -0.38200567690414228 0 0.019473192102571039 -0.38756365146087379 0 0.02623177818715404 -0.37372060255406581 0 0.033692595641701253 -0.39122983135888728 0 0.02902297182466634 -0.38200567690414228 0 0.019473192102571039 -0.38756365146087379 0 -0.0042880474431544443 -0.38143749126606391 0 0.019473192102571039 -0.38756365146087379 0 0.0059412400519459289 -0.39827433823653918 0 -0.0042880474431544443 -0.38143749126606391 0 0.019473192102571039 -0.38756365146087379 0 0.011149816155222141 -0.3642631188038995 0 0.03155509899292093 -0.40104989199530228 0 0.019473192102571039 -0.38756365146087379 0 0.022575943146279941 -0.40795953582037819 0 0.019473192102571039 -0.38756365146087379 0 0.0059412400519459289 -0.39827433823653918 0 0.022575943146279941 -0.40795953582037819 0 0.03155509899292093 -0.40104989199530228 0 0.033692595641701253 -0.39122983135888728 0 0.019473192102571039 -0.38756365146087379 0 0.022575943146279941 -0.40795953582037819 0 0.0089956421061454846 -0.41330728533300032 0 0.017528498021835009 -0.42577501713017962 0 0.022575943146279941 -0.40795953582037819 0 0.017528498021835009 -0.42577501713017962 0 0.033289716876624853 -0.42490372986122488 0 -0.0070445583114871384 -0.41363436916954233 0 0.0059412400519459289 -0.39827433823653918 0 0.0089956421061454846 -0.41330728533300032 0 0.0059412400519459289 -0.39827433823653918 0 0.022575943146279941 -0.40795953582037819 0 0.0089956421061454846 -0.41330728533300032 0 -0.0070445583114871384 -0.41363436916954233 0 0.0089956421061454846 -0.41330728533300032 0 0.0044685336387176736 -0.42549483916402359 0 0.0089956421061454846 -0.41330728533300032 0 0.0044685336387176736 -0.42549483916402359 0 0.017528498021835009 -0.42577501713017962 0 0.0044685336387176736 -0.42549483916402359 0 0.017528498021835009 -0.42577501713017962 0 0.0095097002263758116 -0.44187517972810342 0 -0.01093901682269725 -0.43953332273650902 0 0.0044685336387176736 -0.42549483916402359 0 0.0095097002263758116 -0.44187517972810342 0 0.017528498021835009 -0.42577501713017962 0 0.033289716876624853 -0.42490372986122488 0 0.026331452136866291 -0.44110953287434718 0 0.017528498021835009 -0.42577501713017962 0 0.026331452136866291 -0.44110953287434718 0 0.0095097002263758116 -0.44187517972810342 0 0.033289716876624853 -0.42490372986122488 0 0.049850357823438607 -0.42891852243399631 0 0.040346317387702037 -0.43890415612779199 0 0.033289716876624853 -0.42490372986122488 0 0.040346317387702037 -0.43890415612779199 0 0.026331452136866291 -0.44110953287434718 0 0.03155509899292093 -0.40104989199530228 0 0.022575943146279941 -0.40795953582037819 0 0.041597178760191228 -0.41135728763631818 0 0.022575943146279941 -0.40795953582037819 0 0.033289716876624853 -0.42490372986122488 0 0.041597178760191228 -0.41135728763631818 0 0.033289716876624853 -0.42490372986122488 0 0.041597178760191228 -0.41135728763631818 0 0.049850357823438607 -0.42891852243399631 0 0.054699888600245238 -0.40161168305570599 0 0.041597178760191228 -0.41135728763631818 0 0.057684099317291918 -0.41581773594269489 0 0.071556221247663643 -0.40931405757813089 0 0.054699888600245238 -0.40161168305570599 0 0.057684099317291918 -0.41581773594269489 0 0.041597178760191228 -0.41135728763631818 0 0.057684099317291918 -0.41581773594269489 0 0.049850357823438607 -0.42891852243399631 0 0.06414835761139466 -0.43840681509974411 0 0.068806961032562342 -0.42558969539521407 0 0.049850357823438607 -0.42891852243399631 0 0.049850357823438607 -0.42891852243399631 0 0.052865712673501097 -0.44467515314292699 0 0.040346317387702037 -0.43890415612779199 0 0.049850357823438607 -0.42891852243399631 0 0.052865712673501097 -0.44467515314292699 0 0.068806961032562342 -0.42558969539521407 0 0.057684099317291918 -0.41581773594269489 0 0.049850357823438607 -0.42891852243399631 0 0.06414835761139466 -0.43840681509974411 0 0.049850357823438607 -0.42891852243399631 0 0.052865712673501097 -0.44467515314292699 0 0.052865712673501097 -0.44467515314292699 0 0.055881067523562193 -0.46043178385185812 0 0.038894777407833071 -0.45414492337080931 0 0.069169710129383666 -0.45007525921977393 0 0.06414835761139466 -0.43840681509974411 0 0.052865712673501097 -0.44467515314292699 0 0.052865712673501097 -0.44467515314292699 0 0.055881067523562193 -0.46043178385185812 0 0.069169710129383666 -0.45007525921977393 0 0.052865712673501097 -0.44467515314292699 0 0.055881067523562193 -0.46043178385185812 0 0.055881067523562193 -0.46043178385185812 0 0.038957504789860493 -0.47362118923457169 0 0.038894777407833071 -0.45414492337080931 0 0.01991913807968014 -0.46265959733606948 0 0.038957504789860493 -0.47362118923457169 0 0.055881067523562193 -0.46043178385185812 0 0.038894777407833071 -0.45414492337080931 0 0.038957504789860493 -0.47362118923457169 0 0.052865712673501097 -0.44467515314292699 0 0.038894777407833071 -0.45414492337080931 0 0.040346317387702037 -0.43890415612779199 0 0.038894777407833071 -0.45414492337080931 0 0.040346317387702037 -0.43890415612779199 0 0.026331452136866291 -0.44110953287434718 0 0.038894777407833071 -0.45414492337080931 0 0.026331452136866291 -0.44110953287434718 0 0.01991913807968014 -0.46265959733606948 0 0.026331452136866291 -0.44110953287434718 0 0.0095097002263758116 -0.44187517972810342 0 0.01991913807968014 -0.46265959733606948 0 -0.0017589576795830029 -0.4612804419831531 0 0.01991913807968014 -0.46265959733606948 0 0.0074432789513676602 -0.47835213141926042 0 -0.0017589576795830029 -0.4612804419831531 0 0.0095097002263758116 -0.44187517972810342 0 0.01991913807968014 -0.46265959733606948 0 0.01991913807968014 -0.46265959733606948 0 0.022033942056159161 -0.48681059461728587 0 0.038957504789860493 -0.47362118923457169 0 0.022033942056159161 -0.48681059461728587 0 0.038957504789860493 -0.47362118923457169 0 0.01991913807968014 -0.46265959733606948 0 0.0074432789513676602 -0.47835213141926042 0 0.022033942056159161 -0.48681059461728587 0 0.0074432789513676602 -0.47835213141926042 0 0.0051103793224578486 -0.5 0 0.022033942056159161 -0.48681059461728587 0 -0.0080881070218758316 -0.48101002315979358 0 0.0074432789513676602 -0.47835213141926042 0 0.0051103793224578486 -0.5 0 0.0051103793224578486 -0.5 0 0.022033942056159161 -0.48681059461728587 0 0.0051103793224578486 -0.5 0 0.022033942056159161 -0.48681059461728587 0 0.034281818771523809 -0.5 0 0.022033942056159161 -0.48681059461728587 0 0.045652503339065093 -0.48841168010047548 0 0.034281818771523809 -0.5 0 0.022033942056159161 -0.48681059461728587 0 0.045652503339065093 -0.48841168010047548 0 0.038957504789860493 -0.47362118923457169 0 0.055881067523562193 -0.46043178385185812 0 0.059667162872076407 -0.480215891925931 0 0.045652503339065093 -0.48841168010047548 0 0.038957504789860493 -0.47362118923457169 0 0.059667162872076407 -0.480215891925931 0 0.055881067523562193 -0.46043178385185812 0 0.038957504789860493 -0.47362118923457169 0 0.059667162872076407 -0.480215891925931 0 0.063453258220589975 -0.500000000000004 0 0.045652503339065093 -0.48841168010047548 0 0.034281818771523809 -0.5 0 0.063453258220589975 -0.500000000000004 0 0.059667162872076407 -0.480215891925931 0 0.063453258220589975 -0.500000000000004 0 0.045652503339065093 -0.48841168010047548 0 0.059667162872076407 -0.480215891925931 0 0.08324713571742863 -0.29696322652462143 0 0.06781425350207114 -0.27668000253116881 0 0.092424845726713667 -0.27036951679793902 0 0.08324713571742863 -0.29696322652462143 0 0.10527505569224931 -0.30727920924629931 0 0.084607352404475825 -0.32075656239770223 0 0.08324713571742863 -0.29696322652462143 0 0.065408275780365135 -0.32098228558065739 0 0.059836119410068583 -0.29741164544201021 0 0.08324713571742863 -0.29696322652462143 0 0.06781425350207114 -0.27668000253116881 0 0.059836119410068583 -0.29741164544201021 0 0.076708961681927229 -0.25570252649154879 0 0.056597411959853329 -0.2639440275904511 0 0.058355879264822282 -0.2484073521394522 0 0.06781425350207114 -0.27668000253116881 0 0.076708961681927229 -0.25570252649154879 0 0.056597411959853329 -0.2639440275904511 0 0.076708961681927229 -0.25570252649154879 0 0.092424845726713667 -0.27036951679793902 0 0.10497616821734269 -0.24483397350269109 0 0.06781425350207114 -0.27668000253116881 0 0.076708961681927229 -0.25570252649154879 0 0.092424845726713667 -0.27036951679793902 0 0.092424845726713667 -0.27036951679793902 0 0.12319598099985871 -0.26979890523734851 0 0.1060171554232546 -0.28764254278022089 0 0.092424845726713667 -0.27036951679793902 0 0.12319598099985871 -0.26979890523734851 0 0.10497616821734269 -0.24483397350269109 0 0.12319598099985871 -0.26979890523734851 0 0.10497616821734269 -0.24483397350269109 0 0.13522572268806199 -0.24734031978412491 0 0.1259427589800228 -0.2938018560948964 0 0.1060171554232546 -0.28764254278022089 0 0.10527505569224931 -0.30727920924629931 0 0.1259427589800228 -0.2938018560948964 0 0.12319598099985871 -0.26979890523734851 0 0.1060171554232546 -0.28764254278022089 0 0.08324713571742863 -0.29696322652462143 0 0.092424845726713667 -0.27036951679793902 0 0.1060171554232546 -0.28764254278022089 0 0.08324713571742863 -0.29696322652462143 0 0.1060171554232546 -0.28764254278022089 0 0.10527505569224931 -0.30727920924629931 0 0.1259427589800228 -0.2938018560948964 0 0.10527505569224931 -0.30727920924629931 0 0.1154669738289318 -0.32296337602057712 0 0.1259427589800228 -0.2938018560948964 0 0.10527505569224931 -0.30727920924629931 0 0.13578420053311571 -0.32381962349363841 0 0.1121860866060181 -0.34137815437218177 0 0.13578420053311571 -0.32381962349363841 0 0.1154669738289318 -0.32296337602057712 0 0.1121860866060181 -0.34137815437218177 0 0.1121860866060181 -0.34137815437218177 0 0.1003044590299918 -0.32649922578491891 0 0.083986826618283855 -0.34011882688783401 0 0.1154669738289318 -0.32296337602057712 0 0.1121860866060181 -0.34137815437218177 0 0.1003044590299918 -0.32649922578491891 0 0.10527505569224931 -0.30727920924629931 0 0.1154669738289318 -0.32296337602057712 0 0.1003044590299918 -0.32649922578491891 0 0.10527505569224931 -0.30727920924629931 0 0.084607352404475825 -0.32075656239770223 0 0.10527505569224931 -0.30727920924629931 0 0.1003044590299918 -0.32649922578491891 0 0.084607352404475825 -0.32075656239770223 0 0.13648674594455029 -0.37605160698701989 0 0.1123191057426866 -0.370395491953185 0 0.13535096016681769 -0.35792614103037468 0 0.1138413424561661 -0.36497277856646487 0 0.1123191057426866 -0.370395491953185 0 0.1138413424561661 -0.36497277856646487 0 0.10258350215703679 -0.37438400723156312 0 0.12660214350457949 -0.36757268168728208 0 0.1123191057426866 -0.370395491953185 0 0.1138413424561661 -0.36497277856646487 0 0.13535096016681769 -0.35792614103037468 0 0.1138413424561661 -0.36497277856646487 0 0.1213406798831813 -0.35225630791038748 0 0.13417013674416289 -0.3419710756127739 0 0.1121860866060181 -0.34137815437218177 0 0.1213406798831813 -0.35225630791038748 0 0.1138413424561661 -0.36497277856646487 0 0.1213406798831813 -0.35225630791038748 0 0.1080018231937202 -0.35528502978861881 0 0.1121860866060181 -0.34137815437218177 0 0.1213406798831813 -0.35225630791038748 0 0.1080018231937202 -0.35528502978861881 0 0.1121860866060181 -0.34137815437218177 0 0.088587972678920601 -0.3589366852507252 0 0.083986826618283855 -0.34011882688783401 0 0.1121860866060181 -0.34137815437218177 0 0.088587972678920601 -0.3589366852507252 0 0.1080018231937202 -0.35528502978861881 0 0.1010643067214398 -0.36236767136222919 0 0.088587972678920601 -0.3589366852507252 0 0.1121860866060181 -0.34137815437218177 0 0.1080018231937202 -0.35528502978861881 0 0.088587972678920601 -0.3589366852507252 0 0.1138413424561661 -0.36497277856646487 0 0.092331724745514543 -0.37201941610255518 0 0.1138413424561661 -0.36497277856646487 0 0.1010643067214398 -0.36236767136222919 0 0.092331724745514543 -0.37201941610255518 0 0.1138413424561661 -0.36497277856646487 0 0.10258350215703679 -0.37438400723156312 0 0.092331724745514543 -0.37201941610255518 0 0.1138413424561661 -0.36497277856646487 0 0.1080018231937202 -0.35528502978861881 0 0.1010643067214398 -0.36236767136222919 0 0.1010643067214398 -0.36236767136222919 0 0.092331724745514543 -0.37201941610255518 0 0.088587972678920601 -0.3589366852507252 0 0.07082210703486351 -0.37906605363864693 0 0.092331724745514543 -0.37201941610255518 0 0.088587972678920601 -0.3589366852507252 0 0.088587972678920601 -0.3589366852507252 0 0.075606677835468525 -0.35145512403955381 0 0.083986826618283855 -0.34011882688783401 0 0.088587972678920601 -0.3589366852507252 0 0.075606677835468525 -0.35145512403955381 0 0.074826653807198343 -0.36286002502333942 0 0.075606677835468525 -0.35145512403955381 0 0.083986826618283855 -0.34011882688783401 0 0.065719556899791712 -0.34168324496854152 0 0.075606677835468525 -0.35145512403955381 0 0.064912379173148141 -0.35367683806732853 0 0.065719556899791712 -0.34168324496854152 0 0.075606677835468525 -0.35145512403955381 0 0.064912379173148141 -0.35367683806732853 0 0.074826653807198343 -0.36286002502333942 0 0.074826653807198343 -0.36286002502333942 0 0.055412226444649111 -0.36328781420524592 0 0.064989858751823115 -0.37649521612926862 0 0.074826653807198343 -0.36286002502333942 0 0.055412226444649111 -0.36328781420524592 0 0.064989858751823115 -0.37649521612926862 0 0.088587972678920601 -0.3589366852507252 0 0.074826653807198343 -0.36286002502333942 0 0.064989858751823115 -0.37649521612926862 0 0.07082210703486351 -0.37906605363864693 0 0.088587972678920601 -0.3589366852507252 0 0.064989858751823115 -0.37649521612926862 0 0.088587972678920601 -0.3589366852507252 0 0.064912379173148141 -0.35367683806732853 0 0.074826653807198343 -0.36286002502333942 0 0.055412226444649111 -0.36328781420524592 0 0.1003044590299918 -0.32649922578491891 0 0.084607352404475825 -0.32075656239770223 0 0.083986826618283855 -0.34011882688783401 0 0.083986826618283855 -0.34011882688783401 0 0.065719556899791712 -0.34168324496854152 0 0.065408275780365135 -0.32098228558065739 0 0.08324713571742863 -0.29696322652462143 0 0.084607352404475825 -0.32075656239770223 0 0.065408275780365135 -0.32098228558065739 0 0.084607352404475825 -0.32075656239770223 0 0.083986826618283855 -0.34011882688783401 0 0.065408275780365135 -0.32098228558065739 0 0.065408275780365135 -0.32098228558065739 0 0.047343690467288681 -0.33425513921297029 0 0.044212272935962013 -0.31071798312710769 0 0.065719556899791712 -0.34168324496854152 0 0.065408275780365135 -0.32098228558065739 0 0.047343690467288681 -0.33425513921297029 0 0.065719556899791712 -0.34168324496854152 0 0.047343690467288681 -0.33425513921297029 0 0.053101660176976352 -0.35064208390054269 0 0.047343690467288681 -0.33425513921297029 0 0.038922887122811813 -0.35198700842004471 0 0.030686152201322019 -0.33997031721003818 0 0.047343690467288681 -0.33425513921297029 0 0.033117585633632388 -0.32270733137640611 0 0.030686152201322019 -0.33997031721003818 0 0.047343690467288681 -0.33425513921297029 0 0.033117585633632388 -0.32270733137640611 0 0.044212272935962013 -0.31071798312710769 0 0.033117585633632388 -0.32270733137640611 0 0.019536332474233781 -0.30720698309771982 0 0.044212272935962013 -0.31071798312710769 0 0.050493828916961463 -0.37010540975821049 0 0.055412226444649111 -0.36328781420524592 0 0.035997799082099873 -0.36371560338715242 0 0.064989858751823115 -0.37649521612926862 0 0.050493828916961463 -0.37010540975821049 0 0.064989858751823115 -0.37649521612926862 0 0.050493828916961463 -0.37010540975821049 0 0.055412226444649111 -0.36328781420524592 0 0.064989858751823115 -0.37649521612926862 0 0.054002209667557859 -0.3774895321531096 0 0.050493828916961463 -0.37010540975821049 0 0.055412226444649111 -0.36328781420524592 0 0.053101660176976352 -0.35064208390054269 0 0.045858643206634277 -0.35740812747824641 0 0.064912379173148141 -0.35367683806732853 0 0.055412226444649111 -0.36328781420524592 0 0.053101660176976352 -0.35064208390054269 0 0.064912379173148141 -0.35367683806732853 0 0.065719556899791712 -0.34168324496854152 0 0.053101660176976352 -0.35064208390054269 0 0.038922887122811813 -0.35198700842004471 0 0.035997799082099873 -0.36371560338715242 0 0.022980468991537151 -0.35377537381273272 0 0.047343690467288681 -0.33425513921297029 0 0.053101660176976352 -0.35064208390054269 0 0.038922887122811813 -0.35198700842004471 0 0.053101660176976352 -0.35064208390054269 0 0.038922887122811813 -0.35198700842004471 0 0.045858643206634277 -0.35740812747824641 0 0.038922887122811813 -0.35198700842004471 0 0.045858643206634277 -0.35740812747824641 0 0.035997799082099873 -0.36371560338715242 0 0.055412226444649111 -0.36328781420524592 0 0.045858643206634277 -0.35740812747824641 0 0.035997799082099873 -0.36371560338715242 0 0.055412226444649111 -0.36328781420524592 0 0.035997799082099873 -0.36371560338715242 0 0.050493828916961463 -0.37010540975821049 0 0.035997799082099873 -0.36371560338715242 0 0.035997799082099873 -0.36371560338715242 0 0.035326827055349133 -0.37256763208376398 0 0.02623177818715404 -0.37372060255406581 0 0.035997799082099873 -0.36371560338715242 0 0.035326827055349133 -0.37256763208376398 0 0.042025102471618538 -0.37247013266474832 0 0.038011406510588507 -0.37901211174696681 0 0.035326827055349133 -0.37256763208376398 0 0.042025102471618538 -0.37247013266474832 0 0.050493828916961463 -0.37010540975821049 0 0.035997799082099873 -0.36371560338715242 0 0.042025102471618538 -0.37247013266474832 0 0.046296217844590731 -0.37885545838371171 0 0.050493828916961463 -0.37010540975821049 0 0.042025102471618538 -0.37247013266474832 0 0.035997799082099873 -0.36371560338715242 0 0.02623177818715404 -0.37372060255406581 0 0.011149816155222141 -0.3642631188038995 0 0.035997799082099873 -0.36371560338715242 0 0.022980468991537151 -0.35377537381273272 0 0.011149816155222141 -0.3642631188038995 0 0.035997799082099873 -0.36371560338715242 0 0.011149816155222141 -0.3642631188038995 0 0.038922887122811813 -0.35198700842004471 0 0.022980468991537151 -0.35377537381273272 0 0.030686152201322019 -0.33997031721003818 0 0.022980468991537151 -0.35377537381273272 0 0.01002462915729488 -0.34647941110618691 0 0.030686152201322019 -0.33997031721003818 0 -0.0028297137070933099 -0.35279292629653702 0 0.01002462915729488 -0.34647941110618691 0 0.011149816155222141 -0.3642631188038995 0 0.022980468991537151 -0.35377537381273272 0 0.01002462915729488 -0.34647941110618691 0 0.011149816155222141 -0.3642631188038995 0 0.033117585633632388 -0.32270733137640611 0 0.0056699870917780899 -0.32929510078661778 0 0.019536332474233781 -0.30720698309771982 0 0.030686152201322019 -0.33997031721003818 0 0.0056699870917780899 -0.32929510078661778 0 0.033117585633632388 -0.32270733137640611 0 0.030686152201322019 -0.33997031721003818 0 0.0056699870917780899 -0.32929510078661778 0 0.01002462915729488 -0.34647941110618691 0 0.030686152201322019 -0.33997031721003818 0 0.0056699870917780899 -0.32929510078661778 0 -0.0075089357889968006 -0.33877962972729592 0 0.01002462915729488 -0.34647941110618691 0 0.0056699870917780899 -0.32929510078661778 0 -0.00085300724567920162 -0.3134600792683459 0 0.0056699870917780899 -0.32929510078661778 0 0.019536332474233781 -0.30720698309771982 0 -0.00085300724567920162 -0.3134600792683459 0 0.002263828681637008 -0.29971307659348662 0 0.019536332474233781 -0.30720698309771982 0 0.002263828681637008 -0.29971307659348662 0 0.012475853598434601 -0.28697850573419981 0 0.019536332474233781 -0.30720698309771982 0 -0.0086068970976947087 -0.28569610947311452 0 0.002263828681637008 -0.29971307659348662 0 0.012475853598434601 -0.28697850573419981 0 0.012475853598434601 -0.28697850573419981 0 0.036398870890244413 -0.28376180574116677 0 0.01902351614773853 -0.27311150028380787 0 0.012475853598434601 -0.28697850573419981 0 0.019536332474233781 -0.30720698309771982 0 0.036398870890244413 -0.28376180574116677 0 0.019536332474233781 -0.30720698309771982 0 0.044212272935962013 -0.31071798312710769 0 0.036398870890244413 -0.28376180574116677 0 0.06781425350207114 -0.27668000253116881 0 0.036398870890244413 -0.28376180574116677 0 0.059836119410068583 -0.29741164544201021 0 0.044212272935962013 -0.31071798312710769 0 0.036398870890244413 -0.28376180574116677 0 0.059836119410068583 -0.29741164544201021 0 0.065408275780365135 -0.32098228558065739 0 0.044212272935962013 -0.31071798312710769 0 0.059836119410068583 -0.29741164544201021 0 0.06781425350207114 -0.27668000253116881 0 0.036398870890244413 -0.28376180574116677 0 0.056597411959853329 -0.2639440275904511 0 0.056597411959853329 -0.2639440275904511 0 0.043709094460201617 -0.25516845104891889 0 0.058355879264822282 -0.2484073521394522 0 0.036398870890244413 -0.28376180574116677 0 0.056597411959853329 -0.2639440275904511 0 0.043709094460201617 -0.25516845104891889 0 0.036398870890244413 -0.28376180574116677 0 0.043709094460201617 -0.25516845104891889 0 0.029225107668375459 -0.26329789276662779 0 0.036398870890244413 -0.28376180574116677 0 0.043709094460201617 -0.25516845104891889 0 0.043709094460201617 -0.25516845104891889 0 0.029225107668375459 -0.26329789276662779 0 0.030697487116818741 -0.24591029912952539 0 0.029225107668375459 -0.26329789276662779 0 0.016189213113970449 -0.25814330979740568 0 0.030697487116818741 -0.24591029912952539 0 0.029225107668375459 -0.26329789276662779 0 0.016189213113970449 -0.25814330979740568 0 0.01902351614773853 -0.27311150028380787 0 0.036398870890244413 -0.28376180574116677 0 0.029225107668375459 -0.26329789276662779 0 0.01902351614773853 -0.27311150028380787 0 -0.0086068970976947087 -0.28569610947311452 0 -0.0001076141968513938 -0.26993945428185911 0 0.012475853598434601 -0.28697850573419981 0 -0.0001076141968513938 -0.26993945428185911 0 0.016189213113970449 -0.25814330979740568 0 0.01902351614773853 -0.27311150028380787 0 -0.0001076141968513938 -0.26993945428185911 0 0.012475853598434601 -0.28697850573419981 0 0.01902351614773853 -0.27311150028380787 0 0.016189213113970449 -0.25814330979740568 0 0.0022157039987719608 -0.25103517629298772 0 0.015081017875177479 -0.24170615908606971 0 -0.0001076141968513938 -0.26993945428185911 0 0.016189213113970449 -0.25814330979740568 0 0.0022157039987719608 -0.25103517629298772 0 0.0022157039987719608 -0.25103517629298772 0 0.015081017875177479 -0.24170615908606971 0 0.0020586593896541501 -0.23538806153735661 0 0.015081017875177479 -0.24170615908606971 0 0.0020586593896541501 -0.23538806153735661 0 0.0134694868133215 -0.227269163187828 0 -0.001152381567331534 -0.2211555327351723 0 0.0020586593896541501 -0.23538806153735661 0 0.0134694868133215 -0.227269163187828 0 -0.001152381567331534 -0.2211555327351723 0 0.0134694868133215 -0.227269163187828 0 0.01181215784613274 -0.2134166455842906 0 0.0134694868133215 -0.227269163187828 0 0.021079837251591672 -0.21912034275295331 0 0.01181215784613274 -0.2134166455842906 0 0.015081017875177479 -0.24170615908606971 0 0.0134694868133215 -0.227269163187828 0 0.02712664567502002 -0.2296502871915167 0 0.0134694868133215 -0.227269163187828 0 0.021079837251591672 -0.21912034275295331 0 0.02712664567502002 -0.2296502871915167 0 0.021079837251591672 -0.21912034275295331 0 0.02712664567502002 -0.2296502871915167 0 0.032498714562608853 -0.21484905987577799 0 0.016189213113970449 -0.25814330979740568 0 0.015081017875177479 -0.24170615908606971 0 0.030697487116818741 -0.24591029912952539 0 0.015081017875177479 -0.24170615908606971 0 0.02712664567502002 -0.2296502871915167 0 0.030697487116818741 -0.24591029912952539 0 0.01415676907161083 -0.19425090616996191 0 0.0080627702558309297 -0.1896718368080367 0 0.0074504609246366336 -0.1982143264547328 0 0.01304721642888703 -0.18889685437859199 0 0.01415676907161083 -0.19425090616996191 0 0.0080627702558309297 -0.1896718368080367 0 0.0080627702558309297 -0.1896718368080367 0 0.0074504609246366336 -0.1982143264547328 0 0.00072783491096226538 -0.19632658387055249 0 -0.005179268052130895 -0.19117181568058519 0 0.0080627702558309297 -0.1896718368080367 0 0.00072783491096226538 -0.19632658387055249 0 0.0074504609246366336 -0.1982143264547328 0 0.00072783491096226538 -0.19632658387055249 0 0.0007592833362599264 -0.20298356516784949 0 0.0074504609246366336 -0.1982143264547328 0 0.0007592833362599264 -0.20298356516784949 0 0.0072137052187065849 -0.2058798592907011 0 0.0074504609246366336 -0.1982143264547328 0 0.013807578543613719 -0.20312291129840171 0 0.0072137052187065849 -0.2058798592907011 0 0.01415676907161083 -0.19425090616996191 0 0.0074504609246366336 -0.1982143264547328 0 0.013807578543613719 -0.20312291129840171 0 0.013807578543613719 -0.20312291129840171 0 0.0072137052187065849 -0.2058798592907011 0 0.01181215784613274 -0.2134166455842906 0 0.0072137052187065849 -0.2058798592907011 0 0.0022390454428899008 -0.21166184794823081 0 0.01181215784613274 -0.2134166455842906 0 0.0007592833362599264 -0.20298356516784949 0 0.0072137052187065849 -0.2058798592907011 0 0.0022390454428899008 -0.21166184794823081 0 -0.001152381567331534 -0.2211555327351723 0 0.0022390454428899008 -0.21166184794823081 0 0.01181215784613274 -0.2134166455842906 0 0.021079837251591672 -0.21912034275295331 0 0.01181215784613274 -0.2134166455842906 0 0.022022599693385748 -0.20865565532934349 0 0.021079837251591672 -0.21912034275295331 0 0.022022599693385748 -0.20865565532934349 0 0.032498714562608853 -0.21484905987577799 0 0.03054139360205288 -0.203169791404021 0 0.022022599693385748 -0.20865565532934349 0 0.032498714562608853 -0.21484905987577799 0 0.03054139360205288 -0.203169791404021 0 0.022022599693385748 -0.20865565532934349 0 0.02217768771600951 -0.19802048033671371 0 0.013807578543613719 -0.20312291129840171 0 0.01181215784613274 -0.2134166455842906 0 0.022022599693385748 -0.20865565532934349 0 0.013807578543613719 -0.20312291129840171 0 0.022022599693385748 -0.20865565532934349 0 0.02217768771600951 -0.19802048033671371 0 0.01415676907161083 -0.19425090616996191 0 0.013807578543613719 -0.20312291129840171 0 0.02217768771600951 -0.19802048033671371 0 0.03054139360205288 -0.203169791404021 0 0.02217768771600951 -0.19802048033671371 0 0.032163717593901089 -0.19079470063002191 0 0.02217768771600951 -0.19802048033671371 0 0.0199990905262762 -0.18789182069463381 0 0.032163717593901089 -0.19079470063002191 0 0.01415676907161083 -0.19425090616996191 0 0.02217768771600951 -0.19802048033671371 0 0.0199990905262762 -0.18789182069463381 0 0.01304721642888703 -0.18889685437859199 0 0.01415676907161083 -0.19425090616996191 0 0.0199990905262762 -0.18789182069463381 0 0.032163717593901089 -0.19079470063002191 0 0.042044357571319448 -0.20239099767753399 0 0.047338482773862427 -0.1807384996403901 0 0.03054139360205288 -0.203169791404021 0 0.032163717593901089 -0.19079470063002191 0 0.042044357571319448 -0.20239099767753399 0 0.042044357571319448 -0.20239099767753399 0 0.032498714562608853 -0.21484905987577799 0 0.051019318030158842 -0.22657509635667111 0 0.03054139360205288 -0.203169791404021 0 0.042044357571319448 -0.20239099767753399 0 0.032498714562608853 -0.21484905987577799 0 0.042044357571319448 -0.20239099767753399 0 0.058329541600116053 -0.1979817416644232 0 0.051019318030158842 -0.22657509635667111 0 0.058329541600116053 -0.1979817416644232 0 0.051019318030158842 -0.22657509635667111 0 0.072728270260697003 -0.2138393216769974 0 0.058329541600116053 -0.1979817416644232 0 0.051019318030158842 -0.22657509635667111 0 0.042044357571319448 -0.20239099767753399 0 0.058329541600116053 -0.1979817416644232 0 0.047338482773862427 -0.1807384996403901 0 0.043709094460201617 -0.25516845104891889 0 0.030697487116818741 -0.24591029912952539 0 0.051019318030158842 -0.22657509635667111 0 0.02712664567502002 -0.2296502871915167 0 0.030697487116818741 -0.24591029912952539 0 0.051019318030158842 -0.22657509635667111 0 0.02712664567502002 -0.2296502871915167 0 0.032498714562608853 -0.21484905987577799 0 0.051019318030158842 -0.22657509635667111 0 0.043709094460201617 -0.25516845104891889 0 0.051019318030158842 -0.22657509635667111 0 0.043709094460201617 -0.25516845104891889 0 0.051019318030158842 -0.22657509635667111 0 0.058355879264822282 -0.2484073521394522 0 0.076708961681927229 -0.25570252649154879 0 0.058355879264822282 -0.2484073521394522 0 0.080822697349795497 -0.23167857651984039 0 0.051019318030158842 -0.22657509635667111 0 0.058355879264822282 -0.2484073521394522 0 0.080822697349795497 -0.23167857651984039 0 0.058355879264822282 -0.2484073521394522 0 0.080822697349795497 -0.23167857651984039 0 0.076708961681927229 -0.25570252649154879 0 0.080822697349795497 -0.23167857651984039 0 0.10497616821734269 -0.24483397350269109 0 0.080822697349795497 -0.23167857651984039 0 0.072728270260697003 -0.2138393216769974 0 0.10328951543476859 -0.21494980090022869 0 0.080822697349795497 -0.23167857651984039 0 0.10328951543476859 -0.21494980090022869 0 0.051019318030158842 -0.22657509635667111 0 0.080822697349795497 -0.23167857651984039 0 0.072728270260697003 -0.2138393216769974 0 0.058329541600116053 -0.1979817416644232 0 0.079210060227266496 -0.19421041843280179 0 0.07395710894138606 -0.1745288591497646 0 0.058329541600116053 -0.1979817416644232 0 0.072728270260697003 -0.2138393216769974 0 0.079210060227266496 -0.19421041843280179 0 0.072728270260697003 -0.2138393216769974 0 0.079210060227266496 -0.19421041843280179 0 0.10328951543476859 -0.21494980090022869 0 0.079210060227266496 -0.19421041843280179 0 0.10328951543476859 -0.21494980090022869 0 0.1004596083446913 -0.19193172504181691 0 0.1004596083446913 -0.19193172504181691 0 0.11573907996837469 -0.17780838033877949 0 0.12575633351974169 -0.19822102528061711 0 0.10328951543476859 -0.21494980090022869 0 0.1004596083446913 -0.19193172504181691 0 0.12575633351974169 -0.19822102528061711 0 0.10328951543476859 -0.21494980090022869 0 0.1209741658996374 -0.22659904895176869 0 0.12575633351974169 -0.19822102528061711 0 0.10328951543476859 -0.21494980090022869 0 0.12575633351974169 -0.19822102528061711 0 0.10328951543476859 -0.21494980090022869 0 0.1209741658996374 -0.22659904895176869 0 0.10497616821734269 -0.24483397350269109 0 0.1209741658996374 -0.22659904895176869 0 0.10497616821734269 -0.24483397350269109 0 0.13522572268806199 -0.24734031978412491 0 0.080822697349795497 -0.23167857651984039 0 0.10328951543476859 -0.21494980090022869 0 0.10497616821734269 -0.24483397350269109 0 0.09839595757595461 -0.14724486066140929 0 0.11234753334362579 -0.14344915486113491 0 0.092528875637236455 -0.1333070069729469 0 0.09839595757595461 -0.14724486066140929 0 0.10542588193674469 -0.16191860289034471 0 0.088856726731945349 -0.1589789771948906 0 0.09839595757595461 -0.14724486066140929 0 0.11234753334362579 -0.14344915486113491 0 0.10542588193674469 -0.16191860289034471 0 0.092528875637236455 -0.1333070069729469 0 0.1134652821876056 -0.12050915214118189 0 0.11234753334362579 -0.14344915486113491 0 0.092528875637236455 -0.1333070069729469 0 0.1134652821876056 -0.12050915214118189 0 0.11234753334362579 -0.14344915486113491 0 0.1134652821876056 -0.12050915214118189 0 0.12909723277991181 -0.13577185870777539 0 0.11234753334362579 -0.14344915486113491 0 0.12915287184905519 -0.15912448827296621 0 0.12909723277991181 -0.13577185870777539 0 0.11234753334362579 -0.14344915486113491 0 0.10542588193674469 -0.16191860289034471 0 0.12915287184905519 -0.15912448827296621 0 0.11573907996837469 -0.17780838033877949 0 0.10542588193674469 -0.16191860289034471 0 0.12915287184905519 -0.15912448827296621 0 0.1004596083446913 -0.19193172504181691 0 0.11573907996837469 -0.17780838033877949 0 0.090195628883551204 -0.17500396805814281 0 0.11573907996837469 -0.17780838033877949 0 0.10542588193674469 -0.16191860289034471 0 0.090195628883551204 -0.17500396805814281 0 0.10542588193674469 -0.16191860289034471 0 0.088856726731945349 -0.1589789771948906 0 0.090195628883551204 -0.17500396805814281 0 0.088856726731945349 -0.1589789771948906 0 0.090195628883551204 -0.17500396805814281 0 0.077960915013918983 -0.16475146886959691 0 0.090195628883551204 -0.17500396805814281 0 0.07395710894138606 -0.1745288591497646 0 0.077960915013918983 -0.16475146886959691 0 0.088856726731945349 -0.1589789771948906 0 0.077960915013918983 -0.16475146886959691 0 0.071592469086867852 -0.14610486180471269 0 0.079210060227266496 -0.19421041843280179 0 0.1004596083446913 -0.19193172504181691 0 0.090195628883551204 -0.17500396805814281 0 0.079210060227266496 -0.19421041843280179 0 0.090195628883551204 -0.17500396805814281 0 0.07395710894138606 -0.1745288591497646 0 0.058329541600116053 -0.1979817416644232 0 0.07395710894138606 -0.1745288591497646 0 0.065639765170070918 -0.16938838697217479 0 0.07395710894138606 -0.1745288591497646 0 0.065639765170070918 -0.16938838697217479 0 0.077960915013918983 -0.16475146886959691 0 0.065639765170070918 -0.16938838697217479 0 0.071592469086867852 -0.14610486180471269 0 0.065639765170070918 -0.16938838697217479 0 0.071592469086867852 -0.14610486180471269 0 0.07395710894138606 -0.1745288591497646 0 0.077960915013918983 -0.16475146886959691 0 0.065639765170070918 -0.16938838697217479 0 0.09839595757595461 -0.14724486066140929 0 0.088856726731945349 -0.1589789771948906 0 0.071592469086867852 -0.14610486180471269 0 0.09839595757595461 -0.14724486066140929 0 0.071592469086867852 -0.14610486180471269 0 0.092528875637236455 -0.1333070069729469 0 0.071592469086867852 -0.14610486180471269 0 0.092528875637236455 -0.1333070069729469 0 0.071592469086867852 -0.14610486180471269 0 0.092528875637236455 -0.1333070069729469 0 0.077147311171059774 -0.1243775413674231 0 0.071592469086867852 -0.14610486180471269 0 0.060142396793733913 -0.12434506737133839 0 0.077147311171059774 -0.1243775413674231 0 0.071592469086867852 -0.14610486180471269 0 0.077147311171059774 -0.1243775413674231 0 0.071592469086867852 -0.14610486180471269 0 0.048861615396506998 -0.1391395297673019 0 0.060142396793733913 -0.12434506737133839 0 0.048861615396506998 -0.1391395297673019 0 0.060142396793733913 -0.12434506737133839 0 0.032750867330657497 -0.1205680091610495 0 0.071592469086867852 -0.14610486180471269 0 0.048861615396506998 -0.1391395297673019 0 0.049659487541698043 -0.15951189577530001 0 0.071592469086867852 -0.14610486180471269 0 0.049659487541698043 -0.15951189577530001 0 0.048861615396506998 -0.1391395297673019 0 0.049659487541698043 -0.15951189577530001 0 0.030188574171056359 -0.1474780432370377 0 0.049659487541698043 -0.15951189577530001 0 0.030188574171056359 -0.1474780432370377 0 0.048861615396506998 -0.1391395297673019 0 0.030188574171056359 -0.1474780432370377 0 0.032750867330657497 -0.1205680091610495 0 0.058329541600116053 -0.1979817416644232 0 0.065639765170070918 -0.16938838697217479 0 0.047338482773862427 -0.1807384996403901 0 0.058329541600116053 -0.1979817416644232 0 0.065639765170070918 -0.16938838697217479 0 0.065639765170070918 -0.16938838697217479 0 0.049659487541698043 -0.15951189577530001 0 0.065639765170070918 -0.16938838697217479 0 0.071592469086867852 -0.14610486180471269 0 0.049659487541698043 -0.15951189577530001 0 0.065639765170070918 -0.16938838697217479 0 0.047338482773862427 -0.1807384996403901 0 0.049659487541698043 -0.15951189577530001 0 0.047338482773862427 -0.1807384996403901 0 0.049659487541698043 -0.15951189577530001 0 0.02981486170176427 -0.1716423748085181 0 0.049659487541698043 -0.15951189577530001 0 0.02981486170176427 -0.1716423748085181 0 0.049659487541698043 -0.15951189577530001 0 0.02981486170176427 -0.1716423748085181 0 0.030188574171056359 -0.1474780432370377 0 0.032163717593901089 -0.19079470063002191 0 0.047338482773862427 -0.1807384996403901 0 0.02981486170176427 -0.1716423748085181 0 0.02981486170176427 -0.1716423748085181 0 0.0099702358618301568 -0.18377285384173561 0 0.0199990905262762 -0.18789182069463381 0 0.032163717593901089 -0.19079470063002191 0 0.02981486170176427 -0.1716423748085181 0 0.0199990905262762 -0.18789182069463381 0 0.02981486170176427 -0.1716423748085181 0 0.0099702358618301568 -0.18377285384173561 0 0.02981486170176427 -0.1716423748085181 0 0.011670630037622949 -0.17158822671938009 0 0.0099702358618301568 -0.18377285384173561 0 0.02981486170176427 -0.1716423748085181 0 0.01157583369424631 -0.15694584444109319 0 0.030188574171056359 -0.1474780432370377 0 0.02981486170176427 -0.1716423748085181 0 0.01157583369424631 -0.15694584444109319 0 0.011670630037622949 -0.17158822671938009 0 -0.0035093935166591859 -0.15804738012971131 0 0.01157583369424631 -0.15694584444109319 0 0.0032866020401578198 -0.16633692148475179 0 0.01157583369424631 -0.15694584444109319 0 0.0032866020401578198 -0.16633692148475179 0 0.011670630037622949 -0.17158822671938009 0 0.011670630037622949 -0.17158822671938009 0 0.004778789874819174 -0.17796499626111559 0 0.0099702358618301568 -0.18377285384173561 0 0.0032866020401578198 -0.16633692148475179 0 0.011670630037622949 -0.17158822671938009 0 0.004778789874819174 -0.17796499626111559 0 -0.0025172076975426079 -0.17922158069245639 0 0.0080627702558309297 -0.1896718368080367 0 0.004778789874819174 -0.17796499626111559 0 0.0080627702558309297 -0.1896718368080367 0 0.004778789874819174 -0.17796499626111559 0 0.0099702358618301568 -0.18377285384173561 0 0.01304721642888703 -0.18889685437859199 0 0.0080627702558309297 -0.1896718368080367 0 0.0099702358618301568 -0.18377285384173561 0 0.01304721642888703 -0.18889685437859199 0 0.0199990905262762 -0.18789182069463381 0 0.0099702358618301568 -0.18377285384173561 0 0.030188574171056359 -0.1474780432370377 0 0.01071766080041377 -0.13544419069877681 0 0.032750867330657497 -0.1205680091610495 0 0.01071766080041377 -0.13544419069877681 0 0.032750867330657497 -0.1205680091610495 0 0.030188574171056359 -0.1474780432370377 0 0.01071766080041377 -0.13544419069877681 0 0.01157583369424631 -0.15694584444109319 0 0.030188574171056359 -0.1474780432370377 0 0.01071766080041377 -0.13544419069877681 0 -0.0054802260051036583 -0.14638053372790891 0 0.01157583369424631 -0.15694584444109319 0 0.01071766080041377 -0.13544419069877681 0 -0.0054802260051036583 -0.14638053372790891 0 -0.0035093935166591859 -0.15804738012971131 0 0.01157583369424631 -0.15694584444109319 0 -0.0054802260051036583 -0.14638053372790891 0 0.01071766080041377 -0.13544419069877681 0 -0.01193884114401514 -0.121441508942554 0 0.01071766080041377 -0.13544419069877681 0 0.01205822537398484 -0.11017830551008739 0 0.01205822537398484 -0.11017830551008739 0 0.032750867330657497 -0.1205680091610495 0 0.031655197008732983 -0.098057948847687773 0 0.01071766080041377 -0.13544419069877681 0 0.01205822537398484 -0.11017830551008739 0 0.032750867330657497 -0.1205680091610495 0 0.01205822537398484 -0.11017830551008739 0 0.01395950564678301 -0.084777910245193114 0 0.031655197008732983 -0.098057948847687773 0 -0.0021152679886422242 -0.095125247924784342 0 0.01205822537398484 -0.11017830551008739 0 0.01395950564678301 -0.084777910245193114 0 -0.0021152679886422242 -0.095125247924784342 0 0.01395950564678301 -0.084777910245193114 0 0.0016561558194555801 -0.070702517229202691 0 0.01395950564678301 -0.084777910245193114 0 0.0016561558194555801 -0.070702517229202691 0 0.016322831871273279 -0.067569653900895421 0 0.0016561558194555801 -0.070702517229202691 0 0.016322831871273279 -0.067569653900895421 0 0.0070985228527581648 -0.053506951691642553 0 0.016322831871273279 -0.067569653900895421 0 0.033045444443623638 -0.074678563485307062 0 0.026978662965915789 -0.055547894528914683 0 0.01395950564678301 -0.084777910245193114 0 0.016322831871273279 -0.067569653900895421 0 0.033045444443623638 -0.074678563485307062 0 0.01395950564678301 -0.084777910245193114 0 0.033045444443623638 -0.074678563485307062 0 0.031655197008732983 -0.098057948847687773 0 0.046335540091691753 -0.089010943483618765 0 0.033045444443623638 -0.074678563485307062 0 0.052115047286965623 -0.071578341491907241 0 0.046335540091691753 -0.089010943483618765 0 0.033045444443623638 -0.074678563485307062 0 0.031655197008732983 -0.098057948847687773 0 0.033045444443623638 -0.074678563485307062 0 0.052115047286965623 -0.071578341491907241 0 0.044149064910490879 -0.056786415913156273 0 0.052115047286965623 -0.071578341491907241 0 0.059505679602321428 -0.057225424253664697 0 0.069648429231550582 -0.067477253578413679 0 0.052115047286965623 -0.071578341491907241 0 0.062321398760456601 -0.082498120446816744 0 0.069648429231550582 -0.067477253578413679 0 0.046335540091691753 -0.089010943483618765 0 0.062321398760456601 -0.082498120446816744 0 0.054784073860900923 -0.1056918276233218 0 0.046335540091691753 -0.089010943483618765 0 0.052115047286965623 -0.071578341491907241 0 0.062321398760456601 -0.082498120446816744 0 0.054784073860900923 -0.1056918276233218 0 0.060142396793733913 -0.12434506737133839 0 0.032750867330657497 -0.1205680091610495 0 0.054784073860900923 -0.1056918276233218 0 0.032750867330657497 -0.1205680091610495 0 0.054784073860900923 -0.1056918276233218 0 0.032750867330657497 -0.1205680091610495 0 0.031655197008732983 -0.098057948847687773 0 0.046335540091691753 -0.089010943483618765 0 0.054784073860900923 -0.1056918276233218 0 0.031655197008732983 -0.098057948847687773 0 0.024379544835876399 0.0059501558049816902 0 0.024857301198518211 -0.0061207281226497651 0 0.041242187119049582 -0.0028268805465379541 0 0.024857301198518211 -0.0061207281226497651 0 0.016907843412983601 -0.014803623361556139 0 0.031432422835112363 -0.017276677503881229 0 0.024379544835876399 0.0059501558049816902 0 0.024857301198518211 -0.0061207281226497651 0 0.011487415012152041 -0.00090451840804060585 0 0.024857301198518211 -0.0061207281226497651 0 0.016907843412983601 -0.014803623361556139 0 0.011487415012152041 -0.00090451840804060585 0 -0.0078299177893015933 0.0113329491608615 0 0.011487415012152041 -0.00090451840804060585 0 0.001149502097097669 -0.011866962428013821 0 0.016907843412983601 -0.014803623361556139 0 0.011487415012152041 -0.00090451840804060585 0 0.001149502097097669 -0.011866962428013821 0 0.016907843412983601 -0.014803623361556139 0 0.001149502097097669 -0.011866962428013821 0 0.010124553466616259 -0.025947696056777089 0 -0.0027135244406232498 -0.02502109825273589 0 0.001149502097097669 -0.011866962428013821 0 0.010124553466616259 -0.025947696056777089 0 -0.0027135244406232498 -0.02502109825273589 0 0.010124553466616259 -0.025947696056777089 0 0.0038410275856185232 -0.037567189316250527 0 0.010124553466616259 -0.025947696056777089 0 0.022481444936337219 -0.02663324724758491 0 0.020540116084899161 -0.03856801213794267 0 0.016907843412983601 -0.014803623361556139 0 0.010124553466616259 -0.025947696056777089 0 0.022481444936337219 -0.02663324724758491 0 0.016907843412983601 -0.014803623361556139 0 0.022481444936337219 -0.02663324724758491 0 0.031432422835112363 -0.017276677503881229 0 0.022481444936337219 -0.02663324724758491 0 0.034496853643310801 -0.029168039064880399 0 0.031432422835112363 -0.017276677503881229 0 0.020540116084899161 -0.03856801213794267 0 0.037509132339683657 -0.041072718523312797 0 0.034496853643310801 -0.029168039064880399 0 0.020540116084899161 -0.03856801213794267 0 0.026978662965915789 -0.055547894528914683 0 0.037509132339683657 -0.041072718523312797 0 0.022481444936337219 -0.02663324724758491 0 0.020540116084899161 -0.03856801213794267 0 0.034496853643310801 -0.029168039064880399 0 -0.0034884269796278751 -0.044449411372668432 0 0.0038410275856185232 -0.037567189316250527 0 0.0070985228527581648 -0.053506951691642553 0 0.020540116084899161 -0.03856801213794267 0 0.0038410275856185232 -0.037567189316250527 0 0.0070985228527581648 -0.053506951691642553 0 0.010124553466616259 -0.025947696056777089 0 0.020540116084899161 -0.03856801213794267 0 0.0038410275856185232 -0.037567189316250527 0 0.020540116084899161 -0.03856801213794267 0 0.0070985228527581648 -0.053506951691642553 0 0.026978662965915789 -0.055547894528914683 0 0.016322831871273279 -0.067569653900895421 0 0.0070985228527581648 -0.053506951691642553 0 0.026978662965915789 -0.055547894528914683 0 0.026978662965915789 -0.055547894528914683 0 0.044149064910490879 -0.056786415913156273 0 0.037509132339683657 -0.041072718523312797 0 0.033045444443623638 -0.074678563485307062 0 0.026978662965915789 -0.055547894528914683 0 0.044149064910490879 -0.056786415913156273 0 0.052115047286965623 -0.071578341491907241 0 0.044149064910490879 -0.056786415913156273 0 0.059505679602321428 -0.057225424253664697 0 0.059505679602321428 -0.057225424253664697 0 0.05530052147960926 -0.039284851669621652 0 0.067995476956480422 -0.048529645231239538 0 0.044149064910490879 -0.056786415913156273 0 0.059505679602321428 -0.057225424253664697 0 0.05530052147960926 -0.039284851669621652 0 0.05530052147960926 -0.039284851669621652 0 0.037509132339683657 -0.041072718523312797 0 0.05530052147960926 -0.039284851669621652 0 0.037509132339683657 -0.041072718523312797 0 0.034496853643310801 -0.029168039064880399 0 0.044149064910490879 -0.056786415913156273 0 0.05530052147960926 -0.039284851669621652 0 0.037509132339683657 -0.041072718523312797 0 0.05530052147960926 -0.039284851669621652 0 0.034496853643310801 -0.029168039064880399 0 0.045581378017070927 -0.01957262231235327 0 0.034496853643310801 -0.029168039064880399 0 0.031432422835112363 -0.017276677503881229 0 0.045581378017070927 -0.01957262231235327 0 0.045581378017070927 -0.01957262231235327 0 0.060023933085623912 -0.026842203484993811 0 0.066121922226280383 -0.011014355142073939 0 0.05530052147960926 -0.039284851669621652 0 0.045581378017070927 -0.01957262231235327 0 0.060023933085623912 -0.026842203484993811 0 0.045581378017070927 -0.01957262231235327 0 0.041242187119049582 -0.0028268805465379541 0 0.066121922226280383 -0.011014355142073939 0 0.024857301198518211 -0.0061207281226497651 0 0.031432422835112363 -0.017276677503881229 0 0.041242187119049582 -0.0028268805465379541 0 0.031432422835112363 -0.017276677503881229 0 0.045581378017070927 -0.01957262231235327 0 0.041242187119049582 -0.0028268805465379541 0 0.090311016037907227 0.0091617695474997124 0 0.087923092569810235 -0.01354239255918047 0 0.074430949642245739 0.0081337784437301233 0 0.087923092569810235 -0.01354239255918047 0 0.066121922226280383 -0.011014355142073939 0 0.087923092569810235 -0.01354239255918047 0 0.066121922226280383 -0.011014355142073939 0 0.078017863808090213 -0.023978261031122061 0 0.066121922226280383 -0.011014355142073939 0 0.078017863808090213 -0.023978261031122061 0 0.073091910619534461 -0.03749698481592656 0 0.066121922226280383 -0.011014355142073939 0 0.073091910619534461 -0.03749698481592656 0 0.060023933085623912 -0.026842203484993811 0 0.066121922226280383 -0.011014355142073939 0 0.073091910619534461 -0.03749698481592656 0 0.087923092569810235 -0.01354239255918047 0 0.078017863808090213 -0.023978261031122061 0 0.085535169101712022 -0.036246554665860457 0 0.087923092569810235 -0.01354239255918047 0 0.085535169101712022 -0.036246554665860457 0 0.087923092569810235 -0.01354239255918047 0 0.085535169101712022 -0.036246554665860457 0 0.098628257361146027 -0.02157449723093394 0 0.083890274942040252 -0.051414560485570873 0 0.098381520339875586 -0.034955617494573148 0 0.085535169101712022 -0.036246554665860457 0 0.083890274942040252 -0.051414560485570873 0 0.098381520339875586 -0.034955617494573148 0 0.083890274942040252 -0.051414560485570873 0 0.095130065897588906 -0.051141693583545041 0 0.098381520339875586 -0.034955617494573148 0 0.085535169101712022 -0.036246554665860457 0 0.098381520339875586 -0.034955617494573148 0 0.080065960840809802 -0.04466371209925641 0 0.085535169101712022 -0.036246554665860457 0 0.083890274942040252 -0.051414560485570873 0 0.080065960840809802 -0.04466371209925641 0 0.085535169101712022 -0.036246554665860457 0 0.073091910619534461 -0.03749698481592656 0 0.085535169101712022 -0.036246554665860457 0 0.083890274942040252 -0.051414560485570873 0 0.085535169101712022 -0.036246554665860457 0 0.073091910619534461 -0.03749698481592656 0 0.078017863808090213 -0.023978261031122061 0 0.085535169101712022 -0.036246554665860457 0 0.073091910619534461 -0.03749698481592656 0 0.05530052147960926 -0.039284851669621652 0 0.073091910619534461 -0.03749698481592656 0 0.05530052147960926 -0.039284851669621652 0 0.073091910619534461 -0.03749698481592656 0 0.067995476956480422 -0.048529645231239538 0 0.080065960840809802 -0.04466371209925641 0 0.073091910619534461 -0.03749698481592656 0 0.077862773575884045 -0.055623987297015613 0 0.05530052147960926 -0.039284851669621652 0 0.060023933085623912 -0.026842203484993811 0 0.073091910619534461 -0.03749698481592656 0 0.073091910619534461 -0.03749698481592656 0 0.077862773575884045 -0.055623987297015613 0 0.067995476956480422 -0.048529645231239538 0 0.068791706845881498 -0.057656740021707793 0 0.077862773575884045 -0.055623987297015613 0 0.073091910619534461 -0.03749698481592656 0 0.067995476956480422 -0.048529645231239538 0 0.077862773575884045 -0.055623987297015613 0 0.059505679602321428 -0.057225424253664697 0 0.067995476956480422 -0.048529645231239538 0 0.068791706845881498 -0.057656740021707793 0 0.059505679602321428 -0.057225424253664697 0 0.068791706845881498 -0.057656740021707793 0 0.069648429231550582 -0.067477253578413679 0 0.068791706845881498 -0.057656740021707793 0 0.077862773575884045 -0.055623987297015613 0 0.069648429231550582 -0.067477253578413679 0 0.077862773575884045 -0.055623987297015613 0 0.083995182841132193 -0.056162630062766998 0 0.086113196907356512 -0.062017640470030118 0 0.083995182841132193 -0.056162630062766998 0 0.086113196907356512 -0.062017640470030118 0 0.087499648127566748 -0.055178065604206628 0 0.080065960840809802 -0.04466371209925641 0 0.077862773575884045 -0.055623987297015613 0 0.083890274942040252 -0.051414560485570873 0 0.077862773575884045 -0.055623987297015613 0 0.083995182841132193 -0.056162630062766998 0 0.083890274942040252 -0.051414560485570873 0 0.083995182841132193 -0.056162630062766998 0 0.083890274942040252 -0.051414560485570873 0 0.087499648127566748 -0.055178065604206628 0 0.083890274942040252 -0.051414560485570873 0 0.087499648127566748 -0.055178065604206628 0 0.095130065897588906 -0.051141693583545041 0 0.091662224790560909 -0.058374683014716003 0 0.087499648127566748 -0.055178065604206628 0 0.095130065897588906 -0.051141693583545041 0 0.091662224790560909 -0.058374683014716003 0 0.096919691805629274 -0.060397117951783021 0 0.092648521214663035 -0.063138897464015228 0 0.091662224790560909 -0.058374683014716003 0 0.086113196907356512 -0.062017640470030118 0 0.092648521214663035 -0.063138897464015228 0 0.091662224790560909 -0.058374683014716003 0 0.086113196907356512 -0.062017640470030118 0 0.087499648127566748 -0.055178065604206628 0 0.096919691805629274 -0.060397117951783021 0 0.095130065897588906 -0.051141693583545041 0 0.1028783939343476 -0.053717386598005103 0 0.096919691805629274 -0.060397117951783021 0 0.10607446951075181 -0.059272551674990077 0 0.1013917853098598 -0.066864630423764004 0 0.091662224790560909 -0.058374683014716003 0 0.096919691805629274 -0.060397117951783021 0 0.095130065897588906 -0.051141693583545041 0 0.095130065897588906 -0.051141693583545041 0 0.1028783939343476 -0.053717386598005103 0 0.1084835408047452 -0.04576149612262146 0 0.1028783939343476 -0.053717386598005103 0 0.1104024721603806 -0.054147051156737541 0 0.1084835408047452 -0.04576149612262146 0 0.1028783939343476 -0.053717386598005103 0 0.10607446951075181 -0.059272551674990077 0 0.1104024721603806 -0.054147051156737541 0 0.096919691805629274 -0.060397117951783021 0 0.1028783939343476 -0.053717386598005103 0 0.10607446951075181 -0.059272551674990077 0 0.12088369345163311 -0.061063283010140509 0 0.1104024721603806 -0.054147051156737541 0 0.10607446951075181 -0.059272551674990077 0 0.12088369345163311 -0.061063283010140509 0 0.1104024721603806 -0.054147051156737541 0 0.10607446951075181 -0.059272551674990077 0 0.12088369345163311 -0.061063283010140509 0 0.1013917853098598 -0.066864630423764004 0 0.1201536240352835 -0.048221520910736497 0 0.1104024721603806 -0.054147051156737541 0 0.1084835408047452 -0.04576149612262146 0 0.12088369345163311 -0.061063283010140509 0 0.1201536240352835 -0.048221520910736497 0 0.1104024721603806 -0.054147051156737541 0 0.1239551684609945 -0.032385706992130767 0 0.098381520339875586 -0.034955617494573148 0 0.1201536240352835 -0.048221520910736497 0 0.1239551684609945 -0.032385706992130767 0 0.1084835408047452 -0.04576149612262146 0 0.1239551684609945 -0.032385706992130767 0 0.1084835408047452 -0.04576149612262146 0 0.098381520339875586 -0.034955617494573148 0 0.095130065897588906 -0.051141693583545041 0 0.1084835408047452 -0.04576149612262146 0 0.098381520339875586 -0.034955617494573148 0 0.085535169101712022 -0.036246554665860457 0 0.098381520339875586 -0.034955617494573148 0 0.098628257361146027 -0.02157449723093394 0 0.098381520339875586 -0.034955617494573148 0 0.11187039471236809 -0.01963515274399303 0 0.098381520339875586 -0.034955617494573148 0 0.098628257361146027 -0.02157449723093394 0 0.11187039471236809 -0.01963515274399303 0 0.1239551684609945 -0.032385706992130767 0 0.098381520339875586 -0.034955617494573148 0 0.11187039471236809 -0.01963515274399303 0 0.1239551684609945 -0.032385706992130767 0 0.11187039471236809 -0.01963515274399303 0 0.12913625529121231 -0.019607476147758131 0 0.11187039471236809 -0.01963515274399303 0 0.1054706582405712 -0.001623709214258733 0 0.12535926908485989 -0.0043146879934122416 0 0.11187039471236809 -0.01963515274399303 0 0.12535926908485989 -0.0043146879934122416 0 0.12913625529121231 -0.019607476147758131 0 0.11187039471236809 -0.01963515274399303 0 0.12535926908485989 -0.0043146879934122416 0 0.090311016037907227 0.0091617695474997124 0 0.087923092569810235 -0.01354239255918047 0 0.1054706582405712 -0.001623709214258733 0 0.087923092569810235 -0.01354239255918047 0 0.098628257361146027 -0.02157449723093394 0 0.1054706582405712 -0.001623709214258733 0 0.098628257361146027 -0.02157449723093394 0 0.11187039471236809 -0.01963515274399303 0 0.1054706582405712 -0.001623709214258733 0 0.093304962387331269 -0.10194415145080341 0 0.075718043916410974 -0.1101886345042223 0 0.076817280391144452 -0.090815646085593935 0 0.093304962387331269 -0.10194415145080341 0 0.076817280391144452 -0.090815646085593935 0 0.096851760274284604 -0.091423848834689861 0 0.092137956835774151 -0.1162678016397817 0 0.077147311171059774 -0.1243775413674231 0 0.075718043916410974 -0.1101886345042223 0 0.093304962387331269 -0.10194415145080341 0 0.092137956835774151 -0.1162678016397817 0 0.075718043916410974 -0.1101886345042223 0 0.092528875637236455 -0.1333070069729469 0 0.092137956835774151 -0.1162678016397817 0 0.077147311171059774 -0.1243775413674231 0 0.054784073860900923 -0.1056918276233218 0 0.060142396793733913 -0.12434506737133839 0 0.075718043916410974 -0.1101886345042223 0 0.060142396793733913 -0.12434506737133839 0 0.077147311171059774 -0.1243775413674231 0 0.075718043916410974 -0.1101886345042223 0 0.054784073860900923 -0.1056918276233218 0 0.076817280391144452 -0.090815646085593935 0 0.054784073860900923 -0.1056918276233218 0 0.075718043916410974 -0.1101886345042223 0 0.076817280391144452 -0.090815646085593935 0 0.062321398760456601 -0.082498120446816744 0 0.054784073860900923 -0.1056918276233218 0 0.076817280391144452 -0.090815646085593935 0 0.062321398760456601 -0.082498120446816744 0 0.076817280391144452 -0.090815646085593935 0 0.082633636532233018 -0.073750989778104847 0 0.077862773575884045 -0.055623987297015613 0 0.069648429231550582 -0.067477253578413679 0 0.082633636532233018 -0.073750989778104847 0 0.062321398760456601 -0.082498120446816744 0 0.069648429231550582 -0.067477253578413679 0 0.082633636532233018 -0.073750989778104847 0 0.077862773575884045 -0.055623987297015613 0 0.082633636532233018 -0.073750989778104847 0 0.077862773575884045 -0.055623987297015613 0 0.086113196907356512 -0.062017640470030118 0 0.082633636532233018 -0.073750989778104847 0 0.082633636532233018 -0.073750989778104847 0 0.092269714259490238 -0.069172631348410715 0 0.098850486921387981 -0.075939464547866126 0 0.086113196907356512 -0.062017640470030118 0 0.082633636532233018 -0.073750989778104847 0 0.092269714259490238 -0.069172631348410715 0 0.092269714259490238 -0.069172631348410715 0 0.092648521214663035 -0.063138897464015228 0 0.096009547134759204 -0.065815411579920477 0 0.086113196907356512 -0.062017640470030118 0 0.092269714259490238 -0.069172631348410715 0 0.092648521214663035 -0.063138897464015228 0 0.076817280391144452 -0.090815646085593935 0 0.098850486921387981 -0.075939464547866126 0 0.076817280391144452 -0.090815646085593935 0 0.082633636532233018 -0.073750989778104847 0 0.098850486921387981 -0.075939464547866126 0 0.076817280391144452 -0.090815646085593935 0 0.096851760274284604 -0.091423848834689861 0 0.095664945821743411 -0.080910612039901297 0 0.076817280391144452 -0.090815646085593935 0 0.095664945821743411 -0.080910612039901297 0 0.098850486921387981 -0.075939464547866126 0 0.095664945821743411 -0.080910612039901297 0 0.1074433142243713 -0.085571688281443681 0 0.1136021511018428 -0.074502617757041312 0 0.096851760274284604 -0.091423848834689861 0 0.095664945821743411 -0.080910612039901297 0 0.1074433142243713 -0.085571688281443681 0 0.096851760274284604 -0.091423848834689861 0 0.1074433142243713 -0.085571688281443681 0 0.11102829854683249 -0.097877146315706987 0 0.12088369345163311 -0.061063283010140509 0 0.1013917853098598 -0.066864630423764004 0 0.098850486921387981 -0.075939464547866126 0 0.095664945821743411 -0.080910612039901297 0 0.098850486921387981 -0.075939464547866126 0 0.1136021511018428 -0.074502617757041312 0 0.095664945821743411 -0.080910612039901297 0 0.1136021511018428 -0.074502617757041312 0 0.096919691805629274 -0.060397117951783021 0 0.096009547134759204 -0.065815411579920477 0 0.1013917853098598 -0.066864630423764004 0 0.096919691805629274 -0.060397117951783021 0 0.092648521214663035 -0.063138897464015228 0 0.096009547134759204 -0.065815411579920477 0 0.092269714259490238 -0.069172631348410715 0 0.096009547134759204 -0.065815411579920477 0 0.097130383406374296 -0.069448034474990317 0 0.096009547134759204 -0.065815411579920477 0 0.097130383406374296 -0.069448034474990317 0 0.1013917853098598 -0.066864630423764004 0 0.097130383406374296 -0.069448034474990317 0 0.1013917853098598 -0.066864630423764004 0 0.098850486921387981 -0.075939464547866126 0 0.092269714259490238 -0.069172631348410715 0 0.097130383406374296 -0.069448034474990317 0 0.098850486921387981 -0.075939464547866126 0 0.1136021511018428 -0.074502617757041312 0 0.1268946754994083 -0.086611837831889971 0 0.1315393563819422 -0.068094623474181631 0 0.1136021511018428 -0.074502617757041312 0 0.1315393563819422 -0.068094623474181631 0 0.12088369345163311 -0.061063283010140509 0 0.098850486921387981 -0.075939464547866126 0 0.12088369345163311 -0.061063283010140509 0 0.1136021511018428 -0.074502617757041312 0 0.1315393563819422 -0.068094623474181631 0 0.12088369345163311 -0.061063283010140509 0 0.098850486921387981 -0.075939464547866126 0 0.1136021511018428 -0.074502617757041312 0 0.1074433142243713 -0.085571688281443681 0 0.11102829854683249 -0.097877146315706987 0 0.1268946754994083 -0.086611837831889971 0 0.1074433142243713 -0.085571688281443681 0 0.1136021511018428 -0.074502617757041312 0 0.1268946754994083 -0.086611837831889971 0 0.1239271236268704 -0.10472542625794561 0 0.11102829854683249 -0.097877146315706987 0 0.1134652821876056 -0.12050915214118189 0 0.1239271236268704 -0.10472542625794561 0 0.11102829854683249 -0.097877146315706987 0 0.1268946754994083 -0.086611837831889971 0 0.11102829854683249 -0.097877146315706987 0 0.10276315765761369 -0.1089608460548272 0 0.1134652821876056 -0.12050915214118189 0 0.093304962387331269 -0.10194415145080341 0 0.11102829854683249 -0.097877146315706987 0 0.10276315765761369 -0.1089608460548272 0 0.093304962387331269 -0.10194415145080341 0 0.096851760274284604 -0.091423848834689861 0 0.11102829854683249 -0.097877146315706987 0 0.093304962387331269 -0.10194415145080341 0 0.092137956835774151 -0.1162678016397817 0 0.10276315765761369 -0.1089608460548272 0 0.092528875637236455 -0.1333070069729469 0 0.092137956835774151 -0.1162678016397817 0 0.1134652821876056 -0.12050915214118189 0 0.092137956835774151 -0.1162678016397817 0 0.10276315765761369 -0.1089608460548272 0 0.1134652821876056 -0.12050915214118189 0 0.1134652821876056 -0.12050915214118189 0 0.13079413548572411 -0.11644378017299579 0 0.12909723277991181 -0.13577185870777539 0 0.1239271236268704 -0.10472542625794561 0 0.1134652821876056 -0.12050915214118189 0 0.13079413548572411 -0.11644378017299579 0 0.13079413548572411 -0.11644378017299579 0 0.1505909361436564 -0.11280595529808241 0 0.13745322641478139 -0.10218521482795349 0 0.13079413548572411 -0.11644378017299579 0 0.1505909361436564 -0.11280595529808241 0 0.143068161612911 -0.12650116181558549 0 0.1505909361436564 -0.11280595529808241 0 0.143068161612911 -0.12650116181558549 0 0.15534934695897271 -0.1345980682707181 0 0.1505909361436564 -0.11280595529808241 0 0.15121114551309289 -0.098225093933932042 0 0.1633775258099234 -0.105771091938427 0 0.1505909361436564 -0.11280595529808241 0 0.15121114551309289 -0.098225093933932042 0 0.13745322641478139 -0.10218521482795349 0 0.15121114551309289 -0.098225093933932042 0 0.13745322641478139 -0.10218521482795349 0 0.1406421707966535 -0.089466576337004972 0 0.1239271236268704 -0.10472542625794561 0 0.13745322641478139 -0.10218521482795349 0 0.1268946754994083 -0.086611837831889971 0 0.1239271236268704 -0.10472542625794561 0 0.13079413548572411 -0.11644378017299579 0 0.13745322641478139 -0.10218521482795349 0 0.1268946754994083 -0.086611837831889971 0 0.1454262338025861 -0.07725814185549261 0 0.1406421707966535 -0.089466576337004972 0 0.13745322641478139 -0.10218521482795349 0 0.1268946754994083 -0.086611837831889971 0 0.1406421707966535 -0.089466576337004972 0 0.1268946754994083 -0.086611837831889971 0 0.1315393563819422 -0.068094623474181631 0 0.1454262338025861 -0.07725814185549261 0 0.12088369345163311 -0.061063283010140509 0 0.1315393563819422 -0.068094623474181631 0 0.1315393563819422 -0.068094623474181631 0 0.1454262338025861 -0.07725814185549261 0 0.1454262338025861 -0.07725814185549261 0 0.15931311122323269 -0.086421660236799577 0 0.15379348766317361 -0.060144424778598188 0 0.1315393563819422 -0.068094623474181631 0 0.1454262338025861 -0.07725814185549261 0 0.15379348766317361 -0.060144424778598188 0 0.1315393563819422 -0.068094623474181631 0 0.15379348766317361 -0.060144424778598188 0 0.1454262338025861 -0.07725814185549261 0 0.1406421707966535 -0.089466576337004972 0 0.15931311122323269 -0.086421660236799577 0 0.15121114551309289 -0.098225093933932042 0 0.1406421707966535 -0.089466576337004972 0 0.15931311122323269 -0.086421660236799577 0 0.1454262338025861 -0.07725814185549261 0 0.15931311122323269 -0.086421660236799577 0 0.15931311122323269 -0.086421660236799577 0 0.1799641602849936 -0.1000486450469022 0 0.15931311122323269 -0.086421660236799577 0 0.16804590574089889 -0.068452032954697595 0 0.15379348766317361 -0.060144424778598188 0 0.15931311122323269 -0.086421660236799577 0 0.15379348766317361 -0.060144424778598188 0 0.15931311122323269 -0.086421660236799577 0 0.16804590574089889 -0.068452032954697595 0 0.18121129783695619 -0.075697332223153238 0 0.18121129783695619 -0.075697332223153238 0 0.17786572624023059 -0.051544714580239848 0 0.19831771694453129 -0.065427681783688518 0 0.16804590574089889 -0.068452032954697595 0 0.18121129783695619 -0.075697332223153238 0 0.17786572624023059 -0.051544714580239848 0 0.18121129783695619 -0.075697332223153238 0 0.1799641602849936 -0.1000486450469022 0 0.1922093958784 -0.088468185173683031 0 0.15931311122323269 -0.086421660236799577 0 0.18121129783695619 -0.075697332223153238 0 0.1799641602849936 -0.1000486450469022 0 0.1799641602849936 -0.1000486450469022 0 0.176707098369767 -0.1160408925734869 0 0.1633775258099234 -0.105771091938427 0 0.176707098369767 -0.1160408925734869 0 0.16744194039661101 -0.1251205236400551 0 0.18042555780141409 -0.1325678503795529 0 0.176707098369767 -0.1160408925734869 0 0.19427584354703431 -0.1213858466238377 0 0.18042555780141409 -0.1325678503795529 0 0.1799641602849936 -0.1000486450469022 0 0.176707098369767 -0.1160408925734869 0 0.19427584354703431 -0.1213858466238377 0 0.1505909361436564 -0.11280595529808241 0 0.15534934695897271 -0.1345980682707181 0 0.16744194039661101 -0.1251205236400551 0 0.1633775258099234 -0.105771091938427 0 0.16744194039661101 -0.1251205236400551 0 0.1505909361436564 -0.11280595529808241 0 0.1633775258099234 -0.105771091938427 0 0.16744194039661101 -0.1251205236400551 0 0.176707098369767 -0.1160408925734869 0 0.1633775258099234 -0.105771091938427 0 0.16744194039661101 -0.1251205236400551 0 0.15931311122323269 -0.086421660236799577 0 0.1799641602849936 -0.1000486450469022 0 0.1633775258099234 -0.105771091938427 0 0.15121114551309289 -0.098225093933932042 0 0.15931311122323269 -0.086421660236799577 0 0.1633775258099234 -0.105771091938427 0 0.15931311122323269 -0.086421660236799577 0 0.1633775258099234 -0.105771091938427 0 0.16223656169118791 0.0022157833461514801 0 0.13884814345735569 0.011005776757164999 0 0.14436152462297119 -0.01524174057496751 0 0.13884814345735569 0.011005776757164999 0 0.14436152462297119 -0.01524174057496751 0 0.14436152462297119 -0.01524174057496751 0 0.12535926908485989 -0.0043146879934122416 0 0.12913625529121231 -0.019607476147758131 0 0.13884814345735569 0.011005776757164999 0 0.14436152462297119 -0.01524174057496751 0 0.12535926908485989 -0.0043146879934122416 0 0.14436152462297119 -0.01524174057496751 0 0.12913625529121231 -0.019607476147758131 0 0.1374253223122455 -0.031284107301611339 0 0.1239551684609945 -0.032385706992130767 0 0.12913625529121231 -0.019607476147758131 0 0.1374253223122455 -0.031284107301611339 0 0.14436152462297119 -0.01524174057496751 0 0.14987490578858451 -0.041489257907100577 0 0.14436152462297119 -0.01524174057496751 0 0.14987490578858451 -0.041489257907100577 0 0.1374253223122455 -0.031284107301611339 0 0.14436152462297119 -0.01524174057496751 0 0.14987490578858451 -0.041489257907100577 0 0.1707957871329677 -0.02736408604974799 0 0.14987490578858451 -0.041489257907100577 0 0.1374253223122455 -0.031284107301611339 0 0.13537929962010881 -0.051276270458620578 0 0.14987490578858451 -0.041489257907100577 0 0.13537929962010881 -0.051276270458620578 0 0.1201536240352835 -0.048221520910736497 0 0.1239551684609945 -0.032385706992130767 0 0.13537929962010881 -0.051276270458620578 0 0.1239551684609945 -0.032385706992130767 0 0.1374253223122455 -0.031284107301611339 0 0.13537929962010881 -0.051276270458620578 0 0.1315393563819422 -0.068094623474181631 0 0.13537929962010881 -0.051276270458620578 0 0.15379348766317361 -0.060144424778598188 0 0.12088369345163311 -0.061063283010140509 0 0.1315393563819422 -0.068094623474181631 0 0.13537929962010881 -0.051276270458620578 0 0.12088369345163311 -0.061063283010140509 0 0.1201536240352835 -0.048221520910736497 0 0.13537929962010881 -0.051276270458620578 0 0.12088369345163311 -0.061063283010140509 0 0.13537929962010881 -0.051276270458620578 0 0.14987490578858451 -0.041489257907100577 0 0.13537929962010881 -0.051276270458620578 0 0.15379348766317361 -0.060144424778598188 0 0.14987490578858451 -0.041489257907100577 0 0.15379348766317361 -0.060144424778598188 0 0.14987490578858451 -0.041489257907100577 0 0.15379348766317361 -0.060144424778598188 0 0.17786572624023059 -0.051544714580239848 0 0.15379348766317361 -0.060144424778598188 0 0.17786572624023059 -0.051544714580239848 0 0.16804590574089889 -0.068452032954697595 0 0.15379348766317361 -0.060144424778598188 0 0.17786572624023059 -0.051544714580239848 0 0.17786572624023059 -0.051544714580239848 0 0.1707957871329677 -0.02736408604974799 0 0.20193796481728571 -0.042945004381876317 0 0.14987490578858451 -0.041489257907100577 0 0.17786572624023059 -0.051544714580239848 0 0.1707957871329677 -0.02736408604974799 0 0.14987490578858451 -0.041489257907100577 0 0.1707957871329677 -0.02736408604974799 0 0.1707957871329677 -0.02736408604974799 0 0.18265408171503719 -0.0030557455288178601 0 0.19493770480533359 -0.017712206632060679 0 0.16223656169118791 0.0022157833461514801 0 0.1707957871329677 -0.02736408604974799 0 0.18265408171503719 -0.0030557455288178601 0 0.16223656169118791 0.0022157833461514801 0 0.14436152462297119 -0.01524174057496751 0 0.1707957871329677 -0.02736408604974799 0 0.20486585250753339 0.006033998516739681 0 0.19493770480533359 -0.017712206632060679 0 0.21416380205206731 -0.01919695951123352 0 0.20486585250753339 0.006033998516739681 0 0.21416380205206731 -0.01919695951123352 0 0.22881534689338351 -0.0067413783578508836 0 0.20486585250753339 0.006033998516739681 0 0.22881534689338351 -0.0067413783578508836 0 0.20486585250753339 0.006033998516739681 0 0.18265408171503719 -0.0030557455288178601 0 0.19493770480533359 -0.017712206632060679 0 0.1707957871329677 -0.02736408604974799 0 0.19493770480533359 -0.017712206632060679 0 0.20193796481728571 -0.042945004381876317 0 0.19493770480533359 -0.017712206632060679 0 0.21416380205206731 -0.01919695951123352 0 0.20193796481728571 -0.042945004381876317 0 0.20193796481728571 -0.042945004381876317 0 0.2248075747971198 -0.058779720494384409 0 0.22601020339434089 -0.034345294183512759 0 0.21416380205206731 -0.01919695951123352 0 0.20193796481728571 -0.042945004381876317 0 0.22601020339434089 -0.034345294183512759 0 0.20193796481728571 -0.042945004381876317 0 0.22601020339434089 -0.034345294183512759 0 0.17786572624023059 -0.051544714580239848 0 0.20193796481728571 -0.042945004381876317 0 0.19831771694453129 -0.065427681783688518 0 0.17786572624023059 -0.051544714580239848 0 0.20193796481728571 -0.042945004381876317 0 0.20193796481728571 -0.042945004381876317 0 0.2248075747971198 -0.058779720494384409 0 0.19831771694453129 -0.065427681783688518 0 0.25027221821810919 -0.062730901385869536 0 0.2248075747971198 -0.058779720494384409 0 0.24214582632319651 -0.041520736204954882 0 0.25008244197139601 -0.025745583985149201 0 0.24214582632319651 -0.041520736204954882 0 0.22601020339434089 -0.034345294183512759 0 0.2532759523207152 -0.036614299393221493 0 0.25008244197139601 -0.025745583985149201 0 0.24214582632319651 -0.041520736204954882 0 0.2248075747971198 -0.058779720494384409 0 0.24214582632319651 -0.041520736204954882 0 0.22601020339434089 -0.034345294183512759 0 0.21416380205206731 -0.01919695951123352 0 0.22601020339434089 -0.034345294183512759 0 0.22881534689338351 -0.0067413783578508836 0 0.25008244197139601 -0.025745583985149201 0 0.22601020339434089 -0.034345294183512759 0 0.25008244197139601 -0.025745583985149201 0 0.25276484127923371 -0.019516755232441469 0 0.22881534689338351 -0.0067413783578508836 0 0.25008244197139601 -0.025745583985149201 0 0.22601020339434089 -0.034345294183512759 0 0.22881534689338351 -0.0067413783578508836 0 0.25276484127923371 -0.019516755232441469 0 0.22881534689338351 -0.0067413783578508836 0 0.25276484127923371 -0.019516755232441469 0 0.2578183078052394 -0.0046775058104196422 0 0.22881534689338351 -0.0067413783578508836 0 0.2044421675050371 -0.1000837818670651 0 0.19427584354703431 -0.1213858466238377 0 0.22035953718491391 -0.11652910462706979 0 0.1799641602849936 -0.1000486450469022 0 0.2044421675050371 -0.1000837818670651 0 0.1922093958784 -0.088468185173683031 0 0.1799641602849936 -0.1000486450469022 0 0.2044421675050371 -0.1000837818670651 0 0.19427584354703431 -0.1213858466238377 0 0.2044421675050371 -0.1000837818670651 0 0.1922093958784 -0.088468185173683031 0 0.21188565206888479 -0.079552573396424547 0 0.18121129783695619 -0.075697332223153238 0 0.1922093958784 -0.088468185173683031 0 0.19831771694453129 -0.065427681783688518 0 0.1922093958784 -0.088468185173683031 0 0.19831771694453129 -0.065427681783688518 0 0.21188565206888479 -0.079552573396424547 0 0.2248075747971198 -0.058779720494384409 0 0.19831771694453129 -0.065427681783688518 0 0.21188565206888479 -0.079552573396424547 0 0.2044421675050371 -0.1000837818670651 0 0.21188565206888479 -0.079552573396424547 0 0.2346456727933289 -0.088972169602324333 0 0.2248075747971198 -0.058779720494384409 0 0.21188565206888479 -0.079552573396424547 0 0.2346456727933289 -0.088972169602324333 0 0.25027221821810919 -0.062730901385869536 0 0.2248075747971198 -0.058779720494384409 0 0.2346456727933289 -0.088972169602324333 0 0.26338486502251762 -0.082721516093943043 0 0.25027221821810919 -0.062730901385869536 0 0.2346456727933289 -0.088972169602324333 0 0.25813406033465791 -0.10474764002266811 0 0.2346456727933289 -0.088972169602324333 0 0.23970600391078839 -0.1106636934142253 0 0.2044421675050371 -0.1000837818670651 0 0.2346456727933289 -0.088972169602324333 0 0.22035953718491391 -0.11652910462706979 0 0.2346456727933289 -0.088972169602324333 0 0.22035953718491391 -0.11652910462706979 0 0.23970600391078839 -0.1106636934142253 0 0.22035953718491391 -0.11652910462706979 0 0.24568474533025289 -0.1324058594048389 0 0.22035953718491391 -0.11652910462706979 0 0.23970600391078839 -0.1106636934142253 0 0.24568474533025289 -0.1324058594048389 0 0.25813406033465791 -0.10474764002266811 0 0.23970600391078839 -0.1106636934142253 0 0.24568474533025289 -0.1324058594048389 0 0.22035953718491391 -0.11652910462706979 0 0.22901836296006869 -0.14970123450775921 0 0.20782736052854359 -0.1396118476693598 0 0.24568474533025289 -0.1324058594048389 0 0.22901836296006869 -0.14970123450775921 0 0.24849357928226631 -0.1676643122024345 0 0.22035953718491391 -0.11652910462706979 0 0.24568474533025289 -0.1324058594048389 0 0.22901836296006869 -0.14970123450775921 0 0.19427584354703431 -0.1213858466238377 0 0.22035953718491391 -0.11652910462706979 0 0.20782736052854359 -0.1396118476693598 0 0.22901836296006869 -0.14970123450775921 0 0.20782736052854359 -0.1396118476693598 0 0.20623844019940071 -0.16407025285414439 0 0.20782736052854359 -0.1396118476693598 0 0.18924461875130039 -0.1463727997339877 0 0.20623844019940071 -0.16407025285414439 0 0.19427584354703431 -0.1213858466238377 0 0.18924461875130039 -0.1463727997339877 0 0.18042555780141409 -0.1325678503795529 0 0.19427584354703431 -0.1213858466238377 0 0.20782736052854359 -0.1396118476693598 0 0.18924461875130039 -0.1463727997339877 0 0.1908909627879477 -0.1796695965345301 0 0.20623844019940071 -0.16407025285414439 0 0.18431331828788911 -0.1629849707185316 0 0.18924461875130039 -0.1463727997339877 0 0.20623844019940071 -0.16407025285414439 0 0.18431331828788911 -0.1629849707185316 0 0.1908909627879477 -0.1796695965345301 0 0.20623844019940071 -0.16407025285414439 0 0.21303721000187181 -0.1920890481799068 0 0.20623844019940071 -0.16407025285414439 0 0.22694889667548671 -0.17336327392049289 0 0.21303721000187181 -0.1920890481799068 0 0.22694889667548671 -0.17336327392049289 0 0.23795689093382599 -0.19329152185821941 0 0.21303721000187181 -0.1920890481799068 0 0.22901836296006869 -0.14970123450775921 0 0.20623844019940071 -0.16407025285414439 0 0.22694889667548671 -0.17336327392049289 0 0.22901836296006869 -0.14970123450775921 0 0.22694889667548671 -0.17336327392049289 0 0.24849357928226631 -0.1676643122024345 0 0.22694889667548671 -0.17336327392049289 0 0.24849357928226631 -0.1676643122024345 0 0.23795689093382599 -0.19329152185821941 0 0.25725343700597442 -0.19058501030067529 0 0.24849357928226631 -0.1676643122024345 0 0.23795689093382599 -0.19329152185821941 0 0.25273416985964109 -0.2120531155792281 0 0.25725343700597442 -0.19058501030067529 0 0.23795689093382599 -0.19329152185821941 0 0.25273416985964109 -0.2120531155792281 0 0.23795689093382599 -0.19329152185821941 0 0.23327475845994319 -0.21527746596205621 0 0.23327475845994319 -0.21527746596205621 0 0.21211799784888311 -0.22191807619518589 0 0.21303721000187181 -0.1920890481799068 0 0.23795689093382599 -0.19329152185821941 0 0.23327475845994319 -0.21527746596205621 0 0.21303721000187181 -0.1920890481799068 0 0.25616369049222548 -0.24239128145182301 0 0.25813887505379007 -0.26055424525756882 0 0.2351284364513366 -0.24123616072637741 0 0.25616369049222548 -0.24239128145182301 0 0.2351284364513366 -0.24123616072637741 0 0.24900600388781791 -0.2290071461893943 0 0.23327475845994319 -0.21527746596205621 0 0.2351284364513366 -0.24123616072637741 0 0.24900600388781791 -0.2290071461893943 0 0.25273416985964109 -0.2120531155792281 0 0.23327475845994319 -0.21527746596205621 0 0.24900600388781791 -0.2290071461893943 0 0.23327475845994319 -0.21527746596205621 0 0.2351284364513366 -0.24123616072637741 0 0.21211799784888311 -0.22191807619518589 0 0.2351284364513366 -0.24123616072637741 0 0.21211799784888311 -0.22191807619518589 0 0.21409739439958861 -0.2512128851476762 0 0.2351284364513366 -0.24123616072637741 0 0.21211799784888311 -0.22191807619518589 0 0.21409739439958861 -0.2512128851476762 0 0.21211799784888311 -0.22191807619518589 0 0.189436148834709 -0.23324663156129799 0 0.21211799784888311 -0.22191807619518589 0 0.189436148834709 -0.23324663156129799 0 0.18910755924642969 -0.20259999166399439 0 0.21409739439958861 -0.2512128851476762 0 0.19255650290014989 -0.25917299242076808 0 0.189436148834709 -0.23324663156129799 0 0.21211799784888311 -0.22191807619518589 0 0.21303721000187181 -0.1920890481799068 0 0.18910755924642969 -0.20259999166399439 0 0.21211799784888311 -0.22191807619518589 0 0.18910755924642969 -0.20259999166399439 0 0.1908909627879477 -0.1796695965345301 0 0.21303721000187181 -0.1920890481799068 0 0.18910755924642969 -0.20259999166399439 0 0.1908909627879477 -0.1796695965345301 0 0.18910755924642969 -0.20259999166399439 0 0.1683669577328365 -0.1943840726313438 0 0.189436148834709 -0.23324663156129799 0 0.18910755924642969 -0.20259999166399439 0 0.16751688481017141 -0.21703850481586759 0 0.18910755924642969 -0.20259999166399439 0 0.16751688481017141 -0.21703850481586759 0 0.1683669577328365 -0.1943840726313438 0 0.16751688481017141 -0.21703850481586759 0 0.1683669577328365 -0.1943840726313438 0 0.16751688481017141 -0.21703850481586759 0 0.1683669577328365 -0.1943840726313438 0 0.1481576337672057 -0.20178682117711449 0 0.189436148834709 -0.23324663156129799 0 0.17878440785046479 -0.24991483132568099 0 0.16666681188750609 -0.23969293700039129 0 0.19255650290014989 -0.25917299242076808 0 0.189436148834709 -0.23324663156129799 0 0.17878440785046479 -0.24991483132568099 0 0.189436148834709 -0.23324663156129799 0 0.16751688481017141 -0.21703850481586759 0 0.16666681188750609 -0.23969293700039129 0 0.16751688481017141 -0.21703850481586759 0 0.16666681188750609 -0.23969293700039129 0 0.1518138644159884 -0.2345377817199514 0 0.16751688481017141 -0.21703850481586759 0 0.16666681188750609 -0.23969293700039129 0 0.16666681188750609 -0.23969293700039129 0 0.1539547824528123 -0.24985798083397259 0 0.1518138644159884 -0.2345377817199514 0 0.1539547824528123 -0.24985798083397259 0 0.1518138644159884 -0.2345377817199514 0 0.13522572268806199 -0.24734031978412491 0 0.16751688481017141 -0.21703850481586759 0 0.1518138644159884 -0.2345377817199514 0 0.14117239820189001 -0.22105923388505591 0 0.1518138644159884 -0.2345377817199514 0 0.14117239820189001 -0.22105923388505591 0 0.13522572268806199 -0.24734031978412491 0 0.1209741658996374 -0.22659904895176869 0 0.14117239820189001 -0.22105923388505591 0 0.13522572268806199 -0.24734031978412491 0 0.1683669577328365 -0.1943840726313438 0 0.1481576337672057 -0.20178682117711449 0 0.1434441552764642 -0.18065047248878929 0 0.16751688481017141 -0.21703850481586759 0 0.14117239820189001 -0.22105923388505591 0 0.1481576337672057 -0.20178682117711449 0 0.1209741658996374 -0.22659904895176869 0 0.14117239820189001 -0.22105923388505591 0 0.12575633351974169 -0.19822102528061711 0 0.14117239820189001 -0.22105923388505591 0 0.1481576337672057 -0.20178682117711449 0 0.12575633351974169 -0.19822102528061711 0 0.1481576337672057 -0.20178682117711449 0 0.12575633351974169 -0.19822102528061711 0 0.1434441552764642 -0.18065047248878929 0 0.11573907996837469 -0.17780838033877949 0 0.1434441552764642 -0.18065047248878929 0 0.12915287184905519 -0.15912448827296621 0 0.11573907996837469 -0.17780838033877949 0 0.12575633351974169 -0.19822102528061711 0 0.1434441552764642 -0.18065047248878929 0 0.1434441552764642 -0.18065047248878929 0 0.15215479123854489 -0.161772644949535 0 0.1692170306555017 -0.17172964044681999 0 0.1434441552764642 -0.18065047248878929 0 0.15215479123854489 -0.161772644949535 0 0.12915287184905519 -0.15912448827296621 0 0.12915287184905519 -0.15912448827296621 0 0.12909723277991181 -0.13577185870777539 0 0.145826855110927 -0.14536959912100991 0 0.12909723277991181 -0.13577185870777539 0 0.143068161612911 -0.12650116181558549 0 0.145826855110927 -0.14536959912100991 0 0.13079413548572411 -0.11644378017299579 0 0.12909723277991181 -0.13577185870777539 0 0.143068161612911 -0.12650116181558549 0 0.143068161612911 -0.12650116181558549 0 0.15534934695897271 -0.1345980682707181 0 0.145826855110927 -0.14536959912100991 0 0.15215479123854489 -0.161772644949535 0 0.12915287184905519 -0.15912448827296621 0 0.145826855110927 -0.14536959912100991 0 0.15534934695897271 -0.1345980682707181 0 0.145826855110927 -0.14536959912100991 0 0.16657771022532239 -0.14827354755483041 0 0.15215479123854489 -0.161772644949535 0 0.145826855110927 -0.14536959912100991 0 0.16657771022532239 -0.14827354755483041 0 0.16657771022532239 -0.14827354755483041 0 0.16744194039661101 -0.1251205236400551 0 0.18042555780141409 -0.1325678503795529 0 0.15534934695897271 -0.1345980682707181 0 0.16657771022532239 -0.14827354755483041 0 0.16744194039661101 -0.1251205236400551 0 0.18924461875130039 -0.1463727997339877 0 0.16657771022532239 -0.14827354755483041 0 0.18042555780141409 -0.1325678503795529 0 0.18924461875130039 -0.1463727997339877 0 0.16657771022532239 -0.14827354755483041 0 0.18431331828788911 -0.1629849707185316 0 0.1908909627879477 -0.1796695965345301 0 0.18431331828788911 -0.1629849707185316 0 0.1692170306555017 -0.17172964044681999 0 0.16657771022532239 -0.14827354755483041 0 0.18431331828788911 -0.1629849707185316 0 0.1692170306555017 -0.17172964044681999 0 0.1908909627879477 -0.1796695965345301 0 0.1683669577328365 -0.1943840726313438 0 0.1692170306555017 -0.17172964044681999 0 0.1683669577328365 -0.1943840726313438 0 0.1692170306555017 -0.17172964044681999 0 0.1683669577328365 -0.1943840726313438 0 0.1434441552764642 -0.18065047248878929 0 0.1692170306555017 -0.17172964044681999 0 0.15215479123854489 -0.161772644949535 0 0.16657771022532239 -0.14827354755483041 0 0.1692170306555017 -0.17172964044681999 0 
</DataArray>
</Points>
<Cells>
<DataArray type="UInt32" Name="connectivity" format="ascii">
0 1 2 3 4 5 6 7 8 9 10 11 12 13 14 15 16 17 18 19 20 21 22 23 24 25 26 27 28 29 30 31 32 33 34 35 36 37 38 39 40 41 42 43 44 45 46 47 48 49 50 51 52 53 54 55 56 57 58 59 60 61 62 63 64 65 66 67 68 69 70 71 72 73 74 75 76 77 78 79 80 81 82 83 84 85 86 87 88 89 90 91 92 93 94 95 96 97 98 99 100 101 102 103 104 105 106 107 108 109 110 111 112 113 114 115 116 117 118 119 120 121 122 123 124 125 126 127 128 129 130 131 132 133 134 135 136 137 138 139 140 141 142 143 144 145 146 147 148 149 150 151 152 153 154 155 156 157 158 159 160 161 162 163 164 165 166 167 168 169 170 171 172 173 174 175 176 177 178 179 180 181 182 183 184 185 186 187 188 189 190 191 192 193 194 195 196 197 198 199 200 201 202 203 204 205 206 207 208 209 210 211 212 213 214 215 216 217 218 219 220 221 222 223 224 225 226 227 228 229 230 231 232 233 234 235 236 237 238 239 240 241 242 243 244 245 246 247 248 249 250 251 252 253 254 255 256 257 258 259 260 261 262 263 264 265 266 267 268 269 270 271 272 273 274 275 276 277 278 279 280 281 282 283 284 285 286 287 288 289 290 291 292 293 294 295 296 297 298 299 300 301 302 303 304 305 306 307 308 309 310 311 312 313 314 315 316 317 318 319 320 321 322 323 324 325 326 327 328 329 330 331 332 333 334 335 336 337 338 339 340 341 342 343 344 345 346 347 348 349 350 351 352 353 354 355 356 357 358 359 360 361 362 363 364 365 366 367 368 369 370 371 372 373 374 375 376 377 378 379 380 381 382 383 384 385 386 387 388 389 390 391 392 393 394 395 396 397 398 399 400 401 402 403 404 405 406 407 408 409 410 411 412 413 414 415 416 417 418 419 420 421 422 423 424 425 426 427 428 429 430 431 432 433 434 435 436 437 438 439 440 441 442 443 444 445 446 447 448 449 450 451 452 453 454 455 456 457 458 459 460 461 462 463 464 465 466 467 468 469 470 471 472 473 474 475 476 477 478 479 480 481 482 483 484 485 486 487 488 489 490 491 492 493 494 495 496 497 498 499 500 501 502 503 504 505 506 507 508 509 510 511 512 513 514 515 516 517 518 519 520 521 522 523 524 525 526 527 528 529 530 531 532 533 534 535 536 537 538 539 540 541 542 543 544 545 546 547 548 549 550 551 552 553 554 555 556 557 558 559 560 561 562 563 564 565 566 567 568 569 570 571 572 573 574 575 576 577 578 579 580 581 582 583 584 585 586 587 588 589 590 591 592 593 594 595 596 597 598 599 600 601 602 603 604 605 606 607 608 609 610 611 612 613 614 615 616 617 618 619 620 621 622 623 624 625 626 627 628 629 630 631 632 633 634 635 636 637 638 639 640 641 642 643 644 645 646 647 648 649 650 651 652 653 654 655 656 657 658 659 660 661 662 663 664 665 666 667 668 669 670 671 672 673 674 675 676 677 678 679 680 681 682 683 684 685 686 687 688 689 690 691 692 693 694 695 696 697 698 699 700 701 702 703 704 705 706 707 708 709 710 711 712 713 714 715 716 717 718 719 720 721 722 723 724 725 726 727 728 729 730 731 732 733 734 735 736 737 738 739 740 741 742 743 744 745 746 747 748 749 750 751 752 753 754 755 756 757 758 759 760 761 762 763 764 765 766 767 768 769 770 771 772 773 774 775 776 777 778 779 780 781 782 783 784 785 786 787 788 789 790 791 792 793 794 795 796 797 798 799 800 801 802 803 804 805 806 807 808 809 810 811 812 813 814 815 816 817 818 819 820 821 822 823 824 825 826 827 828 829 830 831 832 833 834 835 836 837 838 839 840 841 842 843 844 845 846 847 848 849 850 851 852 853 854 855 856 857 858 859 860 861 862 863 864 865 866 867 868 869 870 871 872 873 874 875 876 877 878 879 880 881 882 883 884 885 886 887 888 889 890 891 892 893 894 895 896 897 898 899 900 901 902 903 904 905 906 907 908 909 910 911 912 913 914 915 916 917 918 919 920 921 922 923 924 925 926 927 928 929 930 931 932 933 934 935 936 937 938 939 940 941 942 943 944 945 946 947 948 949 950 951 952 953 954 955 956 957 958 959 960 961 962 963 964 965 966 967 968 969 970 971 972 973 974 975 976 977 978 979 980 981 982 983 984 985 986 987 988 989 990 991 992 993 994 995 996 997 998 999 1000 1001 1002 1003 1004 1005 1006 1007 1008 1009 1010 1011 1012 1013 1014 1015 1016 1017 1018 1019 1020 1021 1022 1023 1024 1025 1026 1027 1028 1029 1030 1031 1032 1033 1034 1035 1036 1037 1038 1039 1040 1041 1042 1043 1044 1045 1046 1047 1048 1049 1050 1051 1052 1053 1054 1055 1056 1057 1058 1059 1060 1061 1062 1063 1064 1065 1066 1067 1068 1069 1070 1071 1072 1073 1074 1075 1076 1077 1078 1079 1080 1081 1082 1083 1084 1085 1086 1087 1088 1089 1090 1091 1092 1093 1094 1095 1096 1097 1098 1099 1100 1101 1102 1103 1104 1105 1106 1107 1108 1109 1110 1111 1112 1113 1114 1115 1116 1117 1118 1119 1120 1121 1122 1123 1124 1125 1126 1127 1128 1129 1130 1131 1132 1133 1134 1135 1136 1137 1138 1139 1140 1141 1142 1143 1144 1145 1146 1147 1148 1149 1150 1151 1152 1153 1154 1155 1156 1157 1158 1159 1160 1161 1162 1163 1164 1165 1166 1167 1168 1169 1170 1171 1172 1173 1174 1175 1176 1177 1178 1179 1180 1181 1182 1183 1184 1185 1186 1187 1188 1189 1190 1191 1192 1193 1194 1195 1196 1197 1198 1199 1200 1201 1202 1203 1204 1205 1206 1207 1208 1209 1210 1211 1212 1213 1214 1215 1216 1217 1218 1219 1220 1221 1222 1223 1224 1225 1226 1227 1228 1229 1230 1231 1232 1233 1234 1235 1236 1237 1238 1239 1240 1241 1242 1243 1244 1245 1246 1247 1248 1249 1250 1251 1252 1253 1254 1255 1256 1257 1258 1259 1260 1261 1262 1263 1264 1265 1266 1267 1268 1269 1270 1271 1272 1273 1274 1275 1276 1277 1278 1279 1280 1281 1282 1283 1284 1285 1286 1287 1288 1289 1290 1291 1292 1293 1294 1295 1296 1297 1298 1299 1300 1301 1302 1303 1304 1305 1306 1307 1308 1309 1310 1311 1312 1313 1314 1315 1316 1317 1318 1319 1320 1321 1322 1323 1324 1325 1326 1327 1328 1329 1330 1331 1332 1333 1334 1335 1336 1337 1338 1339 1340 1341 1342 1343 1344 1345 1346 1347 1348 1349 1350 1351 1352 1353 1354 1355 1356 1357 1358 1359 1360 1361 1362 1363 1364 1365 1366 1367 1368 1369 1370 1371 1372 1373 1374 1375 1376 1377 1378 1379 1380 1381 1382 1383 1384 1385 1386 1387 1388 1389 1390 1391 1392 1393 1394 1395 1396 1397 1398 1399 1400 1401 1402 1403 1404 1405 1406 1407 1408 1409 1410 1411 1412 1413 1414 1415 1416 1417 1418 1419 1420 1421 1422 1423 1424 1425 1426 1427 1428 1429 1430 1431 1432 1433 1434 1435 1436 1437 1438 1439 1440 1441 1442 1443 1444 1445 1446 1447 1448 1449 1450 1451 1452 1453 1454 1455 1456 1457 1458 1459 1460 1461 1462 1463 1464 1465 1466 1467 1468 1469 1470 1471 1472 1473 1474 1475 1476 1477 1478 1479 1480 1481 1482 1483 1484 1485 1486 1487 1488 1489 1490 1491 1492 1493 1494 1495 1496 1497 1498 1499 1500 1501 1502 1503 1504 1505 1506 1507 1508 1509 1510 1511 1512 1513 1514 1515 1516 1517 1518 1519 1520 1521 1522 1523 1524 1525 1526 1527 1528 1529 1530 1531 1532 1533 1534 1535 1536 1537 1538 1539 1540 1541 1542 1543 1544 1545 1546 1547 1548 1549 1550 1551 1552 1553 1554 1555 1556 1557 1558 1559 1560 1561 1562 1563 1564 1565 1566 1567 1568 1569 1570 1571 1572 1573 1574 1575 1576 1577 1578 1579 1580 1581 1582 1583 1584 1585 1586 1587 1588 1589 1590 1591 1592 1593 1594 1595 1596 1597 1598 1599 1600 1601 1602 1603 1604 1605 1606 1607 1608 1609 1610 1611 1612 1613 1614 1615 1616 1617 1618 1619 1620 1621 1622 1623 1624 1625 1626 1627 1628 1629 1630 1631 1632 1633 1634 1635 1636 1637 1638 1639 1640 1641 1642 1643 1644 1645 1646 1647 1648 1649 1650 1651 1652 1653 1654 1655 1656 1657 1658 1659 1660 1661 1662 1663 1664 1665 1666 1667 1668 1669 1670 1671 1672 1673 1674 1675 1676 1677 1678 1679 1680 1681 1682 1683 1684 1685 1686 1687 1688 1689 1690 1691 1692 1693 1694 1695 1696 1697 1698 1699 1700 1701 1702 1703 1704 1705 1706 1707 1708 1709 1710 1711 1712 1713 1714 1715 1716 1717 1718 1719 1720 1721 1722 1723 1724 1725 1726 1727 1728 1729 1730 1731 1732 1733 1734 1735 1736 1737 1738 1739 1740 1741 1742 1743 1744 1745 1746 1747 1748 1749 1750 1751 1752 1753 1754 1755 1756 1757 1758 1759 1760 1761 1762 1763 1764 1765 1766 1767 1768 1769 1770 1771 1772 1773 1774 1775 1776 1777 1778 1779 1780 1781 1782 1783 1784 1785 1786 1787 1788 1789 1790 1791 1792 1793 1794 1795 1796 1797 1798 1799 1800 1801 1802 1803 1804 1805 1806 1807 1808 1809 1810 1811 1812 1813 1814 1815 1816 1817 1818 1819 1820 1821 1822 1823 1824 1825 1826 1827 1828 1829 1830 1831 1832 1833 1834 1835 1836 1837 1838 1839 1840 1841 1842 1843 1844 1845 1846 1847 1848 1849 1850 1851 1852 1853 1854 1855 1856 1857 1858 1859 1860 1861 1862 1863 1864 1865 1866 1867 1868 1869 1870 1871 1872 1873 1874 1875 1876 1877 1878 1879 1880 1881 1882 1883 1884 1885 1886 1887 1888 1889 1890 1891 1892 1893 1894 1895 1896 1897 1898 1899 1900 1901 1902 1903 1904 1905 1906 1907 1908 1909 1910 1911 1912 1913 1914 1915 1916 1917 1918 1919 1920 1921 1922 1923 1924 1925 1926 1927 1928 1929 1930 1931 1932 1933 1934 1935 1936 1937 1938 1939 1940 1941 1942 1943 1944 1945 1946 1947 1948 1949 1950 1951 1952 1953 1954 1955 1956 1957 1958 1959 1960 1961 1962 1963 1964 1965 1966 1967 1968 1969 1970 1971 1972 1973 1974 1975 1976 1977 1978 1979 1980 1981 1982 1983 1984 1985 1986 1987 1988 1989 1990 1991 1992 1993 1994 1995 1996 1997 1998 1999 2000 2001 2002 2003 2004 2005 2006 2007 2008 2009 2010 2011 2012 2013 2014 2015 2016 2017 2018 2019 2020 2021 2022 2023 2024 2025 2026 2027 2028 2029 2030 2031 2032 2033 2034 2035 2036 2037 2038 2039 2040 2041 2042 2043 2044 2045 2046 2047 2048 2049 2050 2051 2052 2053 2054 2055 2056 2057 2058 2059 2060 2061 2062 2063 2064 2065 2066 2067 2068 2069 2070 2071 2072 2073 2074 2075 2076 2077 2078 2079 2080 2081 2082 2083 2084 2085 2086 2087 2088 2089 2090 2091 2092 2093 2094 2095 2096 2097 2098 2099 2100 2101 2102 2103 2104 2105 2106 2107 2108 2109 2110 2111 2112 2113 2114 2115 2116 2117 2118 2119 2120 2121 2122 2123 2124 2125 2126 2127 2128 2129 2130 2131 2132 2133 2134 2135 2136 2137 2138 2139 2140 2141 2142 2143 2144 2145 2146 2147 2148 2149 2150 2151 2152 2153 2154 2155 2156 2157 2158 2159 2160 2161 2162 2163 2164 2165 2166 2167 2168 2169 2170 2171 2172 2173 2174 2175 2176 2177 2178 2179 2180 2181 2182 2183 2184 2185 2186 2187 2188 2189 2190 2191 2192 2193 2194 2195 2196 2197 2198 2199 2200 2201 2202 2203 2204 2205 2206 2207 2208 2209 2210 2211 2212 2213 2214 2215 2216 2217 2218 2219 2220 2221 2222 2223 2224 2225 2226 2227 2228 2229 2230 2231 2232 2233 2234 2235 2236 2237 2238 2239 2240 2241 2242 2243 2244 2245 2246 2247 2248 2249 2250 2251 2252 2253 2254 2255 2256 2257 2258 2259 2260 2261 2262 2263 2264 2265 2266 2267 2268 2269 2270 2271 2272 2273 2274 2275 2276 2277 2278 2279 2280 2281 2282 2283 2284 2285 2286 2287 2288 2289 2290 2291 2292 2293 2294 2295 2296 2297 2298 2299 2300 2301 2302 2303 2304 2305 2306 2307 2308 2309 2310 2311 2312 2313 2314 2315 2316 2317 2318 2319 2320 2321 2322 2323 2324 2325 2326 2327 2328 2329 2330 2331 2332 2333 2334 2335 2336 2337 2338 2339 2340 2341 2342 2343 2344 2345 2346 2347 2348 2349 2350 2351 2352 2353 2354 2355 2356 2357 2358 2359 2360 2361 2362 2363 2364 2365 2366 2367 2368 2369 2370 2371 2372 2373 2374 2375 2376 2377 2378 2379 2380 2381 2382 2383 2384 2385 2386 2387 2388 2389 2390 2391 2392 2393 2394 2395 2396 2397 2398 2399 2400 2401 2402 2403 2404 2405 2406 2407 2408 2409 2410 2411 2412 2413 2414 2415 2416 2417 2418 2419 2420 2421 2422 2423 2424 2425 2426 2427 2428 2429 2430 2431 2432 2433 2434 2435 2436 2437 2438 2439 2440 2441 2442 2443 2444 2445 2446 2447 2448 2449 2450 2451 2452 2453 2454 2455 2456 2457 2458 2459 2460 2461 2462 2463 2464 2465 2466 2467 2468 2469 2470 2471 2472 2473 2474 2475 2476 2477 2478 2479 2480 2481 2482 2483 2484 2485 2486 2487 2488 2489 2490 2491 2492 2493 2494 2495 2496 2497 2498 2499 2500 2501 2502 2503 2504 2505 2506 2507 2508 2509 2510 2511 2512 2513 2514 2515 2516 2517 2518 2519 2520 2521 2522 2523 2524 2525 2526 2527 2528 2529 2530 2531 2532 2533 2534 2535 2536 2537 2538 2539 2540 2541 2542 2543 2544 2545 2546 2547 2548 2549 2550 2551 2552 2553 2554 2555 2556 2557 2558 2559 2560 2561 2562 2563 2564 2565 2566 2567 2568 2569 2570 2571 2572 2573 2574 2575 2576 2577 2578 2579 2580 2581 2582 2583 2584 2585 2586 2587 2588 2589 2590 2591 2592 2593 2594 2595 2596 2597 2598 2599 2600 2601 2602 2603 2604 2605 2606 2607 2608 2609 2610 2611 2612 2613 2614 2615 2616 2617 2618 2619 2620 2621 2622 2623 2624 2625 2626 2627 2628 2629 2630 2631 2632 2633 2634 2635 2636 2637 2638 2639 2640 2641 2642 2643 2644 2645 2646 2647 2648 2649 2650 2651 2652 2653 2654 2655 2656 2657 2658 2659 2660 2661 2662 2663 2664 2665 2666 2667 2668 2669 2670 2671 2672 2673 2674 2675 2676 2677 2678 2679 2680 2681 2682 2683 2684 2685 2686 2687 2688 2689 2690 2691 2692 2693 2694 2695 2696 2697 2698 2699 2700 2701 2702 2703 2704 2705 2706 2707 2708 2709 2710 2711 2712 2713 2714 2715 2716 2717 2718 2719 2720 2721 2722 2723 2724 2725 2726 2727 2728 2729 2730 2731 2732 2733 2734 2735 2736 2737 2738 2739 2740 2741 2742 2743 2744 2745 2746 2747 2748 2749 2750 2751 2752 2753 2754 2755 2756 2757 2758 2759 2760 2761 2762 2763 2764 2765 2766 2767 2768 2769 2770 2771 2772 2773 2774 2775 2776 2777 2778 2779 2780 2781 2782 2783 2784 2785 2786 2787 2788 2789 2790 2791 2792 2793 2794 2795 2796 2797 2798 2799 2800 2801 2802 2803 2804 2805 2806 2807 2808 2809 2810 2811 2812 2813 2814 2815 2816 2817 2818 2819 2820 2821 2822 2823 2824 2825 2826 2827 2828 2829 2830 2831 2832 2833 2834 2835 2836 2837 2838 2839 2840 2841 2842 2843 2844 2845 2846 2847 2848 2849 2850 2851 2852 2853 2854 2855 2856 2857 2858 2859 2860 2861 2862 2863 2864 2865 2866 2867 2868 2869 2870 2871 2872 2873 2874 2875 2876 2877 2878 2879 2880 2881 2882 2883 2884 2885 2886 2887 2888 2889 2890 2891 2892 2893 2894 2895 2896 2897 2898 2899 2900 2901 2902 2903 2904 2905 2906 2907 2908 2909 2910 2911 2912 2913 2914 2915 2916 2917 2918 2919 2920 2921 2922 2923 2924 2925 2926 2927 2928 2929 2930 2931 2932 2933 2934 2935 2936 2937 2938 2939 2940 2941 2942 2943 2944 2945 2946 2947 2948 2949 2950 2951 2952 2953 2954 2955 2956 2957 2958 2959 2960 2961 2962 2963 2964 2965 2966 2967 2968 2969 2970 2971 2972 2973 2974 2975 2976 2977 2978 2979 2980 2981 2982 2983 2984 2985 2986 2987 2988 2989 2990 2991 2992 2993 2994 2995 2996 2997 2998 2999 3000 3001 3002 3003 3004 3005 3006 3007 3008 3009 3010 3011 3012 3013 3014 3015 3016 3017 3018 3019 3020 3021 3022 3023 3024 3025 3026 3027 3028 3029 3030 3031 3032 3033 3034 3035 3036 3037 3038 3039 3040 3041 3042 3043 3044 3045 3046 3047 3048 3049 3050 3051 3052 3053 3054 3055 3056 3057 3058 3059 3060 3061 3062 3063 3064 3065 3066 3067 3068 3069 3070 3071 3072 3073 3074 3075 3076 3077 3078 3079 3080 3081 3082 3083 3084 3085 3086 3087 3088 3089 3090 3091 3092 3093 3094 3095 3096 3097 3098 3099 3100 3101 3102 3103 3104 3105 3106 3107 3108 3109 3110 3111 3112 3113 3114 3115 3116 3117 3118 3119 3120 3121 3122 3123 3124 3125 3126 3127 3128 3129 3130 3131 3132 3133 3134 3135 3136 3137 3138 3139 3140 3141 3142 3143 3144 3145 3146 3147 3148 3149 3150 3151 3152 3153 3154 3155 3156 3157 3158 3159 3160 3161 3162 3163 3164 3165 3166 3167 3168 3169 3170 3171 3172 3173 3174 3175 3176 3177 3178 3179 3180 3181 3182 3183 3184 3185 3186 3187 3188 3189 3190 3191 3192 3193 3194 3195 3196 3197 3198 3199 3200 3201 3202 3203 3204 3205 3206 3207 3208 3209 3210 3211 3212 3213 3214 3215 3216 3217 3218 3219 3220 3221 3222 3223 3224 3225 3226 3227 3228 3229 3230 3231 3232 3233 3234 3235 3236 3237 3238 3239 3240 3241 3242 3243 3244 3245 3246 3247 3248 3249 3250 3251 3252 3253 3254 3255 3256 3257 3258 3259 3260 3261 3262 3263 3264 3265 3266 3267 3268 3269 3270 3271 3272 3273 3274 3275 3276 3277 3278 3279 3280 3281 3282 3283 3284 3285 3286 3287 3288 3289 3290 3291 3292 3293 3294 3295 3296 3297 3298 3299 3300 3301 3302 3303 3304 3305 3306 3307 3308 3309 3310 3311 3312 3313 3314 3315 3316 3317 3318 3319 3320 3321 3322 3323 3324 3325 3326 3327 3328 3329 3330 3331 3332 3333 3334 3335 3336 3337 3338 3339 3340 3341 3342 3343 3344 3345 3346 3347 3348 3349 3350 3351 3352 3353 3354 3355 3356 3357 3358 3359 3360 3361 3362 3363 3364 3365 3366 3367 3368 3369 3370 3371 3372 3373 3374 3375 3376 3377 3378 3379 3380 3381 3382 3383 3384 3385 3386 3387 3388 3389 3390 3391 3392 3393 3394 3395 3396 3397 3398 3399 3400 3401 3402 3403 3404 3405 3406 3407 3408 3409 3410 3411 3412 3413 3414 3415 3416 3417 3418 3419 3420 3421 3422 3423 3424 3425 3426 3427 3428 3429 3430 3431 3432 3433 3434 3435 3436 3437 3438 3439 3440 3441 3442 3443 3444 3445 3446 3447 3448 3449 3450 3451 3452 3453 3454 3455 3456 3457 3458 3459 3460 3461 3462 3463 3464 3465 3466 3467 3468 3469 3470 3471 3472 3473 3474 3475 3476 3477 3478 3479 3480 3481 3482 3483 3484 3485 3486 3487 3488 3489 3490 3491 3492 3493 3494 3495 3496 3497 3498 3499 3500 3501 3502 3503 3504 3505 3506 3507 3508 3509 3510 3511 3512 3513 3514 3515 3516 3517 3518 3519 3520 3521 3522 3523 3524 3525 3526 3527 3528 3529 3530 3531 3532 3533 3534 3535 3536 3537 3538 3539 3540 3541 3542 3543 3544 3545 3546 3547 3548 3549 3550 3551 3552 3553 3554 3555 3556 3557 3558 3559 3560 3561 3562 3563 3564 3565 3566 3567 3568 3569 3570 3571 3572 3573 3574 3575 3576 3577 3578 3579 3580 3581 3582 3583 3584 3585 3586 3587 3588 3589 3590 3591 3592 3593 3594 3595 3596 3597 3598 3599 3600 3601 3602 3603 3604 3605 3606 3607 3608 3609 3610 3611 3612 3613 3614 3615 3616 3617 3618 3619 3620 3621 3622 3623 3624 3625 3626 3627 3628 3629 3630 3631 3632 3633 3634 3635 3636 3637 3638 3639 3640 3641 3642 3643 3644 3645 3646 3647 3648 3649 3650 3651 3652 3653 3654 3655 3656 3657 3658 3659 3660 3661 3662 3663 3664 3665 3666 3667 3668 3669 3670 3671 3672 3673 3674 3675 3676 3677 3678 3679 3680 3681 3682 3683 3684 3685 3686 3687 3688 3689 3690 3691 3692 3693 3694 3695 3696 3697 3698 3699 3700 3701 3702 3703 3704 3705 3706 3707 3708 3709 3710 3711 3712 3713 3714 3715 3716 3717 3718 3719 3720 3721 3722 3723 3724 3725 3726 3727 3728 3729 3730 3731 3732 3733 3734 3735 3736 3737 3738 3739 3740 3741 3742 3743 3744 3745 3746 3747 3748 3749 3750 3751 3752 3753 3754 3755 3756 3757 3758 3759 3760 3761 3762 3763 3764 3765 3766 3767 3768 3769 3770 3771 3772 3773 3774 3775 3776 3777 3778 3779 3780 3781 3782 3783 3784 3785 3786 3787 3788 3789 3790 3791 3792 3793 3794 3795 3796 3797 3798 3799 3800 3801 3802 3803 3804 3805 3806 3807 3808 3809 3810 3811 3812 3813 3814 3815 3816 3817 3818 3819 3820 3821 3822 3823 3824 3825 3826 3827 3828 3829 3830 3831 3832 3833 3834 3835 3836 3837 3838 3839 3840 3841 3842 3843 3844 3845 3846 3847 3848 3849 3850 3851 3852 3853 3854 3855 3856 3857 3858 3859 3860 3861 3862 3863 3864 3865 3866 3867 3868 3869 3870 3871 3872 3873 3874 3875 3876 3877 3878 3879 3880 3881 3882 3883 3884 3885 3886 3887 3888 3889 3890 3891 3892 3893 3894 3895 3896 3897 3898 3899 3900 3901 3902 3903 3904 3905 3906 3907 3908 3909 3910 3911 3912 3913 3914 3915 3916 3917 3918 3919 3920 3921 3922 3923 3924 3925 3926 3927 3928 3929 3930 3931 3932 3933 3934 3935 3936 3937 3938 3939 3940 3941 3942 3943 3944 3945 3946 3947 3948 3949 3950 3951 3952 3953 3954 3955 3956 3957 3958 3959 3960 3961 3962 3963 3964 3965 3966 3967 3968 3969 3970 3971 3972 3973 3974 3975 3976 3977 3978 3979 3980 3981 3982 3983 3984 3985 3986 3987 3988 3989 3990 3991 3992 3993 3994 3995 3996 3997 3998 3999 4000 4001 4002 4003 4004 4005 4006 4007 4008 4009 4010 4011 4012 4013 4014 4015 4016 4017 4018 4019 4020 4021 4022 4023 4024 4025 4026 4027 4028 4029 4030 4031 4032 4033 4034 4035 4036 4037 4038 4039 4040 4041 4042 4043 4044 4045 4046 4047 4048 4049 4050 4051 4052 4053 4054 4055 4056 4057 4058 4059 4060 4061 4062 4063 4064 4065 4066 4067 4068 4069 4070 4071 4072 4073 4074 4075 4076 4077 4078 4079 4080 4081 4082 4083 4084 4085 4086 4087 4088 4089 4090 4091 4092 4093 4094 4095 4096 4097 4098 4099 4100 4101 4102 4103 4104 4105 4106 4107 4108 4109 4110 4111 4112 4113 4114 4115 4116 4117 4118 4119 4120 4121 4122 4123 4124 4125 4126 4127 4128 4129 4130 4131 4132 4133 4134 4135 4136 4137 4138 4139 4140 4141 4142 4143 4144 4145 4146 4147 4148 4149 4150 4151 4152 4153 4154 4155 4156 4157 4158 4159 4160 4161 4162 4163 4164 4165 4166 4167 4168 4169 4170 4171 4172 4173 4174 4175 4176 4177 4178 4179 4180 4181 4182 4183 4184 4185 4186 4187 4188 4189 4190 4191 4192 4193 4194 4195 4196 4197 4198 4199 4200 4201 4202 4203 4204 4205 4206 4207 4208 4209 4210 4211 4212 4213 4214 4215 4216 4217 4218 4219 4220 4221 4222 4223 4224 4225 4226 4227 4228 4229 4230 4231 4232 4233 4234 4235 4236 4237 4238 4239 4240 4241 4242 4243 4244 4245 4246 4247 4248 4249 4250 4251 4252 4253 4254 4255 4256 4257 4258 4259 4260 4261 4262 4263 4264 4265 4266 4267 4268 4269 4270 4271 4272 4273 4274 4275 4276 4277 4278 4279 4280 4281 4282 4283 4284 4285 4286 4287 4288 4289 4290 4291 4292 4293 4294 4295 4296 4297 4298 4299 4300 4301 4302 4303 4304 4305 4306 4307 4308 4309 4310 4311 4312 4313 4314 4315 4316 4317 4318 4319 4320 4321 4322 4323 4324 4325 4326 4327 4328 4329 4330 4331 4332 4333 4334 4335 4336 4337 4338 4339 4340 4341 4342 4343 4344 4345 4346 4347 4348 4349 4350 4351 4352 4353 4354 4355 4356 4357 4358 4359 4360 4361 4362 4363 4364 4365 4366 4367 4368 4369 4370 4371 4372 4373 4374 4375 4376 4377 4378 4379 4380 4381 4382 4383 4384 4385 4386 4387 4388 4389 4390 4391 4392 4393 4394 4395 4396 4397 4398 4399 4400 4401 4402 4403 4404 4405 4406 4407 4408 4409 4410 4411 4412 4413 4414 4415 4416 4417 4418 4419 4420 4421 4422 4423 4424 4425 4426 4427 4428 4429 4430 4431 4432 4433 4434 4435 4436 4437 4438 4439 4440 4441 4442 4443 4444 4445 4446 4447 4448 4449 4450 4451 4452 4453 4454 4455 4456 4457 4458 4459 4460 4461 4462 4463 4464 4465 4466 4467 4468 4469 4470 4471 4472 4473 4474 4475 4476 4477 4478 4479 4480 4481 4482 4483 4484 4485 4486 4487 4488 4489 4490 4491 4492 4493 4494 4495 4496 4497 4498 4499 4500 4501 4502 4503 4504 4505 4506 4507 4508 4509 4510 4511 4512 4513 4514 4515 4516 4517 4518 4519 4520 4521 4522 4523 4524 4525 4526 4527 4528 4529 4530 4531 4532 4533 4534 4535 4536 4537 4538 4539 4540 4541 4542 4543 4544 4545 4546 4547 4548 4549 4550 4551 4552 4553 4554 4555 4556 4557 4558 4559 4560 4561 4562 4563 4564 4565 4566 4567 4568 4569 4570 4571 4572 4573 4574 4575 4576 4577 4578 4579 4580 4581 4582 4583 4584 4585 4586 4587 4588 4589 4590 4591 4592 4593 4594 4595 4596 4597 4598 4599 4600 4601 4602 4603 4604 4605 4606 4607 4608 4609 4610 4611 4612 4613 4614 4615 4616 4617 4618 4619 4620 4621 4622 4623 4624 4625 4626 4627 4628 4629 4630 4631 4632 4633 4634 4635 4636 4637 4638 4639 4640 4641 4642 4643 4644 4645 4646 4647 4648 4649 4650 4651 4652 4653 4654 4655 4656 4657 4658 4659 4660 4661 4662 4663 4664 4665 4666 4667 4668 4669 4670 4671 4672 4673 4674 4675 4676 4677 4678 4679 4680 4681 4682 4683 4684 4685 4686 4687 4688 4689 4690 4691 4692 4693 4694 4695 4696 4697 4698 4699 4700 4701 4702 4703 4704 4705 4706 4707 4708 4709 4710 4711 4712 4713 4714 4715 4716 4717 4718 4719 4720 4721 4722 4723 4724 4725 4726 4727 4728 4729 4730 4731 4732 4733 4734 4735 4736 4737 4738 4739 4740 4741 4742 4743 4744 4745 4746 4747 4748 4749 4750 4751 4752 4753 4754 4755 4756 4757 4758 4759 4760 4761 4762 4763 4764 4765 4766 4767 4768 4769 4770 4771 4772 4773 4774 4775 4776 4777 4778 4779 4780 4781 4782 4783 4784 4785 4786 4787 4788 4789 4790 4791 4792 4793 4794 4795 4796 4797 4798 4799 4800 4801 4802 4803 4804 4805 4806 4807 4808 4809 4810 4811 4812 4813 4814 4815 4816 4817 4818 4819 4820 4821 4822 4823 4824 4825 4826 4827 4828 4829 4830 4831 4832 4833 4834 4835 4836 4837 4838 4839 4840 4841 4842 4843 4844 4845 4846 4847 4848 4849 4850 4851 4852 4853 4854 4855 4856 4857 4858 4859 4860 4861 4862 4863 4864 4865 4866 4867 4868 4869 4870 4871 4872 4873 4874 4875 4876 4877 4878 4879 4880 4881 4882 4883 4884 4885 4886 4887 4888 4889 4890 4891 4892 4893 4894 4895 4896 4897 4898 4899 4900 4901 4902 4903 4904 4905 4906 4907 4908 4909 4910 4911 4912 4913 4914 4915 4916 4917 4918 4919 4920 4921 4922 4923 4924 4925 4926 4927 4928 4929 4930 4931 4932 4933 4934 4935 4936 4937 4938 4939 4940 4941 4942 4943 4944 4945 4946 4947 4948 4949 4950 4951 4952 4953 4954 4955 4956 4957 4958 4959 4960 4961 4962 4963 4964 4965 4966 4967 4968 4969 4970 4971 4972 4973 4974 4975 4976 4977 4978 4979 4980 4981 4982 4983 4984 4985 4986 4987 4988 4989 4990 4991 4992 4993 4994 4995 4996 4997 4998 4999 5000 5001 5002 5003 5004 5005 5006 5007 5008 5009 5010 5011 5012 5013 5014 5015 5016 5017 5018 5019 5020 5021 5022 5023 5024 5025 5026 5027 5028 5029 5030 5031 5032 5033 5034 5035 5036 5037 5038 5039 5040 5041 5042 5043 5044 5045 5046 5047 5048 5049 5050 5051 5052 5053 5054 5055 5056 5057 5058 5059 5060 5061 5062 5063 5064 5065 5066 5067 5068 5069 5070 5071 5072 5073 5074 5075 5076 5077 5078 5079 5080 5081 5082 5083 5084 5085 5086 5087 5088 5089 5090 5091 5092 5093 5094 5095 5096 5097 5098 5099 5100 5101 5102 5103 5104 5105 5106 5107 5108 5109 5110 5111 5112 5113 5114 5115 5116 5117 5118 5119 5120 5121 5122 5123 5124 5125 5126 5127 5128 5129 5130 5131 5132 5133 5134 5135 5136 5137 5138 5139 5140 5141 5142 5143 5144 5145 5146 5147 5148 5149 5150 5151 5152 5153 5154 5155 5156 5157 5158 5159 5160 5161 5162 5163 5164 5165 5166 5167 5168 5169 5170 5171 5172 5173 5174 5175 5176 5177 5178 5179 5180 5181 5182 5183 5184 5185 5186 5187 5188 5189 5190 5191 5192 5193 5194 5195 5196 5197 5198 5199 5200 5201 5202 5203 5204 5205 5206 5207 5208 5209 5210 5211 5212 5213 5214 5215 5216 5217 5218 5219 5220 5221 5222 5223 5224 5225 5226 5227 5228 5229 5230 5231 5232 5233 5234 5235 5236 5237 5238 5239 5240 5241 5242 5243 5244 5245 5246 5247 5248 5249 5250 5251 5252 5253 5254 5255 5256 5257 5258 5259 5260 5261 5262 5263 5264 5265 5266 5267 5268 5269 5270 5271 5272 5273 5274 5275 5276 5277 5278 5279 5280 5281 5282 5283 5284 5285 5286 5287 5288 5289 5290 5291 5292 5293 5294 5295 5296 5297 5298 5299 5300 5301 5302 5303 5304 5305 5306 5307 5308 5309 5310 5311 5312 5313 5314 5315 5316 5317 5318 5319 5320 5321 5322 5323 5324 5325 5326 5327 5328 5329 5330 5331 5332 5333 5334 5335 5336 5337 5338 5339 5340 5341 5342 5343 5344 5345 5346 5347 5348 5349 5350 5351 5352 5353 5354 5355 5356 5357 5358 5359 5360 5361 5362 5363 5364 5365 5366 5367 5368 5369 5370 5371 5372 5373 5374 5375 5376 5377 5378 5379 5380 5381 5382 5383 5384 5385 5386 5387 5388 5389 5390 5391 5392 5393 5394 5395 5396 5397 5398 5399 5400 5401 5402 5403 5404 5405 5406 5407 5408 5409 5410 5411 5412 5413 5414 5415 5416 5417 5418 5419 5420 5421 5422 5423 5424 5425 5426 5427 5428 5429 5430 5431 5432 5433 5434 5435 5436 5437 5438 5439 5440 5441 5442 5443 5444 5445 5446 5447 5448 5449 5450 5451 5452 5453 5454 5455 5456 5457 5458 5459 5460 5461 5462 5463 5464 5465 5466 5467 5468 5469 5470 5471 5472 5473 5474 5475 5476 5477 5478 5479 5480 5481 5482 5483 5484 5485 5486 5487 5488 5489 5490 5491 5492 5493 5494 5495 5496 5497 5498 5499 5500 5501 5502 5503 5504 5505 5506 5507 5508 5509 5510 5511 5512 5513 5514 5515 5516 5517 5518 5519 5520 5521 5522 5523 5524 5525 5526 5527 5528 5529 5530 5531 5532 5533 5534 5535 5536 5537 5538 5539 5540 5541 5542 5543 5544 5545 5546 5547 5548 5549 5550 5551 5552 5553 5554 5555 5556 5557 5558 5559 5560 5561 5562 5563 5564 5565 5566 5567 5568 5569 5570 5571 5572 5573 5574 5575 5576 5577 5578 5579 5580 5581 5582 5583 5584 5585 5586 5587 5588 5589 5590 5591 5592 5593 5594 5595 5596 5597 5598 5599 5600 5601 5602 5603 5604 5605 5606 5607 5608 5609 5610 5611 5612 5613 5614 5615 5616 5617 5618 5619 5620 5621 5622 5623 5624 5625 5626 5627 5628 5629 5630 5631 5632 5633 5634 5635 5636 5637 5638 5639 5640 5641 5642 5643 5644 5645 5646 5647 5648 5649 5650 5651 5652 5653 5654 5655 5656 5657 5658 5659 5660 5661 5662 5663 5664 5665 5666 5667 5668 5669 5670 5671 5672 5673 5674 5675 5676 5677 5678 5679 5680 5681 5682 5683 5684 5685 5686 5687 5688 5689 5690 5691 5692 5693 5694 5695 5696 5697 5698 5699 5700 5701 5702 5703 5704 5705 5706 5707 5708 5709 5710 5711 5712 5713 5714 5715 5716 5717 5718 5719 5720 5721 5722 5723 5724 5725 5726 5727 5728 5729 5730 5731 5732 5733 5734 5735 5736 5737 5738 5739 5740 5741 5742 5743 5744 5745 5746 5747 5748 5749 5750 5751 5752 5753 5754 5755 5756 5757 5758 5759 5760 5761 5762 5763 5764 5765 5766 5767 5768 5769 5770 5771 5772 5773 5774 5775 5776 5777 5778 5779 5780 5781 5782 5783 5784 5785 5786 5787 5788 5789 5790 5791 5792 5793 5794 5795 5796 5797 5798 5799 5800 5801 5802 5803 5804 5805 5806 5807 5808 5809 5810 5811 5812 5813 5814 5815 5816 5817 5818 5819 5820 5821 5822 5823 5824 5825 5826 5827 5828 5829 5830 5831 5832 5833 5834 5835 5836 5837 5838 5839 5840 5841 5842 5843 5844 5845 5846 5847 5848 5849 5850 5851 5852 5853 5854 5855 5856 5857 5858 5859 5860 5861 5862 5863 5864 5865 5866 5867 5868 5869 5870 5871 5872 5873 5874 5875 5876 5877 5878 5879 5880 5881 5882 5883 5884 5885 5886 5887 5888 5889 5890 5891 5892 5893 5894 5895 5896 5897 5898 5899 5900 5901 5902 5903 5904 5905 5906 5907 5908 5909 5910 5911 5912 5913 5914 5915 5916 5917 5918 5919 5920 5921 5922 5923 5924 5925 5926 5927 5928 5929 5930 5931 5932 5933 5934 5935 5936 5937 5938 5939 5940 5941 5942 5943 5944 5945 5946 5947 5948 5949 5950 5951 5952 5953 5954 5955 5956 5957 5958 5959 5960 5961 5962 5963 5964 5965 5966 5967 5968 5969 5970 5971 5972 5973 5974 5975 5976 5977 5978 5979 5980 5981 5982 5983 5984 5985 5986 5987 5988 5989 5990 5991 5992 5993 5994 5995 5996 5997 5998 5999 6000 6001 6002 6003 6004 6005 6006 6007 6008 6009 6010 6011 6012 6013 6014 6015 6016 6017 6018 6019 6020 6021 6022 6023 6024 6025 6026 6027 6028 6029 6030 6031 6032 6033 6034 6035 6036 6037 6038 6039 6040 6041 6042 6043 6044 6045 6046 6047 6048 6049 6050 6051 6052 6053 6054 6055 6056 6057 6058 6059 6060 6061 6062 6063 6064 6065 6066 6067 6068 6069 6070 6071 6072 6073 6074 6075 6076 6077 6078 6079 6080 6081 6082 6083 6084 6085 6086 6087 6088 6089 6090 6091 6092 6093 6094 6095 6096 6097 6098 6099 6100 6101 6102 6103 6104 6105 6106 6107 6108 6109 6110 6111 6112 6113 6114 6115 6116 6117 6118 6119 6120 6121 6122 6123 6124 6125 6126 6127 6128 6129 6130 6131 6132 6133 6134 6135 6136 6137 6138 6139 6140 6141 6142 6143 6144 6145 6146 6147 6148 6149 6150 6151 6152 6153 6154 6155 6156 6157 6158 6159 6160 6161 6162 6163 6164 6165 6166 6167 6168 6169 6170 6171 6172 6173 6174 6175 6176 6177 6178 6179 6180 6181 6182 6183 6184 6185 6186 6187 6188 6189 6190 6191 6192 6193 6194 6195 6196 6197 6198 6199 6200 6201 6202 6203 6204 6205 6206 6207 6208 6209 6210 6211 6212 6213 6214 6215 6216 6217 6218 6219 6220 6221 6222 6223 6224 6225 6226 6227 6228 6229 6230 6231 6232 6233 6234 6235 6236 6237 6238 6239 6240 6241 6242 6243 6244 6245 6246 6247 6248 6249 6250 6251 6252 6253 6254 6255 6256 6257 6258 6259 6260 6261 6262 6263 6264 6265 6266 6267 6268 6269 6270 6271 6272 6273 6274 6275 6276 6277 6278 6279 6280 6281 6282 6283 6284 6285 6286 6287 6288 6289 6290 6291 6292 6293 6294 6295 6296 6297 6298 6299 6300 6301 6302 6303 6304 6305 6306 6307 6308 6309 6310 6311 6312 6313 6314 6315 6316 6317 6318 6319 6320 6321 6322 6323 6324 6325 6326 6327 6328 6329 6330 6331 6332 6333 6334 6335 6336 6337 6338 6339 6340 6341 6342 6343 6344 6345 6346 6347 6348 6349 6350 6351 6352 6353 6354 6355 6356 6357 6358 6359 6360 6361 6362 6363 6364 6365 6366 6367 6368 6369 6370 6371 6372 6373 6374 6375 6376 6377 6378 6379 6380 6381 6382 6383 6384 6385 6386 6387 6388 6389 6390 6391 6392 6393 6394 6395 6396 6397 6398 6399 6400 6401 6402 6403 6404 6405 6406 6407 6408 6409 6410 6411 6412 6413 6414 6415 6416 6417 6418 6419 6420 6421 6422 6423 6424 6425 6426 6427 6428 6429 6430 6431 6432 6433 6434 6435 6436 6437 6438 6439 6440 6441 6442 6443 6444 6445 6446 6447 6448 6449 6450 6451 6452 6453 6454 6455 6456 6457 6458 6459 6460 6461 6462 6463 6464 6465 6466 6467 6468 6469 6470 6471 6472 6473 6474 6475 6476 6477 6478 6479 6480 6481 6482 6483 6484 6485 6486 6487 6488 6489 6490 6491 6492 6493 6494 6495 6496 6497 6498 6499 6500 6501 6502 6503 6504 6505 6506 6507 6508 6509 6510 6511 6512 6513 6514 6515 6516 6517 6518 6519 6520 6521 6522 6523 6524 6525 6526 6527 6528 6529 6530 6531 6532 6533 6534 6535 6536 6537 6538 6539 6540 6541 6542 6543 6544 6545 6546 6547 6548 6549 6550 6551 6552 6553 6554 6555 6556 6557 6558 6559 6560 6561 6562 6563 6564 6565 6566 6567 6568 6569 6570 6571 6572 6573 6574 6575 6576 6577 6578 6579 6580 6581 6582 6583 6584 6585 6586 6587 6588 6589 6590 6591 6592 6593 6594 6595 6596 6597 6598 6599 6600 6601 6602 6603 6604 6605 6606 6607 6608 6609 6610 6611 6612 6613 6614 6615 6616 6617 6618 6619 6620 6621 6622 6623 6624 6625 6626 6627 6628 6629 6630 6631 6632 6633 6634 6635 6636 6637 6638 6639 6640 6641 6642 6643 6644 6645 6646 6647 6648 6649 6650 6651 6652 6653 6654 6655 6656 6657 6658 6659 6660 6661 6662 6663 6664 6665 6666 6667 6668 6669 6670 6671 6672 6673 6674 6675 6676 6677 6678 6679 6680 6681 6682 6683 6684 6685 6686 6687 6688 6689 6690 6691 6692 6693 6694 6695 6696 6697 6698 6699 6700 6701 6702 6703 6704 6705 6706 6707 6708 6709 6710 6711 6712 6713 6714 6715 6716 6717 6718 6719 6720 6721 6722 6723 6724 6725 6726 6727 6728 6729 6730 6731 6732 6733 6734 6735 6736 6737 6738 6739 6740 6741 6742 6743 6744 6745 6746 6747 6748 6749 6750 6751 6752 6753 6754 6755 6756 6757 6758 6759 6760 6761 6762 6763 6764 6765 6766 6767 6768 6769 6770 6771 6772 6773 6774 6775 6776 6777 6778 6779 6780 6781 6782 6783 6784 6785 6786 6787 6788 6789 6790 6791 6792 6793 6794 6795 6796 6797 6798 6799 6800 6801 6802 6803 6804 6805 6806 6807 6808 6809 6810 6811 6812 6813 6814 6815 6816 6817 6818 6819 6820 6821 6822 6823 6824 6825 6826 6827 6828 6829 6830 6831 6832 6833 6834 6835 6836 6837 6838 6839 6840 6841 6842 6843 6844 6845 6846 6847 6848 6849 6850 6851 6852 6853 6854 6855 6856 6857 6858 6859 6860 6861 6862 6863 6864 6865 6866 6867 6868 6869 6870 6871 6872 6873 6874 6875 6876 6877 6878 6879 6880 6881 6882 6883 6884 6885 6886 6887 6888 6889 6890 6891 6892 6893 6894 6895 6896 6897 6898 6899 6900 6901 6902 6903 6904 6905 6906 6907 6908 6909 6910 6911 6912 6913 6914 6915 6916 6917 6918 6919 6920 6921 6922 6923 6924 6925 6926 6927 6928 6929 6930 6931 6932 6933 6934 6935 6936 6937 6938 6939 6940 6941 6942 6943 6944 6945 6946 6947 6948 6949 6950 6951 6952 6953 6954 6955 6956 6957 6958 6959 6960 6961 6962 6963 6964 6965 6966 6967 6968 6969 6970 6971 6972 6973 6974 6975 6976 6977 6978 6979 6980 6981 6982 6983 6984 6985 6986 6987 6988 6989 6990 6991 6992 6993 6994 6995 6996 6997 6998 6999 7000 7001 7002 7003 7004 7005 7006 7007 7008 7009 7010 7011 7012 7013 7014 7015 7016 7017 7018 7019 7020 7021 7022 7023 7024 7025 7026 7027 7028 7029 7030 7031 7032 7033 7034 7035 7036 7037 7038 7039 7040 7041 7042 7043 7044 7045 7046 7047 7048 7049 7050 7051 7052 7053 7054 7055 7056 7057 7058 7059 7060 7061 7062 7063 7064 7065 7066 7067 7068 7069 7070 7071 7072 7073 7074 7075 7076 7077 7078 7079 7080 7081 7082 7083 7084 7085 7086 7087 7088 7089 7090 7091 7092 7093 7094 7095 7096 7097 7098 7099 7100 7101 7102 7103 7104 7105 7106 7107 7108 7109 7110 7111 7112 7113 7114 7115 7116 7117 7118 7119 7120 7121 7122 7123 7124 7125 7126 7127 7128 7129 7130 7131 7132 7133 7134 7135 7136 7137 7138 7139 7140 7141 7142 7143 7144 7145 7146 7147 7148 7149 7150 7151 7152 7153 7154 7155 7156 7157 7158 7159 7160 7161 7162 7163 7164 7165 7166 7167 7168 7169 7170 7171 7172 7173 7174 7175 7176 7177 7178 7179 7180 7181 7182 7183 7184 7185 7186 7187 7188 7189 7190 7191 7192 7193 7194 7195 7196 7197 7198 7199 7200 7201 7202 7203 7204 7205 7206 7207 7208 7209 7210 7211 7212 7213 7214 7215 7216 7217 7218 7219 7220 7221 7222 7223 7224 7225 7226 7227 7228 7229 7230 7231 7232 7233 7234 7235 7236 7237 7238 7239 7240 7241 7242 7243 7244 7245 7246 7247 7248 7249 7250 7251 7252 7253 7254 7255 7256 7257 7258 7259 7260 7261 7262 7263 7264 7265 7266 7267 7268 7269 7270 7271 7272 7273 7274 7275 7276 7277 7278 7279 7280 7281 7282 7283 7284 7285 7286 7287 7288 7289 7290 7291 7292 7293 7294 7295 7296 7297 7298 7299 7300 7301 7302 7303 7304 7305 7306 7307 7308 7309 7310 7311 7312 7313 7314 7315 7316 7317 7318 7319 7320 7321 7322 7323 7324 7325 7326 7327 7328 7329 7330 7331 7332 7333 7334 7335 7336 7337 7338 7339 7340 7341 7342 7343 7344 7345 7346 7347 7348 7349 7350 7351 7352 7353 7354 7355 7356 7357 7358 7359 7360 7361 7362 7363 7364 7365 7366 7367 7368 7369 7370 7371 7372 7373 7374 7375 7376 7377 7378 7379 7380 7381 7382 7383 7384 7385 7386 7387 7388 7389 7390 7391 7392 7393 7394 7395 7396 7397 7398 7399 7400 7401 7402 7403 7404 7405 7406 7407 7408 7409 7410 7411 7412 7413 7414 7415 7416 7417 7418 7419 7420 7421 7422 7423 7424 7425 7426 7427 7428 7429 7430 7431 7432 7433 7434 7435 7436 7437 7438 7439 7440 7441 7442 7443 7444 7445 7446 7447 7448 7449 7450 7451 7452 7453 7454 7455 7456 7457 7458 7459 7460 7461 7462 7463 7464 7465 7466 7467 7468 7469 7470 7471 7472 7473 7474 7475 7476 7477 7478 7479 7480 7481 7482 7483 7484 7485 7486 7487 7488 7489 7490 7491 7492 7493 7494 7495 7496 7497 7498 7499 7500 7501 7502 7503 7504 7505 7506 7507 7508 7509 7510 7511 7512 7513 7514 7515 7516 7517 7518 7519 7520 7521 7522 7523 7524 7525 7526 7527 7528 7529 7530 7531 7532 7533 7534 7535 7536 7537 7538 7539 7540 7541 7542 7543 7544 7545 7546 7547 7548 7549 7550 7551 7552 7553 7554 7555 7556 7557 7558 7559 7560 7561 7562 7563 7564 7565 7566 7567 7568 7569 7570 7571 7572 7573 7574 7575 7576 7577 7578 7579 7580 7581 7582 7583 7584 7585 7586 7587 7588 7589 7590 7591 7592 7593 7594 7595 7596 7597 7598 7599 7600 7601 7602 7603 7604 7605 7606 7607 7608 7609 7610 7611 7612 7613 7614 7615 7616 7617 7618 7619 7620 7621 7622 7623 7624 7625 7626 7627 7628 7629 7630 7631 7632 7633 7634 7635 7636 7637 7638 7639 7640 7641 7642 7643 7644 7645 7646 7647 7648 7649 7650 7651 7652 7653 7654 7655 7656 7657 7658 7659 7660 7661 7662 7663 7664 7665 7666 7667 7668 7669 7670 7671 7672 7673 7674 7675 7676 7677 7678 7679 7680 7681 7682 7683 7684 7685 7686 7687 7688 7689 7690 7691 7692 7693 7694 7695 7696 7697 7698 7699 7700 7701 7702 7703 7704 7705 7706 7707 7708 7709 7710 7711 7712 7713 7714 7715 7716 7717 7718 7719 7720 7721 7722 7723 7724 7725 7726 7727 7728 7729 7730 7731 7732 7733 7734 7735 7736 7737 7738 7739 7740 7741 7742 7743 7744 7745 7746 7747 7748 7749 7750 7751 7752 7753 7754 7755 7756 7757 7758 7759 7760 7761 7762 7763 7764 7765 7766 7767 7768 7769 7770 7771 7772 7773 7774 7775 7776 7777 7778 7779 7780 7781 7782 7783 7784 7785 7786 7787 7788 7789 7790 7791 7792 7793 7794 7795 7796 7797 7798 7799 7800 7801 7802 7803 7804 7805 7806 7807 7808 7809 7810 7811 7812 7813 7814 7815 7816 7817 7818 7819 7820 7821 7822 7823 7824 7825 7826 7827 7828 7829 7830 7831 7832 7833 7834 7835 7836 7837 7838 7839 7840 7841 7842 7843 7844 7845 7846 7847 7848 7849 7850 7851 7852 7853 7854 7855 7856 7857 7858 7859 7860 7861 7862 7863 7864 7865 7866 7867 7868 7869 7870 7871 7872 7873 7874 7875 7876 7877 7878 7879 7880 7881 7882 7883 7884 7885 7886 7887 7888 7889 7890 7891 7892 7893 7894 7895 7896 7897 7898 7899 7900 7901 7902 7903 7904 7905 7906 7907 7908 7909 7910 7911 7912 7913 7914 7915 7916 7917 7918 7919 7920 7921 7922 7923 7924 7925 7926 7927 7928 7929 7930 7931 7932 7933 7934 7935 7936 7937 7938 7939 7940 7941 7942 7943 7944 7945 7946 7947 7948 7949 7950 7951 7952 7953 7954 7955 7956 7957 7958 7959 7960 7961 7962 7963 7964 7965 7966 7967 7968 7969 7970 7971 7972 7973 7974 7975 7976 7977 7978 7979 7980 7981 7982 7983 7984 7985 7986 7987 7988 7989 7990 7991 7992 7993 7994 7995 7996 7997 7998 7999 8000 8001 8002 8003 8004 8005 8006 8007 8008 8009 8010 8011 8012 8013 8014 8015 8016 8017 8018 8019 8020 8021 8022 8023 8024 8025 8026 8027 8028 8029 8030 8031 8032 8033 8034 8035 8036 8037 8038 8039 8040 8041 8042 8043 8044 8045 8046 8047 8048 8049 8050 8051 8052 8053 8054 8055 8056 8057 8058 8059 8060 8061 8062 8063 8064 8065 8066 8067 8068 8069 8070 8071 8072 8073 8074 8075 8076 8077 8078 8079 8080 8081 8082 8083 8084 8085 8086 8087 8088 8089 8090 8091 8092 8093 8094 8095 8096 8097 8098 8099 8100 8101 8102 8103 8104 8105 8106 8107 8108 8109 8110 8111 8112 8113 8114 8115 8116 8117 8118 8119 8120 8121 8122 8123 8124 8125 8126 8127 8128 8129 8130 8131 8132 8133 8134 8135 8136 8137 8138 8139 8140 8141 8142 8143 8144 8145 8146 8147 8148 8149 8150 8151 8152 8153 8154 8155 8156 8157 8158 8159 8160 8161 8162 8163 8164 8165 8166 8167 8168 8169 8170 8171 8172 8173 8174 8175 8176 8177 8178 8179 8180 8181 8182 8183 8184 8185 8186 8187 8188 8189 8190 8191 8192 8193 8194 8195 8196 8197 8198 8199 8200 8201 8202 8203 8204 8205 8206 8207 8208 8209 8210 8211 8212 8213 8214 8215 8216 8217 8218 8219 8220 8221 8222 8223 8224 8225 8226 8227 8228 8229 8230 8231 8232 8233 8234 8235 8236 8237 8238 8239 8240 8241 8242 8243 8244 8245 8246 8247 8248 8249 8250 8251 8252 8253 8254 8255 8256 8257 8258 8259 8260 8261 8262 8263 8264 8265 8266 8267 8268 8269 8270 8271 8272 8273 8274 8275 8276 8277 8278 8279 8280 8281 8282 8283 8284 8285 8286 8287 8288 8289 8290 8291 8292 8293 8294 8295 8296 8297 8298 8299 8300 8301 8302 8303 8304 8305 8306 8307 8308 8309 8310 8311 8312 8313 8314 8315 8316 8317 8318 8319 8320 8321 8322 8323 8324 8325 8326 8327 8328 8329 8330 8331 8332 8333 8334 8335 8336 8337 8338 8339 8340 8341 8342 8343 8344 8345 8346 8347 8348 8349 8350 8351 8352 8353 8354 8355 8356 8357 8358 8359 8360 8361 8362 8363 8364 8365 8366 8367 8368 8369 8370 8371 8372 8373 8374 8375 8376 8377 8378 8379 8380 8381 8382 8383 8384 8385 8386 8387 8388 8389 8390 8391 8392 8393 8394 8395 8396 8397 8398 8399 8400 8401 8402 8403 8404 8405 8406 8407 8408 8409 8410 8411 8412 8413 8414 8415 8416 8417 8418 8419 8420 8421 8422 8423 8424 8425 8426 8427 8428 8429 8430 8431 8432 8433 8434 8435 8436 8437 8438 8439 8440 8441 8442 8443 8444 8445 8446 8447 8448 8449 8450 8451 8452 8453 8454 8455 8456 8457 8458 8459 8460 8461 8462 8463 8464 8465 8466 8467 8468 8469 8470 8471 8472 8473 8474 8475 8476 8477 8478 8479 8480 8481 8482 8483 8484 8485 8486 8487 8488 8489 8490 8491 8492 8493 8494 8495 8496 8497 8498 8499 8500 8501 8502 8503 8504 8505 8506 8507 8508 8509 8510 8511 8512 8513 8514 8515 8516 8517 8518 8519 8520 8521 8522 8523 8524 8525 8526 8527 8528 8529 8530 8531 8532 8533 8534 8535 8536 8537 8538 8539 8540 8541 8542 8543 8544 8545 8546 8547 8548 8549 8550 8551 8552 8553 8554 8555 8556 8557 8558 8559 8560 8561 8562 8563 8564 8565 8566 8567 8568 8569 8570 8571 8572 8573 8574 8575 8576 8577 8578 8579 8580 8581 8582 8583 8584 8585 8586 8587 8588 8589 8590 8591 8592 8593 8594 8595 8596 8597 8598 8599 8600 8601 8602 8603 8604 8605 8606 8607 8608 8609 8610 8611 8612 8613 8614 8615 8616 8617 8618 8619 8620 8621 8622 8623 8624 8625 8626 8627 8628 8629 8630 8631 8632 8633 8634 8635 8636 8637 8638 8639 8640 8641 8642 8643 8644 8645 8646 8647 8648 8649 8650 8651 8652 8653 8654 8655 8656 8657 8658 8659 8660 8661 8662 8663 8664 8665 8666 8667 8668 8669 8670 8671 8672 8673 8674 8675 8676 8677 8678 8679 8680 8681 8682 8683 8684 8685 8686 8687 8688 8689 8690 8691 8692 8693 8694 8695 8696 8697 8698 8699 8700 8701 8702 8703 8704 8705 8706 8707 8708 8709 8710 8711 8712 8713 8714 8715 8716 8717 8718 8719 8720 8721 8722 8723 8724 8725 8726 8727 8728 8729 8730 8731 8732 8733 8734 8735 8736 8737 8738 8739 8740 8741 8742 8743 8744 8745 8746 8747 8748 8749 8750 8751 8752 8753 8754 8755 8756 8757 8758 8759 8760 8761 8762 8763 8764 8765 8766 8767 8768 8769 8770 8771 8772 8773 8774 8775 8776 8777 8778 8779 8780 8781 8782 8783 8784 8785 8786 8787 8788 8789 8790 8791 8792 8793 8794 8795 8796 8797 8798 8799 8800 8801 8802 8803 8804 8805 8806 8807 8808 8809 8810 8811 8812 8813 8814 8815 8816 8817 8818 8819 8820 8821 8822 8823 8824 8825 8826 8827 8828 8829 8830 8831 8832 8833 8834 8835 8836 8837 8838 8839 8840 8841 8842 8843 8844 8845 8846 8847 8848 8849 8850 8851 8852 8853 8854 8855 8856 8857 8858 8859 8860 8861 8862 8863 8864 8865 8866 8867 8868 8869 8870 8871 8872 8873 8874 8875 8876 8877 8878 8879 8880 8881 8882 8883 8884 8885 8886 8887 8888 8889 8890 8891 8892 8893 8894 8895 8896 8897 8898 8899 8900 8901 8902 8903 8904 8905 8906 8907 8908 8909 8910 8911 8912 8913 8914 8915 8916 8917 8918 8919 8920 8921 8922 8923 8924 8925 8926 8927 8928 8929 8930 8931 8932 8933 8934 8935 8936 8937 8938 8939 8940 8941 8942 8943 8944 8945 8946 8947 8948 8949 8950 8951 8952 8953 8954 8955 8956 8957 8958 8959 8960 8961 8962 8963 8964 8965 8966 8967 8968 8969 8970 8971 8972 8973 8974 8975 8976 8977 8978 8979 8980 8981 8982 8983 8984 8985 8986 8987 8988 8989 8990 8991 8992 8993 8994 8995 8996 8997 8998 8999 9000 9001 9002 9003 9004 9005 9006 9007 9008 9009 9010 9011 9012 9013 9014 9015 9016 9017 9018 9019 9020 9021 9022 9023 9024 9025 9026 9027 9028 9029 9030 9031 9032 9033 9034 9035 9036 9037 9038 9039 9040 9041 9042 9043 9044 9045 9046 9047 9048 9049 9050 9051 9052 9053 9054 9055 9056 9057 9058 9059 9060 9061 9062 9063 9064 9065 9066 9067 9068 9069 9070 9071 9072 9073 9074 9075 9076 9077 9078 9079 9080 9081 9082 9083 9084 9085 9086 9087 9088 9089 9090 9091 9092 9093 9094 9095 9096 9097 9098 9099 9100 9101 9102 9103 9104 9105 9106 9107 9108 9109 9110 9111 9112 9113 9114 9115 9116 9117 9118 9119 9120 9121 9122 9123 9124 9125 9126 9127 9128 9129 9130 9131 9132 9133 9134 9135 9136 9137 9138 9139 9140 9141 9142 9143 9144 9145 9146 9147 9148 9149 9150 9151 9152 9153 9154 9155 9156 9157 9158 9159 9160 9161 9162 9163 9164 9165 9166 9167 9168 9169 9170 9171 9172 9173 9174 9175 9176 9177 9178 9179 9180 9181 9182 9183 9184 9185 9186 9187 9188 9189 9190 9191 9192 9193 9194 9195 9196 9197 9198 9199 9200 9201 9202 9203 9204 9205 9206 9207 9208 9209 9210 9211 9212 9213 9214 9215 9216 9217 9218 9219 9220 9221 9222 9223 9224 9225 9226 9227 9228 9229 9230 9231 9232 9233 9234 9235 9236 9237 9238 9239 9240 9241 9242 9243 9244 9245 9246 9247 9248 9249 9250 9251 9252 9253 9254 9255 9256 9257 9258 9259 9260 9261 9262 9263 9264 9265 9266 9267 9268 9269 9270 9271 9272 9273 9274 9275 9276 9277 9278 9279 9280 9281 9282 9283 9284 9285 9286 9287 9288 9289 9290 9291 9292 9293 9294 9295 9296 9297 9298 9299 9300 9301 9302 9303 9304 9305 9306 9307 9308 9309 9310 9311 9312 9313 9314 9315 9316 9317 9318 9319 9320 9321 9322 9323 9324 9325 9326 9327 9328 9329 9330 9331 9332 9333 9334 9335 9336 9337 9338 9339 9340 9341 9342 9343 9344 9345 9346 9347 9348 9349 9350 9351 9352 9353 9354 9355 9356 9357 9358 9359 9360 9361 9362 9363 9364 9365 9366 9367 9368 9369 9370 9371 9372 9373 9374 9375 9376 9377 9378 9379 9380 9381 9382 9383 9384 9385 9386 9387 9388 9389 9390 9391 9392 9393 9394 9395 9396 9397 9398 9399 9400 9401 9402 9403 9404 9405 9406 9407 9408 9409 9410 9411 9412 9413 9414 9415 9416 9417 9418 9419 9420 9421 9422 9423 9424 9425 9426 9427 9428 9429 9430 9431 9432 9433 9434 9435 9436 9437 9438 9439 9440 9441 9442 9443 9444 9445 9446 9447 9448 9449 9450 9451 9452 9453 9454 9455 9456 9457 9458 9459 9460 9461 9462 9463 9464 9465 9466 9467 9468 9469 9470 9471 9472 9473 9474 9475 9476 9477 9478 9479 9480 9481 9482 9483 9484 9485 9486 9487 9488 9489 9490 9491 9492 9493 9494 9495 9496 9497 9498 9499 9500 9501 9502 9503 9504 9505 9506 9507 9508 9509 9510 9511 9512 9513 9514 9515 9516 9517 9518 9519 9520 9521 9522 9523 9524 9525 9526 9527 9528 9529 9530 9531 9532 9533 9534 9535 9536 9537 9538 9539 9540 9541 9542 9543 9544 9545 9546 9547 9548 9549 9550 9551 9552 9553 9554 9555 9556 9557 9558 9559 9560 9561 9562 9563 9564 9565 9566 9567 9568 9569 9570 9571 9572 9573 9574 9575 9576 9577 9578 9579 9580 9581 9582 9583 9584 9585 9586 9587 9588 9589 9590 9591 9592 9593 9594 9595 9596 9597 9598 9599 9600 9601 9602 9603 9604 9605 9606 9607 9608 9609 9610 9611 9612 9613 9614 9615 9616 9617 9618 9619 9620 9621 9622 9623 9624 9625 9626 9627 9628 9629 9630 9631 9632 9633 9634 9635 9636 9637 9638 9639 9640 9641 9642 9643 9644 9645 9646 9647 9648 9649 9650 9651 9652 9653 9654 9655 9656 9657 9658 9659 9660 9661 9662 9663 9664 9665 9666 9667 9668 9669 9670 9671 9672 9673 9674 9675 9676 9677 9678 9679 9680 9681 9682 9683 9684 9685 9686 9687 9688 9689 9690 9691 9692 9693 9694 9695 9696 9697 9698 9699 9700 9701 9702 9703 9704 9705 9706 9707 9708 9709 9710 9711 9712 9713 9714 9715 9716 9717 9718 9719 9720 9721 9722 9723 9724 9725 9726 9727 9728 9729 9730 9731 9732 9733 9734 9735 9736 9737 9738 9739 9740 9741 9742 9743 9744 9745 9746 9747 9748 9749 9750 9751 9752 9753 9754 9755 9756 9757 9758 9759 9760 9761 9762 9763 9764 9765 9766 9767 9768 9769 9770 9771 9772 9773 9774 9775 9776 9777 9778 9779 9780 9781 9782 9783 9784 9785 9786 9787 9788 9789 9790 9791 9792 9793 9794 9795 9796 9797 9798 9799 9800 9801 9802 9803 9804 9805 9806 9807 9808 9809 9810 9811 9812 9813 9814 9815 9816 9817 9818 9819 9820 9821 9822 9823 9824 9825 9826 9827 9828 9829 9830 9831 9832 9833 9834 9835 9836 9837 9838 9839 9840 9841 9842 9843 9844 9845 9846 9847 9848 9849 9850 9851 9852 9853 9854 9855 9856 9857 9858 9859 9860 9861 9862 9863 9864 9865 9866 9867 9868 9869 9870 9871 9872 9873 9874 9875 9876 9877 9878 9879 9880 9881 9882 9883 9884 9885 9886 9887 9888 9889 9890 9891 9892 9893 9894 9895 9896 9897 9898 9899 9900 9901 9902 9903 9904 9905 9906 9907 9908 9909 9910 9911 9912 9913 9914 9915 9916 9917 9918 9919 9920 9921 9922 9923 9924 9925 9926 9927 9928 9929 9930 9931 9932 9933 9934 9935 9936 9937 9938 9939 9940 9941 9942 9943 9944 9945 9946 9947 9948 9949 9950 9951 9952 9953 9954 9955 9956 9957 9958 9959 9960 9961 9962 9963 9964 9965 9966 9967 9968 9969 9970 9971 9972 9973 9974 9975 9976 9977 9978 9979 9980 9981 9982 9983 9984 9985 9986 9987 9988 9989 9990 9991 9992 9993 9994 9995 9996 9997 9998 9999 10000 10001 10002 10003 10004 10005 10006 10007 10008 10009 10010 10011 10012 10013 10014 10015 10016 10017 10018 10019 10020 10021 10022 10023 10024 10025 10026 10027 10028 10029 10030 10031 10032 10033 10034 10035 10036 10037 10038 10039 10040 10041 10042 10043 10044 10045 10046 10047 10048 10049 10050 10051 10052 10053 10054 10055 10056 10057 10058 10059 10060 10061 10062 10063 10064 10065 10066 10067 10068 10069 10070 10071 10072 10073 10074 10075 10076 10077 10078 10079 10080 10081 10082 10083 10084 10085 10086 10087 10088 10089 10090 10091 10092 10093 10094 10095 10096 10097 10098 10099 10100 10101 10102 10103 10104 10105 10106 10107 10108 10109 10110 10111 10112 10113 10114 10115 10116 10117 10118 10119 10120 10121 10122 10123 10124 10125 10126 10127 10128 10129 10130 10131 10132 10133 10134 10135 10136 10137 10138 10139 10140 10141 10142 10143 10144 10145 10146 10147 10148 10149 10150 10151 10152 10153 10154 10155 10156 10157 10158 10159 10160 10161 10162 10163 10164 10165 10166 10167 10168 10169 10170 10171 10172 10173 10174 10175 10176 10177 10178 10179 10180 10181 10182 10183 10184 10185 10186 10187 10188 10189 10190 10191 10192 10193 10194 10195 10196 10197 10198 10199 10200 10201 10202 10203 10204 10205 10206 10207 10208 10209 10210 10211 10212 10213 10214 10215 10216 10217 10218 10219 10220 10221 10222 10223 10224 10225 10226 10227 10228 10229 10230 10231 10232 10233 10234 10235 10236 10237 10238 10239 10240 10241 10242 10243 10244 10245 10246 10247 10248 10249 10250 10251 10252 10253 10254 10255 10256 10257 10258 10259 10260 10261 10262 10263 10264 10265 10266 10267 10268 10269 10270 10271 10272 10273 10274 10275 10276 10277 10278 10279 10280 10281 10282 10283 10284 10285 10286 10287 10288 10289 10290 10291 10292 10293 10294 10295 10296 10297 10298 10299 10300 10301 10302 10303 10304 10305 10306 10307 10308 10309 10310 10311 10312 10313 10314 10315 10316 10317 10318 10319 10320 10321 10322 10323 10324 10325 10326 10327 10328 10329 10330 10331 10332 10333 10334 10335 10336 10337 10338 10339 10340 10341 10342 10343 10344 10345 10346 10347 10348 10349 10350 10351 10352 10353 10354 10355 10356 10357 10358 10359 10360 10361 10362 10363 10364 10365 10366 10367 10368 10369 10370 10371 10372 10373 10374 10375 10376 10377 10378 10379 10380 10381 10382 10383 10384 10385 10386 10387 10388 10389 10390 10391 10392 10393 10394 10395 10396 10397 10398 10399 10400 10401 10402 10403 10404 10405 10406 10407 10408 10409 10410 10411 10412 10413 10414 10415 10416 10417 10418 10419 10420 10421 10422 10423 10424 10425 10426 10427 10428 10429 10430 10431 10432 10433 10434 10435 10436 10437 10438 10439 10440 10441 10442 10443 10444 10445 10446 10447 10448 10449 10450 10451 10452 10453 10454 10455 10456 10457 10458 10459 10460 10461 10462 10463 10464 10465 10466 10467 10468 10469 10470 10471 10472 10473 10474 10475 10476 10477 10478 10479 10480 10481 10482 10483 10484 10485 10486 10487 10488 10489 10490 10491 10492 10493 10494 10495 10496 10497 10498 10499 10500 10501 10502 10503 10504 10505 10506 10507 10508 10509 10510 10511 10512 10513 10514 10515 10516 10517 10518 10519 10520 10521 10522 10523 10524 10525 10526 10527 10528 10529 10530 10531 10532 10533 10534 10535 10536 10537 10538 10539 10540 10541 10542 10543 10544 10545 10546 10547 10548 10549 10550 10551 10552 10553 10554 10555 10556 10557 10558 10559 10560 10561 10562 10563 10564 10565 10566 10567 10568 10569 10570 10571 10572 10573 10574 10575 10576 10577 10578 10579 10580 10581 10582 10583 10584 10585 10586 10587 10588 10589 10590 10591 10592 10593 10594 10595 10596 10597 10598 10599 10600 10601 10602 10603 10604 10605 10606 10607 10608 10609 10610 10611 10612 10613 10614 10615 10616 10617 10618 10619 10620 10621 10622 10623 10624 10625 10626 10627 10628 10629 10630 10631 10632 10633 10634 10635 10636 10637 10638 10639 10640 10641 10642 10643 10644 10645 10646 10647 10648 10649 10650 10651 10652 10653 10654 10655 10656 10657 10658 10659 10660 10661 10662 10663 10664 10665 10666 10667 10668 10669 10670 10671 10672 10673 10674 10675 10676 10677 10678 10679 10680 10681 10682 10683 10684 10685 10686 10687 10688 10689 10690 10691 10692 10693 10694 10695 10696 10697 10698 10699 10700 10701 10702 10703 10704 10705 10706 10707 10708 10709 10710 10711 10712 10713 10714 10715 10716 10717 10718 10719 10720 10721 10722 10723 10724 10725 10726 10727 10728 10729 10730 10731 10732 10733 10734 10735 10736 10737 10738 10739 10740 10741 10742 10743 10744 10745 10746 10747 10748 10749 10750 10751 10752 10753 10754 10755 10756 10757 10758 10759 10760 10761 10762 10763 10764 10765 10766 10767 10768 10769 10770 10771 10772 10773 10774 10775 10776 10777 10778 10779 10780 10781 10782 10783 10784 10785 10786 10787 10788 10789 10790 10791 10792 10793 10794 10795 10796 10797 10798 10799 10800 10801 10802 10803 10804 10805 10806 10807 10808 10809 10810 10811 10812 10813 10814 10815 10816 10817 10818 10819 10820 10821 10822 10823 10824 10825 10826 10827 10828 10829 10830 10831 10832 10833 10834 10835 10836 10837 10838 10839 10840 10841 10842 10843 10844 10845 10846 10847 10848 10849 10850 10851 10852 10853 10854 10855 10856 10857 10858 10859 10860 10861 10862 10863 10864 10865 10866 10867 10868 10869 10870 10871 10872 10873 10874 10875 10876 10877 10878 10879 10880 10881 10882 10883 10884 10885 10886 10887 10888 10889 10890 10891 10892 10893 10894 10895 10896 10897 10898 10899 10900 10901 10902 10903 10904 10905 10906 10907 10908 10909 10910 10911 10912 10913 10914 10915 10916 10917 10918 10919 10920 10921 10922 10923 10924 10925 10926 10927 10928 10929 10930 10931 10932 10933 10934 10935 10936 10937 10938 10939 10940 10941 10942 10943 10944 10945 10946 10947 10948 10949 10950 10951 10952 10953 10954 10955 10956 10957 10958 10959 10960 10961 10962 10963 10964 10965 10966 10967 10968 10969 10970 10971 10972 10973 10974 10975 10976 10977 10978 10979 10980 10981 10982 10983 10984 10985 10986 10987 10988 10989 10990 10991 10992 10993 10994 10995 10996 10997 10998 10999 11000 11001 11002 11003 11004 11005 11006 11007 11008 11009 11010 11011 11012 11013 11014 11015 11016 11017 11018 11019 11020 11021 11022 11023 11024 11025 11026 11027 11028 11029 11030 11031 11032 11033 11034 11035 11036 11037 11038 11039 11040 11041 11042 11043 11044 11045 11046 11047 11048 11049 11050 11051 11052 11053 11054 11055 11056 11057 11058 11059 11060 11061 11062 11063 11064 11065 11066 11067 11068 11069 11070 11071 11072 11073 11074 11075 11076 11077 11078 11079 11080 11081 11082 11083 11084 11085 11086 11087 11088 11089 11090 11091 11092 11093 11094 11095 11096 11097 11098 11099 11100 11101 11102 11103 11104 11105 11106 11107 11108 11109 11110 11111 11112 11113 11114 11115 11116 11117 11118 11119 11120 11121 11122 11123 11124 11125 11126 11127 11128 11129 11130 11131 11132 11133 11134 11135 11136 11137 11138 11139 11140 11141 11142 11143 11144 11145 11146 11147 11148 11149 11150 11151 11152 11153 11154 11155 11156 11157 11158 11159 11160 11161 11162 11163 11164 11165 11166 11167 11168 11169 11170 11171 11172 11173 11174 11175 11176 11177 11178 11179 11180 11181 11182 11183 11184 11185 11186 11187 11188 11189 11190 11191 11192 11193 11194 11195 11196 11197 11198 11199 11200 11201 11202 11203 11204 11205 11206 11207 11208 11209 11210 11211 11212 11213 11214 11215 11216 11217 11218 11219 11220 11221 11222 11223 11224 11225 11226 11227 11228 11229 11230 11231 11232 11233 11234 11235 11236 11237 11238 11239 11240 11241 11242 11243 11244 11245 11246 11247 11248 11249 11250 11251 11252 11253 11254 11255 11256 11257 11258 11259 11260 11261 11262 11263 11264 11265 11266 11267 11268 11269 11270 11271 11272 11273 11274 11275 11276 11277 11278 11279 11280 11281 11282 11283 11284 11285 11286 11287 11288 11289 11290 11291 11292 11293 11294 11295 11296 11297 11298 11299 11300 11301 11302 11303 11304 11305 11306 11307 11308 11309 11310 11311 11312 11313 11314 11315 11316 11317 11318 11319 11320 11321 11322 11323 11324 11325 11326 11327 11328 11329 11330 11331 11332 11333 11334 11335 11336 11337 11338 11339 11340 11341 11342 11343 11344 11345 11346 11347 11348 11349 11350 11351 11352 11353 11354 11355 11356 11357 11358 11359 11360 11361 11362 11363 11364 11365 11366 11367 11368 11369 11370 11371 11372 11373 11374 11375 11376 11377 11378 11379 11380 11381 11382 11383 11384 11385 11386 11387 11388 11389 11390 11391 11392 11393 11394 11395 11396 11397 11398 11399 11400 11401 11402 11403 11404 11405 11406 11407 11408 11409 11410 11411 11412 11413 11414 11415 11416 11417 11418 11419 11420 11421 11422 11423 11424 11425 11426 11427 11428 11429 11430 11431 11432 11433 11434 11435 11436 11437 11438 11439 11440 11441 11442 11443 11444 11445 11446 11447 11448 11449 11450 11451 11452 11453 11454 11455 11456 11457 11458 11459 11460 11461 11462 11463 11464 11465 11466 11467 11468 11469 11470 11471 11472 11473 11474 11475 11476 11477 11478 11479 11480 11481 11482 11483 11484 11485 11486 11487 11488 11489 11490 11491 11492 11493 11494 11495 11496 11497 11498 11499 11500 11501 11502 11503 11504 11505 11506 11507 11508 11509 11510 11511 11512 11513 11514 11515 11516 11517 11518 11519 11520 11521 11522 11523 11524 11525 11526 11527 11528 11529 11530 11531 11532 11533 11534 11535 11536 11537 11538 11539 11540 11541 11542 11543 11544 11545 11546 11547 11548 11549 11550 11551 11552 11553 11554 11555 11556 11557 11558 11559 11560 11561 11562 11563 11564 11565 11566 11567 11568 11569 11570 11571 11572 11573 11574 11575 11576 11577 11578 11579 11580 11581 11582 11583 11584 11585 11586 11587 11588 11589 11590 11591 11592 11593 11594 11595 11596 11597 11598 11599 11600 11601 11602 11603 11604 11605 11606 11607 11608 11609 11610 11611 11612 11613 11614 11615 11616 11617 11618 11619 11620 11621 11622 11623 11624 11625 11626 11627 11628 11629 11630 11631 11632 11633 11634 11635 11636 11637 11638 11639 11640 11641 11642 11643 11644 11645 11646 11647 11648 11649 11650 11651 11652 11653 11654 11655 11656 11657 11658 11659 11660 11661 11662 11663 11664 11665 11666 11667 11668 11669 11670 11671 11672 11673 11674 11675 11676 11677 11678 11679 11680 11681 11682 11683 11684 11685 11686 11687 11688 11689 11690 11691 11692 11693 11694 11695 11696 11697 11698 11699 11700 11701 11702 11703 11704 11705 11706 11707 11708 11709 11710 11711 11712 11713 11714 11715 11716 11717 11718 11719 11720 11721 11722 11723 11724 11725 11726 11727 11728 11729 11730 11731 11732 11733 11734 11735 11736 11737 11738 11739 11740 11741 11742 11743 11744 11745 11746 11747 11748 11749 11750 11751 11752 11753 11754 11755 11756 11757 11758 11759 11760 11761 11762 11763 11764 11765 11766 11767 11768 11769 11770 11771 11772 11773 11774 11775 11776 11777 11778 11779 11780 11781 11782 11783 11784 11785 11786 11787 11788 11789 11790 11791 11792 11793 11794 11795 11796 11797 11798 11799 11800 11801 11802 11803 11804 11805 11806 11807 11808 11809 11810 11811 11812 11813 11814 11815 11816 11817 11818 11819 11820 11821 11822 11823 11824 11825 11826 11827 11828 11829 11830 11831 11832 11833 11834 11835 11836 11837 11838 11839 11840 11841 11842 11843 11844 11845 11846 11847 11848 11849 11850 11851 11852 11853 11854 11855 11856 11857 11858 11859 11860 11861 11862 11863 11864 11865 11866 11867 11868 11869 11870 11871 11872 11873 11874 11875 11876 11877 11878 11879 11880 11881 11882 11883 11884 11885 11886 11887 11888 11889 11890 11891 11892 11893 11894 11895 11896 11897 11898 11899 11900 11901 11902 11903 11904 11905 11906 11907 11908 11909 11910 11911 11912 11913 11914 11915 11916 11917 11918 11919 11920 11921 11922 11923 11924 11925 11926 11927 11928 11929 11930 11931 11932 11933 11934 11935 11936 11937 11938 11939 11940 11941 11942 11943 11944 11945 11946 11947 11948 11949 11950 11951 11952 11953 11954 11955 11956 11957 11958 11959 11960 11961 11962 11963 11964 11965 11966 11967 11968 11969 11970 11971 11972 11973 11974 11975 11976 11977 11978 11979 11980 11981 11982 11983 11984 11985 11986 11987 11988 11989 11990 11991 11992 11993 11994 11995 11996 11997 11998 11999 12000 12001 12002 12003 12004 12005 12006 12007 12008 12009 12010 12011 12012 12013 12014 12015 12016 12017 12018 12019 12020 12021 12022 12023 12024 12025 12026 12027 12028 12029 12030 12031 12032 12033 12034 12035 12036 12037 12038 12039 12040 12041 12042 12043 12044 12045 12046 12047 12048 12049 12050 12051 12052 12053 12054 12055 12056 12057 12058 12059 12060 12061 12062 12063 12064 12065 12066 12067 12068 12069 12070 12071 12072 12073 12074 12075 12076 12077 12078 12079 12080 12081 12082 12083 12084 12085 12086 12087 12088 12089 12090 12091 12092 12093 12094 12095 12096 12097 12098 12099 12100 12101 12102 12103 12104 12105 12106 12107 12108 12109 12110 12111 12112 12113 12114 12115 12116 12117 12118 12119 12120 12121 12122 12123 12124 12125 12126 12127 12128 12129 12130 12131 12132 12133 12134 12135 12136 12137 12138 12139 12140 12141 12142 12143 12144 12145 12146 12147 12148 12149 12150 12151 12152 12153 12154 12155 12156 12157 12158 12159 12160 12161 12162 12163 12164 12165 12166 12167 12168 12169 12170 12171 12172 12173 12174 12175 12176 12177 12178 12179 12180 12181 12182 12183 12184 12185 12186 12187 12188 12189 12190 12191 12192 12193 12194 12195 12196 12197 12198 12199 12200 12201 12202 12203 12204 12205 12206 12207 12208 12209 12210 12211 12212 12213 12214 12215 12216 12217 12218 12219 12220 12221 12222 12223 12224 12225 12226 12227 12228 12229 12230 12231 12232 12233 12234 12235 12236 12237 12238 12239 12240 12241 12242 12243 12244 12245 12246 12247 12248 12249 12250 12251 12252 12253 12254 12255 12256 12257 12258 12259 12260 12261 12262 12263 12264 12265 12266 12267 12268 12269 12270 12271 12272 12273 12274 12275 12276 12277 12278 12279 12280 12281 12282 12283 12284 12285 12286 12287 12288 12289 12290 12291 12292 12293 12294 12295 12296 12297 12298 12299 12300 12301 12302 12303 12304 12305 12306 12307 12308 12309 12310 12311 12312 12313 12314 12315 12316 12317 12318 12319 12320 12321 12322 12323 12324 12325 12326 12327 12328 12329 12330 12331 12332 12333 12334 12335 12336 12337 12338 12339 12340 12341 12342 12343 12344 12345 12346 12347 12348 12349 12350 12351 12352 12353 12354 12355 12356 12357 12358 12359 12360 12361 12362 12363 12364 12365 12366 12367 12368 12369 12370 12371 12372 12373 12374 12375 12376 12377 12378 12379 12380 12381 12382 12383 12384 12385 12386 12387 12388 12389 12390 12391 12392 12393 12394 12395 12396 12397 12398 12399 12400 12401 12402 12403 12404 12405 12406 12407 12408 12409 12410 12411 12412 12413 12414 12415 12416 12417 12418 12419 12420 12421 12422 12423 12424 12425 12426 12427 12428 12429 12430 12431 12432 12433 12434 12435 12436 12437 12438 12439 12440 12441 12442 12443 12444 12445 12446 12447 12448 12449 12450 12451 12452 12453 12454 12455 12456 12457 12458 12459 12460 12461 12462 12463 12464 12465 12466 12467 12468 12469 12470 12471 12472 12473 12474 12475 12476 12477 12478 12479 12480 12481 12482 12483 12484 12485 12486 12487 12488 12489 12490 12491 12492 12493 12494 12495 12496 12497 12498 12499 12500 12501 12502 12503 12504 12505 12506 12507 12508 12509 12510 12511 12512 12513 12514 12515 12516 12517 12518 12519 12520 12521 12522 12523 12524 12525 12526 12527 12528 12529 12530 12531 12532 12533 12534 12535 12536 12537 12538 12539 12540 12541 12542 12543 12544 12545 12546 12547 12548 12549 12550 12551 12552 12553 12554 12555 12556 12557 12558 12559 12560 12561 12562 12563 12564 12565 12566 12567 12568 12569 12570 12571 12572 12573 12574 12575 12576 12577 12578 12579 12580 12581 12582 12583 12584 12585 12586 12587 12588 12589 12590 12591 12592 12593 12594 12595 12596 12597 12598 12599 12600 12601 12602 12603 12604 12605 12606 12607 12608 12609 12610 12611 12612 12613 12614 12615 12616 12617 12618 12619 12620 12621 12622 12623 12624 12625 12626 12627 12628 12629 12630 12631 12632 12633 12634 12635 12636 12637 12638 12639 12640 12641 12642 12643 12644 12645 12646 12647 12648 12649 12650 12651 12652 12653 12654 12655 12656 12657 12658 12659 12660 12661 12662 12663 12664 12665 12666 12667 12668 12669 12670 12671 12672 12673 12674 12675 12676 12677 12678 12679 12680 12681 12682 12683 12684 12685 12686 12687 12688 12689 12690 12691 12692 12693 12694 12695 12696 12697 12698 12699 12700 12701 12702 12703 12704 12705 12706 12707 12708 12709 12710 12711 12712 12713 12714 12715 12716 12717 12718 12719 12720 12721 12722 12723 12724 12725 12726 12727 12728 12729 12730 12731 12732 12733 12734 12735 12736 12737 12738 12739 12740 12741 12742 12743 12744 12745 12746 12747 12748 12749 12750 12751 12752 12753 12754 12755 12756 12757 12758 12759 12760 12761 12762 12763 12764 12765 12766 12767 12768 12769 12770 12771 12772 12773 12774 12775 12776 12777 12778 12779 12780 12781 12782 12783 12784 12785 12786 12787 12788 12789 12790 12791 12792 12793 12794 12795 12796 12797 12798 12799 12800 12801 12802 12803 12804 12805 12806 12807 12808 12809 12810 12811 12812 12813 12814 12815 12816 12817 12818 12819 12820 12821 12822 12823 12824 12825 12826 12827 12828 12829 12830 12831 12832 12833 12834 12835 12836 12837 12838 12839 12840 12841 12842 12843 12844 12845 12846 12847 12848 12849 12850 12851 12852 12853 12854 12855 12856 12857 12858 12859 12860 12861 12862 12863 12864 12865 12866 12867 12868 12869 12870 12871 12872 12873 12874 12875 12876 12877 12878 12879 12880 12881 12882 12883 12884 12885 12886 12887 12888 12889 12890 12891 12892 12893 12894 12895 12896 12897 12898 12899 12900 12901 12902 12903 12904 12905 12906 12907 12908 12909 12910 12911 12912 12913 12914 12915 12916 12917 12918 12919 12920 12921 12922 12923 12924 12925 12926 12927 12928 12929 12930 12931 12932 12933 12934 12935 12936 12937 12938 12939 12940 12941 12942 12943 12944 12945 12946 12947 12948 12949 12950 12951 12952 12953 12954 12955 12956 12957 12958 12959 12960 12961 12962 12963 12964 12965 12966 12967 12968 12969 12970 12971 12972 12973 12974 12975 12976 12977 12978 12979 12980 12981 12982 12983 12984 12985 12986 12987 12988 12989 12990 12991 12992 12993 12994 12995 12996 12997 12998 12999 13000 13001 13002 13003 13004 13005 13006 13007 13008 13009 13010 13011 13012 13013 13014 13015 13016 13017 13018 13019 13020 13021 13022 13023 13024 13025 13026 13027 13028 13029 13030 13031 13032 13033 13034 13035 13036 13037 13038 13039 13040 13041 13042 13043 13044 13045 13046 13047 13048 13049 13050 13051 13052 13053 13054 13055 13056 13057 13058 13059 13060 13061 13062 13063 13064 13065 13066 13067 13068 13069 13070 13071 13072 13073 13074 13075 13076 13077 13078 13079 13080 13081 13082 13083 13084 13085 13086 13087 13088 13089 13090 13091 13092 13093 13094 13095 13096 13097 13098 13099 13100 13101 13102 13103 13104 13105 13106 13107 13108 13109 13110 13111 13112 13113 13114 13115 13116 13117 13118 13119 13120 13121 13122 13123 13124 13125 13126 13127 13128 13129 13130 13131 13132 13133 13134 13135 13136 13137 13138 13139 13140 13141 13142 13143 13144 13145 13146 13147 13148 13149 13150 13151 13152 13153 13154 13155 13156 13157 13158 13159 13160 13161 13162 13163 13164 13165 13166 13167 13168 13169 13170 13171 13172 13173 13174 13175 13176 13177 13178 13179 13180 13181 13182 13183 13184 13185 13186 13187 13188 13189 13190 13191 13192 13193 13194 13195 13196 13197 13198 13199 13200 13201 13202 13203 13204 13205 13206 13207 13208 13209 13210 13211 13212 13213 13214 13215 13216 13217 13218 13219 13220 13221 13222 13223 13224 13225 13226 13227 13228 13229 13230 13231 13232 13233 13234 13235 13236 13237 13238 13239 13240 13241 13242 13243 13244 13245 13246 13247 13248 13249 13250 13251 13252 13253 13254 13255 13256 13257 13258 13259 13260 13261 13262 13263 13264 13265 13266 13267 13268 13269 13270 13271 13272 13273 13274 13275 13276 13277 13278 13279 13280 13281 13282 13283 13284 13285 13286 13287 13288 13289 13290 13291 13292 13293 13294 13295 13296 13297 13298 13299 13300 13301 13302 13303 13304 13305 13306 13307 13308 13309 13310 13311 13312 13313 13314 13315 13316 13317 13318 13319 13320 13321 13322 13323 13324 13325 13326 13327 13328 13329 13330 13331 13332 13333 13334 13335 13336 13337 13338 13339 13340 13341 13342 13343 13344 13345 13346 13347 13348 13349 13350 13351 13352 13353 13354 13355 13356 13357 13358 13359 13360 13361 13362 13363 13364 13365 13366 13367 13368 13369 13370 13371 13372 13373 13374 13375 13376 13377 13378 13379 13380 13381 13382 13383 13384 13385 13386 13387 13388 13389 13390 13391 13392 13393 13394 13395 13396 13397 13398 13399 13400 13401 13402 13403 13404 13405 13406 13407 13408 13409 13410 13411 13412 13413 13414 13415 13416 13417 13418 13419 13420 13421 13422 13423 13424 13425 13426 13427 13428 13429 13430 13431 13432 13433 13434 13435 13436 13437 13438 13439 13440 13441 13442 13443 13444 13445 13446 13447 13448 13449 13450 13451 13452 13453 13454 13455 13456 13457 13458 13459 13460 13461 13462 13463 13464 13465 13466 13467 13468 13469 13470 13471 13472 13473 13474 13475 13476 13477 13478 13479 13480 13481 13482 13483 13484 13485 13486 13487 13488 13489 13490 13491 13492 13493 13494 13495 13496 13497 13498 13499 13500 13501 13502 13503 13504 13505 13506 13507 13508 13509 13510 13511 13512 13513 13514 13515 13516 13517 13518 13519 13520 13521 13522 13523 13524 13525 13526 13527 13528 13529 13530 13531 13532 13533 13534 13535 13536 13537 13538 13539 13540 13541 13542 13543 13544 13545 13546 13547 13548 13549 13550 13551 13552 13553 13554 13555 13556 13557 13558 13559 13560 13561 13562 13563 13564 13565 13566 13567 13568 13569 13570 13571 13572 13573 13574 13575 13576 13577 13578 13579 13580 13581 13582 13583 13584 13585 13586 13587 13588 13589 13590 13591 13592 13593 13594 13595 13596 13597 13598 13599 13600 13601 13602 13603 13604 13605 13606 13607 13608 13609 13610 13611 13612 13613 13614 13615 13616 13617 13618 13619 13620 13621 13622 13623 13624 13625 13626 13627 13628 13629 13630 13631 13632 13633 13634 13635 13636 13637 13638 13639 13640 13641 13642 13643 13644 13645 13646 13647 13648 13649 13650 13651 13652 13653 13654 13655 13656 13657 13658 13659 13660 13661 13662 13663 13664 13665 13666 13667 13668 13669 13670 13671 13672 13673 13674 13675 13676 13677 13678 13679 13680 13681 13682 13683 13684 13685 13686 13687 13688 13689 13690 13691 13692 13693 13694 13695 13696 13697 13698 13699 13700 13701 13702 13703 13704 13705 13706 13707 13708 13709 13710 13711 13712 13713 13714 13715 13716 13717 13718 13719 13720 13721 13722 13723 13724 13725 13726 13727 13728 13729 13730 13731 13732 13733 13734 13735 13736 13737 13738 13739 13740 13741 13742 13743 13744 13745 13746 13747 13748 13749 13750 13751 13752 13753 13754 13755 13756 13757 13758 13759 13760 13761 13762 13763 13764 13765 13766 13767 13768 13769 13770 13771 13772 13773 13774 13775 13776 13777 13778 13779 13780 13781 13782 13783 13784 13785 13786 13787 13788 13789 13790 13791 13792 13793 13794 13795 13796 13797 13798 13799 13800 13801 13802 13803 13804 13805 13806 13807 13808 13809 13810 13811 13812 13813 13814 13815 13816 13817 13818 13819 13820 13821 13822 13823 13824 13825 13826 13827 13828 13829 13830 13831 13832 13833 13834 13835 13836 13837 13838 13839 13840 13841 13842 13843 13844 13845 13846 13847 13848 13849 13850 13851 13852 13853 13854 13855 13856 13857 13858 13859 13860 13861 13862 13863 13864 13865 13866 13867 13868 13869 13870 13871 13872 13873 13874 13875 13876 13877 13878 13879 13880 13881 13882 13883 13884 13885 13886 13887 13888 13889 13890 13891 13892 13893 13894 13895 13896 13897 13898 13899 13900 13901 13902 13903 13904 13905 13906 13907 13908 13909 13910 13911 13912 13913 13914 13915 13916 13917 13918 13919 13920 13921 13922 13923 13924 13925 13926 13927 13928 13929 13930 13931 13932 13933 13934 13935 13936 13937 13938 13939 13940 13941 13942 13943 13944 13945 13946 13947 13948 13949 13950 13951 13952 13953 13954 13955 13956 13957 13958 13959 13960 13961 13962 13963 13964 13965 13966 13967 13968 13969 13970 13971 13972 13973 13974 13975 13976 13977 13978 13979 13980 13981 13982 13983 13984 13985 13986 13987 13988 13989 13990 13991 13992 13993 13994 13995 13996 13997 13998 13999 14000 14001 14002 14003 14004 14005 14006 14007 14008 14009 14010 14011 14012 14013 14014 14015 14016 14017 14018 14019 14020 14021 14022 14023 14024 14025 14026 14027 14028 14029 14030 14031 14032 14033 14034 14035 14036 14037 14038 14039 14040 14041 14042 14043 14044 14045 14046 14047 14048 14049 14050 14051 14052 14053 14054 14055 14056 14057 14058 14059 14060 14061 14062 14063 14064 14065 14066 14067 14068 14069 14070 14071 14072 14073 14074 14075 14076 14077 14078 14079 14080 14081 14082 14083 14084 14085 14086 14087 14088 14089 14090 14091 14092 14093 14094 14095 14096 14097 14098 14099 14100 14101 14102 14103 14104 14105 14106 14107 14108 14109 14110 14111 14112 14113 14114 14115 14116 14117 14118 14119 14120 14121 14122 14123 14124 14125 14126 14127 14128 14129 14130 14131 14132 14133 14134 14135 14136 14137 14138 14139 14140 14141 14142 14143 14144 14145 14146 14147 14148 14149 14150 14151 14152 14153 14154 14155 14156 14157 14158 14159 14160 14161 14162 14163 14164 14165 14166 14167 14168 14169 14170 14171 14172 14173 14174 14175 14176 14177 14178 14179 14180 14181 14182 14183 14184 14185 14186 14187 14188 14189 14190 14191 14192 14193 14194 14195 14196 14197 14198 14199 14200 14201 14202 14203 14204 14205 14206 14207 14208 14209 14210 14211 14212 14213 14214 14215 14216 14217 14218 14219 14220 14221 14222 14223 14224 14225 14226 14227 14228 14229 14230 14231 14232 14233 14234 14235 14236 14237 14238 14239 14240 14241 14242 14243 14244 14245 14246 14247 14248 14249 14250 14251 14252 14253 14254 14255 14256 14257 14258 14259 14260 14261 14262 14263 14264 14265 14266 14267 14268 14269 14270 14271 14272 14273 14274 14275 14276 14277 14278 14279 14280 14281 14282 14283 14284 14285 14286 14287 14288 14289 14290 14291 14292 14293 14294 14295 14296 14297 14298 14299 14300 14301 14302 14303 14304 14305 14306 14307 14308 14309 14310 14311 14312 14313 14314 14315 14316 14317 14318 14319 14320 14321 14322 14323 14324 14325 14326 14327 14328 14329 14330 14331 14332 14333 14334 14335 14336 14337 14338 14339 14340 14341 14342 14343 14344 14345 14346 14347 14348 14349 14350 14351 14352 14353 14354 14355 14356 14357 14358 14359 14360 14361 14362 14363 14364 14365 14366 14367 14368 14369 14370 14371 14372 14373 14374 14375 14376 14377 14378 14379 14380 14381 14382 14383 14384 14385 14386 14387 14388 14389 14390 14391 14392 14393 14394 14395 14396 14397 14398 14399 14400 14401 14402 14403 14404 14405 14406 14407 14408 14409 14410 14411 14412 14413 14414 14415 14416 14417 14418 14419 14420 14421 14422 14423 14424 14425 14426 14427 14428 14429 14430 14431 14432 14433 14434 14435 14436 14437 14438 14439 14440 14441 14442 14443 14444 14445 14446 14447 14448 14449 14450 14451 14452 14453 14454 14455 14456 14457 14458 14459 14460 14461 14462 14463 14464 14465 14466 14467 14468 14469 14470 14471 14472 14473 14474 14475 14476 14477 14478 14479 14480 14481 14482 14483 14484 14485 14486 14487 14488 14489 14490 14491 14492 14493 14494 14495 14496 14497 14498 14499 14500 14501 14502 14503 14504 14505 14506 14507 14508 14509 14510 14511 14512 14513 14514 14515 14516 14517 14518 14519 14520 14521 14522 14523 14524 14525 14526 14527 14528 14529 14530 14531 14532 14533 14534 14535 14536 14537 14538 14539 14540 14541 14542 14543 14544 14545 14546 14547 14548 14549 14550 14551 14552 14553 14554 14555 14556 14557 14558 14559 14560 14561 14562 14563 14564 14565 14566 14567 14568 14569 14570 14571 14572 14573 14574 14575 14576 14577 14578 14579 14580 14581 14582 14583 14584 14585 14586 14587 14588 14589 14590 14591 14592 14593 14594 14595 14596 14597 14598 14599 14600 14601 14602 14603 14604 14605 14606 14607 14608 14609 14610 14611 14612 14613 14614 14615 14616 14617 14618 14619 14620 14621 14622 14623 14624 14625 14626 14627 14628 14629 14630 14631 14632 14633 14634 14635 14636 14637 14638 14639 14640 14641 14642 14643 14644 14645 14646 14647 14648 14649 14650 14651 14652 14653 14654 14655 14656 14657 14658 14659 14660 14661 14662 14663 14664 14665 14666 14667 14668 14669 14670 14671 14672 14673 14674 14675 14676 14677 14678 14679 14680 14681 14682 14683 14684 14685 14686 14687 14688 14689 14690 14691 14692 14693 14694 14695 14696 14697 14698 14699 14700 14701 14702 14703 14704 14705 14706 14707 14708 14709 14710 14711 14712 14713 14714 14715 14716 14717 14718 14719 14720 14721 14722 14723 14724 14725 14726 14727 14728 14729 14730 14731 14732 14733 14734 14735 14736 14737 14738 14739 14740 14741 14742 14743 14744 14745 14746 14747 14748 14749 14750 14751 14752 14753 14754 14755 14756 14757 14758 14759 14760 14761 14762 14763 14764 14765 14766 14767 14768 14769 14770 14771 14772 14773 14774 14775 14776 14777 14778 14779 14780 14781 14782 14783 14784 14785 14786 14787 14788 14789 14790 14791 14792 14793 14794 14795 14796 14797 14798 14799 14800 14801 14802 14803 14804 14805 14806 14807 14808 14809 14810 14811 14812 14813 14814 14815 14816 14817 14818 14819 14820 14821 14822 14823 14824 14825 14826 14827 14828 14829 14830 14831 14832 14833 14834 14835 14836 14837 14838 14839 14840 14841 14842 14843 14844 14845 14846 14847 14848 14849 14850 14851 14852 14853 14854 14855 14856 14857 14858 14859 14860 14861 14862 14863 14864 14865 14866 14867 14868 14869 14870 14871 14872 14873 14874 14875 14876 14877 14878 14879 14880 14881 14882 14883 14884 14885 14886 14887 14888 14889 14890 14891 14892 14893 14894 14895 14896 14897 14898 14899 14900 14901 14902 14903 14904 14905 14906 14907 14908 14909 14910 14911 14912 14913 14914 14915 14916 14917 14918 14919 14920 14921 14922 14923 14924 14925 14926 14927 14928 14929 14930 14931 14932 14933 14934 14935 14936 14937 14938 14939 14940 14941 14942 14943 14944 14945 14946 14947 14948 14949 14950 14951 14952 14953 14954 14955 14956 14957 14958 14959 14960 14961 14962 14963 14964 14965 14966 14967 14968 14969 14970 14971 14972 14973 14974 14975 14976 14977 14978 14979 14980 14981 14982 14983 14984 14985 14986 14987 14988 14989 14990 14991 14992 14993 14994 14995 14996 14997 14998 14999 15000 15001 15002 15003 15004 15005 15006 15007 15008 15009 15010 15011 15012 15013 15014 15015 15016 15017 15018 15019 15020 15021 15022 15023 15024 15025 15026 15027 15028 15029 15030 15031 15032 15033 15034 15035 15036 15037 15038 15039 15040 15041 15042 15043 15044 15045 15046 15047 15048 15049 15050 15051 15052 15053 15054 15055 15056 15057 15058 15059 15060 15061 15062 15063 15064 15065 15066 15067 15068 15069 15070 15071 15072 15073 15074 15075 15076 15077 15078 15079 15080 15081 15082 15083 15084 15085 15086 15087 15088 15089 15090 15091 15092 15093 15094 15095 15096 15097 15098 15099 15100 15101 15102 15103 15104 15105 15106 15107 15108 15109 15110 15111 15112 15113 15114 15115 15116 15117 15118 15119 15120 15121 15122 15123 15124 15125 15126 15127 15128 15129 15130 15131 15132 15133 15134 15135 15136 15137 15138 15139 15140 15141 15142 15143 15144 15145 15146 15147 15148 15149 15150 15151 15152 15153 15154 15155 15156 15157 15158 15159 15160 15161 15162 15163 15164 15165 15166 15167 15168 15169 15170 15171 15172 15173 15174 15175 15176 15177 15178 15179 15180 15181 15182 15183 15184 15185 15186 15187 15188 15189 15190 15191 15192 15193 15194 15195 15196 15197 15198 15199 15200 15201 15202 15203 15204 15205 15206 15207 15208 15209 15210 15211 15212 15213 15214 15215 15216 15217 15218 15219 15220 15221 15222 15223 15224 15225 15226 15227 15228 15229 15230 15231 15232 15233 15234 15235 15236 15237 15238 15239 15240 15241 15242 15243 15244 15245 15246 15247 15248 15249 15250 15251 15252 15253 15254 15255 15256 15257 15258 15259 15260 15261 15262 15263 15264 15265 15266 15267 15268 15269 15270 15271 15272 15273 15274 15275 15276 15277 15278 15279 15280 15281 15282 15283 15284 15285 15286 15287 15288 15289 15290 15291 15292 15293 15294 15295 15296 15297 15298 15299 15300 15301 15302 15303 15304 15305 15306 15307 15308 15309 15310 15311 15312 15313 15314 15315 15316 15317 15318 15319 15320 15321 15322 15323 15324 15325 15326 15327 15328 15329 15330 15331 15332 15333 15334 15335 15336 15337 15338 15339 15340 15341 15342 15343 15344 15345 15346 15347 15348 15349 15350 15351 15352 15353 15354 15355 15356 15357 15358 15359 15360 15361 15362 15363 15364 15365 15366 15367 15368 15369 15370 15371 15372 15373 15374 15375 15376 15377 15378 15379 15380 15381 15382 15383 15384 15385 15386 15387 15388 15389 15390 15391 15392 15393 15394 15395 15396 15397 15398 15399 15400 15401 15402 15403 15404 15405 15406 15407 15408 15409 15410 15411 15412 15413 15414 15415 15416 15417 15418 15419 15420 15421 15422 15423 15424 15425 15426 15427 15428 15429 15430 15431 15432 15433 15434 15435 15436 15437 15438 15439 15440 15441 15442 15443 15444 15445 15446 15447 15448 15449 15450 15451 15452 15453 15454 15455 15456 15457 15458 15459 15460 15461 15462 15463 15464 15465 15466 15467 15468 15469 15470 15471 15472 15473 15474 15475 15476 15477 15478 15479 15480 15481 15482 15483 15484 15485 15486 15487 15488 15489 15490 15491 15492 15493 15494 15495 15496 15497 15498 15499 15500 15501 15502 15503 15504 15505 15506 15507 15508 15509 15510 15511 15512 15513 15514 15515 15516 15517 15518 15519 15520 15521 15522 15523 15524 15525 15526 15527 15528 15529 15530 15531 15532 15533 15534 15535 15536 15537 15538 15539 15540 15541 15542 15543 15544 15545 15546 15547 15548 15549 15550 15551 15552 15553 15554 15555 15556 15557 15558 15559 15560 15561 15562 15563 15564 15565 15566 15567 15568 15569 15570 15571 15572 15573 15574 15575 15576 15577 15578 15579 15580 15581 15582 15583 15584 15585 15586 15587 15588 15589 15590 15591 15592 15593 15594 15595 15596 15597 15598 15599 15600 15601 15602 15603 15604 15605 15606 15607 15608 15609 15610 15611 15612 15613 15614 15615 15616 15617 15618 15619 15620 15621 15622 15623 15624 15625 15626 15627 15628 15629 15630 15631 15632 15633 15634 15635 15636 15637 15638 15639 15640 15641 15642 15643 15644 15645 15646 15647 15648 15649 15650 15651 15652 15653 15654 15655 15656 15657 15658 15659 15660 15661 15662 15663 15664 15665 15666 15667 15668 15669 15670 15671 15672 15673 15674 15675 15676 15677 15678 15679 15680 15681 15682 15683 15684 15685 15686 15687 15688 15689 15690 15691 15692 15693 15694 15695 15696 15697 15698 15699 15700 15701 15702 15703 15704 15705 15706 15707 15708 15709 15710 15711 15712 15713 15714 15715 15716 15717 15718 15719 15720 15721 15722 15723 15724 15725 15726 15727 15728 15729 15730 15731 15732 15733 15734 15735 15736 15737 15738 15739 15740 15741 15742 15743 15744 15745 15746 15747 15748 15749 15750 15751 15752 15753 15754 15755 15756 15757 15758 15759 15760 15761 15762 15763 15764 15765 15766 15767 15768 15769 15770 15771 15772 15773 15774 15775 15776 15777 15778 15779 15780 15781 15782 15783 15784 15785 15786 15787 15788 15789 15790 15791 15792 15793 15794 15795 15796 15797 15798 15799 15800 15801 15802 15803 15804 15805 15806 15807 15808 15809 15810 15811 15812 15813 15814 15815 15816 15817 15818 15819 15820 15821 15822 15823 15824 15825 15826 15827 15828 15829 15830 15831 15832 15833 15834 15835 15836 15837 15838 15839 15840 15841 15842 15843 15844 15845 15846 15847 15848 15849 15850 15851 15852 15853 15854 15855 15856 15857 15858 15859 15860 15861 15862 15863 15864 15865 15866 15867 15868 15869 15870 15871 15872 15873 15874 15875 15876 15877 15878 15879 15880 15881 15882 15883 15884 15885 15886 15887 15888 15889 15890 15891 15892 15893 15894 15895 15896 15897 15898 15899 15900 15901 15902 15903 15904 15905 15906 15907 15908 15909 15910 15911 15912 15913 15914 15915 15916 15917 15918 15919 15920 15921 15922 15923 15924 15925 15926 15927 15928 15929 15930 15931 15932 15933 15934 15935 15936 15937 15938 15939 15940 15941 15942 15943 15944 15945 15946 15947 15948 15949 15950 15951 15952 15953 15954 15955 15956 15957 15958 15959 15960 15961 15962 15963 15964 15965 15966 15967 15968 15969 15970 15971 15972 15973 15974 15975 15976 15977 15978 15979 15980 15981 15982 15983 15984 15985 15986 15987 15988 15989 15990 15991 15992 15993 15994 15995 15996 15997 15998 15999 16000 16001 16002 16003 16004 16005 16006 16007 16008 16009 16010 16011 16012 16013 16014 16015 16016 16017 16018 16019 16020 16021 16022 16023 16024 16025 16026 16027 16028 16029 16030 16031 16032 16033 16034 16035 16036 16037 16038 16039 16040 16041 16042 16043 16044 16045 16046 16047 16048 16049 16050 16051 16052 16053 16054 16055 16056 16057 16058 16059 16060 16061 16062 16063 16064 16065 16066 16067 16068 16069 16070 16071 16072 16073 16074 16075 16076 16077 16078 16079 16080 16081 16082 16083 16084 16085 16086 16087 16088 16089 16090 16091 16092 16093 16094 16095 16096 16097 16098 16099 16100 16101 16102 16103 16104 16105 16106 16107 16108 16109 16110 16111 16112 16113 16114 16115 16116 16117 16118 16119 16120 16121 16122 16123 16124 16125 16126 16127 16128 16129 16130 16131 16132 16133 16134 16135 16136 16137 16138 16139 16140 16141 16142 16143 16144 16145 16146 16147 16148 16149 16150 16151 16152 16153 16154 16155 16156 16157 16158 16159 16160 16161 16162 16163 16164 16165 16166 16167 16168 16169 16170 16171 16172 16173 16174 16175 16176 16177 16178 16179 16180 16181 16182 16183 16184 16185 16186 16187 16188 16189 16190 16191 16192 16193 16194 16195 16196 16197 16198 16199 16200 16201 16202 16203 16204 16205 16206 16207 16208 16209 16210 16211 16212 16213 16214 16215 16216 16217 16218 16219 16220 16221 16222 16223 16224 16225 16226 16227 16228 16229 16230 16231 16232 16233 16234 16235 16236 16237 16238 16239 16240 16241 16242 16243 16244 16245 16246 16247 16248 16249 16250 16251 16252 16253 16254 16255 16256 16257 16258 16259 16260 16261 16262 16263 16264 16265 16266 16267 16268 16269 16270 16271 16272 16273 16274 16275 16276 16277 16278 16279 16280 16281 16282 16283 16284 16285 16286 16287 16288 16289 16290 16291 16292 16293 16294 16295 16296 16297 16298 16299 16300 16301 16302 16303 16304 16305 16306 16307 16308 16309 16310 16311 16312 16313 16314 16315 16316 16317 16318 16319 16320 16321 16322 16323 16324 16325 16326 16327 16328 16329 16330 16331 16332 16333 16334 16335 16336 16337 16338 16339 16340 16341 16342 16343 16344 16345 16346 16347 16348 16349 16350 16351 16352 16353 16354 16355 16356 16357 16358 16359 16360 16361 16362 16363 16364 16365 16366 16367 16368 16369 16370 16371 16372 16373 16374 16375 16376 16377 16378 16379 16380 16381 16382 16383 16384 16385 16386 16387 16388 16389 16390 16391 16392 16393 16394 16395 16396 16397 16398 16399 16400 16401 16402 16403 16404 16405 16406 16407 16408 16409 16410 16411 16412 16413 16414 16415 16416 16417 16418 16419 16420 16421 16422 16423 16424 16425 16426 16427 16428 16429 16430 16431 16432 16433 16434 16435 16436 16437 16438 16439 16440 16441 16442 16443 16444 16445 16446 16447 16448 16449 16450 16451 16452 16453 16454 16455 16456 16457 16458 16459 16460 16461 16462 16463 16464 16465 16466 16467 16468 16469 16470 16471 16472 16473 16474 16475 16476 16477 16478 16479 16480 16481 16482 16483 16484 16485 16486 16487 16488 16489 16490 16491 16492 16493 16494 16495 16496 16497 16498 16499 16500 16501 16502 16503 16504 16505 16506 16507 16508 16509 16510 16511 16512 16513 16514 16515 16516 16517 16518 16519 16520 16521 16522 16523 16524 16525 16526 16527 16528 16529 16530 16531 16532 16533 16534 16535 16536 16537 16538 16539 16540 16541 16542 16543 16544 16545 16546 16547 16548 16549 16550 16551 16552 16553 16554 16555 16556 16557 16558 16559 16560 16561 16562 16563 16564 16565 16566 16567 16568 16569 16570 16571 16572 16573 16574 16575 16576 16577 16578 16579 16580 16581 16582 16583 16584 16585 16586 16587 16588 16589 16590 16591 16592 16593 16594 16595 16596 16597 16598 16599 16600 16601 16602 16603 16604 16605 16606 16607 16608 16609 16610 16611 16612 16613 16614 16615 16616 16617 16618 16619 16620 16621 16622 16623 16624 16625 16626 16627 16628 16629 16630 16631 16632 16633 16634 16635 16636 16637 16638 16639 16640 16641 16642 16643 16644 16645 16646 16647 16648 16649 16650 16651 16652 16653 16654 16655 16656 16657 16658 16659 16660 16661 16662 16663 16664 16665 16666 16667 16668 16669 16670 16671 16672 16673 16674 16675 16676 16677 16678 16679 16680 16681 16682 16683 16684 16685 16686 16687 16688 16689 16690 16691 16692 16693 16694 16695 16696 16697 16698 16699 16700 16701 16702 16703 16704 16705 16706 16707 16708 16709 16710 16711 16712 16713 16714 16715 16716 16717 16718 16719 16720 16721 16722 16723 16724 16725 16726 16727 16728 16729 16730 16731 16732 16733 16734 16735 16736 16737 16738 16739 16740 16741 16742 16743 16744 16745 16746 16747 16748 16749 16750 16751 16752 16753 16754 16755 16756 16757 16758 16759 16760 16761 16762 16763 16764 16765 16766 16767 16768 16769 16770 16771 16772 16773 16774 16775 16776 16777 16778 16779 16780 16781 16782 16783 16784 16785 16786 16787 16788 16789 16790 16791 16792 16793 16794 16795 16796 16797 16798 16799 16800 16801 16802 16803 16804 16805 16806 16807 16808 16809 16810 16811 16812 16813 16814 16815 16816 16817 16818 16819 16820 16821 16822 16823 16824 16825 16826 16827 16828 16829 16830 16831 16832 16833 16834 16835 16836 16837 16838 16839 16840 16841 16842 16843 16844 16845 16846 16847 16848 16849 16850 16851 16852 16853 16854 16855 16856 16857 16858 16859 16860 16861 16862 16863 16864 16865 16866 16867 16868 16869 16870 16871 16872 16873 16874 16875 16876 16877 16878 16879 16880 16881 16882 16883 16884 16885 16886 16887 16888 16889 16890 16891 16892 16893 16894 16895 16896 16897 16898 16899 16900 16901 16902 16903 16904 16905 16906 16907 16908 16909 16910 16911 16912 16913 16914 16915 16916 16917 16918 16919 16920 16921 16922 16923 16924 16925 16926 16927 16928 16929 16930 16931 16932 16933 16934 16935 16936 16937 16938 16939 16940 16941 16942 16943 16944 16945 16946 16947 16948 16949 16950 16951 16952 16953 16954 16955 16956 16957 16958 16959 16960 16961 16962 16963 16964 16965 16966 16967 16968 16969 16970 16971 16972 16973 16974 16975 16976 16977 16978 16979 16980 16981 16982 16983 16984 16985 16986 16987 16988 16989 16990 16991 16992 16993 16994 16995 16996 16997 16998 16999 17000 17001 17002 17003 17004 17005 17006 17007 17008 17009 17010 17011 17012 17013 17014 17015 17016 17017 17018 17019 17020 17021 17022 17023 17024 17025 17026 17027 17028 17029 17030 17031 17032 17033 17034 17035 17036 17037 17038 17039 17040 17041 17042 17043 17044 17045 17046 17047 17048 17049 17050 17051 17052 17053 17054 17055 17056 17057 17058 17059 17060 17061 17062 17063 17064 17065 17066 17067 17068 17069 17070 17071 17072 17073 17074 17075 17076 17077 17078 17079 17080 17081 17082 17083 17084 17085 17086 17087 17088 17089 17090 17091 17092 17093 17094 17095 17096 17097 17098 17099 17100 17101 17102 17103 17104 17105 17106 17107 17108 17109 17110 17111 17112 17113 17114 17115 17116 17117 17118 17119 17120 17121 17122 17123 17124 17125 17126 17127 17128 17129 17130 17131 17132 17133 17134 17135 17136 17137 17138 17139 17140 17141 17142 17143 17144 17145 17146 17147 17148 17149 17150 17151 17152 17153 17154 17155 17156 17157 17158 17159 17160 17161 17162 17163 17164 17165 17166 17167 17168 17169 17170 17171 17172 17173 17174 17175 17176 17177 17178 17179 17180 17181 17182 17183 17184 17185 17186 17187 17188 17189 17190 17191 17192 17193 17194 17195 17196 17197 17198 17199 17200 17201 17202 17203 17204 17205 17206 17207 17208 17209 17210 17211 17212 17213 17214 17215 17216 17217 17218 17219 17220 17221 17222 17223 17224 17225 17226 17227 17228 17229 17230 17231 17232 17233 17234 17235 17236 17237 17238 17239 17240 17241 17242 17243 17244 17245 17246 17247 17248 17249 17250 17251 17252 17253 17254 17255 17256 17257 17258 17259 17260 17261 17262 17263 17264 17265 17266 17267 17268 17269 17270 17271 17272 17273 17274 17275 17276 17277 17278 17279 17280 17281 17282 17283 17284 17285 17286 17287 17288 17289 17290 17291 17292 17293 17294 17295 17296 17297 17298 17299 17300 17301 17302 17303 17304 17305 17306 17307 17308 17309 17310 17311 17312 17313 17314 17315 17316 17317 17318 17319 17320 17321 17322 17323 17324 17325 17326 17327 17328 17329 17330 17331 17332 17333 17334 17335 17336 17337 17338 17339 17340 17341 17342 17343 17344 17345 17346 17347 17348 17349 17350 17351 17352 17353 17354 17355 17356 17357 17358 17359 17360 17361 17362 17363 17364 17365 17366 17367 17368 17369 17370 17371 17372 17373 17374 17375 17376 17377 17378 17379 17380 17381 17382 17383 17384 17385 17386 17387 17388 17389 17390 17391 17392 17393 17394 17395 17396 17397 17398 17399 17400 17401 17402 17403 17404 17405 17406 17407 17408 17409 17410 17411 17412 17413 17414 17415 17416 17417 17418 17419 17420 17421 17422 17423 17424 17425 17426 17427 17428 17429 17430 17431 17432 17433 17434 17435 17436 17437 17438 17439 17440 17441 17442 17443 17444 17445 17446 17447 17448 17449 17450 17451 17452 17453 17454 17455 17456 17457 17458 17459 17460 17461 17462 17463 17464 17465 17466 17467 17468 17469 17470 17471 17472 17473 17474 17475 17476 17477 17478 17479 17480 17481 17482 17483 17484 17485 17486 17487 17488 17489 17490 17491 17492 17493 17494 17495 17496 17497 17498 17499 17500 17501 17502 17503 17504 17505 17506 17507 17508 17509 17510 17511 17512 17513 17514 17515 17516 17517 17518 17519 17520 17521 17522 17523 17524 17525 17526 17527 17528 17529 17530 17531 17532 17533 17534 17535 17536 17537 17538 17539 17540 17541 17542 17543 17544 17545 17546 17547 17548 17549 17550 17551 17552 17553 17554 17555 17556 17557 17558 17559 17560 17561 17562 17563 17564 17565 17566 17567 17568 17569 17570 17571 17572 17573 17574 17575 17576 17577 17578 17579 17580 17581 17582 17583 17584 17585 17586 17587 17588 17589 17590 17591 17592 17593 17594 17595 17596 17597 17598 17599 17600 17601 17602 17603 17604 17605 17606 17607 17608 17609 17610 17611 17612 17613 17614 17615 17616 17617 17618 17619 17620 17621 17622 17623 17624 17625 17626 17627 17628 17629 17630 17631 17632 17633 17634 17635 17636 17637 17638 17639 17640 17641 17642 17643 17644 17645 17646 17647 17648 17649 17650 17651 17652 17653 17654 17655 17656 17657 17658 17659 17660 17661 17662 17663 17664 17665 17666 17667 17668 17669 17670 17671 17672 17673 17674 17675 17676 17677 17678 17679 17680 17681 17682 17683 17684 17685 17686 17687 17688 17689 17690 17691 17692 17693 17694 17695 17696 17697 17698 17699 17700 17701 17702 17703 17704 17705 17706 17707 17708 17709 17710 17711 17712 17713 17714 17715 17716 17717 17718 17719 17720 17721 17722 17723 17724 17725 17726 17727 17728 17729 17730 17731 17732 17733 17734 17735 17736 17737 17738 17739 17740 17741 17742 17743 17744 17745 17746 17747 17748 17749 17750 17751 17752 17753 17754 17755 17756 17757 17758 17759 17760 17761 17762 17763 17764 17765 17766 17767 17768 17769 17770 17771 17772 17773 17774 17775 17776 17777 17778 17779 17780 17781 17782 17783 17784 17785 17786 17787 17788 17789 17790 17791 17792 17793 17794 17795 17796 17797 17798 17799 17800 17801 17802 17803 17804 17805 17806 17807 17808 17809 17810 17811 17812 17813 17814 17815 17816 17817 17818 17819 17820 17821 17822 17823 17824 17825 17826 17827 17828 17829 17830 17831 17832 17833 17834 17835 17836 17837 17838 17839 17840 17841 17842 17843 17844 17845 17846 17847 17848 17849 17850 17851 17852 17853 17854 17855 17856 17857 17858 17859 17860 17861 17862 17863 17864 17865 17866 17867 17868 17869 17870 17871 17872 17873 17874 17875 17876 17877 17878 17879 17880 17881 17882 17883 17884 17885 17886 17887 17888 17889 17890 17891 17892 17893 17894 17895 17896 17897 17898 17899 17900 17901 17902 17903 17904 17905 17906 17907 17908 17909 17910 17911 17912 17913 17914 17915 17916 17917 17918 17919 17920 17921 17922 17923 17924 17925 17926 17927 17928 17929 17930 17931 17932 17933 17934 17935 17936 17937 17938 17939 17940 17941 17942 17943 17944 17945 17946 17947 17948 17949 17950 17951 17952 17953 17954 17955 17956 17957 17958 17959 17960 17961 17962 17963 17964 17965 17966 17967 17968 17969 17970 17971 17972 17973 17974 17975 17976 17977 17978 17979 17980 17981 17982 17983 17984 17985 17986 17987 17988 17989 17990 17991 17992 17993 17994 17995 17996 17997 17998 17999 18000 18001 18002 18003 18004 18005 18006 18007 18008 18009 18010 18011 18012 18013 18014 18015 18016 18017 18018 18019 18020 18021 18022 18023 18024 18025 18026 18027 18028 18029 18030 18031 18032 18033 18034 18035 18036 18037 18038 18039 18040 18041 18042 18043 18044 18045 18046 18047 18048 18049 18050 18051 18052 18053 18054 18055 18056 18057 18058 18059 18060 18061 18062 18063 18064 18065 18066 18067 18068 18069 18070 18071 18072 18073 18074 18075 18076 18077 18078 18079 18080 18081 18082 18083 18084 18085 18086 18087 18088 18089 18090 18091 18092 18093 18094 18095 18096 18097 18098 18099 18100 18101 18102 18103 18104 18105 18106 18107 18108 18109 18110 18111 18112 18113 18114 18115 18116 18117 18118 18119 18120 18121 18122 18123 18124 18125 18126 18127 18128 18129 18130 18131 18132 18133 18134 18135 18136 18137 18138 18139 18140 18141 18142 18143 18144 18145 18146 18147 18148 18149 18150 18151 18152 18153 18154 18155 18156 18157 18158 18159 18160 18161 18162 18163 18164 18165 18166 18167 18168 18169 18170 18171 18172 18173 18174 18175 18176 18177 18178 18179 18180 18181 18182 18183 18184 18185 18186 18187 18188 18189 18190 18191 18192 18193 18194 18195 18196 18197 18198 18199 18200 18201 18202 18203 18204 18205 18206 18207 18208 18209 18210 18211 18212 18213 18214 18215 18216 18217 18218 18219 18220 18221 18222 18223 18224 18225 18226 18227 18228 18229 18230 18231 18232 18233 18234 18235 18236 18237 18238 18239 18240 18241 18242 18243 18244 18245 18246 18247 18248 18249 18250 18251 18252 18253 18254 18255 18256 18257 18258 18259 18260 18261 18262 18263 18264 18265 18266 18267 18268 18269 18270 18271 18272 18273 18274 18275 18276 18277 18278 18279 18280 18281 18282 18283 18284 18285 18286 18287 18288 18289 18290 18291 18292 18293 18294 18295 18296 18297 18298 18299 18300 18301 18302 18303 18304 18305 18306 18307 18308 18309 18310 18311 18312 18313 18314 18315 18316 18317 18318 18319 18320 18321 18322 18323 18324 18325 18326 18327 18328 18329 18330 18331 18332 18333 18334 18335 18336 18337 18338 18339 18340 18341 18342 18343 18344 18345 18346 18347 18348 18349 18350 18351 18352 18353 18354 18355 18356 18357 18358 18359 18360 18361 18362 18363 18364 18365 18366 18367 18368 18369 18370 18371 18372 18373 18374 18375 18376 18377 18378 18379 18380 18381 18382 18383 18384 18385 18386 18387 18388 18389 18390 18391 18392 18393 18394 18395 18396 18397 18398 18399 18400 18401 18402 18403 18404 18405 18406 18407 18408 18409 18410 18411 18412 18413 18414 18415 18416 18417 18418 18419 18420 18421 18422 18423 18424 18425 18426 18427 18428 18429 18430 18431 18432 18433 18434 18435 18436 18437 18438 18439 18440 18441 18442 18443 18444 18445 18446 18447 18448 18449 18450 18451 18452 18453 18454 18455 18456 18457 18458 18459 18460 18461 18462 18463 18464 18465 18466 18467 18468 18469 18470 18471 18472 18473 18474 18475 18476 18477 18478 18479 18480 18481 18482 18483 18484 18485 18486 18487 18488 18489 18490 18491 18492 18493 18494 18495 18496 18497 18498 18499 18500 18501 18502 18503 18504 18505 18506 18507 18508 18509 18510 18511 18512 18513 18514 18515 18516 18517 18518 18519 18520 18521 18522 18523 18524 18525 18526 18527 18528 18529 18530 18531 18532 18533 18534 18535 18536 18537 18538 18539 18540 18541 18542 18543 18544 18545 18546 18547 18548 18549 18550 18551 18552 18553 18554 18555 18556 18557 18558 18559 18560 18561 18562 18563 18564 18565 18566 18567 18568 18569 18570 18571 18572 18573 18574 18575 18576 18577 18578 18579 18580 18581 18582 18583 18584 18585 18586 18587 18588 18589 18590 18591 18592 18593 18594 18595 18596 18597 18598 18599 18600 18601 18602 18603 18604 18605 18606 18607 18608 18609 18610 18611 18612 18613 18614 18615 18616 18617 18618 18619 18620 18621 18622 18623 18624 18625 18626 18627 18628 18629 18630 18631 18632 18633 18634 18635 18636 18637 18638 18639 18640 18641 18642 18643 18644 18645 18646 18647 18648 18649 18650 18651 18652 18653 18654 18655 18656 18657 18658 18659 18660 18661 18662 18663 18664 18665 18666 18667 18668 18669 18670 18671 18672 18673 18674 18675 18676 18677 18678 18679 18680 18681 18682 18683 18684 18685 18686 18687 18688 18689 18690 18691 18692 18693 18694 18695 18696 18697 18698 18699 18700 18701 18702 18703 18704 18705 18706 18707 18708 18709 18710 18711 18712 18713 18714 18715 18716 18717 18718 18719 18720 18721 18722 18723 18724 18725 18726 18727 18728 18729 18730 18731 18732 18733 18734 18735 18736 18737 18738 18739 18740 18741 18742 18743 18744 18745 18746 18747 18748 18749 18750 18751 18752 18753 18754 18755 18756 18757 18758 18759 18760 18761 18762 18763 18764 18765 18766 18767 18768 18769 18770 18771 18772 18773 18774 18775 18776 18777 18778 18779 18780 18781 18782 18783 18784 18785 18786 18787 18788 18789 18790 18791 18792 18793 18794 18795 18796 18797 18798 18799 18800 18801 18802 18803 18804 18805 18806 18807 18808 18809 18810 18811 18812 18813 18814 18815 18816 18817 18818 18819 18820 18821 18822 18823 18824 18825 18826 18827 18828 18829 18830 18831 18832 18833 18834 18835 18836 18837 18838 18839 18840 18841 18842 18843 18844 18845 18846 18847 18848 18849 18850 18851 18852 18853 18854 18855 18856 18857 18858 18859 18860 18861 18862 18863 18864 18865 18866 18867 18868 18869 18870 18871 18872 18873 18874 18875 18876 18877 18878 18879 18880 18881 18882 18883 18884 18885 18886 18887 18888 18889 18890 18891 18892 18893 18894 18895 18896 18897 18898 18899 18900 18901 18902 18903 18904 18905 18906 18907 18908 18909 18910 18911 18912 18913 18914 18915 18916 18917 18918 18919 18920 18921 18922 18923 18924 18925 18926 18927 18928 18929 18930 18931 18932 18933 18934 18935 18936 18937 18938 18939 18940 18941 18942 18943 18944 18945 18946 18947 18948 18949 18950 18951 18952 18953 18954 18955 18956 18957 18958 18959 18960 18961 18962 18963 18964 18965 18966 18967 18968 18969 18970 18971 18972 18973 18974 18975 18976 18977 18978 18979 18980 18981 18982 18983 18984 18985 18986 18987 18988 18989 18990 18991 18992 18993 18994 18995 18996 18997 18998 18999 19000 19001 19002 19003 19004 19005 19006 19007 19008 19009 19010 19011 19012 19013 19014 19015 19016 19017 19018 19019 19020 19021 19022 19023 19024 19025 19026 19027 19028 19029 19030 19031 19032 19033 19034 19035 19036 19037 19038 19039 19040 19041 19042 19043 19044 19045 19046 19047 19048 19049 19050 19051 19052 19053 19054 19055 19056 19057 19058 19059 19060 19061 19062 19063 19064 19065 19066 19067 19068 19069 19070 19071 19072 19073 19074 19075 19076 19077 19078 19079 19080 19081 19082 19083 19084 19085 19086 19087 19088 19089 19090 19091 19092 19093 19094 19095 19096 19097 19098 19099 19100 19101 19102 19103 19104 19105 19106 19107 19108 19109 19110 19111 19112 19113 19114 19115 19116 19117 19118 19119 19120 19121 19122 19123 19124 19125 19126 19127 19128 19129 19130 19131 19132 19133 19134 19135 19136 19137 19138 19139 19140 19141 19142 19143 19144 19145 19146 19147 19148 19149 19150 19151 19152 19153 19154 19155 19156 19157 19158 19159 19160 19161 19162 19163 19164 19165 19166 19167 19168 19169 19170 19171 19172 19173 19174 19175 19176 19177 19178 19179 19180 19181 19182 19183 19184 19185 19186 19187 19188 19189 19190 19191 19192 19193 19194 19195 19196 19197 19198 19199 19200 19201 19202 19203 19204 19205 19206 19207 19208 19209 19210 19211 19212 19213 19214 19215 19216 19217 19218 19219 19220 19221 19222 19223 19224 19225 19226 19227 19228 19229 19230 19231 19232 19233 19234 19235 19236 19237 19238 19239 19240 19241 19242 19243 19244 19245 19246 19247 19248 19249 19250 19251 19252 19253 19254 19255 19256 19257 19258 19259 19260 19261 19262 19263 19264 19265 19266 19267 19268 19269 19270 19271 19272 19273 19274 19275 19276 19277 19278 19279 19280 19281 19282 19283 19284 19285 19286 19287 19288 19289 19290 19291 19292 19293 19294 19295 19296 19297 19298 19299 19300 19301 19302 19303 19304 19305 19306 19307 19308 19309 19310 19311 19312 19313 19314 19315 19316 19317 19318 19319 19320 19321 19322 19323 19324 19325 19326 19327 19328 19329 19330 19331 19332 19333 19334 19335 19336 19337 19338 19339 19340 19341 19342 19343 19344 19345 19346 19347 19348 19349 19350 19351 19352 19353 19354 19355 19356 19357 19358 19359 19360 19361 19362 19363 19364 19365 19366 19367 19368 19369 19370 19371 19372 19373 19374 19375 19376 19377 19378 19379 19380 19381 19382 19383 19384 19385 19386 19387 19388 19389 19390 19391 19392 19393 19394 19395 19396 19397 19398 19399 19400 19401 19402 19403 19404 19405 19406 19407 19408 19409 19410 19411 19412 19413 19414 19415 19416 19417 19418 19419 19420 19421 19422 19423 19424 19425 19426 19427 19428 19429 19430 19431 19432 19433 19434 19435 19436 19437 19438 19439 19440 19441 19442 19443 19444 19445 19446 19447 19448 19449 19450 19451 19452 19453 19454 19455 19456 19457 19458 19459 19460 19461 19462 19463 19464 19465 19466 19467 19468 19469 19470 19471 19472 19473 19474 19475 19476 19477 19478 19479 19480 19481 19482 19483 19484 19485 19486 19487 19488 19489 19490 19491 19492 19493 19494 19495 19496 19497 19498 19499 19500 19501 19502 19503 19504 19505 19506 19507 19508 19509 19510 19511 19512 19513 19514 19515 19516 19517 19518 19519 19520 19521 19522 19523 19524 19525 19526 19527 19528 19529 19530 19531 19532 19533 19534 19535 19536 19537 19538 19539 19540 19541 19542 19543 19544 19545 19546 19547 19548 19549 19550 19551 19552 19553 19554 19555 19556 19557 19558 19559 19560 19561 19562 19563 19564 19565 19566 19567 19568 19569 19570 19571 19572 19573 19574 19575 19576 19577 19578 19579 19580 19581 19582 19583 19584 19585 19586 19587 19588 19589 19590 19591 19592 19593 19594 19595 19596 19597 19598 19599 19600 19601 19602 19603 19604 19605 19606 19607 19608 19609 19610 19611 19612 19613 19614 19615 19616 19617 19618 19619 19620 19621 19622 19623 19624 19625 19626 19627 19628 19629 19630 19631 19632 19633 19634 19635 19636 19637 19638 19639 19640 19641 19642 19643 19644 19645 19646 19647 19648 19649 19650 19651 19652 19653 19654 19655 19656 19657 19658 19659 19660 19661 19662 19663 19664 19665 19666 19667 19668 19669 19670 19671 19672 19673 19674 19675 19676 19677 19678 19679 19680 19681 19682 19683 19684 19685 19686 19687 19688 19689 19690 19691 19692 19693 19694 19695 19696 19697 19698 19699 19700 19701 19702 19703 19704 19705 19706 19707 19708 19709 19710 19711 19712 19713 19714 19715 19716 19717 19718 19719 19720 19721 19722 19723 19724 19725 19726 19727 19728 19729 19730 19731 19732 19733 19734 19735 19736 19737 19738 19739 19740 19741 19742 19743 19744 19745 19746 19747 19748 19749 19750 19751 19752 19753 19754 19755 19756 19757 19758 19759 19760 19761 19762 19763 19764 19765 19766 19767 19768 19769 19770 19771 19772 19773 19774 19775 19776 19777 19778 19779 19780 19781 19782 19783 19784 19785 19786 19787 19788 19789 19790 19791 19792 19793 19794 19795 19796 19797 19798 19799 19800 19801 19802 19803 19804 19805 19806 19807 19808 19809 19810 19811 19812 19813 19814 19815 19816 19817 19818 19819 19820 19821 19822 19823 19824 19825 19826 19827 19828 19829 19830 19831 19832 19833 19834 19835 19836 19837 19838 19839 19840 19841 19842 19843 19844 19845 19846 19847 19848 19849 19850 19851 19852 19853 19854 19855 19856 19857 19858 19859 19860 19861 19862 19863 19864 19865 19866 19867 19868 19869 19870 19871 19872 19873 19874 19875 19876 19877 19878 19879 19880 19881 19882 19883 19884 19885 19886 19887 19888 19889 19890 19891 19892 19893 19894 19895 19896 19897 19898 19899 19900 19901 19902 19903 19904 19905 19906 19907 19908 19909 19910 19911 19912 19913 19914 19915 19916 19917 19918 19919 19920 19921 19922 19923 19924 19925 19926 19927 19928 19929 19930 19931 19932 19933 19934 19935 19936 19937 19938 19939 19940 19941 19942 19943 19944 19945 19946 19947 19948 19949 19950 19951 19952 19953 19954 19955 19956 19957 19958 19959 19960 19961 19962 19963 19964 19965 19966 19967 19968 19969 19970 19971 19972 19973 19974 19975 19976 19977 19978 19979 19980 19981 19982 19983 19984 19985 19986 19987 19988 19989 19990 19991 19992 19993 19994 19995 19996 19997 19998 19999 20000 20001 20002 20003 20004 20005 20006 20007 20008 20009 20010 20011 20012 20013 20014 20015 20016 20017 20018 20019 20020 20021 20022 20023 20024 20025 20026 20027 20028 20029 20030 20031 20032 20033 20034 20035 20036 20037 20038 20039 20040 20041 20042 20043 20044 20045 20046 20047 20048 20049 20050 20051 20052 20053 20054 20055 20056 20057 20058 20059 20060 20061 20062 20063 20064 20065 20066 20067 20068 20069 20070 20071 20072 20073 20074 20075 20076 20077 20078 20079 20080 20081 20082 20083 20084 20085 20086 20087 20088 20089 20090 20091 20092 20093 20094 20095 20096 20097 20098 20099 20100 20101 20102 20103 20104 20105 20106 20107 20108 20109 20110 20111 20112 20113 20114 20115 20116 20117 20118 20119 20120 20121 20122 20123 20124 20125 20126 20127 20128 20129 20130 20131 20132 20133 20134 20135 20136 20137 20138 20139 20140 20141 20142 20143 20144 20145 20146 20147 20148 20149 20150 20151 20152 20153 20154 20155 20156 20157 20158 20159 20160 20161 20162 20163 20164 20165 20166 20167 20168 20169 20170 20171 20172 20173 20174 20175 20176 20177 20178 20179 20180 20181 20182 20183 20184 20185 20186 20187 20188 20189 20190 20191 20192 20193 20194 20195 20196 20197 20198 20199 20200 20201 20202 20203 20204 20205 20206 20207 20208 20209 20210 20211 20212 20213 20214 20215 20216 20217 20218 20219 20220 20221 20222 20223 20224 20225 20226 20227 20228 20229 20230 20231 20232 20233 20234 20235 20236 20237 20238 20239 20240 20241 20242 20243 20244 20245 20246 20247 20248 20249 20250 20251 20252 20253 20254 20255 20256 20257 20258 20259 20260 20261 20262 20263 20264 20265 20266 20267 20268 20269 20270 20271 20272 20273 20274 20275 20276 20277 20278 20279 20280 20281 20282 20283 20284 20285 20286 20287 20288 20289 20290 20291 20292 20293 20294 20295 20296 20297 20298 20299 20300 20301 20302 20303 20304 20305 20306 20307 20308 20309 20310 20311 20312 20313 20314 20315 20316 20317 20318 20319 20320 20321 20322 20323 20324 20325 20326 20327 20328 20329 20330 20331 20332 20333 20334 20335 20336 20337 20338 20339 20340 20341 20342 20343 20344 20345 20346 20347 20348 20349 20350 20351 20352 20353 20354 20355 20356 20357 20358 20359 20360 20361 20362 20363 20364 20365 20366 20367 20368 20369 20370 20371 20372 20373 20374 20375 20376 20377 20378 20379 20380 20381 20382 20383 20384 20385 20386 20387 20388 20389 20390 20391 20392 20393 20394 20395 20396 20397 20398 20399 20400 20401 20402 20403 20404 20405 20406 20407 20408 20409 20410 20411 20412 20413 20414 20415 20416 20417 20418 20419 20420 20421 20422 20423 20424 20425 20426 20427 20428 20429 20430 20431 20432 20433 20434 20435 20436 20437 20438 20439 20440 20441 20442 20443 20444 20445 20446 20447 20448 20449 20450 20451 20452 20453 20454 20455 20456 20457 20458 20459 20460 20461 20462 20463 20464 20465 20466 20467 20468 20469 20470 20471 20472 20473 20474 20475 20476 20477 20478 20479 20480 20481 20482 20483 20484 20485 20486 20487 20488 20489 20490 20491 20492 20493 20494 20495 20496 20497 20498 20499 20500 20501 20502 20503 20504 20505 20506 20507 20508 20509 20510 20511 20512 20513 20514 20515 20516 20517 20518 20519 20520 20521 20522 20523 20524 20525 20526 20527 20528 20529 20530 20531 20532 20533 20534 20535 20536 20537 20538 20539 20540 20541 20542 20543 20544 20545 20546 20547 20548 20549 20550 20551 20552 20553 20554 20555 20556 20557 20558 20559 20560 20561 20562 20563 20564 20565 20566 20567 20568 20569 20570 20571 20572 20573 20574 20575 20576 20577 20578 20579 20580 20581 20582 20583 20584 20585 20586 20587 20588 20589 20590 20591 20592 20593 20594 20595 20596 20597 20598 20599 20600 20601 20602 20603 20604 20605 20606 20607 20608 20609 20610 20611 20612 20613 20614 20615 20616 20617 20618 20619 20620 20621 20622 20623 20624 20625 20626 20627 20628 20629 20630 20631 20632 20633 20634 20635 20636 20637 20638 20639 20640 20641 20642 20643 20644 20645 20646 20647 20648 20649 20650 20651 20652 20653 20654 20655 20656 20657 20658 20659 20660 20661 20662 20663 20664 20665 20666 20667 20668 20669 20670 20671 20672 20673 20674 20675 20676 20677 20678 20679 20680 20681 20682 20683 20684 20685 20686 20687 20688 20689 20690 20691 20692 20693 20694 20695 20696 20697 20698 20699 20700 20701 20702 20703 20704 20705 20706 20707 20708 20709 20710 20711 20712 20713 20714 20715 20716 20717 20718 20719 20720 20721 20722 20723 20724 20725 20726 20727 20728 20729 20730 20731 20732 20733 20734 20735 20736 20737 20738 20739 20740 20741 20742 20743 20744 20745 20746 20747 20748 20749 20750 20751 20752 20753 20754 20755 20756 20757 20758 20759 20760 20761 20762 20763 20764 20765 20766 20767 20768 20769 20770 20771 20772 20773 20774 20775 20776 20777 20778 20779 20780 20781 20782 20783 20784 20785 20786 20787 20788 20789 20790 20791 20792 20793 20794 20795 20796 20797 20798 20799 20800 20801 20802 20803 20804 20805 20806 20807 20808 20809 20810 20811 20812 20813 20814 20815 20816 20817 20818 20819 20820 20821 20822 20823 20824 20825 20826 20827 20828 20829 20830 20831 20832 20833 20834 20835 20836 20837 20838 20839 20840 20841 20842 20843 20844 20845 20846 20847 20848 20849 20850 20851 20852 20853 20854 20855 20856 20857 20858 20859 20860 20861 20862 20863 20864 20865 20866 20867 20868 20869 20870 20871 20872 20873 20874 20875 20876 20877 20878 20879 20880 20881 20882 20883 20884 20885 20886 20887 20888 20889 20890 20891 20892 20893 20894 20895 20896 20897 20898 20899 20900 20901 20902 20903 20904 20905 20906 20907 20908 20909 20910 20911 20912 20913 20914 20915 20916 20917 20918 20919 20920 20921 20922 20923 20924 20925 20926 20927 20928 20929 20930 20931 20932 20933 20934 20935 20936 20937 20938 20939 20940 20941 20942 20943 20944 20945 20946 20947 20948 20949 20950 20951 20952 20953 20954 20955 20956 20957 20958 20959 20960 20961 20962 20963 20964 20965 20966 20967 20968 20969 20970 20971 20972 20973 20974 20975 20976 20977 20978 20979 20980 20981 20982 20983 20984 20985 20986 20987 20988 20989 20990 20991 20992 20993 20994 20995 20996 20997 20998 20999 21000 21001 21002 21003 21004 21005 21006 21007 21008 21009 21010 21011 21012 21013 21014 21015 21016 21017 21018 21019 21020 21021 21022 21023 21024 21025 21026 21027 21028 21029 21030 21031 21032 21033 21034 21035 21036 21037 21038 21039 21040 21041 21042 21043 21044 21045 21046 21047 21048 21049 21050 21051 21052 21053 21054 21055 21056 21057 21058 21059 21060 21061 21062 21063 21064 21065 21066 21067 21068 21069 21070 21071 21072 21073 21074 21075 21076 21077 21078 21079 21080 21081 21082 21083 21084 21085 21086 21087 21088 21089 21090 21091 21092 21093 21094 21095 21096 21097 21098 21099 21100 21101 21102 21103 21104 21105 21106 21107 21108 21109 21110 21111 21112 21113 21114 21115 21116 21117 21118 21119 21120 21121 21122 21123 21124 21125 21126 21127 21128 21129 21130 21131 21132 21133 21134 21135 21136 21137 21138 21139 21140 21141 21142 21143 21144 21145 21146 21147 21148 21149 21150 21151 21152 21153 21154 21155 21156 21157 21158 21159 21160 21161 21162 21163 21164 21165 21166 21167 21168 21169 21170 21171 21172 21173 21174 21175 21176 21177 21178 21179 21180 21181 21182 21183 21184 21185 21186 21187 21188 21189 21190 21191 21192 21193 21194 21195 21196 21197 21198 21199 21200 21201 21202 21203 21204 21205 21206 21207 21208 21209 21210 21211 21212 21213 21214 21215 21216 21217 21218 21219 21220 21221 21222 21223 21224 21225 21226 21227 21228 21229 21230 21231 21232 21233 21234 21235 21236 21237 21238 21239 21240 21241 21242 21243 21244 21245 21246 21247 21248 21249 21250 21251 21252 21253 21254 21255 21256 21257 21258 21259 21260 21261 21262 21263 21264 21265 21266 21267 21268 21269 21270 21271 21272 21273 21274 21275 21276 21277 21278 21279 21280 21281 21282 21283 21284 21285 21286 21287 21288 21289 21290 21291 21292 21293 21294 21295 21296 21297 21298 21299 21300 21301 21302 21303 21304 21305 21306 21307 21308 21309 21310 21311 21312 21313 21314 21315 21316 21317 21318 21319 21320 21321 21322 21323 21324 21325 21326 21327 21328 21329 21330 21331 21332 21333 21334 21335 21336 21337 21338 21339 21340 21341 21342 21343 21344 21345 21346 21347 21348 21349 21350 21351 21352 21353 21354 21355 21356 21357 21358 21359 21360 21361 21362 21363 21364 21365 21366 21367 21368 21369 21370 21371 21372 21373 21374 21375 21376 21377 21378 21379 21380 21381 21382 21383 21384 21385 21386 21387 21388 21389 21390 21391 21392 21393 21394 21395 21396 21397 21398 21399 21400 21401 21402 21403 21404 21405 21406 21407 21408 21409 21410 21411 21412 21413 21414 21415 21416 21417 21418 21419 21420 21421 21422 21423 21424 21425 21426 21427 21428 21429 21430 21431 21432 21433 21434 21435 21436 21437 21438 21439 21440 21441 21442 21443 21444 21445 21446 21447 21448 21449 21450 21451 21452 21453 21454 21455 21456 21457 21458 21459 21460 21461 21462 21463 21464 21465 21466 21467 21468 21469 21470 21471 21472 21473 21474 21475 21476 21477 21478 21479 21480 21481 21482 21483 21484 21485 21486 21487 21488 21489 21490 21491 21492 21493 21494 21495 21496 21497 21498 21499 21500 21501 21502 21503 21504 21505 21506 21507 21508 21509 21510 21511 21512 21513 21514 21515 21516 21517 21518 21519 21520 21521 21522 21523 21524 21525 21526 21527 21528 21529 21530 21531 21532 21533 21534 21535 21536 21537 21538 21539 21540 21541 21542 21543 21544 21545 21546 21547 21548 21549 21550 21551 21552 21553 21554 21555 21556 21557 21558 21559 21560 21561 21562 21563 21564 21565 21566 21567 21568 21569 21570 21571 21572 21573 21574 21575 21576 21577 21578 21579 21580 21581 21582 21583 21584 21585 21586 21587 21588 21589 21590 21591 21592 21593 21594 21595 21596 21597 21598 21599 21600 21601 21602 21603 21604 21605 21606 21607 21608 21609 21610 21611 21612 21613 21614 21615 21616 21617 21618 21619 21620 21621 21622 21623 21624 21625 21626 21627 21628 21629 21630 21631 21632 21633 21634 21635 21636 21637 21638 21639 21640 21641 21642 21643 21644 21645 21646 21647 21648 21649 21650 21651 21652 21653 21654 21655 21656 21657 21658 21659 21660 21661 21662 21663 21664 21665 21666 21667 21668 21669 21670 21671 21672 21673 21674 21675 21676 21677 21678 21679 21680 21681 21682 21683 21684 21685 21686 21687 21688 21689 21690 21691 21692 21693 21694 21695 21696 21697 21698 21699 21700 21701 21702 21703 21704 21705 21706 21707 21708 21709 21710 21711 21712 21713 21714 21715 21716 21717 21718 21719 21720 21721 21722 21723 21724 21725 21726 21727 21728 21729 21730 21731 21732 21733 21734 21735 21736 21737 21738 21739 21740 21741 21742 21743 21744 21745 21746 21747 21748 21749 21750 21751 21752 21753 21754 21755 21756 21757 21758 21759 21760 21761 21762 21763 21764 21765 21766 21767 21768 21769 21770 21771 21772 21773 21774 21775 21776 21777 21778 21779 21780 21781 21782 21783 21784 21785 21786 21787 21788 21789 21790 21791 21792 21793 21794 21795 21796 21797 21798 21799 21800 21801 21802 21803 21804 21805 21806 21807 21808 21809 21810 21811 21812 21813 21814 21815 21816 21817 21818 21819 21820 21821 21822 21823 21824 21825 21826 21827 21828 21829 21830 21831 21832 21833 21834 21835 21836 21837 21838 21839 21840 21841 21842 21843 21844 21845 21846 21847 21848 21849 21850 21851 21852 21853 21854 21855 21856 21857 21858 21859 21860 21861 21862 21863 21864 21865 21866 21867 21868 21869 21870 21871 21872 21873 21874 21875 21876 21877 21878 21879 21880 21881 21882 21883 21884 21885 21886 21887 21888 21889 21890 21891 21892 21893 21894 21895 21896 21897 21898 21899 21900 21901 21902 21903 21904 21905 21906 21907 21908 21909 21910 21911 21912 21913 21914 21915 21916 21917 21918 21919 21920 21921 21922 21923 21924 21925 21926 21927 21928 21929 21930 21931 21932 21933 21934 21935 21936 21937 21938 21939 21940 21941 21942 21943 21944 21945 21946 21947 21948 21949 21950 21951 21952 21953 21954 21955 21956 21957 21958 21959 21960 21961 21962 21963 21964 21965 21966 21967 21968 21969 21970 21971 21972 21973 21974 21975 21976 21977 21978 21979 21980 21981 21982 21983 21984 21985 21986 21987 21988 21989 21990 21991 21992 21993 21994 21995 21996 21997 21998 21999 22000 22001 22002 22003 22004 22005 22006 22007 22008 22009 22010 22011 22012 22013 22014 22015 22016 22017 22018 22019 22020 22021 22022 22023 22024 22025 22026 22027 22028 22029 22030 22031 22032 22033 22034 22035 22036 22037 22038 22039 22040 22041 22042 22043 22044 22045 22046 22047 22048 22049 22050 22051 22052 22053 22054 22055 22056 22057 22058 22059 22060 22061 22062 22063 22064 22065 22066 22067 22068 22069 22070 22071 22072 22073 22074 22075 22076 22077 22078 22079 22080 22081 22082 22083 22084 22085 22086 22087 22088 22089 22090 22091 22092 22093 22094 22095 22096 22097 22098 22099 22100 22101 22102 22103 22104 22105 22106 22107 22108 22109 22110 22111 22112 22113 22114 22115 22116 22117 22118 22119 22120 22121 22122 22123 22124 22125 22126 22127 22128 22129 22130 22131 22132 22133 22134 22135 22136 22137 22138 22139 22140 22141 22142 22143 22144 22145 22146 22147 22148 22149 22150 22151 22152 22153 22154 22155 22156 22157 22158 22159 22160 22161 22162 22163 22164 22165 22166 22167 22168 22169 22170 22171 22172 22173 22174 22175 22176 22177 22178 22179 22180 22181 22182 22183 22184 22185 22186 22187 22188 22189 22190 22191 22192 22193 22194 22195 22196 22197 22198 22199 22200 22201 22202 22203 22204 22205 22206 22207 22208 22209 22210 22211 22212 22213 22214 22215 22216 22217 22218 22219 22220 22221 22222 22223 22224 22225 22226 22227 22228 22229 22230 22231 22232 22233 22234 22235 22236 22237 22238 22239 22240 22241 22242 22243 22244 22245 22246 22247 22248 22249 22250 22251 22252 22253 22254 22255 22256 22257 22258 22259 22260 22261 22262 22263 22264 22265 22266 22267 22268 22269 22270 22271 22272 22273 22274 22275 22276 22277 22278 22279 22280 22281 22282 22283 22284 22285 22286 22287 22288 22289 22290 22291 22292 22293 22294 22295 22296 22297 22298 22299 22300 22301 22302 22303 22304 22305 22306 22307 22308 22309 22310 22311 22312 22313 22314 22315 22316 22317 22318 22319 22320 22321 22322 22323 22324 22325 22326 22327 22328 22329 22330 22331 22332 22333 22334 22335 22336 22337 22338 22339 22340 22341 22342 22343 22344 22345 22346 22347 22348 22349 22350 22351 22352 22353 22354 22355 22356 22357 22358 22359 22360 22361 22362 22363 22364 22365 22366 22367 22368 22369 22370 22371 22372 22373 22374 22375 22376 22377 22378 22379 22380 22381 22382 22383 22384 22385 22386 22387 22388 22389 22390 22391 22392 22393 22394 22395 22396 22397 22398 22399 22400 22401 22402 22403 22404 22405 22406 22407 22408 22409 22410 22411 22412 22413 22414 22415 22416 22417 22418 22419 22420 22421 22422 22423 22424 22425 22426 22427 22428 22429 22430 22431 22432 22433 22434 22435 22436 22437 22438 22439 22440 22441 22442 22443 22444 22445 22446 22447 22448 22449 22450 22451 22452 22453 22454 22455 22456 22457 22458 22459 22460 22461 22462 22463 22464 22465 22466 22467 22468 22469 22470 22471 22472 22473 22474 22475 22476 22477 22478 22479 22480 22481 22482 22483 22484 22485 22486 22487 22488 22489 22490 22491 22492 22493 22494 22495 22496 22497 22498 22499 22500 22501 22502 22503 22504 22505 22506 22507 22508 22509 22510 22511 22512 22513 22514 22515 22516 22517 22518 22519 22520 22521 22522 22523 22524 22525 22526 22527 22528 22529 22530 22531 22532 22533 22534 22535 22536 22537 22538 22539 22540 22541 22542 22543 22544 22545 22546 22547 22548 22549 22550 22551 22552 22553 22554 22555 22556 22557 22558 22559 22560 22561 22562 22563 22564 22565 22566 22567 22568 22569 22570 22571 22572 22573 22574 22575 22576 22577 22578 22579 22580 22581 22582 22583 22584 22585 22586 22587 22588 22589 22590 22591 22592 22593 22594 22595 22596 22597 22598 22599 22600 22601 22602 22603 22604 22605 22606 22607 22608 22609 22610 22611 22612 22613 22614 22615 22616 22617 22618 22619 22620 22621 22622 22623 22624 22625 22626 22627 22628 22629 22630 22631 22632 22633 22634 22635 22636 22637 22638 22639 22640 22641 22642 22643 22644 22645 22646 22647 22648 22649 22650 22651 22652 22653 22654 22655 22656 22657 22658 22659 22660 22661 22662 22663 22664 22665 22666 22667 22668 22669 22670 22671 22672 22673 22674 22675 22676 22677 22678 22679 22680 22681 22682 22683 22684 22685 22686 22687 22688 22689 22690 22691 22692 22693 22694 22695 22696 22697 22698 22699 22700 22701 22702 22703 22704 22705 22706 22707 22708 22709 22710 22711 22712 22713 22714 22715 22716 22717 22718 22719 22720 22721 22722 22723 22724 22725 22726 22727 22728 22729 22730 22731 22732 22733 22734 22735 22736 22737 22738 22739 22740 22741 22742 22743 22744 22745 22746 22747 22748 22749 22750 22751 22752 22753 22754 22755 22756 22757 22758 22759 22760 22761 22762 22763 22764 22765 22766 22767 22768 22769 22770 22771 22772 22773 22774 22775 22776 22777 22778 22779 22780 22781 22782 22783 22784 22785 22786 22787 22788 22789 22790 22791 22792 22793 22794 22795 22796 22797 22798 22799 22800 22801 22802 22803 22804 22805 22806 22807 22808 22809 22810 22811 22812 22813 22814 22815 22816 22817 22818 22819 22820 22821 22822 22823 22824 22825 22826 22827 22828 22829 22830 22831 22832 22833 22834 22835 22836 22837 22838 22839 22840 22841 22842 22843 22844 22845 22846 22847 22848 22849 22850 22851 22852 22853 22854 22855 22856 22857 22858 22859 22860 22861 22862 22863 22864 22865 22866 22867 22868 22869 22870 22871 22872 22873 22874 22875 22876 22877 22878 22879 22880 22881 22882 22883 22884 22885 22886 22887 22888 22889 22890 22891 22892 22893 22894 22895 22896 22897 22898 22899 22900 22901 22902 22903 22904 22905 22906 22907 22908 22909 22910 22911 22912 22913 22914 22915 22916 22917 22918 22919 22920 22921 22922 22923 22924 22925 22926 22927 22928 22929 22930 22931 22932 22933 22934 22935 22936 22937 22938 22939 22940 22941 22942 22943 22944 22945 22946 22947 22948 22949 22950 22951 22952 22953 22954 22955 22956 22957 22958 22959 22960 22961 22962 22963 22964 22965 22966 22967 22968 22969 22970 22971 22972 22973 22974 22975 22976 22977 22978 22979 22980 22981 22982 22983 22984 22985 22986 22987 22988 22989 22990 22991 22992 22993 22994 22995 22996 22997 22998 22999 23000 23001 23002 23003 23004 23005 23006 23007 23008 23009 23010 23011 23012 23013 23014 23015 23016 23017 23018 23019 23020 23021 23022 23023 23024 23025 23026 23027 23028 23029 23030 23031 23032 23033 23034 23035 23036 23037 23038 23039 23040 23041 23042 23043 23044 23045 23046 23047 23048 23049 23050 23051 23052 23053 23054 23055 23056 23057 23058 23059 23060 23061 23062 23063 23064 23065 23066 23067 23068 23069 23070 23071 23072 23073 23074 23075 23076 23077 23078 23079 23080 23081 23082 23083 23084 23085 23086 23087 23088 23089 23090 23091 23092 23093 23094 23095 23096 23097 23098 23099 23100 23101 23102 23103 23104 23105 23106 23107 23108 23109 23110 23111 23112 23113 23114 23115 23116 23117 23118 23119 23120 23121 23122 23123 23124 23125 23126 23127 23128 23129 23130 23131 23132 23133 23134 23135 23136 23137 23138 23139 23140 23141 23142 23143 23144 23145 23146 23147 23148 23149 23150 23151 23152 23153 23154 23155 23156 23157 23158 23159 23160 23161 23162 23163 23164 23165 23166 23167 23168 23169 23170 23171 23172 23173 23174 23175 23176 23177 23178 23179 23180 23181 23182 23183 23184 23185 23186 23187 23188 23189 23190 23191 23192 23193 23194 23195 23196 23197 23198 23199 23200 23201 23202 23203 23204 23205 23206 23207 23208 23209 23210 23211 23212 23213 23214 23215 23216 23217 23218 23219 23220 23221 23222 23223 23224 23225 23226 23227 23228 23229 23230 23231 23232 23233 23234 23235 23236 23237 23238 23239 23240 23241 23242 23243 23244 23245 23246 23247 23248 23249 23250 23251 23252 23253 23254 23255 23256 23257 23258 23259 23260 23261 23262 23263 23264 23265 23266 23267 23268 23269 23270 23271 23272 23273 23274 23275 23276 23277 23278 23279 23280 23281 23282 23283 23284 23285 23286 23287 23288 23289 23290 23291 23292 23293 23294 23295 23296 23297 23298 23299 23300 23301 23302 23303 23304 23305 23306 23307 23308 23309 23310 23311 23312 23313 23314 23315 23316 23317 23318 23319 23320 23321 23322 23323 23324 23325 23326 23327 23328 23329 23330 23331 23332 23333 23334 23335 23336 23337 23338 23339 23340 23341 23342 23343 23344 23345 23346 23347 23348 23349 23350 23351 23352 23353 23354 23355 23356 23357 23358 23359 23360 23361 23362 23363 23364 23365 23366 23367 23368 23369 23370 23371 23372 23373 23374 23375 23376 23377 23378 23379 23380 23381 23382 23383 23384 23385 23386 23387 23388 23389 23390 23391 23392 23393 23394 23395 23396 23397 23398 23399 23400 23401 23402 23403 23404 23405 23406 23407 23408 23409 23410 23411 23412 23413 23414 23415 23416 23417 23418 23419 23420 23421 23422 23423 23424 23425 23426 23427 23428 23429 23430 23431 23432 23433 23434 23435 23436 23437 23438 23439 23440 23441 23442 23443 23444 23445 23446 23447 23448 23449 23450 23451 23452 23453 23454 23455 23456 23457 23458 23459 23460 23461 23462 23463 23464 23465 23466 23467 23468 23469 23470 23471 23472 23473 23474 23475 23476 23477 23478 23479 23480 23481 23482 23483 23484 23485 23486 23487 23488 23489 23490 23491 23492 23493 23494 23495 23496 23497 23498 23499 23500 23501 23502 23503 23504 23505 23506 23507 23508 23509 23510 23511 23512 23513 23514 23515 23516 23517 23518 23519 23520 23521 23522 23523 23524 23525 23526 23527 23528 23529 23530 23531 23532 23533 23534 23535 23536 23537 23538 23539 23540 23541 23542 23543 23544 23545 23546 23547 23548 23549 23550 23551 23552 23553 23554 23555 23556 23557 23558 23559 23560 23561 23562 23563 23564 23565 23566 23567 23568 23569 23570 23571 23572 23573 23574 23575 23576 23577 23578 23579 23580 23581 23582 23583 23584 23585 23586 23587 23588 23589 23590 23591 23592 23593 23594 23595 23596 23597 23598 23599 23600 23601 23602 23603 23604 23605 23606 23607 23608 23609 23610 23611 23612 23613 23614 23615 23616 23617 23618 23619 23620 23621 23622 23623 23624 23625 23626 23627 23628 23629 23630 23631 23632 23633 23634 23635 23636 23637 23638 23639 23640 23641 23642 23643 23644 23645 23646 23647 23648 23649 23650 23651 23652 23653 23654 23655 23656 23657 23658 23659 23660 23661 23662 23663 23664 23665 23666 23667 23668 23669 23670 23671 23672 23673 23674 23675 23676 23677 23678 23679 23680 23681 23682 23683 23684 23685 23686 23687 23688 23689 23690 23691 23692 23693 23694 23695 23696 23697 23698 23699 23700 23701 23702 23703 23704 23705 23706 23707 23708 23709 23710 23711 23712 23713 23714 23715 23716 23717 23718 23719 23720 23721 23722 23723 23724 23725 23726 23727 23728 23729 23730 23731 23732 23733 23734 23735 23736 23737 23738 23739 23740 23741 23742 23743 23744 23745 23746 23747 23748 23749 23750 23751 23752 23753 23754 23755 23756 23757 23758 23759 23760 23761 23762 23763 23764 23765 23766 23767 23768 23769 23770 23771 23772 23773 23774 23775 23776 23777 23778 23779 23780 23781 23782 23783 23784 23785 23786 23787 23788 23789 23790 23791 23792 23793 23794 23795 23796 23797 23798 23799 23800 23801 23802 23803 23804 23805 23806 23807 23808 23809 23810 23811 23812 23813 23814 23815 23816 23817 23818 23819 23820 23821 23822 23823 23824 23825 23826 23827 23828 23829 23830 23831 23832 23833 23834 23835 23836 23837 23838 23839 23840 23841 23842 23843 23844 23845 23846 23847 23848 23849 23850 23851 23852 23853 23854 23855 23856 23857 23858 23859 23860 23861 23862 23863 23864 23865 23866 23867 23868 23869 23870 23871 23872 23873 23874 23875 23876 23877 23878 23879 23880 23881 23882 23883 23884 23885 23886 23887 23888 23889 23890 23891 23892 23893 23894 23895 23896 23897 23898 23899 23900 23901 23902 23903 23904 23905 23906 23907 23908 23909 23910 23911 23912 23913 23914 23915 23916 23917 23918 23919 23920 23921 23922 23923 23924 23925 23926 23927 23928 23929 23930 23931 23932 23933 23934 23935 23936 23937 23938 23939 23940 23941 23942 23943 23944 23945 23946 23947 23948 23949 23950 23951 23952 23953 23954 23955 23956 23957 23958 23959 23960 23961 23962 23963 23964 23965 23966 23967 23968 23969 23970 23971 23972 23973 23974 23975 23976 23977 23978 23979 23980 23981 23982 23983 23984 23985 23986 23987 23988 23989 23990 23991 23992 23993 23994 23995 23996 23997 23998 23999 24000 24001 24002 24003 24004 24005 24006 24007 24008 24009 24010 24011 24012 24013 24014 24015 24016 24017 24018 24019 24020 24021 24022 24023 24024 24025 24026 24027 24028 24029 24030 24031 24032 24033 24034 24035 24036 24037 24038 24039 24040 24041 24042 24043 24044 24045 24046 24047 24048 24049 24050 24051 24052 24053 24054 24055 24056 24057 24058 24059 24060 24061 24062 24063 24064 24065 24066 24067 24068 24069 24070 24071 24072 24073 24074 24075 24076 24077 24078 24079 24080 24081 24082 24083 24084 24085 24086 24087 24088 24089 24090 24091 24092 24093 24094 24095 24096 24097 24098 24099 24100 24101 24102 24103 24104 24105 24106 24107 24108 24109 24110 24111 24112 24113 24114 24115 24116 24117 24118 24119 24120 24121 24122 24123 24124 24125 24126 24127 24128 24129 24130 24131 24132 24133 24134 24135 24136 24137 24138 24139 24140 24141 24142 24143 24144 24145 24146 24147 24148 24149 24150 24151 24152 24153 24154 24155 24156 24157 24158 24159 24160 24161 24162 24163 24164 24165 24166 24167 24168 24169 24170 24171 24172 24173 24174 24175 24176 24177 24178 24179 24180 24181 24182 24183 24184 24185 24186 24187 24188 24189 24190 24191 24192 24193 24194 24195 24196 24197 24198 24199 24200 24201 24202 24203 24204 24205 24206 24207 24208 24209 24210 24211 24212 24213 24214 24215 24216 24217 24218 24219 24220 24221 24222 24223 24224 24225 24226 24227 24228 24229 24230 24231 24232 24233 24234 24235 24236 24237 24238 24239 24240 24241 24242 24243 24244 24245 24246 24247 24248 24249 24250 24251 24252 24253 24254 24255 24256 24257 24258 24259 24260 24261 24262 24263 24264 24265 24266 24267 24268 24269 24270 24271 24272 24273 24274 24275 24276 24277 24278 24279 24280 24281 24282 24283 24284 24285 24286 24287 24288 24289 24290 24291 24292 24293 24294 24295 24296 24297 24298 24299 24300 24301 24302 24303 24304 24305 24306 24307 24308 24309 24310 24311 24312 24313 24314 24315 24316 24317 24318 24319 24320 24321 24322 24323 24324 24325 24326 24327 24328 24329 24330 24331 24332 24333 24334 24335 24336 24337 24338 24339 24340 24341 24342 24343 24344 24345 24346 24347 24348 24349 24350 24351 24352 24353 24354 24355 24356 24357 24358 24359 24360 24361 24362 24363 24364 24365 24366 24367 24368 24369 24370 24371 24372 24373 24374 24375 24376 24377 24378 24379 24380 24381 24382 24383 24384 24385 24386 24387 24388 24389 24390 24391 24392 24393 24394 24395 24396 24397 24398 24399 24400 24401 24402 24403 24404 24405 24406 24407 24408 24409 24410 24411 24412 24413 24414 24415 24416 24417 24418 24419 24420 24421 24422 24423 24424 24425 24426 24427 24428 24429 24430 24431 24432 24433 24434 24435 24436 24437 24438 24439 24440 24441 24442 24443 24444 24445 24446 24447 24448 24449 24450 24451 24452 24453 24454 24455 24456 24457 24458 24459 24460 24461 24462 24463 24464 24465 24466 24467 24468 24469 24470 24471 24472 24473 24474 24475 24476 24477 24478 24479 24480 24481 24482 24483 24484 24485 24486 24487 24488 24489 24490 24491 24492 24493 24494 24495 24496 24497 24498 24499 24500 24501 24502 24503 24504 24505 24506 24507 24508 24509 24510 24511 24512 24513 24514 24515 24516 24517 24518 24519 24520 24521 24522 24523 24524 24525 24526 24527 24528 24529 24530 24531 24532 24533 24534 24535 24536 24537 24538 24539 24540 24541 24542 24543 24544 24545 24546 24547 24548 24549 24550 24551 24552 24553 24554 24555 24556 24557 24558 24559 24560 24561 24562 24563 24564 24565 24566 24567 24568 24569 24570 24571 24572 24573 24574 24575 24576 24577 24578 24579 24580 24581 24582 24583 24584 24585 24586 24587 24588 24589 24590 24591 24592 24593 24594 24595 24596 24597 24598 24599 24600 24601 24602 24603 24604 24605 24606 24607 24608 24609 24610 24611 24612 24613 24614 24615 24616 24617 24618 24619 24620 24621 24622 24623 24624 24625 24626 24627 24628 24629 24630 24631 24632 24633 24634 24635 24636 24637 24638 24639 24640 24641 24642 24643 24644 24645 24646 24647 24648 24649 24650 24651 24652 24653 24654 24655 24656 24657 24658 24659 24660 24661 24662 24663 24664 24665 24666 24667 24668 24669 24670 24671 24672 24673 24674 24675 24676 24677 24678 24679 24680 24681 24682 24683 24684 24685 24686 24687 24688 24689 24690 24691 24692 24693 24694 24695 24696 24697 24698 24699 24700 24701 24702 24703 24704 24705 24706 24707 24708 24709 24710 24711 24712 24713 24714 24715 24716 24717 24718 24719 24720 24721 24722 24723 24724 24725 24726 24727 24728 24729 24730 24731 24732 24733 24734 24735 24736 24737 24738 24739 24740 24741 24742 24743 24744 24745 24746 24747 24748 24749 24750 24751 24752 24753 24754 24755 24756 24757 24758 24759 24760 24761 24762 24763 24764 24765 24766 24767 24768 24769 24770 24771 24772 24773 24774 24775 24776 24777 24778 24779 24780 24781 24782 24783 24784 24785 24786 24787 24788 24789 24790 24791 24792 24793 24794 24795 24796 24797 24798 24799 24800 24801 24802 24803 24804 24805 24806 24807 24808 24809 24810 24811 24812 24813 24814 24815 24816 24817 24818 24819 24820 24821 24822 24823 24824 24825 24826 24827 24828 24829 24830 24831 24832 24833 24834 24835 24836 24837 24838 24839 24840 24841 24842 24843 24844 24845 24846 24847 24848 24849 24850 24851 24852 24853 24854 24855 24856 24857 24858 24859 24860 24861 24862 24863 24864 24865 24866 24867 24868 24869 24870 24871 24872 24873 24874 24875 24876 24877 24878 24879 24880 24881 24882 24883 24884 24885 24886 24887 24888 24889 24890 24891 24892 24893 24894 24895 24896 24897 24898 24899 24900 24901 24902 24903 24904 24905 24906 24907 24908 24909 24910 24911 24912 24913 24914 24915 24916 24917 24918 24919 24920 24921 24922 24923 24924 24925 24926 24927 24928 24929 24930 24931 24932 24933 24934 24935 24936 24937 24938 24939 24940 24941 24942 24943 24944 24945 24946 24947 24948 24949 24950 24951 24952 24953 24954 24955 24956 24957 24958 24959 24960 24961 24962 24963 24964 24965 24966 24967 24968 24969 24970 24971 24972 24973 24974 24975 24976 24977 24978 24979 24980 24981 24982 24983 24984 24985 24986 24987 24988 24989 24990 24991 24992 24993 24994 24995 24996 24997 24998 24999 25000 25001 25002 25003 25004 25005 25006 25007 25008 25009 25010 25011 25012 25013 25014 25015 25016 25017 25018 25019 25020 25021 25022 25023 25024 25025 25026 25027 25028 25029 25030 25031 25032 25033 25034 25035 25036 25037 25038 25039 25040 25041 25042 25043 25044 25045 25046 25047 25048 25049 25050 25051 25052 25053 25054 25055 25056 25057 25058 25059 25060 25061 25062 25063 25064 25065 25066 25067 25068 25069 25070 25071 25072 25073 25074 25075 25076 25077 25078 25079 25080 25081 25082 25083 25084 25085 25086 25087 25088 25089 25090 25091 25092 25093 25094 25095 25096 25097 25098 25099 25100 25101 25102 25103 25104 25105 25106 25107 25108 25109 25110 25111 25112 25113 25114 25115 25116 25117 25118 25119 25120 25121 25122 25123 25124 25125 25126 25127 25128 25129 25130 25131 25132 25133 25134 25135 25136 25137 25138 25139 25140 25141 25142 25143 25144 25145 25146 25147 25148 25149 25150 25151 25152 25153 25154 25155 25156 25157 25158 25159 25160 25161 25162 25163 25164 25165 25166 25167 25168 25169 25170 25171 25172 25173 25174 25175 25176 25177 25178 25179 25180 25181 25182 25183 25184 25185 25186 25187 25188 25189 25190 25191 25192 25193 25194 25195 25196 25197 25198 25199 25200 25201 25202 25203 25204 25205 25206 25207 25208 25209 25210 25211 25212 25213 25214 25215 25216 25217 25218 25219 25220 25221 25222 25223 25224 25225 25226 25227 25228 25229 25230 25231 25232 25233 25234 25235 25236 25237 25238 25239 25240 25241 25242 25243 25244 25245 25246 25247 25248 25249 25250 25251 25252 25253 25254 25255 25256 25257 25258 25259 25260 25261 25262 25263 25264 25265 25266 25267 25268 25269 25270 25271 25272 25273 25274 25275 25276 25277 25278 25279 25280 25281 25282 25283 25284 25285 25286 25287 25288 25289 25290 25291 25292 25293 25294 25295 25296 25297 25298 25299 25300 25301 25302 25303 25304 25305 25306 25307 25308 25309 25310 25311 25312 25313 25314 25315 25316 25317 25318 25319 25320 25321 25322 25323 25324 25325 25326 25327 25328 25329 25330 25331 25332 25333 25334 25335 25336 25337 25338 25339 25340 25341 25342 25343 25344 25345 25346 25347 25348 25349 25350 25351 25352 25353 25354 25355 25356 25357 25358 25359 25360 25361 25362 25363 25364 25365 25366 25367 25368 25369 25370 25371 25372 25373 25374 25375 25376 25377 25378 25379 25380 25381 25382 25383 25384 25385 25386 25387 25388 25389 25390 25391 25392 25393 25394 25395 25396 25397 25398 25399 25400 25401 25402 25403 25404 25405 25406 25407 25408 25409 25410 25411 25412 25413 25414 25415 25416 25417 25418 25419 25420 25421 25422 25423 25424 25425 25426 25427 25428 25429 25430 25431 25432 25433 25434 25435 25436 25437 25438 25439 25440 25441 25442 25443 25444 25445 25446 25447 25448 25449 25450 25451 25452 25453 25454 25455 25456 25457 25458 25459 25460 25461 25462 25463 25464 25465 25466 25467 25468 25469 25470 25471 25472 25473 25474 25475 25476 25477 25478 25479 25480 25481 25482 25483 25484 25485 25486 25487 25488 25489 25490 25491 25492 25493 25494 25495 25496 25497 25498 25499 25500 25501 25502 25503 25504 25505 25506 25507 25508 25509 25510 25511 25512 25513 25514 25515 25516 25517 25518 25519 25520 25521 25522 25523 25524 25525 25526 25527 25528 25529 25530 25531 25532 25533 25534 25535 25536 25537 25538 25539 25540 25541 25542 25543 25544 25545 25546 25547 25548 25549 25550 25551 25552 25553 25554 25555 25556 25557 25558 25559 25560 25561 25562 25563 25564 25565 25566 25567 25568 25569 25570 25571 25572 25573 25574 25575 25576 25577 25578 25579 25580 25581 25582 25583 25584 25585 25586 25587 25588 25589 25590 25591 25592 25593 25594 25595 25596 25597 25598 25599 25600 25601 25602 25603 25604 25605 25606 25607 25608 25609 25610 25611 25612 25613 25614 25615 25616 25617 25618 25619 25620 25621 25622 25623 25624 25625 25626 25627 25628 25629 25630 25631 25632 25633 25634 25635 25636 25637 25638 25639 25640 25641 25642 25643 25644 25645 25646 25647 25648 25649 25650 25651 25652 25653 25654 25655 25656 25657 25658 25659 25660 25661 25662 25663 25664 25665 25666 25667 25668 25669 25670 25671 25672 25673 25674 25675 25676 25677 25678 25679 25680 25681 25682 25683 25684 25685 25686 25687 25688 25689 25690 25691 25692 25693 25694 25695 25696 25697 25698 25699 25700 25701 25702 25703 25704 25705 25706 25707 25708 25709 25710 25711 25712 25713 25714 25715 25716 25717 25718 25719 25720 25721 25722 25723 25724 25725 25726 25727 25728 25729 25730 25731 25732 25733 25734 25735 25736 25737 25738 25739 25740 25741 25742 25743 25744 25745 25746 25747 25748 25749 25750 25751 25752 25753 25754 25755 25756 25757 25758 25759 25760 25761 25762 25763 25764 25765 25766 25767 25768 25769 25770 25771 25772 25773 25774 25775 25776 25777 25778 25779 25780 25781 25782 25783 25784 25785 25786 25787 25788 25789 25790 25791 25792 25793 25794 25795 25796 25797 25798 25799 25800 25801 25802 25803 25804 25805 25806 25807 25808 25809 25810 25811 25812 25813 25814 25815 25816 25817 25818 25819 25820 25821 25822 25823 25824 25825 25826 25827 25828 25829 25830 25831 25832 25833 25834 25835 25836 25837 25838 25839 25840 25841 25842 25843 25844 25845 25846 25847 25848 25849 25850 25851 25852 25853 25854 25855 25856 25857 25858 25859 25860 25861 25862 25863 25864 25865 25866 25867 25868 25869 25870 25871 25872 25873 25874 25875 25876 25877 25878 25879 25880 25881 25882 25883 25884 25885 25886 25887 25888 25889 25890 25891 25892 25893 25894 25895 25896 25897 25898 25899 25900 25901 25902 25903 25904 25905 25906 25907 25908 25909 25910 25911 25912 25913 25914 25915 25916 25917 25918 25919 25920 25921 25922 25923 25924 25925 25926 25927 25928 25929 25930 25931 25932 25933 25934 25935 25936 25937 25938 25939 25940 25941 25942 25943 25944 25945 25946 25947 25948 25949 25950 25951 25952 25953 25954 25955 25956 25957 25958 25959 25960 25961 25962 25963 25964 25965 25966 25967 25968 25969 25970 25971 25972 25973 25974 25975 25976 25977 25978 25979 25980 25981 25982 25983 25984 25985 25986 25987 25988 25989 25990 25991 25992 25993 25994 25995 25996 25997 25998 25999 26000 26001 26002 26003 26004 26005 26006 26007 26008 26009 26010 26011 26012 26013 26014 26015 26016 26017 26018 26019 26020 26021 26022 26023 26024 26025 26026 26027 26028 26029 26030 26031 26032 26033 26034 26035 26036 26037 26038 26039 26040 26041 26042 26043 26044 26045 26046 26047 26048 26049 26050 26051 26052 26053 26054 26055 26056 26057 26058 26059 26060 26061 26062 26063 26064 26065 26066 26067 26068 26069 26070 26071 26072 26073 26074 26075 26076 26077 26078 26079 26080 26081 26082 26083 26084 26085 26086 26087 26088 26089 26090 26091 26092 26093 26094 26095 26096 26097 26098 26099 26100 26101 26102 26103 26104 26105 26106 26107 26108 26109 26110 26111 26112 26113 26114 26115 26116 26117 26118 26119 26120 26121 26122 26123 26124 26125 26126 26127 26128 26129 26130 26131 26132 26133 26134 26135 26136 26137 26138 26139 26140 26141 26142 26143 26144 26145 26146 26147 26148 26149 26150 26151 26152 26153 26154 26155 26156 26157 26158 26159 26160 26161 26162 26163 26164 26165 26166 26167 26168 26169 26170 26171 26172 26173 26174 26175 26176 26177 26178 26179 26180 26181 26182 26183 26184 26185 26186 26187 26188 26189 26190 26191 26192 26193 26194 26195 26196 26197 26198 26199 26200 26201 26202 26203 26204 26205 26206 26207 26208 26209 26210 26211 26212 26213 26214 26215 26216 26217 26218 26219 26220 26221 26222 26223 26224 26225 26226 26227 26228 26229 26230 26231 26232 26233 26234 26235 26236 26237 26238 26239 26240 26241 26242 26243 26244 26245 26246 26247 26248 26249 26250 26251 26252 26253 26254 26255 26256 26257 26258 26259 26260 26261 26262 26263 26264 26265 26266 26267 26268 26269 26270 26271 26272 26273 26274 26275 26276 26277 26278 26279 26280 26281 26282 26283 26284 26285 26286 26287 26288 26289 26290 26291 26292 26293 26294 26295 26296 26297 26298 26299 26300 26301 26302 26303 26304 26305 26306 26307 26308 26309 26310 26311 26312 26313 26314 26315 26316 26317 26318 26319 26320 26321 26322 26323 26324 26325 26326 26327 26328 26329 26330 26331 26332 26333 26334 26335 26336 26337 26338 26339 26340 26341 26342 26343 26344 26345 26346 26347 26348 26349 26350 26351 26352 26353 26354 26355 26356 26357 26358 26359 26360 26361 26362 26363 26364 26365 26366 26367 26368 26369 26370 26371 26372 26373 26374 26375 26376 26377 26378 26379 26380 26381 26382 26383 26384 26385 26386 26387 26388 26389 26390 26391 26392 26393 26394 26395 26396 26397 26398 26399 26400 26401 26402 26403 26404 26405 26406 26407 26408 26409 26410 26411 26412 26413 26414 26415 26416 26417 26418 26419 26420 26421 26422 26423 26424 26425 26426 26427 26428 26429 26430 26431 26432 26433 26434 26435 26436 26437 26438 26439 26440 26441 26442 26443 26444 26445 26446 26447 26448 26449 26450 26451 26452 26453 26454 26455 26456 26457 26458 26459 26460 26461 26462 26463 26464 26465 26466 26467 26468 26469 26470 26471 26472 26473 26474 26475 26476 26477 26478 26479 26480 26481 26482 26483 26484 26485 26486 26487 26488 26489 26490 26491 26492 26493 26494 26495 26496 26497 26498 26499 26500 26501 26502 26503 26504 26505 26506 26507 26508 26509 26510 26511 26512 26513 26514 26515 26516 26517 26518 26519 26520 26521 26522 26523 26524 26525 26526 26527 26528 26529 26530 26531 26532 26533 26534 26535 26536 26537 26538 26539 26540 26541 26542 26543 26544 26545 26546 26547 26548 26549 26550 26551 26552 26553 26554 26555 26556 26557 26558 26559 26560 26561 26562 26563 26564 26565 26566 26567 26568 26569 26570 26571 26572 26573 26574 26575 26576 26577 26578 26579 26580 26581 26582 26583 26584 26585 26586 26587 26588 26589 26590 26591 26592 26593 26594 26595 26596 26597 26598 26599 26600 26601 26602 26603 26604 26605 26606 26607 26608 26609 26610 26611 26612 26613 26614 26615 26616 26617 26618 26619 26620 26621 26622 26623 26624 26625 26626 26627 26628 26629 26630 26631 26632 26633 26634 26635 26636 26637 26638 26639 26640 26641 26642 26643 26644 26645 26646 26647 26648 26649 26650 26651 26652 26653 26654 26655 26656 26657 26658 26659 26660 26661 26662 26663 26664 26665 26666 26667 26668 26669 26670 26671 26672 26673 26674 26675 26676 26677 26678 26679 26680 26681 26682 26683 26684 26685 26686 26687 26688 26689 26690 26691 26692 26693 26694 26695 26696 26697 26698 26699 26700 26701 26702 26703 26704 26705 26706 26707 26708 26709 26710 26711 26712 26713 26714 26715 26716 26717 26718 26719 26720 26721 26722 26723 26724 26725 26726 26727 26728 26729 26730 26731 26732 26733 26734 26735 26736 26737 26738 26739 26740 26741 26742 26743 26744 26745 26746 26747 26748 26749 26750 26751 26752 26753 26754 26755 26756 26757 26758 26759 26760 26761 26762 26763 26764 26765 26766 26767 26768 26769 26770 26771 26772 26773 26774 26775 26776 26777 26778 26779 26780 26781 26782 26783 26784 26785 26786 26787 26788 26789 26790 26791 26792 26793 26794 26795 26796 26797 26798 26799 26800 26801 26802 26803 26804 26805 26806 26807 26808 26809 26810 26811 26812 26813 26814 26815 26816 26817 26818 26819 26820 26821 26822 26823 26824 26825 26826 26827 26828 26829 26830 26831 26832 26833 26834 26835 26836 26837 26838 26839 26840 26841 26842 26843 26844 26845 26846 26847 26848 26849 26850 26851 26852 26853 26854 26855 26856 26857 26858 26859 26860 26861 26862 26863 26864 26865 26866 26867 26868 26869 26870 26871 26872 26873 26874 26875 26876 26877 26878 26879 26880 26881 26882 26883 26884 26885 26886 26887 26888 26889 26890 26891 26892 26893 26894 26895 26896 26897 26898 26899 26900 26901 26902 26903 26904 26905 26906 26907 26908 26909 26910 26911 26912 26913 26914 26915 26916 26917 26918 26919 26920 26921 26922 26923 26924 26925 26926 26927 26928 26929 26930 26931 26932 26933 26934 26935 26936 26937 26938 26939 26940 26941 26942 26943 26944 26945 26946 26947 26948 26949 26950 26951 26952 26953 26954 26955 26956 26957 26958 26959 26960 26961 26962 26963 26964 26965 26966 26967 26968 26969 26970 26971 26972 26973 26974 26975 26976 26977 26978 26979 26980 26981 26982 26983 26984 26985 26986 26987 26988 26989 26990 26991 26992 26993 26994 26995 26996 26997 26998 26999 27000 27001 27002 27003 27004 27005 27006 27007 27008 27009 27010 27011 27012 27013 27014 27015 27016 27017 27018 27019 27020 27021 27022 27023 27024 27025 27026 27027 27028 27029 27030 27031 27032 27033 27034 27035 27036 27037 27038 27039 27040 27041 27042 27043 27044 27045 27046 27047 27048 27049 27050 27051 27052 27053 27054 27055 27056 27057 27058 27059 27060 27061 27062 27063 27064 27065 27066 27067 27068 27069 27070 27071 27072 27073 27074 27075 27076 27077 27078 27079 27080 27081 27082 27083 27084 27085 27086 27087 27088 27089 27090 27091 27092 27093 27094 27095 27096 27097 27098 27099 27100 27101 27102 27103 27104 27105 27106 27107 27108 27109 27110 27111 27112 27113 27114 27115 27116 27117 27118 27119 27120 27121 27122 27123 27124 27125 27126 27127 27128 27129 27130 27131 27132 27133 27134 27135 27136 27137 27138 27139 27140 27141 27142 27143 27144 27145 27146 27147 27148 27149 27150 27151 27152 27153 27154 27155 27156 27157 27158 27159 27160 27161 27162 27163 27164 27165 27166 27167 27168 27169 27170 27171 27172 27173 27174 27175 27176 27177 27178 27179 27180 27181 27182 27183 27184 27185 27186 27187 27188 27189 27190 27191 27192 27193 27194 27195 27196 27197 27198 27199 27200 27201 27202 27203 27204 27205 27206 27207 27208 27209 27210 27211 27212 27213 27214 27215 27216 27217 27218 27219 27220 27221 27222 27223 27224 27225 27226 27227 27228 27229 27230 27231 27232 27233 27234 27235 27236 27237 27238 27239 27240 27241 27242 27243 27244 27245 27246 27247 27248 27249 27250 27251 27252 27253 27254 27255 27256 27257 27258 27259 27260 27261 27262 27263 27264 27265 27266 27267 27268 27269 27270 27271 27272 27273 27274 27275 27276 27277 27278 27279 27280 27281 27282 27283 27284 27285 27286 27287 27288 27289 27290 27291 27292 27293 27294 27295 27296 27297 27298 27299 27300 27301 27302 27303 27304 27305 27306 27307 27308 27309 27310 27311 27312 27313 27314 27315 27316 27317 27318 27319 27320 27321 27322 27323 27324 27325 27326 27327 27328 27329 27330 27331 27332 27333 27334 27335 27336 27337 27338 27339 27340 27341 27342 27343 27344 27345 27346 27347 27348 27349 27350 27351 27352 27353 27354 27355 27356 27357 27358 27359 27360 27361 27362 27363 27364 27365 27366 27367 27368 27369 27370 27371 27372 27373 27374 27375 27376 27377 27378 27379 27380 27381 27382 27383 27384 27385 27386 27387 27388 27389 27390 27391 27392 27393 27394 27395 27396 27397 27398 27399 27400 27401 27402 27403 27404 27405 27406 27407 27408 27409 27410 27411 27412 27413 27414 27415 27416 27417 27418 27419 27420 27421 27422 27423 27424 27425 27426 27427 27428 27429 27430 27431 27432 27433 27434 27435 27436 27437 27438 27439 27440 27441 27442 27443 27444 27445 27446 27447 27448 27449 27450 27451 27452 27453 27454 27455 27456 27457 27458 27459 27460 27461 27462 27463 27464 27465 27466 27467 27468 27469 27470 27471 27472 27473 27474 27475 27476 27477 27478 27479 27480 27481 27482 27483 27484 27485 27486 27487 27488 27489 27490 27491 27492 27493 27494 27495 27496 27497 27498 27499 27500 27501 27502 27503 27504 27505 27506 27507 27508 27509 27510 27511 27512 27513 27514 27515 27516 27517 27518 27519 27520 27521 27522 27523 27524 27525 27526 27527 27528 27529 27530 27531 27532 27533 27534 27535 27536 27537 27538 27539 27540 27541 27542 27543 27544 27545 27546 27547 27548 27549 27550 27551 27552 27553 27554 27555 27556 27557 27558 27559 27560 27561 27562 27563 27564 27565 27566 27567 27568 27569 27570 27571 27572 27573 27574 27575 27576 27577 27578 27579 27580 27581 27582 27583 27584 27585 27586 27587 27588 27589 27590 27591 27592 27593 27594 27595 27596 27597 27598 27599 27600 27601 27602 27603 27604 27605 27606 27607 27608 27609 27610 27611 27612 27613 27614 27615 27616 27617 27618 27619 27620 27621 27622 27623 27624 27625 27626 27627 27628 27629 27630 27631 27632 27633 27634 27635 27636 27637 27638 27639 27640 27641 27642 27643 27644 27645 27646 27647 27648 27649 27650 27651 27652 27653 27654 27655 27656 27657 27658 27659 27660 27661 27662 27663 27664 27665 27666 27667 27668 27669 27670 27671 27672 27673 27674 27675 27676 27677 27678 27679 27680 27681 27682 27683 27684 27685 27686 27687 27688 27689 27690 27691 27692 27693 27694 27695 27696 27697 27698 27699 27700 27701 27702 27703 27704 27705 27706 27707 27708 27709 27710 27711 27712 27713 27714 27715 27716 27717 27718 27719 27720 27721 27722 27723 27724 27725 27726 27727 27728 27729 27730 27731 27732 27733 27734 27735 27736 27737 27738 27739 27740 27741 27742 27743 27744 27745 27746 27747 27748 27749 27750 27751 27752 27753 27754 27755 27756 27757 27758 27759 27760 27761 27762 27763 27764 27765 27766 27767 27768 27769 27770 27771 27772 27773 27774 27775 27776 27777 27778 27779 27780 27781 27782 27783 27784 27785 27786 27787 27788 27789 27790 27791 27792 27793 27794 27795 27796 27797 27798 27799 27800 27801 27802 27803 27804 27805 27806 27807 27808 27809 27810 27811 27812 27813 27814 27815 27816 27817 27818 27819 27820 27821 27822 27823 27824 27825 27826 27827 27828 27829 27830 27831 27832 27833 27834 27835 27836 27837 27838 27839 27840 27841 27842 27843 27844 27845 27846 27847 27848 27849 27850 27851 27852 27853 27854 27855 27856 27857 27858 27859 27860 27861 27862 27863 27864 27865 27866 27867 27868 27869 27870 27871 27872 27873 27874 27875 27876 27877 27878 27879 27880 27881 27882 27883 27884 27885 27886 27887 27888 27889 27890 27891 27892 27893 27894 27895 27896 27897 27898 27899 27900 27901 27902 27903 27904 27905 27906 27907 27908 27909 27910 27911 27912 27913 27914 27915 27916 27917 27918 27919 27920 27921 27922 27923 27924 27925 27926 27927 27928 27929 27930 27931 27932 27933 27934 27935 27936 27937 27938 27939 27940 27941 27942 27943 27944 27945 27946 27947 27948 27949 27950 27951 27952 27953 27954 27955 27956 27957 27958 27959 27960 27961 27962 27963 27964 27965 27966 27967 27968 27969 27970 27971 27972 27973 27974 27975 27976 27977 27978 27979 27980 27981 27982 27983 27984 27985 27986 27987 27988 27989 27990 27991 27992 27993 27994 27995 27996 27997 27998 27999 28000 28001 28002 28003 28004 28005 28006 28007 28008 28009 28010 28011 28012 28013 28014 28015 28016 28017 28018 28019 28020 28021 28022 28023 28024 28025 28026 28027 28028 28029 28030 28031 28032 28033 28034 28035 28036 28037 28038 28039 28040 28041 28042 28043 28044 28045 28046 28047 28048 28049 28050 28051 28052 28053 28054 28055 28056 28057 28058 28059 28060 28061 28062 28063 28064 28065 28066 28067 28068 28069 28070 28071 28072 28073 28074 28075 28076 28077 28078 28079 28080 28081 28082 28083 28084 28085 28086 28087 28088 28089 28090 28091 28092 28093 28094 28095 28096 28097 28098 28099 28100 28101 28102 28103 28104 28105 28106 28107 28108 28109 28110 28111 28112 28113 28114 28115 28116 28117 28118 28119 28120 28121 28122 28123 28124 28125 28126 28127 28128 28129 28130 28131 28132 28133 28134 28135 28136 28137 28138 28139 28140 28141 28142 28143 28144 28145 28146 28147 28148 28149 28150 28151 28152 28153 28154 28155 28156 28157 28158 28159 28160 28161 28162 28163 28164 28165 28166 28167 28168 28169 28170 28171 28172 28173 28174 28175 28176 28177 28178 28179 28180 28181 28182 28183 28184 28185 28186 28187 28188 28189 28190 28191 28192 28193 28194 28195 28196 28197 28198 28199 28200 28201 28202 28203 28204 28205 28206 28207 28208 28209 28210 28211 28212 28213 28214 28215 28216 28217 28218 28219 28220 28221 28222 28223 28224 28225 28226 28227 28228 28229 28230 28231 28232 28233 28234 28235 28236 28237 28238 28239 28240 28241 28242 28243 28244 28245 28246 28247 28248 28249 28250 28251 28252 28253 28254 28255 28256 28257 28258 28259 28260 28261 28262 28263 28264 28265 28266 28267 28268 28269 28270 28271 28272 28273 28274 28275 28276 28277 28278 28279 28280 28281 28282 28283 28284 28285 28286 28287 28288 28289 28290 28291 28292 28293 28294 28295 28296 28297 28298 28299 28300 28301 28302 28303 28304 28305 28306 28307 28308 28309 28310 28311 28312 28313 28314 28315 28316 28317 28318 28319 28320 28321 28322 28323 28324 28325 28326 28327 28328 28329 28330 28331 28332 28333 28334 28335 28336 28337 28338 28339 28340 28341 28342 28343 28344 28345 28346 28347 28348 28349 28350 28351 28352 28353 28354 28355 28356 28357 28358 28359 28360 28361 28362 28363 28364 28365 28366 28367 28368 28369 28370 28371 28372 28373 28374 28375 28376 28377 28378 28379 28380 28381 28382 28383 28384 28385 28386 28387 28388 28389 28390 28391 28392 28393 28394 28395 28396 28397 28398 28399 28400 28401 28402 28403 28404 28405 28406 28407 28408 28409 28410 28411 28412 28413 28414 28415 28416 28417 28418 28419 28420 28421 28422 28423 28424 28425 28426 28427 28428 28429 28430 28431 28432 28433 28434 28435 28436 28437 28438 28439 28440 28441 28442 28443 28444 28445 28446 28447 28448 28449 28450 28451 28452 28453 28454 28455 28456 28457 28458 28459 28460 28461 28462 28463 28464 28465 28466 28467 28468 28469 28470 28471 28472 28473 28474 28475 28476 28477 28478 28479 28480 28481 28482 28483 28484 28485 28486 28487 28488 28489 28490 28491 28492 28493 28494 28495 28496 28497 28498 28499 28500 28501 28502 28503 28504 28505 28506 28507 28508 28509 28510 28511 28512 28513 28514 28515 28516 28517 28518 28519 28520 28521 28522 28523 28524 28525 28526 28527 28528 28529 28530 28531 28532 28533 28534 28535 28536 28537 28538 28539 28540 28541 28542 28543 28544 28545 28546 28547 28548 28549 28550 28551 28552 28553 28554 28555 28556 28557 28558 28559 28560 28561 28562 28563 28564 28565 28566 28567 28568 28569 28570 28571 28572 28573 28574 28575 28576 28577 28578 28579 28580 28581 28582 28583 28584 28585 28586 28587 28588 28589 28590 28591 28592 28593 28594 28595 28596 28597 28598 28599 28600 28601 28602 28603 28604 28605 28606 28607 28608 28609 28610 28611 28612 28613 28614 28615 28616 28617 28618 28619 28620 28621 28622 28623 28624 28625 28626 28627 28628 28629 28630 28631 28632 28633 28634 28635 28636 28637 28638 28639 28640 28641 28642 28643 28644 28645 28646 28647 28648 28649 28650 28651 28652 28653 28654 28655 28656 28657 28658 28659 28660 28661 28662 28663 28664 28665 28666 28667 28668 28669 28670 28671 28672 28673 28674 28675 28676 28677 28678 28679 28680 28681 28682 28683 28684 28685 28686 28687 28688 28689 28690 28691 28692 28693 28694 28695 28696 28697 28698 28699 28700 28701 28702 28703 28704 28705 28706 28707 28708 28709 28710 28711 28712 28713 28714 28715 28716 28717 28718 28719 28720 28721 28722 28723 28724 28725 28726 28727 28728 28729 28730 28731 28732 28733 28734 28735 28736 28737 28738 28739 28740 28741 28742 28743 28744 28745 28746 28747 28748 28749 28750 28751 28752 28753 28754 28755 28756 28757 28758 28759 28760 28761 28762 28763 28764 28765 28766 28767 28768 28769 28770 28771 28772 28773 28774 28775 28776 28777 28778 28779 28780 28781 28782 28783 28784 28785 28786 28787 28788 28789 28790 28791 28792 28793 28794 28795 28796 28797 28798 28799 28800 28801 28802 28803 28804 28805 28806 28807 28808 28809 28810 28811 28812 28813 28814 28815 28816 28817 28818 28819 28820 28821 28822 28823 28824 28825 28826 28827 28828 28829 28830 28831 28832 28833 28834 28835 28836 28837 28838 28839 28840 28841 28842 28843 28844 28845 28846 28847 28848 28849 28850 28851 28852 28853 28854 28855 28856 28857 28858 28859 28860 28861 28862 28863 28864 28865 28866 28867 28868 28869 28870 28871 28872 28873 28874 28875 28876 28877 28878 28879 28880 28881 28882 28883 28884 28885 28886 28887 28888 28889 28890 28891 28892 28893 28894 28895 28896 28897 28898 28899 28900 28901 28902 28903 28904 28905 28906 28907 28908 28909 28910 28911 28912 28913 28914 28915 28916 28917 28918 28919 28920 28921 28922 28923 28924 28925 28926 28927 28928 28929 28930 28931 28932 28933 28934 28935 28936 28937 28938 28939 28940 28941 28942 28943 28944 28945 28946 28947 28948 28949 28950 28951 28952 28953 28954 28955 28956 28957 28958 28959 28960 28961 28962 28963 28964 28965 28966 28967 28968 28969 28970 28971 28972 28973 28974 28975 28976 28977 28978 28979 28980 28981 28982 28983 28984 28985 28986 28987 28988 28989 28990 28991 28992 28993 28994 28995 28996 28997 28998 28999 29000 29001 29002 29003 29004 29005 29006 29007 29008 29009 29010 29011 29012 29013 29014 29015 29016 29017 29018 29019 29020 29021 29022 29023 29024 29025 29026 29027 29028 29029 29030 29031 29032 29033 29034 29035 29036 29037 29038 29039 29040 29041 29042 29043 29044 29045 29046 29047 29048 29049 29050 29051 29052 29053 29054 29055 29056 29057 29058 29059 29060 29061 29062 29063 29064 29065 29066 29067 29068 29069 29070 29071 29072 29073 29074 29075 29076 29077 29078 29079 29080 29081 29082 29083 29084 29085 29086 29087 29088 29089 29090 29091 29092 29093 29094 29095 29096 29097 29098 29099 29100 29101 29102 29103 29104 29105 29106 29107 29108 29109 29110 29111 29112 29113 29114 29115 29116 29117 29118 29119 29120 29121 29122 29123 29124 29125 29126 29127 29128 29129 29130 29131 29132 29133 29134 29135 29136 29137 29138 29139 29140 29141 29142 29143 29144 29145 29146 29147 29148 29149 29150 29151 29152 29153 29154 29155 29156 29157 29158 29159 29160 29161 29162 29163 29164 29165 29166 29167 29168 29169 29170 29171 29172 29173 29174 29175 29176 29177 29178 29179 29180 29181 29182 29183 29184 29185 29186 29187 29188 29189 29190 29191 29192 29193 29194 29195 29196 29197 29198 29199 29200 29201 29202 29203 29204 29205 29206 29207 29208 29209 29210 29211 29212 29213 29214 29215 29216 29217 29218 29219 29220 29221 29222 29223 29224 29225 29226 29227 29228 29229 29230 29231 29232 29233 29234 29235 29236 29237 29238 29239 29240 29241 29242 29243 29244 29245 29246 29247 29248 29249 29250 29251 29252 29253 29254 29255 29256 29257 29258 29259 29260 29261 29262 29263 29264 29265 29266 29267 29268 29269 29270 29271 29272 29273 29274 29275 29276 29277 29278 29279 29280 29281 29282 29283 29284 29285 29286 29287 29288 29289 29290 29291 29292 29293 29294 29295 29296 29297 29298 29299 29300 29301 29302 29303 29304 29305 29306 29307 29308 
</DataArray>
<DataArray type="UInt32" Name="offsets" format="ascii">
2 5 8 11 14 17 20 23 26 28 31 34 36 39 42 45 48 51 54 57 59 61 64 67 70 73 76 79 82 85 88 91 94 97 100 103 106 109 111 114 117 120 123 125 128 131 134 136 139 142 145 148 151 154 157 159 162 165 168 170 173 175 178 181 183 186 189 192 195 197 200 203 205 207 210 213 215 218 221 224 227 229 231 234 237 240 243 245 247 250 253 256 259 262 264 266 269 272 275 278 280 282 285 288 290 293 295 298 300 303 305 308 311 313 316 318 321 324 327 330 333 335 338 340 342 344 347 349 351 354 357 360 362 365 367 370 373 376 379 382 385 388 391 393 396 398 401 404 407 410 412 415 418 420 423 426 429 432 435 438 441 444 446 449 452 455 458 461 464 467 470 473 476 479 482 485 488 491 494 497 500 503 506 508 511 514 517 520 523 526 529 532 535 538 541 544 547 550 553 556 559 562 565 568 571 574 577 580 583 586 588 591 594 597 600 603 606 609 612 615 618 621 624 626 629 632 635 638 641 643 646 649 652 655 658 661 664 667 670 673 675 678 681 684 687 690 692 695 698 701 703 706 709 712 715 718 720 723 726 728 731 733 736 739 742 744 746 749 751 754 757 760 762 765 768 771 774 777 780 782 785 788 790 793 795 798 801 804 807 810 812 815 818 820 822 825 828 831 833 836 839 842 844 847 850 852 855 858 861 864 867 870 873 876 879 881 884 887 890 893 896 899 902 905 908 911 914 917 920 923 926 929 932 935 938 941 944 947 949 952 954 957 960 963 966 969 972 975 977 980 983 986 989 992 995 997 1000 1003 1005 1008 1011 1014 1017 1020 1023 1025 1027 1030 1033 1036 1039 1041 1043 1046 1049 1052 1055 1057 1060 1063 1066 1069 1071 1074 1076 1079 1081 1083 1086 1089 1092 1095 1098 1101 1103 1106 1109 1111 1114 1116 1119 1122 1125 1128 1131 1134 1137 1140 1143 1145 1148 1151 1154 1157 1160 1163 1166 1169 1171 1174 1177 1180 1182 1185 1188 1191 1194 1197 1199 1202 1205 1208 1211 1214 1217 1220 1222 1225 1228 1230 1233 1235 1237 1240 1243 1246 1249 1252 1255 1258 1261 1264 1267 1270 1273 1276 1279 1282 1285 1288 1291 1294 1297 1300 1303 1306 1309 1312 1315 1318 1321 1324 1327 1330 1333 1336 1339 1342 1345 1348 1351 1354 1357 1360 1363 1366 1369 1372 1375 1378 1381 1383 1385 1388 1391 1394 1396 1399 1402 1405 1408 1411 1413 1416 1419 1422 1425 1428 1431 1434 1437 1440 1442 1445 1448 1451 1453 1456 1458 1461 1464 1467 1470 1473 1475 1478 1481 1484 1487 1490 1493 1496 1499 1501 1504 1507 1510 1513 1516 1519 1522 1525 1528 1531 1534 1537 1540 1543 1546 1549 1552 1555 1558 1561 1564 1567 1570 1573 1576 1579 1582 1585 1588 1591 1594 1597 1600 1603 1606 1609 1612 1615 1618 1620 1623 1626 1628 1631 1634 1636 1639 1642 1645 1648 1651 1654 1657 1660 1663 1666 1669 1672 1675 1677 1680 1683 1686 1689 1692 1695 1698 1701 1704 1706 1709 1712 1715 1718 1721 1724 1727 1730 1732 1735 1738 1740 1743 1746 1748 1751 1754 1757 1760 1763 1766 1768 1770 1773 1776 1779 1782 1785 1788 1790 1793 1796 1799 1802 1805 1808 1811 1814 1817 1820 1823 1826 1829 1831 1834 1837 1840 1843 1846 1849 1852 1855 1858 1861 1864 1867 1870 1873 1876 1879 1882 1885 1888 1891 1894 1897 1900 1903 1906 1909 1912 1915 1918 1921 1924 1927 1930 1933 1936 1939 1942 1945 1948 1951 1954 1957 1960 1963 1966 1969 1972 1975 1978 1981 1983 1986 1988 1991 1994 1997 1999 2002 2005 2007 2009 2012 2015 2017 2020 2023 2026 2029 2032 2034 2037 2040 2043 2046 2049 2052 2055 2058 2060 2062 2064 2067 2070 2073 2076 2079 2082 2085 2087 2090 2093 2096 2099 2102 2105 2108 2111 2114 2117 2120 2123 2126 2129 2131 2134 2137 2140 2143 2146 2149 2152 2154 2157 2160 2163 2166 2169 2172 2174 2177 2180 2183 2186 2188 2191 2194 2197 2199 2202 2205 2208 2211 2214 2217 2219 2222 2225 2228 2231 2234 2237 2240 2243 2246 2249 2252 2255 2257 2260 2263 2266 2269 2272 2275 2278 2281 2283 2286 2288 2291 2293 2296 2298 2301 2304 2307 2310 2312 2314 2317 2320 2323 2325 2327 2330 2333 2335 2338 2341 2344 2347 2350 2353 2356 2359 2362 2365 2368 2371 2374 2377 2380 2383 2386 2388 2391 2394 2397 2400 2403 2406 2409 2411 2413 2416 2419 2422 2424 2427 2430 2433 2436 2439 2442 2445 2448 2451 2454 2456 2459 2462 2465 2468 2470 2473 2475 2478 2481 2484 2487 2490 2493 2496 2498 2501 2504 2507 2509 2512 2515 2518 2521 2524 2527 2530 2533 2536 2539 2542 2545 2548 2550 2553 2556 2559 2562 2565 2567 2570 2573 2576 2579 2582 2585 2588 2591 2594 2597 2600 2603 2606 2609 2612 2614 2617 2620 2623 2626 2629 2631 2634 2636 2639 2642 2645 2648 2651 2654 2657 2660 2663 2665 2668 2671 2674 2677 2680 2683 2686 2689 2692 2695 2698 2701 2704 2707 2710 2713 2716 2719 2722 2724 2727 2729 2732 2735 2738 2741 2744 2747 2750 2753 2756 2759 2762 2765 2768 2771 2774 2777 2780 2783 2786 2789 2791 2794 2797 2800 2803 2806 2809 2812 2815 2818 2821 2823 2826 2829 2832 2835 2838 2841 2844 2847 2850 2852 2855 2858 2860 2863 2866 2869 2872 2874 2877 2880 2883 2886 2889 2892 2895 2898 2901 2904 2907 2910 2913 2916 2919 2921 2924 2927 2930 2932 2935 2938 2940 2943 2946 2949 2952 2955 2958 2961 2964 2967 2970 2973 2976 2979 2982 2985 2988 2991 2994 2997 3000 3003 3006 3009 3012 3015 3017 3020 3023 3026 3029 3032 3035 3038 3041 3044 3047 3050 3053 3056 3059 3062 3065 3068 3071 3074 3077 3080 3083 3085 3088 3091 3094 3097 3099 3102 3105 3107 3110 3112 3115 3118 3121 3124 3127 3129 3132 3135 3138 3141 3144 3147 3150 3152 3155 3158 3161 3164 3167 3170 3173 3175 3178 3181 3184 3186 3189 3192 3195 3198 3201 3204 3207 3210 3213 3216 3219 3222 3225 3228 3231 3234 3237 3239 3242 3245 3248 3250 3253 3255 3258 3261 3264 3267 3269 3271 3274 3277 3280 3283 3286 3289 3292 3295 3298 3301 3304 3307 3310 3313 3316 3319 3322 3325 3328 3330 3333 3336 3339 3341 3344 3347 3349 3352 3355 3357 3360 3362 3365 3368 3370 3373 3376 3379 3382 3385 3388 3391 3394 3397 3400 3403 3406 3409 3412 3415 3418 3420 3422 3425 3428 3431 3434 3437 3439 3442 3445 3448 3451 3454 3457 3460 3463 3466 3469 3472 3475 3478 3481 3484 3487 3489 3492 3495 3498 3501 3504 3506 3509 3512 3515 3518 3521 3524 3527 3530 3533 3536 3539 3542 3545 3548 3551 3554 3557 3559 3562 3565 3568 3571 3573 3576 3579 3582 3585 3587 3590 3593 3595 3598 3601 3603 3606 3609 3612 3615 3618 3621 3624 3627 3629 3632 3635 3638 3641 3644 3647 3649 3652 3655 3658 3660 3663 3665 3668 3671 3674 3677 3679 3682 3684 3687 3690 3692 3695 3698 3701 3704 3707 3709 3712 3715 3718 3721 3724 3726 3729 3732 3735 3737 3739 3742 3745 3748 3750 3753 3756 3758 3761 3764 3767 3770 3773 3776 3779 3782 3784 3787 3790 3793 3796 3799 3802 3805 3808 3811 3814 3816 3819 3822 3825 3827 3830 3833 3836 3838 3841 3844 3847 3850 3853 3855 3858 3861 3864 3867 3870 3873 3876 3879 3882 3885 3888 3891 3894 3897 3900 3903 3906 3909 3912 3915 3918 3921 3924 3927 3930 3933 3936 3939 3942 3945 3948 3951 3954 3957 3960 3963 3965 3968 3971 3974 3976 3979 3982 3985 3988 3991 3994 3997 4000 4002 4005 4007 4010 4013 4016 4019 4022 4025 4028 4031 4034 4036 4039 4042 4044 4047 4050 4053 4055 4058 4061 4064 4067 4069 4072 4075 4078 4081 4084 4087 4090 4093 4096 4099 4101 4104 4107 4110 4113 4116 4119 4121 4124 4127 4130 4133 4136 4138 4141 4144 4146 4149 4151 4154 4157 4160 4162 4165 4168 4171 4173 4176 4179 4182 4185 4188 4190 4192 4195 4198 4201 4204 4207 4210 4213 4216 4219 4222 4225 4227 4230 4232 4235 4238 4240 4243 4246 4249 4252 4255 4258 4261 4264 4267 4269 4271 4274 4277 4280 4283 4286 4288 4291 4293 4296 4299 4302 4305 4308 4310 4313 4316 4319 4321 4324 4326 4329 4331 4334 4337 4340 4343 4346 4349 4352 4355 4358 4361 4364 4367 4370 4373 4376 4379 4382 4385 4388 4391 4394 4396 4399 4402 4405 4408 4411 4414 4417 4420 4423 4426 4429 4432 4435 4438 4441 4444 4447 4450 4453 4456 4459 4462 4465 4468 4471 4473 4476 4478 4481 4484 4486 4489 4491 4494 4497 4500 4503 4505 4508 4511 4514 4517 4520 4523 4526 4529 4532 4535 4538 4540 4543 4546 4549 4552 4555 4558 4561 4563 4565 4568 4571 4574 4577 4580 4583 4586 4589 4592 4595 4598 4601 4604 4607 4610 4613 4616 4619 4622 4625 4628 4631 4634 4636 4639 4642 4645 4648 4651 4654 4657 4660 4663 4666 4669 4672 4675 4677 4680 4683 4686 4688 4691 4694 4697 4700 4702 4705 4708 4711 4714 4717 4720 4723 4726 4728 4731 4734 4737 4740 4743 4746 4749 4752 4755 4758 4761 4764 4767 4770 4773 4776 4779 4782 4785 4788 4791 4794 4797 4799 4802 4805 4808 4811 4814 4816 4819 4822 4824 4827 4830 4833 4836 4839 4842 4845 4848 4851 4854 4857 4860 4863 4866 4869 4872 4875 4878 4881 4884 4887 4890 4893 4896 4899 4902 4905 4908 4911 4914 4917 4920 4923 4926 4928 4931 4934 4937 4940 4943 4946 4949 4952 4955 4958 4961 4964 4967 4969 4972 4974 4977 4980 4983 4986 4989 4992 4995 4998 5001 5004 5007 5010 5012 5015 5018 5021 5024 5027 5029 5032 5035 5038 5041 5044 5047 5050 5053 5056 5059 5062 5064 5067 5070 5073 5075 5078 5081 5084 5087 5089 5092 5095 5098 5101 5104 5107 5110 5113 5116 5119 5122 5125 5127 5130 5133 5136 5139 5141 5144 5146 5148 5151 5154 5156 5159 5162 5165 5168 5171 5174 5177 5180 5183 5186 5189 5192 5195 5198 5201 5204 5207 5210 5213 5216 5219 5222 5225 5227 5230 5233 5236 5239 5242 5245 5248 5251 5254 5256 5259 5262 5265 5268 5271 5273 5276 5279 5282 5285 5288 5291 5294 5297 5300 5303 5306 5309 5312 5315 5318 5321 5324 5327 5330 5333 5336 5339 5342 5345 5348 5351 5354 5357 5360 5363 5366 5369 5372 5375 5378 5381 5384 5387 5390 5393 5396 5399 5402 5405 5408 5411 5414 5417 5420 5423 5426 5429 5432 5435 5438 5441 5444 5447 5450 5453 5456 5459 5462 5465 5468 5471 5474 5477 5480 5483 5486 5488 5491 5494 5497 5500 5503 5506 5509 5512 5514 5517 5520 5523 5526 5529 5532 5535 5538 5541 5544 5547 5550 5553 5556 5558 5561 5564 5567 5570 5573 5576 5579 5582 5585 5587 5590 5593 5596 5599 5602 5605 5608 5611 5614 5617 5620 5623 5626 5629 5631 5634 5637 5640 5642 5645 5648 5651 5654 5656 5658 5661 5663 5666 5669 5671 5674 5677 5679 5682 5684 5686 5689 5692 5695 5698 5701 5703 5706 5709 5712 5715 5718 5721 5723 5726 5729 5731 5733 5735 5738 5741 5744 5747 5749 5752 5754 5757 5760 5763 5766 5769 5772 5774 5777 5780 5782 5784 5787 5790 5793 5796 5799 5802 5804 5806 5809 5812 5815 5818 5821 5824 5827 5830 5833 5836 5838 5841 5843 5846 5849 5852 5855 5858 5861 5863 5866 5869 5872 5875 5878 5881 5884 5887 5890 5893 5896 5899 5902 5905 5908 5911 5914 5917 5919 5922 5925 5928 5931 5934 5937 5940 5943 5946 5949 5952 5955 5958 5961 5964 5967 5970 5973 5976 5979 5982 5985 5988 5991 5994 5997 6000 6003 6006 6009 6012 6015 6018 6021 6024 6027 6030 6033 6036 6039 6042 6045 6048 6050 6052 6055 6058 6061 6064 6067 6070 6073 6076 6079 6082 6085 6088 6091 6094 6097 6100 6103 6106 6109 6112 6115 6118 6121 6124 6127 6130 6133 6136 6139 6142 6145 6148 6151 6154 6157 6160 6163 6166 6169 6172 6175 6178 6181 6184 6187 6190 6193 6195 6198 6201 6204 6206 6209 6212 6215 6218 6220 6223 6225 6228 6231 6234 6237 6240 6243 6245 6248 6251 6254 6256 6258 6261 6264 6267 6269 6272 6274 6277 6280 6283 6285 6288 6291 6294 6296 6299 6302 6304 6307 6310 6312 6315 6317 6319 6322 6324 6326 6329 6332 6334 6337 6339 6342 6345 6348 6351 6353 6355 6358 6361 6364 6367 6369 6372 6375 6377 6380 6383 6385 6387 6389 6392 6394 6397 6400 6403 6405 6408 6410 6413 6416 6418 6421 6424 6427 6429 6432 6435 6438 6441 6444 6447 6450 6452 6455 6458 6461 6463 6466 6469 6472 6475 6478 6481 6484 6486 6489 6492 6495 6498 6501 6504 6507 6510 6513 6516 6519 6522 6525 6528 6531 6534 6536 6538 6541 6544 6547 6549 6552 6554 6557 6559 6562 6565 6568 6571 6573 6576 6578 6581 6584 6587 6590 6593 6596 6599 6601 6604 6607 6609 6612 6615 6618 6621 6624 6627 6629 6632 6635 6638 6641 6644 6647 6650 6653 6656 6659 6662 6664 6667 6670 6673 6676 6679 6682 6685 6688 6691 6694 6697 6699 6702 6705 6708 6710 6713 6716 6719 6722 6725 6728 6731 6734 6737 6740 6743 6746 6749 6752 6755 6758 6760 6763 6766 6769 6772 6774 6777 6780 6782 6785 6788 6791 6794 6796 6799 6802 6804 6807 6810 6813 6816 6819 6822 6825 6828 6831 6834 6837 6840 6843 6846 6849 6852 6855 6857 6860 6863 6866 6869 6872 6875 6878 6881 6883 6886 6889 6892 6895 6898 6901 6904 6907 6910 6913 6916 6919 6922 6925 6928 6931 6934 6937 6940 6943 6946 6949 6951 6954 6957 6960 6963 6965 6968 6971 6974 6976 6979 6981 6984 6987 6990 6993 6996 6999 7002 7005 7007 7010 7013 7016 7019 7022 7025 7028 7031 7034 7037 7039 7042 7045 7047 7050 7052 7055 7058 7061 7064 7067 7070 7073 7076 7078 7080 7083 7085 7087 7090 7093 7096 7098 7101 7103 7106 7109 7112 7115 7118 7121 7124 7127 7130 7133 7135 7138 7141 7144 7146 7149 7152 7155 7158 7161 7164 7166 7169 7172 7175 7178 7180 7183 7186 7189 7192 7195 7198 7201 7204 7207 7210 7213 7216 7219 7222 7225 7228 7231 7234 7237 7240 7243 7246 7249 7252 7255 7258 7261 7263 7266 7269 7272 7275 7278 7280 7283 7286 7289 7292 7295 7298 7301 7304 7307 7310 7313 7316 7319 7321 7324 7327 7330 7333 7335 7338 7341 7344 7347 7350 7353 7356 7359 7362 7365 7368 7371 7373 7376 7379 7382 7385 7388 7391 7394 7397 7400 7403 7405 7408 7411 7414 7417 7420 7423 7426 7429 7432 7435 7438 7441 7444 7447 7450 7453 7456 7459 7462 7465 7468 7471 7474 7477 7480 7483 7486 7489 7492 7495 7498 7501 7504 7507 7510 7513 7516 7519 7522 7524 7526 7529 7532 7535 7537 7540 7543 7546 7549 7552 7554 7557 7560 7562 7565 7568 7571 7574 7577 7579 7582 7585 7588 7591 7593 7596 7599 7602 7605 7608 7611 7614 7617 7620 7623 7626 7629 7632 7635 7638 7641 7644 7647 7650 7652 7655 7658 7661 7664 7667 7670 7673 7675 7678 7681 7684 7687 7690 7693 7696 7699 7702 7705 7708 7711 7713 7716 7719 7721 7724 7727 7730 7733 7736 7739 7742 7744 7747 7750 7753 7755 7757 7760 7763 7766 7769 7772 7775 7778 7781 7784 7787 7790 7793 7796 7799 7802 7805 7808 7811 7814 7817 7820 7823 7826 7829 7832 7835 7838 7841 7843 7846 7849 7852 7855 7858 7861 7864 7866 7869 7872 7875 7878 7881 7884 7887 7890 7893 7895 7898 7901 7903 7906 7909 7912 7915 7918 7921 7924 7927 7930 7933 7936 7939 7942 7945 7948 7950 7953 7956 7959 7962 7965 7968 7971 7974 7977 7980 7983 7986 7989 7992 7995 7998 8001 8004 8007 8010 8013 8016 8018 8021 8024 8027 8030 8033 8036 8039 8042 8045 8048 8051 8054 8057 8060 8063 8066 8069 8072 8075 8078 8081 8084 8087 8089 8092 8095 8098 8100 8103 8106 8108 8111 8114 8117 8120 8123 8126 8129 8132 8135 8138 8141 8144 8147 8150 8153 8155 8157 8160 8163 8166 8169 8172 8174 8177 8180 8183 8186 8189 8192 8195 8198 8201 8204 8207 8210 8213 8215 8218 8221 8224 8227 8230 8233 8236 8239 8242 8245 8248 8251 8254 8257 8260 8263 8266 8268 8271 8274 8277 8280 8283 8285 8288 8291 8294 8296 8298 8301 8304 8307 8310 8313 8316 8319 8322 8325 8328 8331 8334 8337 8340 8343 8346 8349 8352 8355 8358 8361 8364 8367 8370 8373 8376 8379 8381 8384 8387 8389 8392 8395 8398 8401 8404 8407 8410 8413 8416 8419 8422 8425 8428 8431 8433 8436 8439 8442 8445 8448 8451 8454 8457 8460 8463 8466 8469 8472 8475 8478 8481 8484 8487 8489 8492 8495 8497 8500 8503 8506 8509 8512 8515 8518 8521 8524 8527 8530 8533 8536 8539 8542 8545 8548 8551 8554 8557 8560 8563 8565 8568 8571 8574 8577 8579 8582 8585 8588 8591 8594 8597 8600 8603 8606 8609 8612 8615 8618 8620 8623 8626 8629 8632 8635 8637 8639 8642 8644 8647 8650 8653 8656 8659 8662 8664 8667 8670 8673 8675 8678 8681 8684 8687 8690 8693 8696 8698 8701 8704 8707 8709 8712 8715 8718 8721 8724 8727 8730 8733 8735 8738 8741 8744 8747 8750 8753 8755 8758 8761 8764 8767 8770 8773 8776 8779 8782 8785 8787 8790 8792 8795 8797 8799 8802 8805 8808 8811 8814 8817 8820 8823 8826 8829 8832 8835 8838 8841 8844 8847 8849 8852 8855 8858 8861 8864 8867 8870 8873 8876 8879 8882 8885 8888 8891 8894 8897 8900 8903 8906 8909 8912 8915 8918 8920 8923 8925 8927 8930 8933 8936 8939 8941 8944 8947 8950 8953 8956 8959 8961 8964 8967 8970 8972 8975 8978 8981 8983 8986 8989 8992 8994 8997 9000 9003 9006 9009 9012 9015 9018 9021 9023 9026 9029 9032 9035 9038 9041 9044 9047 9050 9053 9056 9059 9062 9065 9068 9070 9073 9076 9079 9082 9085 9087 9090 9092 9095 9098 9100 9103 9106 9108 9111 9114 9117 9120 9122 9125 9128 9130 9133 9136 9139 9142 9144 9147 9150 9152 9155 9158 9161 9164 9167 9170 9173 9176 9179 9182 9185 9188 9191 9194 9197 9200 9202 9205 9207 9210 9213 9216 9219 9222 9225 9228 9231 9234 9236 9239 9242 9245 9248 9251 9254 9257 9259 9262 9264 9267 9269 9272 9275 9278 9281 9284 9287 9290 9293 9296 9299 9302 9305 9308 9311 9314 9317 9320 9323 9326 9329 9332 9335 9338 9341 9343 9346 9349 9352 9355 9358 9361 9364 9366 9369 9372 9375 9378 9381 9384 9387 9390 9393 9395 9398 9401 9404 9407 9410 9412 9415 9418 9421 9424 9427 9430 9433 9436 9439 9442 9445 9447 9450 9453 9456 9459 9462 9465 9468 9471 9474 9477 9480 9483 9486 9489 9492 9495 9498 9501 9504 9507 9510 9513 9516 9519 9522 9524 9527 9530 9533 9536 9539 9542 9545 9548 9551 9553 9556 9559 9562 9565 9568 9570 9573 9576 9579 9581 9584 9586 9589 9592 9595 9598 9601 9604 9607 9610 9613 9616 9619 9622 9625 9628 9630 9633 9636 9639 9642 9644 9647 9650 9653 9655 9658 9661 9664 9666 9669 9672 9675 9678 9681 9684 9687 9690 9693 9696 9699 9702 9705 9708 9711 9714 9717 9720 9723 9726 9729 9732 9735 9738 9741 9743 9746 9748 9751 9754 9756 9759 9762 9764 9767 9770 9773 9776 9779 9782 9784 9787 9790 9793 9796 9799 9802 9805 9808 9811 9814 9817 9819 9821 9824 9827 9830 9833 9836 9839 9842 9845 9848 9851 9853 9855 9858 9860 9863 9866 9869 9871 9874 9877 9880 9883 9886 9889 9892 9895 9898 9901 9903 9906 9908 9911 9913 9916 9919 9922 9925 9928 9931 9933 9936 9939 9942 9945 9948 9951 9954 9957 9960 9963 9966 9969 9971 9974 9977 9980 9983 9985 9988 9991 9994 9997 10000 10002 10004 10007 10010 10013 10016 10019 10022 10025 10028 10031 10034 10037 10040 10043 10046 10049 10052 10055 10058 10061 10064 10067 10070 10073 10076 10079 10081 10084 10087 10090 10092 10095 10098 10101 10104 10107 10110 10113 10116 10119 10121 10124 10127 10130 10133 10136 10139 10142 10145 10148 10151 10154 10157 10160 10163 10166 10169 10172 10175 10178 10181 10184 10187 10190 10193 10196 10199 10202 10204 10207 10210 10213 10216 10219 10222 10225 10228 10231 10234 10237 10240 10243 10246 10249 10252 10255 10258 10261 10264 10267 10270 10273 10276 10279 10282 10285 10288 10291 10294 10297 10300 10303 10305 10308 10311 10314 10316 10319 10322 10325 10328 10330 10333 10336 10339 10342 10344 10347 10350 10352 10355 10358 10361 10364 10367 10370 10373 10375 10378 10381 10384 10387 10390 10393 10396 10399 10402 10405 10408 10411 10414 10416 10418 10421 10424 10427 10429 10432 10435 10437 10439 10442 10445 10448 10451 10454 10457 10459 10462 10465 10468 10471 10474 10477 10479 10482 10485 10487 10490 10493 10496 10498 10501 10504 10507 10509 10512 10515 10518 10521 10524 10526 10529 10531 10533 10536 10539 10541 10544 10547 10550 10552 10555 10558 10561 10564 10567 10570 10573 10576 10578 10581 10584 10587 10590 10593 10596 10599 10602 10605 10608 10611 10614 10617 10620 10623 10626 10629 10632 10635 10638 10641 10644 10647 10650 10653 10656 10659 10662 10665 10668 10671 10674 10676 10679 10682 10685 10688 10691 10694 10697 10700 10703 10706 10709 10712 10715 10718 10721 10724 10727 10730 10733 10735 10738 10741 10744 10747 10750 10752 10755 10758 10761 10764 10767 10770 10773 10776 10779 10782 10785 10788 10791 10794 10797 10800 10803 10806 10809 10811 10813 10816 10819 10822 10825 10827 10830 10833 10836 10839 10842 10845 10847 10850 10853 10856 10859 10862 10865 10868 10871 10874 10876 10879 10882 10885 10888 10891 10894 10897 10900 10903 10906 10909 10912 10915 10917 10920 10923 10926 10929 10932 10935 10937 10940 10943 10946 10949 10952 10955 10957 10960 10963 10966 10969 10972 10974 10977 10980 10983 10986 10989 10992 10994 10997 10999 11002 11005 11008 11010 11013 11016 11019 11022 11025 11028 11031 11034 11037 11040 11043 11046 11049 11052 11055 11058 11061 11064 11067 11070 11073 11076 11079 11082 11085 11088 11091 11094 11097 11100 11103 11106 11109 11112 11115 11118 11120 11123 11126 11129 11131 11134 11136 11139 11141 11144 11147 11150 11153 11156 11158 11161 11164 11167 11169 11172 11175 11178 11180 11183 11186 11189 11192 11195 11198 11201 11204 11207 11209 11212 11215 11218 11221 11224 11227 11229 11232 11235 11237 11239 11242 11245 11247 11250 11253 11255 11258 11261 11263 11266 11269 11272 11275 11278 11281 11284 11287 11290 11293 11296 11299 11302 11305 11308 11311 11314 11317 11320 11323 11326 11329 11332 11335 11338 11340 11343 11346 11349 11352 11355 11358 11361 11364 11367 11370 11373 11376 11379 11382 11385 11387 11390 11393 11395 11398 11401 11404 11406 11409 11412 11414 11416 11419 11422 11425 11428 11431 11434 11437 11439 11442 11445 11448 11451 11454 11457 11460 11463 11466 11469 11472 11475 11478 11480 11483 11486 11488 11491 11494 11497 11500 11503 11506 11509 11512 11515 11518 11521 11524 11527 11530 11533 11536 11539 11542 11545 11548 11551 11554 11557 11560 11563 11566 11569 11572 11575 11577 11580 11583 11586 11589 11592 11595 11598 11600 11603 11606 11609 11612 11615 11617 11620 11623 11626 11629 11631 11633 11636 11638 11641 11644 11647 11649 11652 11655 11657 11660 11663 11666 11669 11671 11674 11677 11680 11683 11686 11689 11692 11695 11698 11701 11704 11706 11708 11711 11714 11717 11720 11723 11726 11729 11732 11735 11737 11740 11743 11745 11748 11751 11754 11757 11760 11763 11766 11769 11772 11774 11777 11779 11782 11784 11787 11789 11792 11794 11796 11799 11801 11804 11806 11809 11812 11815 11818 11821 11823 11826 11829 11831 11834 11837 11839 11842 11844 11846 11849 11851 11854 11857 11860 11863 11866 11869 11872 11875 11878 11881 11884 11886 11889 11892 11895 11897 11900 11903 11905 11908 11911 11914 11917 11920 11923 11926 11929 11932 11935 11938 11941 11944 11947 11950 11953 11956 11959 11962 11965 11968 11971 11974 11977 11980 11983 11986 11989 11992 11995 11998 12001 12004 12007 12010 12013 12015 12018 12021 12024 12027 12030 12033 12035 12037 12040 12043 12046 12049 12052 12055 12058 12061 12064 12067 12069 12072 12075 12078 12080 12083 12086 12089 12092 12095 12098 12101 12104 12106 12109 12112 12115 12118 12121 12124 12127 12130 12133 12136 12138 12141 12144 12147 12150 12153 12156 12158 12161 12164 12167 12170 12173 12176 12178 12181 12184 12187 12189 12192 12195 12198 12201 12204 12207 12210 12213 12216 12219 12221 12224 12227 12230 12233 12236 12239 12242 12244 12247 12249 12252 12255 12258 12261 12264 12267 12270 12273 12276 12279 12282 12285 12288 12291 12294 12297 12300 12303 12306 12309 12312 12315 12318 12320 12323 12326 12329 12332 12335 12338 12341 12344 12347 12350 12353 12356 12359 12362 12365 12368 12371 12374 12377 12380 12383 12386 12389 12392 12395 12398 12401 12404 12407 12410 12413 12416 12419 12422 12425 12428 12431 12434 12437 12440 12443 12446 12449 12452 12455 12458 12461 12464 12467 12470 12473 12476 12479 12482 12485 12488 12491 12494 12497 12500 12503 12506 12509 12512 12515 12517 12520 12523 12526 12529 12532 12535 12538 12540 12543 12546 12549 12552 12555 12558 12561 12564 12567 12570 12573 12576 12579 12582 12585 12588 12591 12594 12597 12600 12603 12606 12608 12611 12614 12617 12620 12623 12626 12629 12632 12635 12638 12641 12644 12647 12650 12653 12656 12659 12662 12665 12668 12671 12674 12677 12680 12682 12685 12688 12691 12693 12696 12699 12702 12705 12708 12711 12714 12717 12720 12723 12726 12729 12732 12735 12738 12741 12744 12747 12750 12753 12756 12759 12762 12765 12768 12771 12774 12777 12780 12783 12786 12789 12792 12794 12797 12799 12802 12805 12808 12811 12814 12816 12819 12821 12824 12827 12830 12833 12836 12839 12842 12845 12848 12851 12854 12857 12860 12862 12865 12868 12871 12874 12877 12880 12883 12886 12889 12892 12894 12897 12900 12903 12906 12909 12912 12915 12918 12920 12923 12926 12929 12931 12933 12936 12939 12941 12944 12947 12950 12953 12956 12959 12961 12964 12967 12969 12972 12975 12978 12980 12983 12986 12989 12992 12995 12997 13000 13003 13005 13007 13009 13012 13015 13018 13021 13024 13027 13030 13033 13036 13039 13042 13045 13048 13051 13053 13056 13059 13062 13064 13067 13070 13073 13076 13079 13082 13084 13087 13090 13092 13095 13098 13101 13104 13107 13110 13113 13116 13119 13122 13125 13128 13131 13134 13137 13140 13143 13145 13148 13151 13154 13157 13160 13163 13166 13169 13172 13175 13178 13181 13184 13187 13190 13193 13196 13198 13201 13204 13207 13210 13213 13216 13218 13221 13224 13227 13230 13232 13235 13238 13241 13244 13247 13249 13252 13255 13258 13261 13264 13267 13270 13273 13275 13278 13281 13284 13287 13289 13292 13295 13298 13301 13304 13307 13310 13313 13316 13318 13321 13324 13327 13330 13333 13336 13339 13342 13345 13348 13351 13354 13357 13359 13362 13365 13368 13370 13373 13376 13378 13381 13384 13387 13390 13393 13395 13398 13401 13404 13407 13410 13413 13415 13418 13420 13423 13426 13429 13431 13434 13437 13440 13442 13444 13447 13449 13452 13454 13457 13459 13462 13464 13467 13470 13473 13476 13479 13481 13484 13487 13490 13493 13495 13498 13501 13504 13507 13510 13513 13516 13519 13522 13525 13527 13530 13533 13536 13539 13542 13545 13548 13551 13554 13557 13560 13563 13566 13569 13572 13575 13578 13581 13584 13587 13590 13593 13596 13599 13602 13605 13608 13611 13614 13617 13620 13623 13626 13629 13631 13634 13637 13640 13643 13646 13649 13652 13654 13657 13660 13662 13665 13668 13671 13674 13677 13680 13683 13686 13689 13692 13694 13696 13699 13702 13705 13708 13711 13714 13717 13720 13723 13726 13729 13732 13734 13737 13739 13742 13744 13747 13750 13753 13756 13758 13760 13762 13765 13768 13770 13773 13776 13778 13781 13783 13786 13789 13792 13794 13796 13799 13802 13804 13806 13809 13812 13815 13818 13821 13823 13826 13829 13832 13835 13838 13841 13844 13847 13850 13852 13855 13858 13861 13864 13867 13870 13872 13875 13878 13880 13883 13886 13889 13892 13895 13898 13901 13904 13907 13909 13912 13915 13917 13919 13922 13925 13928 13931 13934 13937 13940 13943 13946 13948 13951 13954 13957 13960 13963 13966 13968 13971 13974 13976 13979 13982 13984 13987 13989 13992 13995 13998 14001 14004 14007 14010 14013 14016 14019 14022 14025 14028 14031 14034 14036 14039 14042 14045 14047 14050 14053 14056 14059 14062 14065 14068 14071 14074 14077 14080 14083 14086 14089 14091 14094 14097 14100 14103 14105 14108 14111 14114 14117 14120 14123 14126 14128 14131 14133 14136 14139 14141 14144 14147 14150 14152 14155 14158 14161 14164 14167 14170 14172 14175 14177 14180 14183 14186 14188 14191 14193 14196 14199 14202 14205 14208 14210 14213 14215 14218 14221 14224 14227 14230 14233 14236 14239 14242 14245 14248 14251 14254 14257 14259 14262 14265 14268 14271 14273 14275 14278 14281 14283 14285 14287 14290 14293 14296 14298 14301 14304 14307 14310 14313 14316 14319 14322 14324 14327 14330 14333 14336 14338 14341 14344 14347 14350 14353 14356 14359 14361 14364 14366 14369 14372 14375 14377 14380 14383 14386 14389 14392 14395 14397 14400 14403 14405 14408 14411 14414 14416 14419 14422 14425 14428 14431 14434 14437 14439 14442 14444 14447 14449 14452 14455 14458 14461 14464 14467 14470 14473 14476 14479 14482 14485 14488 14491 14493 14496 14498 14501 14503 14506 14509 14511 14514 14517 14520 14522 14525 14527 14530 14533 14536 14539 14541 14544 14546 14548 14551 14554 14557 14560 14563 14566 14569 14571 14574 14577 14580 14583 14586 14589 14592 14595 14598 14601 14604 14607 14610 14613 14616 14619 14621 14623 14625 14627 14630 14633 14635 14638 14641 14644 14646 14649 14652 14655 14658 14660 14663 14666 14668 14670 14673 14675 14678 14681 14684 14687 14690 14693 14696 14699 14702 14705 14707 14709 14712 14715 14718 14721 14723 14725 14728 14731 14733 14736 14739 14742 14745 14747 14750 14753 14756 14759 14762 14765 14767 14770 14772 14775 14778 14781 14784 14786 14789 14792 14795 14798 14801 14804 14807 14810 14813 14816 14818 14821 14824 14827 14830 14833 14836 14838 14840 14842 14845 14848 14851 14854 14857 14860 14863 14866 14869 14871 14874 14877 14880 14882 14885 14888 14890 14893 14896 14899 14901 14904 14907 14910 14913 14916 14918 14921 14923 14926 14928 14931 14934 14937 14940 14942 14945 14947 14950 14953 14956 14959 14962 14965 14968 14971 14974 14976 14979 14982 14985 14988 14991 14994 14997 15000 15003 15006 15009 15012 15015 15018 15021 15024 15026 15028 15031 15034 15037 15040 15043 15046 15049 15052 15055 15058 15061 15064 15067 15070 15073 15075 15077 15079 15082 15085 15088 15091 15094 15096 15098 15101 15104 15107 15109 15111 15114 15117 15120 15123 15125 15128 15131 15134 15136 15138 15141 15144 15146 15149 15152 15155 15158 15161 15164 15167 15170 15173 15176 15179 15182 15185 15188 15191 15194 15197 15200 15203 15206 15209 15212 15215 15218 15221 15224 15227 15230 15233 15236 15239 15241 15244 15247 15250 15253 15256 15259 15262 15264 15267 15269 15272 15275 15278 15281 15284 15286 15289 15291 15294 15296 15299 15302 15305 15308 15310 15313 15316 15319 15322 15325 15328 15331 15334 15337 15340 15343 15346 15349 15352 15355 15358 15361 15364 15367 15370 15373 15376 15379 15382 15385 15388 15391 15394 15397 15400 15403 15406 15409 15412 15414 15417 15420 15423 15426 15429 15432 15435 15437 15440 15443 15446 15449 15452 15455 15458 15461 15464 15467 15470 15473 15476 15479 15481 15483 15486 15489 15492 15495 15498 15500 15503 15506 15509 15512 15515 15518 15521 15524 15527 15530 15533 15536 15538 15541 15544 15547 15550 15552 15555 15558 15560 15563 15566 15568 15571 15573 15576 15579 15582 15585 15588 15591 15594 15596 15599 15602 15605 15608 15610 15613 15616 15619 15622 15625 15628 15630 15633 15636 15639 15642 15645 15648 15651 15654 15657 15659 15662 15665 15668 15671 15674 15677 15680 15683 15685 15688 15690 15693 15696 15698 15701 15704 15706 15709 15712 15715 15718 15721 15724 15727 15730 15733 15735 15738 15741 15744 15746 15749 15752 15755 15757 15760 15763 15766 15769 15772 15775 15778 15781 15784 15787 15790 15793 15796 15799 15802 15805 15808 15811 15814 15817 15819 15822 15825 15828 15831 15834 15837 15839 15842 15845 15848 15850 15853 15856 15858 15861 15864 15866 15869 15872 15874 15877 15879 15882 15885 15887 15889 15892 15895 15898 15901 15904 15907 15910 15913 15916 15919 15922 15925 15928 15931 15934 15937 15940 15943 15946 15949 15952 15954 15957 15960 15963 15966 15969 15971 15973 15975 15978 15980 15983 15985 15988 15991 15994 15996 15999 16002 16004 16007 16009 16012 16015 16018 16020 16023 16025 16028 16030 16033 16036 16039 16042 16045 16047 16049 16052 16055 16058 16061 16064 16067 16070 16073 16076 16078 16081 16084 16087 16089 16092 16094 16096 16099 16102 16105 16108 16111 16114 16117 16120 16123 16126 16129 16132 16135 16138 16141 16144 16147 16150 16152 16155 16158 16161 16164 16167 16170 16173 16176 16178 16181 16184 16187 16189 16192 16195 16198 16201 16204 16207 16210 16213 16216 16219 16222 16224 16227 16230 16233 16236 16239 16242 16244 16247 16249 16252 16255 16257 16260 16263 16266 16269 16272 16275 16278 16281 16284 16287 16290 16293 16296 16299 16302 16305 16307 16310 16313 16316 16318 16320 16323 16326 16328 16331 16333 16336 16339 16342 16345 16347 16349 16352 16355 16358 16361 16364 16367 16369 16372 16375 16378 16380 16382 16385 16388 16391 16394 16397 16400 16403 16406 16409 16411 16414 16417 16420 16423 16426 16428 16431 16434 16436 16439 16441 16444 16447 16450 16453 16456 16459 16462 16465 16468 16471 16474 16477 16480 16483 16486 16488 16491 16494 16497 16500 16503 16505 16508 16511 16514 16517 16520 16523 16526 16529 16532 16534 16537 16540 16543 16546 16548 16551 16554 16557 16560 16563 16566 16569 16572 16575 16577 16580 16583 16586 16589 16592 16595 16598 16600 16603 16606 16608 16610 16613 16616 16619 16621 16624 16627 16629 16632 16635 16638 16641 16644 16647 16649 16652 16655 16657 16660 16662 16665 16668 16671 16674 16677 16680 16683 16685 16688 16690 16693 16696 16699 16701 16704 16707 16710 16713 16716 16718 16721 16724 16726 16729 16732 16734 16737 16739 16742 16745 16748 16751 16754 16757 16760 16763 16766 16769 16772 16775 16778 16781 16784 16787 16790 16793 16796 16799 16802 16804 16807 16810 16813 16816 16819 16821 16824 16826 16829 16832 16835 16838 16841 16844 16847 16849 16852 16855 16858 16861 16864 16867 16870 16873 16876 16879 16882 16884 16887 16890 16893 16896 16899 16902 16905 16908 16911 16914 16917 16920 16923 16926 16929 16931 16934 16936 16939 16941 16943 16945 16948 16951 16953 16955 16958 16961 16963 16966 16969 16972 16975 16977 16980 16983 16986 16988 16991 16993 16996 16998 17001 17004 17007 17010 17012 17015 17018 17021 17024 17027 17030 17033 17036 17038 17041 17043 17046 17049 17052 17055 17058 17061 17064 17067 17070 17073 17076 17079 17082 17085 17088 17091 17094 17097 17100 17103 17106 17109 17112 17114 17117 17120 17122 17125 17128 17131 17134 17137 17140 17143 17146 17149 17152 17154 17156 17159 17161 17164 17167 17170 17172 17174 17177 17179 17182 17185 17188 17191 17194 17197 17200 17203 17206 17209 17212 17215 17217 17220 17223 17226 17229 17232 17235 17238 17241 17243 17246 17249 17252 17255 17258 17261 17264 17267 17270 17273 17276 17279 17282 17284 17286 17289 17292 17294 17297 17300 17303 17306 17309 17311 17314 17317 17320 17323 17326 17329 17332 17335 17337 17340 17343 17346 17349 17351 17354 17357 17360 17363 17366 17369 17372 17375 17378 17380 17382 17385 17388 17391 17394 17397 17400 17402 17405 17407 17410 17412 17415 17418 17421 17423 17426 17429 17432 17434 17437 17440 17442 17445 17448 17451 17454 17457 17460 17463 17466 17469 17472 17475 17477 17480 17483 17486 17489 17491 17494 17497 17500 17503 17506 17509 17512 17515 17518 17521 17524 17527 17530 17533 17536 17539 17542 17545 17548 17551 17553 17556 17559 17562 17565 17568 17570 17573 17576 17579 17582 17585 17587 17590 17593 17596 17599 17601 17604 17607 17610 17613 17616 17619 17622 17625 17628 17631 17634 17637 17640 17643 17646 17649 17652 17655 17658 17661 17664 17667 17670 17673 17676 17679 17681 17684 17687 17690 17693 17696 17699 17702 17705 17708 17711 17714 17717 17720 17723 17726 17729 17732 17735 17738 17741 17744 17747 17750 17753 17756 17759 17762 17765 17768 17771 17774 17777 17779 17782 17785 17788 17791 17794 17797 17800 17803 17806 17809 17811 17813 17816 17819 17822 17825 17828 17831 17834 17837 17840 17843 17846 17849 17852 17854 17857 17860 17863 17866 17869 17872 17875 17878 17881 17884 17887 17890 17893 17896 17899 17902 17905 17908 17911 17914 17917 17920 17923 17926 17929 17932 17935 17938 17941 17944 17947 17950 17953 17956 17959 17962 17965 17968 17971 17974 17977 17980 17983 17986 17989 17992 17995 17998 18000 18003 18006 18009 18012 18015 18018 18021 18024 18027 18030 18033 18036 18039 18042 18045 18048 18051 18054 18057 18060 18063 18066 18069 18072 18075 18078 18081 18084 18087 18090 18092 18095 18098 18101 18103 18106 18109 18112 18115 18118 18121 18124 18127 18130 18132 18135 18138 18140 18143 18146 18149 18152 18155 18157 18160 18163 18166 18169 18172 18174 18177 18180 18183 18186 18189 18192 18195 18198 18201 18204 18207 18210 18213 18216 18219 18222 18225 18228 18231 18234 18236 18239 18242 18245 18248 18251 18254 18257 18260 18263 18266 18269 18271 18274 18277 18280 18283 18286 18289 18292 18295 18298 18301 18304 18307 18310 18313 18316 18319 18322 18325 18327 18330 18333 18336 18339 18342 18345 18348 18351 18354 18357 18360 18363 18366 18369 18372 18375 18378 18380 18383 18386 18389 18392 18395 18398 18401 18404 18407 18410 18413 18416 18419 18421 18424 18427 18430 18433 18436 18439 18442 18445 18448 18451 18454 18457 18460 18462 18465 18467 18470 18473 18476 18479 18482 18485 18488 18491 18494 18497 18500 18503 18506 18509 18512 18515 18518 18521 18524 18527 18530 18533 18536 18539 18542 18545 18547 18550 18553 18556 18559 18562 18565 18567 18570 18573 18576 18579 18581 18584 18587 18590 18593 18595 18598 18601 18604 18607 18610 18613 18616 18619 18622 18625 18627 18630 18633 18636 18639 18641 18644 18647 18650 18653 18656 18659 18662 18665 18667 18670 18673 18676 18678 18681 18684 18687 18690 18693 18696 18699 18702 18705 18708 18711 18713 18715 18718 18721 18723 18726 18729 18732 18735 18737 18739 18742 18745 18748 18751 18754 18757 18760 18763 18766 18768 18771 18774 18777 18780 18783 18786 18789 18792 18795 18798 18801 18804 18807 18810 18813 18816 18819 18822 18825 18828 18831 18834 18837 18839 18842 18844 18847 18850 18853 18856 18859 18862 18865 18868 18871 18874 18876 18879 18882 18885 18888 18890 18893 18896 18898 18901 18904 18906 18909 18912 18915 18917 18920 18923 18925 18928 18931 18934 18937 18940 18943 18946 18949 18952 18955 18958 18961 18964 18967 18970 18973 18976 18979 18982 18985 18988 18991 18994 18997 19000 19003 19006 19009 19012 19015 19018 19021 19024 19027 19030 19033 19036 19039 19042 19045 19048 19051 19054 19057 19060 19063 19066 19069 19072 19075 19078 19081 19084 19087 19090 19093 19096 19099 19102 19105 19108 19111 19114 19117 19120 19123 19125 19127 19130 19133 19136 19139 19142 19145 19148 19151 19154 19156 19159 19162 19165 19168 19171 19173 19176 19179 19182 19184 19187 19190 19193 19196 19199 19202 19205 19208 19211 19214 19217 19220 19223 19226 19229 19232 19235 19238 19241 19244 19246 19249 19252 19255 19258 19261 19264 19267 19270 19273 19276 19279 19282 19285 19288 19291 19294 19297 19300 19302 19305 19308 19311 19314 19316 19319 19322 19324 19327 19330 19333 19336 19339 19342 19345 19348 19351 19354 19357 19360 19363 19366 19369 19372 19375 19378 19381 19384 19387 19390 19393 19396 19399 19402 19405 19408 19411 19414 19417 19420 19423 19426 19429 19432 19435 19438 19441 19444 19446 19449 19452 19455 19458 19461 19464 19467 19470 19472 19475 19478 19481 19484 19487 19490 19493 19496 19499 19502 19505 19508 19511 19514 19517 19520 19523 19526 19529 19532 19535 19538 19541 19544 19547 19550 19553 19556 19558 19560 19563 19566 19569 19572 19575 19578 19581 19584 19586 19588 19591 19594 19597 19599 19602 19605 19608 19611 19614 19617 19620 19623 19626 19629 19631 19634 19637 19640 19643 19646 19649 19652 19655 19658 19661 19664 19667 19670 19673 19676 19679 19682 19685 19688 19691 19694 19697 19700 19703 19706 19709 19712 19715 19718 19721 19724 19727 19730 19733 19735 19738 19741 19744 19747 19749 19752 19755 19758 19761 19764 19767 19770 19773 19776 19779 19782 19785 19788 19791 19794 19797 19799 19802 19804 19807 19810 19813 19816 19818 19821 19824 19827 19830 19833 19836 19839 19842 19845 19848 19851 19854 19857 19860 19863 19866 19869 19872 19875 19878 19881 19884 19887 19890 19893 19896 19899 19902 19905 19908 19910 19913 19916 19919 19922 19925 19928 19931 19934 19937 19940 19943 19945 19948 19951 19953 19956 19958 19961 19964 19967 19970 19973 19976 19978 19981 19984 19987 19990 19993 19996 19999 20002 20005 20008 20011 20014 20016 20019 20021 20024 20027 20029 20032 20035 20038 20041 20044 20047 20050 20053 20056 20059 20062 20065 20068 20071 20074 20077 20080 20083 20086 20089 20092 20095 20098 20101 20104 20107 20110 20113 20116 20119 20122 20125 20128 20131 20134 20137 20140 20143 20146 20149 20152 20155 20158 20161 20164 20167 20170 20173 20176 20179 20182 20184 20187 20190 20193 20196 20199 20202 20205 20208 20211 20214 20217 20220 20223 20226 20229 20232 20235 20238 20241 20244 20247 20250 20253 20256 20259 20262 20265 20268 20271 20274 20277 20280 20283 20286 20289 20292 20295 20298 20301 20303 20306 20309 20312 20315 20318 20320 20323 20326 20329 20332 20335 20338 20341 20344 20347 20350 20353 20356 20359 20362 20365 20368 20371 20374 20377 20380 20383 20386 20389 20392 20395 20398 20401 20404 20407 20410 20413 20416 20419 20422 20425 20428 20431 20434 20437 20440 20443 20446 20449 20452 20455 20458 20461 20464 20467 20470 20473 20476 20479 20482 20484 20487 20489 20492 20495 20498 20501 20504 20507 20510 20513 20515 20518 20521 20524 20527 20530 20533 20536 20539 20542 20545 20548 20551 20554 20557 20560 20563 20566 20569 20572 20574 20577 20580 20583 20586 20589 20592 20595 20598 20600 20603 20606 20609 20612 20615 20618 20621 20624 20627 20630 20633 20636 20639 20642 20645 20648 20651 20654 20657 20660 20663 20666 20669 20672 20675 20677 20680 20683 20686 20689 20692 20695 20698 20701 20704 20707 20710 20713 20716 20718 20721 20724 20727 20730 20733 20736 20739 20742 20745 20748 20751 20754 20757 20760 20763 20766 20769 20772 20774 20777 20780 20783 20786 20789 20792 20795 20798 20801 20804 20807 20810 20813 20816 20819 20822 20825 20828 20831 20834 20837 20840 20843 20846 20849 20852 20854 20857 20860 20863 20866 20868 20871 20874 20877 20880 20883 20886 20889 20892 20895 20898 20901 20904 20907 20910 20913 20916 20919 20922 20924 20927 20930 20932 20935 20938 20941 20944 20947 20950 20953 20956 20959 20961 20964 20967 20970 20973 20975 20978 20981 20983 20986 20989 20992 20995 20998 21001 21004 21007 21010 21013 21016 21019 21022 21025 21028 21031 21034 21037 21040 21043 21046 21049 21052 21055 21058 21061 21064 21067 21070 21072 21075 21078 21080 21083 21086 21089 21092 21095 21098 21100 21103 21106 21109 21111 21114 21117 21120 21123 21126 21129 21132 21135 21138 21141 21144 21147 21150 21153 21156 21159 21162 21165 21168 21171 21174 21177 21180 21183 21186 21188 21191 21194 21197 21200 21203 21205 21208 21211 21214 21217 21220 21223 21226 21229 21232 21235 21238 21241 21244 21246 21249 21252 21255 21258 21261 21264 21267 21270 21273 21276 21279 21282 21284 21287 21290 21293 21296 21299 21301 21304 21307 21309 21312 21315 21318 21321 21324 21326 21329 21332 21334 21337 21340 21343 21346 21349 21352 21355 21358 21361 21364 21367 21369 21372 21375 21378 21381 21384 21387 21390 21393 21396 21399 21402 21405 21408 21411 21414 21417 21420 21423 21426 21429 21432 21435 21438 21441 21444 21447 21450 21453 21456 21458 21461 21464 21466 21469 21472 21474 21477 21480 21483 21485 21488 21491 21494 21496 21499 21502 21505 21508 21511 21514 21517 21520 21523 21526 21529 21532 21535 21538 21541 21544 21546 21549 21552 21555 21558 21561 21564 21567 21570 21573 21576 21579 21582 21585 21588 21590 21593 21596 21599 21602 21605 21608 21611 21614 21617 21620 21623 21626 21629 21632 21635 21638 21641 21644 21647 21650 21653 21656 21659 21662 21665 21668 21671 21674 21677 21680 21683 21686 21689 21692 21695 21697 21700 21703 21706 21709 21712 21715 21718 21721 21724 21727 21730 21733 21736 21739 21742 21745 21748 21750 21753 21756 21759 21762 21764 21767 21770 21773 21776 21779 21782 21785 21788 21791 21794 21797 21800 21802 21805 21808 21811 21814 21817 21820 21823 21825 21828 21831 21834 21837 21840 21843 21846 21849 21852 21855 21858 21860 21863 21866 21869 21872 21875 21878 21881 21884 21887 21890 21893 21896 21899 21902 21905 21908 21911 21913 21916 21919 21922 21925 21927 21930 21933 21936 21939 21942 21944 21947 21950 21952 21955 21957 21959 21962 21965 21968 21971 21974 21977 21980 21983 21986 21989 21992 21995 21998 22001 22004 22007 22009 22011 22014 22017 22020 22023 22026 22029 22032 22035 22038 22040 22043 22046 22049 22052 22055 22057 22060 22063 22066 22069 22072 22075 22077 22080 22083 22085 22088 22090 22093 22096 22098 22101 22103 22106 22109 22112 22114 22117 22120 22123 22126 22129 22132 22134 22136 22139 22141 22144 22147 22149 22152 22155 22158 22161 22164 22167 22170 22173 22176 22179 22182 22185 22188 22190 22193 22196 22199 22202 22205 22208 22211 22214 22217 22220 22222 22224 22227 22230 22232 22235 22238 22241 22243 22246 22248 22251 22254 22257 22260 22262 22265 22268 22270 22273 22276 22279 22282 22285 22288 22291 22293 22296 22299 22302 22305 22308 22311 22314 22317 22320 22323 22326 22328 22331 22334 22337 22340 22343 22345 22347 22350 22353 22356 22359 22362 22365 22367 22370 22373 22376 22379 22381 22384 22386 22389 22392 22395 22398 22401 22404 22407 22410 22413 22416 22419 22422 22425 22427 22430 22433 22436 22439 22441 22444 22447 22450 22453 22456 22459 22462 22465 22468 22471 22474 22477 22480 22483 22486 22489 22492 22495 22498 22501 22504 22507 22509 22512 22515 22518 22521 22524 22527 22530 22533 22536 22539 22542 22545 22548 22551 22554 22556 22559 22562 22565 22568 22571 22574 22576 22579 22582 22585 22588 22591 22594 22597 22600 22603 22606 22609 22612 22615 22618 22621 22624 22627 22630 22633 22636 22639 22642 22645 22648 22651 22654 22657 22660 22663 22666 22669 22672 22674 22677 22680 22683 22686 22689 22692 22695 22698 22701 22704 22707 22710 22713 22716 22719 22722 22725 22728 22731 22733 22736 22739 22742 22745 22748 22751 22753 22755 22758 22761 22764 22767 22769 22771 22774 22777 22780 22783 22786 22789 22792 22795 22798 22801 22803 22806 22809 22812 22815 22818 22821 22824 22827 22830 22833 22836 22839 22842 22845 22848 22851 22854 22857 22860 22863 22866 22869 22872 22875 22877 22880 22883 22886 22889 22892 22895 22898 22901 22904 22907 22909 22912 22915 22918 22921 22924 22927 22930 22933 22936 22939 22942 22945 22948 22951 22954 22957 22960 22962 22965 22968 22971 22974 22977 22980 22983 22986 22989 22991 22993 22996 22998 23001 23004 23007 23010 23013 23016 23019 23022 23025 23028 23031 23034 23037 23040 23043 23046 23049 23052 23055 23058 23061 23064 23066 23069 23072 23075 23077 23080 23083 23086 23089 23092 23095 23098 23101 23104 23107 23109 23112 23115 23118 23121 23124 23126 23129 23131 23133 23136 23139 23142 23145 23148 23151 23154 23157 23160 23163 23166 23169 23172 23175 23178 23181 23184 23186 23189 23192 23194 23197 23200 23203 23205 23208 23211 23213 23216 23218 23221 23224 23227 23230 23233 23236 23239 23242 23245 23248 23251 23253 23256 23259 23262 23264 23267 23270 23273 23276 23279 23282 23285 23288 23291 23294 23296 23299 23302 23305 23308 23311 23313 23316 23319 23322 23325 23328 23331 23334 23336 23339 23342 23345 23348 23351 23354 23357 23360 23363 23366 23369 23372 23375 23378 23380 23382 23385 23388 23391 23394 23396 23399 23402 23405 23408 23410 23413 23416 23419 23422 23425 23427 23430 23432 23435 23438 23441 23444 23447 23450 23453 23456 23459 23462 23465 23468 23471 23474 23476 23478 23481 23484 23487 23490 23493 23496 23499 23502 23505 23508 23511 23514 23517 23520 23523 23526 23529 23532 23535 23538 23541 23544 23547 23550 23553 23556 23559 23562 23565 23567 23570 23573 23576 23579 23582 23585 23588 23591 23594 23597 23600 23603 23606 23608 23610 23613 23616 23618 23621 23624 23627 23630 23633 23636 23639 23642 23645 23648 23651 23654 23657 23660 23663 23666 23669 23672 23675 23678 23681 23684 23687 23690 23693 23696 23699 23702 23705 23708 23711 23714 23717 23720 23723 23726 23729 23732 23735 23738 23741 23744 23747 23750 23753 23756 23759 23762 23765 23768 23771 23774 23776 23779 23781 23784 23787 23790 23793 23796 23798 23801 23804 23807 23810 23813 23815 23817 23820 23823 23826 23829 23832 23835 23838 23841 23843 23846 23849 23852 23855 23858 23861 23864 23867 23870 23873 23875 23878 23881 23883 23886 23889 23891 23894 23897 23900 23903 23906 23909 23912 23914 23916 23919 23921 23923 23926 23929 23931 23934 23937 23940 23943 23946 23949 23952 23955 23958 23961 23963 23966 23969 23972 23975 23978 23981 23984 23987 23990 23993 23996 23999 24002 24005 24008 24011 24014 24017 24020 24023 24026 24029 24032 24035 24038 24041 24044 24047 24050 24053 24056 24059 24062 24065 24068 24071 24074 24077 24080 24083 24086 24089 24092 24094 24097 24100 24103 24106 24108 24111 24114 24116 24119 24122 24125 24128 24131 24134 24137 24140 24143 24146 24149 24152 24155 24158 24161 24164 24167 24170 24173 24175 24178 24181 24184 24187 24190 24193 24196 24199 24202 24205 24208 24211 24214 24217 24220 24223 24226 24229 24232 24235 24238 24241 24243 24246 24249 24252 24255 24258 24261 24264 24267 24270 24273 24275 24278 24281 24284 24287 24290 24293 24295 24298 24301 24304 24306 24309 24312 24315 24317 24320 24323 24326 24329 24332 24335 24337 24340 24343 24346 24349 24351 24354 24356 24358 24361 24364 24367 24370 24373 24376 24379 24382 24385 24388 24391 24394 24396 24399 24402 24405 24408 24411 24414 24417 24420 24423 24426 24429 24432 24435 24438 24440 24443 24446 24449 24452 24455 24457 24460 24463 24466 24469 24472 24475 24477 24480 24483 24486 24489 24492 24495 24498 24501 24504 24507 24510 24513 24516 24519 24522 24525 24528 24531 24534 24537 24540 24543 24546 24548 24550 24553 24556 24559 24561 24564 24567 24570 24573 24576 24578 24581 24584 24587 24590 24593 24596 24599 24602 24605 24608 24611 24614 24617 24620 24623 24626 24628 24631 24634 24637 24640 24643 24646 24649 24652 24655 24658 24661 24664 24667 24670 24673 24676 24679 24682 24684 24687 24690 24693 24696 24699 24702 24705 24707 24710 24713 24716 24719 24722 24725 24728 24731 24734 24737 24739 24742 24745 24748 24751 24753 24756 24758 24761 24764 24766 24769 24772 24775 24778 24781 24783 24786 24789 24792 24795 24798 24800 24803 24805 24808 24811 24814 24817 24819 24822 24825 24828 24831 24834 24837 24840 24843 24845 24848 24851 24854 24857 24860 24863 24866 24869 24872 24875 24878 24881 24884 24887 24890 24893 24896 24898 24901 24904 24907 24910 24913 24915 24918 24921 24924 24927 24930 24933 24936 24939 24942 24945 24948 24951 24954 24957 24960 24963 24966 24969 24972 24975 24978 24981 24984 24987 24990 24993 24996 24999 25002 25005 25008 25011 25014 25017 25020 25023 25026 25029 25032 25035 25038 25041 25044 25047 25049 25052 25055 25058 25061 25064 25067 25070 25073 25076 25079 25082 25085 25088 25091 25094 25097 25100 25103 25106 25109 25112 25115 25118 25121 25124 25127 25130 25132 25135 25138 25141 25144 25147 25149 25152 25155 25158 25160 25162 25165 25168 25171 25174 25177 25180 25183 25186 25189 25192 25195 25198 25201 25203 25206 25209 25212 25215 25218 25220 25223 25225 25228 25230 25233 25235 25237 25240 25243 25246 25249 25252 25255 25258 25261 25264 25267 25269 25272 25274 25277 25280 25283 25286 25289 25292 25295 25298 25301 25304 25307 25309 25312 25315 25318 25321 25324 25327 25330 25333 25335 25338 25341 25344 25347 25350 25353 25356 25359 25362 25365 25368 25371 25373 25376 25379 25382 25385 25388 25391 25394 25397 25400 25403 25406 25409 25412 25415 25418 25421 25424 25427 25430 25433 25436 25439 25442 25445 25448 25451 25453 25456 25459 25462 25464 25467 25470 25472 25475 25477 25480 25483 25486 25488 25491 25494 25497 25500 25503 25506 25509 25512 25515 25518 25521 25524 25527 25530 25533 25536 25539 25542 25545 25548 25551 25554 25557 25560 25563 25566 25568 25571 25574 25577 25580 25583 25586 25589 25591 25594 25597 25599 25602 25605 25608 25611 25614 25617 25620 25623 25626 25629 25632 25634 25637 25640 25643 25646 25649 25651 25654 25657 25660 25663 25666 25669 25672 25674 25676 25679 25682 25685 25688 25690 25693 25696 25699 25702 25705 25708 25710 25713 25716 25719 25722 25725 25728 25731 25734 25737 25739 25741 25744 25747 25750 25753 25756 25758 25761 25764 25767 25769 25772 25774 25777 25779 25782 25785 25788 25791 25794 25796 25799 25802 25805 25808 25811 25814 25817 25820 25823 25826 25829 25832 25834 25837 25840 25843 25846 25849 25852 25855 25858 25861 25864 25867 25870 25873 25876 25879 25882 25885 25888 25891 25894 25897 25899 25902 25905 25908 25911 25914 25916 25919 25922 25925 25927 25930 25933 25936 25939 25942 25945 25948 25951 25954 25957 25960 25963 25966 25969 25972 25975 25978 25981 25984 25987 25990 25993 25996 25999 26002 26005 26008 26011 26014 26017 26020 26023 26025 26028 26031 26034 26037 26040 26043 26046 26049 26052 26055 26058 26061 26064 26066 26069 26072 26075 26077 26080 26083 26086 26089 26091 26094 26097 26100 26103 26106 26109 26112 26115 26118 26121 26124 26127 26130 26133 26136 26139 26142 26145 26148 26151 26154 26157 26160 26163 26166 26169 26172 26175 26178 26181 26184 26187 26190 26193 26196 26199 26201 26204 26207 26210 26212 26215 26218 26221 26223 26226 26229 26232 26234 26237 26240 26242 26244 26247 26250 26253 26256 26259 26262 26264 26267 26269 26272 26275 26277 26280 26283 26286 26289 26292 26295 26298 26300 26303 26306 26309 26312 26315 26318 26321 26324 26327 26329 26332 26335 26337 26340 26343 26346 26349 26352 26355 26358 26361 26364 26367 26370 26373 26376 26379 26382 26385 26388 26391 26393 26396 26399 26402 26405 26408 26411 26414 26417 26419 26422 26425 26428 26431 26434 26437 26440 26443 26446 26449 26452 26455 26458 26461 26464 26467 26470 26473 26476 26479 26482 26485 26487 26490 26493 26496 26499 26502 26505 26507 26510 26513 26516 26519 26522 26525 26527 26530 26533 26536 26539 26542 26545 26548 26551 26554 26557 26560 26563 26566 26569 26572 26575 26578 26581 26584 26587 26590 26593 26596 26599 26602 26605 26608 26611 26614 26617 26620 26623 26626 26628 26630 26633 26636 26638 26640 26643 26645 26648 26650 26653 26655 26658 26661 26664 26667 26670 26673 26676 26679 26682 26685 26687 26690 26693 26696 26699 26701 26704 26707 26709 26711 26714 26717 26719 26722 26725 26728 26731 26734 26737 26740 26743 26746 26749 26752 26755 26758 26761 26764 26766 26769 26772 26775 26778 26780 26783 26786 26789 26792 26795 26797 26800 26803 26806 26809 26812 26814 26817 26820 26823 26826 26829 26831 26834 26836 26838 26841 26844 26847 26850 26853 26856 26859 26862 26865 26868 26871 26873 26876 26878 26881 26884 26887 26890 26892 26895 26898 26901 26903 26905 26908 26910 26913 26916 26919 26921 26924 26927 26930 26933 26936 26939 26942 26945 26948 26951 26954 26957 26960 26963 26966 26969 26972 26975 26978 26981 26984 26987 26990 26993 26996 26999 27002 27005 27008 27010 27013 27015 27018 27021 27023 27026 27029 27031 27034 27037 27039 27042 27045 27047 27049 27052 27055 27058 27060 27063 27065 27068 27071 27074 27076 27079 27082 27085 27087 27090 27093 27096 27099 27102 27105 27107 27110 27113 27116 27119 27122 27125 27128 27131 27134 27137 27140 27143 27146 27149 27152 27155 27158 27161 27164 27166 27169 27172 27175 27177 27180 27183 27185 27188 27191 27194 27197 27200 27203 27206 27209 27212 27214 27217 27219 27222 27225 27228 27231 27234 27237 27240 27243 27246 27249 27252 27254 27257 27260 27263 27266 27269 27272 27274 27277 27280 27283 27286 27289 27292 27295 27298 27301 27304 27306 27308 27311 27314 27317 27320 27323 27326 27329 27332 27335 27338 27341 27343 27345 27348 27351 27353 27356 27359 27361 27364 27367 27370 27373 27376 27379 27382 27385 27388 27391 27394 27397 27399 27402 27405 27408 27411 27414 27417 27420 27423 27426 27429 27432 27435 27438 27441 27444 27447 27450 27453 27456 27459 27462 27465 27468 27471 27474 27477 27480 27483 27486 27489 27492 27495 27497 27500 27503 27506 27509 27511 27514 27516 27519 27522 27525 27528 27531 27534 27537 27540 27543 27545 27548 27551 27554 27556 27559 27562 27565 27567 27570 27573 27576 27578 27581 27584 27587 27590 27593 27596 27599 27602 27605 27608 27611 27614 27617 27620 27623 27626 27629 27631 27633 27636 27639 27642 27645 27647 27650 27652 27654 27657 27660 27663 27666 27669 27672 27675 27677 27680 27683 27685 27688 27691 27694 27697 27700 27703 27706 27709 27712 27715 27717 27720 27723 27726 27728 27731 27734 27737 27740 27743 27746 27749 27752 27755 27758 27761 27764 27767 27769 27772 27775 27778 27781 27784 27787 27790 27793 27796 27799 27801 27803 27806 27809 27812 27815 27818 27821 27824 27826 27829 27832 27835 27838 27841 27843 27846 27849 27852 27855 27858 27861 27864 27867 27870 27873 27876 27879 27882 27885 27888 27891 27894 27896 27899 27902 27905 27908 27911 27914 27917 27920 27923 27926 27929 27932 27935 27938 27941 27944 27947 27950 27953 27956 27959 27962 27965 27968 27971 27974 27977 27980 27983 27986 27989 27992 27995 27998 28001 28004 28007 28010 28013 28016 28019 28022 28025 28028 28031 28034 28037 28040 28042 28045 28048 28051 28054 28056 28059 28062 28065 28067 28070 28073 28075 28078 28081 28084 28087 28090 28093 28096 28099 28101 28104 28107 28110 28113 28116 28119 28121 28124 28127 28130 28133 28136 28139 28142 28145 28148 28151 28154 28157 28160 28163 28165 28168 28170 28173 28176 28179 28181 28184 28187 28189 28192 28195 28198 28200 28203 28205 28208 28211 28213 28215 28218 28221 28224 28226 28229 28232 28234 28237 28240 28243 28246 28249 28252 28255 28258 28261 28264 28267 28270 28273 28276 28278 28280 28283 28286 28289 28291 28294 28297 28300 28303 28306 28309 28312 28315 28318 28321 28324 28327 28330 28333 28336 28339 28342 28345 28348 28350 28353 28356 28359 28362 28365 28368 28371 28374 28377 28380 28383 28386 28389 28392 28395 28398 28401 28404 28407 28410 28413 28416 28419 28422 28425 28428 28431 28434 28436 28439 28442 28445 28448 28451 28454 28457 28460 28463 28465 28468 28471 28474 28476 28479 28482 28484 28487 28489 28492 28495 28497 28500 28503 28505 28507 28510 28512 28515 28518 28521 28523 28526 28529 28532 28535 28538 28541 28544 28547 28550 28553 28556 28559 28562 28565 28568 28571 28574 28577 28580 28583 28586 28589 28591 28594 28597 28600 28603 28605 28608 28611 28614 28617 28619 28622 28625 28628 28631 28634 28636 28639 28642 28645 28648 28651 28654 28657 28660 28663 28666 28668 28671 28674 28677 28680 28683 28685 28688 28691 28694 28697 28700 28702 28705 28708 28711 28714 28717 28720 28723 28726 28728 28731 28734 28737 28740 28743 28746 28749 28751 28753 28756 28759 28762 28765 28768 28771 28774 28777 28780 28783 28786 28789 28792 28795 28798 28801 28804 28807 28810 28813 28816 28819 28822 28825 28828 28830 28832 28835 28838 28840 28843 28846 28848 28850 28853 28855 28858 28861 28864 28867 28870 28873 28876 28879 28882 28885 28887 28890 28893 28896 28899 28901 28904 28906 28909 28912 28915 28918 28920 28923 28926 28929 28931 28934 28937 28940 28943 28946 28948 28951 28953 28956 28958 28961 28964 28967 28969 28972 28975 28978 28981 28984 28986 28989 28992 28995 28998 29001 29003 29006 29008 29011 29014 29017 29020 29023 29026 29028 29031 29034 29036 29039 29042 29045 29048 29051 29054 29057 29060 29063 29066 29069 29072 29075 29078 29081 29083 29086 29089 29092 29095 29098 29101 29104 29107 29110 29113 29116 29119 29122 29125 29128 29131 29134 29137 29140 29143 29146 29149 29152 29155 29158 29161 29164 29167 29169 29172 29175 29178 29181 29184 29186 29189 29192 29195 29198 29200 29203 29206 29209 29212 29215 29217 29220 29223 29226 29229 29232 29235 29238 29241 29244 29247 29250 29253 29256 29259 29262 29265 29268 29271 29274 29277 29280 29283 29286 29289 29292 29295 29298 29301 29303 29306 29309 
</DataArray>
<DataArray type="UInt32" Name="types" format="ascii">
3 5 5 5 5 5 5 5 5 3 5 5 3 5 5 5 5 5 5 5 3 3 5 5 5 5 5 5 5 5 5 5 5 5 5 5 5 5 3 5 5 5 5 3 5 5 5 3 5 5 5 5 5 5 5 3 5 5 5 3 5 3 5 5 3 5 5 5 5 3 5 5 3 3 5 5 3 5 5 5 5 3 3 5 5 5 5 3 3 5 5 5 5 5 3 3 5 5 5 5 3 3 5 5 3 5 3 5 3 5 3 5 5 3 5 3 5 5 5 5 5 3 5 3 3 3 5 3 3 5 5 5 3 5 3 5 5 5 5 5 5 5 5 3 5 3 5 5 5 5 3 5 5 3 5 5 5 5 5 5 5 5 3 5 5 5 5 5 5 5 5 5 5 5 5 5 5 5 5 5 5 5 5 3 5 5 5 5 5 5 5 5 5 5 5 5 5 5 5 5 5 5 5 5 5 5 5 5 5 5 3 5 5 5 5 5 5 5 5 5 5 5 5 3 5 5 5 5 5 3 5 5 5 5 5 5 5 5 5 5 3 5 5 5 5 5 3 5 5 5 3 5 5 5 5 5 3 5 5 3 5 3 5 5 5 3 3 5 3 5 5 5 3 5 5 5 5 5 5 3 5 5 3 5 3 5 5 5 5 5 3 5 5 3 3 5 5 5 3 5 5 5 3 5 5 3 5 5 5 5 5 5 5 5 5 3 5 5 5 5 5 5 5 5 5 5 5 5 5 5 5 5 5 5 5 5 5 5 3 5 3 5 5 5 5 5 5 5 3 5 5 5 5 5 5 3 5 5 3 5 5 5 5 5 5 3 3 5 5 5 5 3 3 5 5 5 5 3 5 5 5 5 3 5 3 5 3 3 5 5 5 5 5 5 3 5 5 3 5 3 5 5 5 5 5 5 5 5 5 3 5 5 5 5 5 5 5 5 3 5 5 5 3 5 5 5 5 5 3 5 5 5 5 5 5 5 3 5 5 3 5 3 3 5 5 5 5 5 5 5 5 5 5 5 5 5 5 5 5 5 5 5 5 5 5 5 5 5 5 5 5 5 5 5 5 5 5 5 5 5 5 5 5 5 5 5 5 5 5 5 5 3 3 5 5 5 3 5 5 5 5 5 3 5 5 5 5 5 5 5 5 5 3 5 5 5 3 5 3 5 5 5 5 5 3 5 5 5 5 5 5 5 5 3 5 5 5 5 5 5 5 5 5 5 5 5 5 5 5 5 5 5 5 5 5 5 5 5 5 5 5 5 5 5 5 5 5 5 5 5 5 5 5 3 5 5 3 5 5 3 5 5 5 5 5 5 5 5 5 5 5 5 5 3 5 5 5 5 5 5 5 5 5 3 5 5 5 5 5 5 5 5 3 5 5 3 5 5 3 5 5 5 5 5 5 3 3 5 5 5 5 5 5 3 5 5 5 5 5 5 5 5 5 5 5 5 5 3 5 5 5 5 5 5 5 5 5 5 5 5 5 5 5 5 5 5 5 5 5 5 5 5 5 5 5 5 5 5 5 5 5 5 5 5 5 5 5 5 5 5 5 5 5 5 5 5 5 5 3 5 3 5 5 5 3 5 5 3 3 5 5 3 5 5 5 5 5 3 5 5 5 5 5 5 5 5 3 3 3 5 5 5 5 5 5 5 3 5 5 5 5 5 5 5 5 5 5 5 5 5 5 3 5 5 5 5 5 5 5 3 5 5 5 5 5 5 3 5 5 5 5 3 5 5 5 3 5 5 5 5 5 5 3 5 5 5 5 5 5 5 5 5 5 5 5 3 5 5 5 5 5 5 5 5 3 5 3 5 3 5 3 5 5 5 5 3 3 5 5 5 3 3 5 5 3 5 5 5 5 5 5 5 5 5 5 5 5 5 5 5 5 5 3 5 5 5 5 5 5 5 3 3 5 5 5 3 5 5 5 5 5 5 5 5 5 5 3 5 5 5 5 3 5 3 5 5 5 5 5 5 5 3 5 5 5 3 5 5 5 5 5 5 5 5 5 5 5 5 5 3 5 5 5 5 5 3 5 5 5 5 5 5 5 5 5 5 5 5 5 5 5 3 5 5 5 5 5 3 5 3 5 5 5 5 5 5 5 5 5 3 5 5 5 5 5 5 5 5 5 5 5 5 5 5 5 5 5 5 5 3 5 3 5 5 5 5 5 5 5 5 5 5 5 5 5 5 5 5 5 5 5 5 3 5 5 5 5 5 5 5 5 5 5 3 5 5 5 5 5 5 5 5 5 3 5 5 3 5 5 5 5 3 5 5 5 5 5 5 5 5 5 5 5 5 5 5 5 3 5 5 5 3 5 5 3 5 5 5 5 5 5 5 5 5 5 5 5 5 5 5 5 5 5 5 5 5 5 5 5 5 3 5 5 5 5 5 5 5 5 5 5 5 5 5 5 5 5 5 5 5 5 5 5 3 5 5 5 5 3 5 5 3 5 3 5 5 5 5 5 3 5 5 5 5 5 5 5 3 5 5 5 5 5 5 5 3 5 5 5 3 5 5 5 5 5 5 5 5 5 5 5 5 5 5 5 5 5 3 5 5 5 3 5 3 5 5 5 5 3 3 5 5 5 5 5 5 5 5 5 5 5 5 5 5 5 5 5 5 5 3 5 5 5 3 5 5 3 5 5 3 5 3 5 5 3 5 5 5 5 5 5 5 5 5 5 5 5 5 5 5 5 3 3 5 5 5 5 5 3 5 5 5 5 5 5 5 5 5 5 5 5 5 5 5 5 3 5 5 5 5 5 3 5 5 5 5 5 5 5 5 5 5 5 5 5 5 5 5 5 3 5 5 5 5 3 5 5 5 5 3 5 5 3 5 5 3 5 5 5 5 5 5 5 5 3 5 5 5 5 5 5 3 5 5 5 3 5 3 5 5 5 5 3 5 3 5 5 3 5 5 5 5 5 3 5 5 5 5 5 3 5 5 5 3 3 5 5 5 3 5 5 3 5 5 5 5 5 5 5 5 3 5 5 5 5 5 5 5 5 5 5 3 5 5 5 3 5 5 5 3 5 5 5 5 5 3 5 5 5 5 5 5 5 5 5 5 5 5 5 5 5 5 5 5 5 5 5 5 5 5 5 5 5 5 5 5 5 5 5 5 5 5 3 5 5 5 3 5 5 5 5 5 5 5 5 3 5 3 5 5 5 5 5 5 5 5 5 3 5 5 3 5 5 5 3 5 5 5 5 3 5 5 5 5 5 5 5 5 5 5 3 5 5 5 5 5 5 3 5 5 5 5 5 3 5 5 3 5 3 5 5 5 3 5 5 5 3 5 5 5 5 5 3 3 5 5 5 5 5 5 5 5 5 5 5 3 5 3 5 5 3 5 5 5 5 5 5 5 5 5 3 3 5 5 5 5 5 3 5 3 5 5 5 5 5 3 5 5 5 3 5 3 5 3 5 5 5 5 5 5 5 5 5 5 5 5 5 5 5 5 5 5 5 5 5 3 5 5 5 5 5 5 5 5 5 5 5 5 5 5 5 5 5 5 5 5 5 5 5 5 5 3 5 3 5 5 3 5 3 5 5 5 5 3 5 5 5 5 5 5 5 5 5 5 5 3 5 5 5 5 5 5 5 3 3 5 5 5 5 5 5 5 5 5 5 5 5 5 5 5 5 5 5 5 5 5 5 5 3 5 5 5 5 5 5 5 5 5 5 5 5 5 3 5 5 5 3 5 5 5 5 3 5 5 5 5 5 5 5 5 3 5 5 5 5 5 5 5 5 5 5 5 5 5 5 5 5 5 5 5 5 5 5 5 3 5 5 5 5 5 3 5 5 3 5 5 5 5 5 5 5 5 5 5 5 5 5 5 5 5 5 5 5 5 5 5 5 5 5 5 5 5 5 5 5 5 5 5 3 5 5 5 5 5 5 5 5 5 5 5 5 5 3 5 3 5 5 5 5 5 5 5 5 5 5 5 5 3 5 5 5 5 5 3 5 5 5 5 5 5 5 5 5 5 5 3 5 5 5 3 5 5 5 5 3 5 5 5 5 5 5 5 5 5 5 5 5 3 5 5 5 5 3 5 3 3 5 5 3 5 5 5 5 5 5 5 5 5 5 5 5 5 5 5 5 5 5 5 5 5 5 5 3 5 5 5 5 5 5 5 5 5 3 5 5 5 5 5 3 5 5 5 5 5 5 5 5 5 5 5 5 5 5 5 5 5 5 5 5 5 5 5 5 5 5 5 5 5 5 5 5 5 5 5 5 5 5 5 5 5 5 5 5 5 5 5 5 5 5 5 5 5 5 5 5 5 5 5 5 5 5 5 5 5 5 5 5 5 5 5 3 5 5 5 5 5 5 5 5 3 5 5 5 5 5 5 5 5 5 5 5 5 5 5 3 5 5 5 5 5 5 5 5 5 3 5 5 5 5 5 5 5 5 5 5 5 5 5 5 3 5 5 5 3 5 5 5 5 3 3 5 3 5 5 3 5 5 3 5 3 3 5 5 5 5 5 3 5 5 5 5 5 5 3 5 5 3 3 3 5 5 5 5 3 5 3 5 5 5 5 5 5 3 5 5 3 3 5 5 5 5 5 5 3 3 5 5 5 5 5 5 5 5 5 5 3 5 3 5 5 5 5 5 5 3 5 5 5 5 5 5 5 5 5 5 5 5 5 5 5 5 5 5 3 5 5 5 5 5 5 5 5 5 5 5 5 5 5 5 5 5 5 5 5 5 5 5 5 5 5 5 5 5 5 5 5 5 5 5 5 5 5 5 5 5 5 5 3 3 5 5 5 5 5 5 5 5 5 5 5 5 5 5 5 5 5 5 5 5 5 5 5 5 5 5 5 5 5 5 5 5 5 5 5 5 5 5 5 5 5 5 5 5 5 5 5 3 5 5 5 3 5 5 5 5 3 5 3 5 5 5 5 5 5 3 5 5 5 3 3 5 5 5 3 5 3 5 5 5 3 5 5 5 3 5 5 3 5 5 3 5 3 3 5 3 3 5 5 3 5 3 5 5 5 5 3 3 5 5 5 5 3 5 5 3 5 5 3 3 3 5 3 5 5 5 3 5 3 5 5 3 5 5 5 3 5 5 5 5 5 5 5 3 5 5 5 3 5 5 5 5 5 5 5 3 5 5 5 5 5 5 5 5 5 5 5 5 5 5 5 5 3 3 5 5 5 3 5 3 5 3 5 5 5 5 3 5 3 5 5 5 5 5 5 5 3 5 5 3 5 5 5 5 5 5 3 5 5 5 5 5 5 5 5 5 5 5 3 5 5 5 5 5 5 5 5 5 5 5 3 5 5 5 3 5 5 5 5 5 5 5 5 5 5 5 5 5 5 5 5 3 5 5 5 5 3 5 5 3 5 5 5 5 3 5 5 3 5 5 5 5 5 5 5 5 5 5 5 5 5 5 5 5 5 3 5 5 5 5 5 5 5 5 3 5 5 5 5 5 5 5 5 5 5 5 5 5 5 5 5 5 5 5 5 5 5 3 5 5 5 5 3 5 5 5 3 5 3 5 5 5 5 5 5 5 5 3 5 5 5 5 5 5 5 5 5 5 3 5 5 3 5 3 5 5 5 5 5 5 5 5 3 3 5 3 3 5 5 5 3 5 3 5 5 5 5 5 5 5 5 5 5 3 5 5 5 3 5 5 5 5 5 5 3 5 5 5 5 3 5 5 5 5 5 5 5 5 5 5 5 5 5 5 5 5 5 5 5 5 5 5 5 5 5 5 5 3 5 5 5 5 5 3 5 5 5 5 5 5 5 5 5 5 5 5 5 3 5 5 5 5 3 5 5 5 5 5 5 5 5 5 5 5 5 3 5 5 5 5 5 5 5 5 5 5 3 5 5 5 5 5 5 5 5 5 5 5 5 5 5 5 5 5 5 5 5 5 5 5 5 5 5 5 5 5 5 5 5 5 5 5 5 5 5 5 3 3 5 5 5 3 5 5 5 5 5 3 5 5 3 5 5 5 5 5 3 5 5 5 5 3 5 5 5 5 5 5 5 5 5 5 5 5 5 5 5 5 5 5 5 3 5 5 5 5 5 5 5 3 5 5 5 5 5 5 5 5 5 5 5 5 3 5 5 3 5 5 5 5 5 5 5 3 5 5 5 3 3 5 5 5 5 5 5 5 5 5 5 5 5 5 5 5 5 5 5 5 5 5 5 5 5 5 5 5 5 3 5 5 5 5 5 5 5 3 5 5 5 5 5 5 5 5 5 3 5 5 3 5 5 5 5 5 5 5 5 5 5 5 5 5 5 5 3 5 5 5 5 5 5 5 5 5 5 5 5 5 5 5 5 5 5 5 5 5 5 3 5 5 5 5 5 5 5 5 5 5 5 5 5 5 5 5 5 5 5 5 5 5 5 3 5 5 5 3 5 5 3 5 5 5 5 5 5 5 5 5 5 5 5 5 5 5 3 3 5 5 5 5 5 3 5 5 5 5 5 5 5 5 5 5 5 5 5 3 5 5 5 5 5 5 5 5 5 5 5 5 5 5 5 5 5 3 5 5 5 5 5 3 5 5 5 3 3 5 5 5 5 5 5 5 5 5 5 5 5 5 5 5 5 5 5 5 5 5 5 5 5 5 5 5 3 5 5 3 5 5 5 5 5 5 5 5 5 5 5 5 5 5 3 5 5 5 5 5 5 5 5 5 5 5 5 5 5 5 5 5 5 3 5 5 3 5 5 5 5 5 5 5 5 5 5 5 5 5 5 5 5 5 5 5 5 5 5 3 5 5 5 5 3 5 5 5 5 5 5 5 5 5 5 5 5 5 3 5 5 5 5 5 3 3 5 3 5 5 5 5 5 5 3 5 5 5 3 5 5 5 5 5 5 5 3 5 5 5 3 5 5 5 5 5 5 5 5 3 5 5 5 5 5 5 3 5 5 5 5 5 5 5 5 5 5 3 5 3 5 3 3 5 5 5 5 5 5 5 5 5 5 5 5 5 5 5 5 3 5 5 5 5 5 5 5 5 5 5 5 5 5 5 5 5 5 5 5 5 5 5 5 3 5 3 3 5 5 5 5 3 5 5 5 5 5 5 3 5 5 5 3 5 5 5 3 5 5 5 3 5 5 5 5 5 5 5 5 5 3 5 5 5 5 5 5 5 5 5 5 5 5 5 5 5 3 5 5 5 5 5 3 5 3 5 5 3 5 5 3 5 5 5 5 3 5 5 3 5 5 5 5 3 5 5 3 5 5 5 5 5 5 5 5 5 5 5 5 5 5 5 5 3 5 3 5 5 5 5 5 5 5 5 5 3 5 5 5 5 5 5 5 3 5 3 5 3 5 5 5 5 5 5 5 5 5 5 5 5 5 5 5 5 5 5 5 5 5 5 5 5 3 5 5 5 5 5 5 5 3 5 5 5 5 5 5 5 5 5 3 5 5 5 5 5 3 5 5 5 5 5 5 5 5 5 5 5 3 5 5 5 5 5 5 5 5 5 5 5 5 5 5 5 5 5 5 5 5 5 5 5 5 5 3 5 5 5 5 5 5 5 5 5 3 5 5 5 5 5 3 5 5 5 3 5 3 5 5 5 5 5 5 5 5 5 5 5 5 5 5 3 5 5 5 5 3 5 5 5 3 5 5 5 3 5 5 5 5 5 5 5 5 5 5 5 5 5 5 5 5 5 5 5 5 5 5 5 5 5 3 5 3 5 5 3 5 5 3 5 5 5 5 5 5 3 5 5 5 5 5 5 5 5 5 5 5 3 3 5 5 5 5 5 5 5 5 5 5 3 3 5 3 5 5 5 3 5 5 5 5 5 5 5 5 5 5 3 5 3 5 3 5 5 5 5 5 5 3 5 5 5 5 5 5 5 5 5 5 5 5 3 5 5 5 5 3 5 5 5 5 5 3 3 5 5 5 5 5 5 5 5 5 5 5 5 5 5 5 5 5 5 5 5 5 5 5 5 5 3 5 5 5 3 5 5 5 5 5 5 5 5 5 3 5 5 5 5 5 5 5 5 5 5 5 5 5 5 5 5 5 5 5 5 5 5 5 5 5 5 5 3 5 5 5 5 5 5 5 5 5 5 5 5 5 5 5 5 5 5 5 5 5 5 5 5 5 5 5 5 5 5 5 5 5 3 5 5 5 3 5 5 5 5 3 5 5 5 5 3 5 5 3 5 5 5 5 5 5 5 3 5 5 5 5 5 5 5 5 5 5 5 5 5 3 3 5 5 5 3 5 5 3 3 5 5 5 5 5 5 3 5 5 5 5 5 5 3 5 5 3 5 5 5 3 5 5 5 3 5 5 5 5 5 3 5 3 3 5 5 3 5 5 5 3 5 5 5 5 5 5 5 5 3 5 5 5 5 5 5 5 5 5 5 5 5 5 5 5 5 5 5 5 5 5 5 5 5 5 5 5 5 5 5 5 5 3 5 5 5 5 5 5 5 5 5 5 5 5 5 5 5 5 5 5 5 3 5 5 5 5 5 3 5 5 5 5 5 5 5 5 5 5 5 5 5 5 5 5 5 5 5 3 3 5 5 5 5 3 5 5 5 5 5 5 3 5 5 5 5 5 5 5 5 5 3 5 5 5 5 5 5 5 5 5 5 5 5 5 3 5 5 5 5 5 5 3 5 5 5 5 5 5 3 5 5 5 5 5 3 5 5 5 5 5 5 3 5 3 5 5 5 3 5 5 5 5 5 5 5 5 5 5 5 5 5 5 5 5 5 5 5 5 5 5 5 5 5 5 5 5 5 5 5 5 5 5 5 5 3 5 5 5 3 5 3 5 3 5 5 5 5 5 3 5 5 5 3 5 5 5 3 5 5 5 5 5 5 5 5 5 3 5 5 5 5 5 5 3 5 5 3 3 5 5 3 5 5 3 5 5 3 5 5 5 5 5 5 5 5 5 5 5 5 5 5 5 5 5 5 5 5 5 5 5 5 5 3 5 5 5 5 5 5 5 5 5 5 5 5 5 5 5 3 5 5 3 5 5 5 3 5 5 3 3 5 5 5 5 5 5 5 3 5 5 5 5 5 5 5 5 5 5 5 5 5 3 5 5 3 5 5 5 5 5 5 5 5 5 5 5 5 5 5 5 5 5 5 5 5 5 5 5 5 5 5 5 5 5 3 5 5 5 5 5 5 5 3 5 5 5 5 5 3 5 5 5 5 3 3 5 3 5 5 5 3 5 5 3 5 5 5 5 3 5 5 5 5 5 5 5 5 5 5 5 3 3 5 5 5 5 5 5 5 5 5 3 5 5 3 5 5 5 5 5 5 5 5 5 3 5 3 5 3 5 3 5 3 3 5 3 5 3 5 5 5 5 5 3 5 5 3 5 5 3 5 3 3 5 3 5 5 5 5 5 5 5 5 5 5 5 3 5 5 5 3 5 5 3 5 5 5 5 5 5 5 5 5 5 5 5 5 5 5 5 5 5 5 5 5 5 5 5 5 5 5 5 5 5 5 5 5 5 5 5 3 5 5 5 5 5 5 3 3 5 5 5 5 5 5 5 5 5 5 3 5 5 5 3 5 5 5 5 5 5 5 5 3 5 5 5 5 5 5 5 5 5 5 3 5 5 5 5 5 5 3 5 5 5 5 5 5 3 5 5 5 3 5 5 5 5 5 5 5 5 5 5 3 5 5 5 5 5 5 5 3 5 3 5 5 5 5 5 5 5 5 5 5 5 5 5 5 5 5 5 5 5 5 5 5 5 3 5 5 5 5 5 5 5 5 5 5 5 5 5 5 5 5 5 5 5 5 5 5 5 5 5 5 5 5 5 5 5 5 5 5 5 5 5 5 5 5 5 5 5 5 5 5 5 5 5 5 5 5 5 5 5 5 5 5 5 5 5 5 5 5 5 3 5 5 5 5 5 5 5 3 5 5 5 5 5 5 5 5 5 5 5 5 5 5 5 5 5 5 5 5 5 5 3 5 5 5 5 5 5 5 5 5 5 5 5 5 5 5 5 5 5 5 5 5 5 5 5 3 5 5 5 3 5 5 5 5 5 5 5 5 5 5 5 5 5 5 5 5 5 5 5 5 5 5 5 5 5 5 5 5 5 5 5 5 5 3 5 3 5 5 5 5 5 3 5 3 5 5 5 5 5 5 5 5 5 5 5 5 5 3 5 5 5 5 5 5 5 5 5 5 3 5 5 5 5 5 5 5 5 3 5 5 5 3 3 5 5 3 5 5 5 5 5 5 3 5 5 3 5 5 5 3 5 5 5 5 5 3 5 5 3 3 3 5 5 5 5 5 5 5 5 5 5 5 5 5 5 3 5 5 5 3 5 5 5 5 5 5 3 5 5 3 5 5 5 5 5 5 5 5 5 5 5 5 5 5 5 5 5 3 5 5 5 5 5 5 5 5 5 5 5 5 5 5 5 5 5 3 5 5 5 5 5 5 3 5 5 5 5 3 5 5 5 5 5 3 5 5 5 5 5 5 5 5 3 5 5 5 5 3 5 5 5 5 5 5 5 5 5 3 5 5 5 5 5 5 5 5 5 5 5 5 5 3 5 5 5 3 5 5 3 5 5 5 5 5 3 5 5 5 5 5 5 3 5 3 5 5 5 3 5 5 5 3 3 5 3 5 3 5 3 5 3 5 5 5 5 5 3 5 5 5 5 3 5 5 5 5 5 5 5 5 5 5 3 5 5 5 5 5 5 5 5 5 5 5 5 5 5 5 5 5 5 5 5 5 5 5 5 5 5 5 5 5 5 5 5 5 5 3 5 5 5 5 5 5 5 3 5 5 3 5 5 5 5 5 5 5 5 5 5 3 3 5 5 5 5 5 5 5 5 5 5 5 5 3 5 3 5 3 5 5 5 5 3 3 3 5 5 3 5 5 3 5 3 5 5 5 3 3 5 5 3 3 5 5 5 5 5 3 5 5 5 5 5 5 5 5 5 3 5 5 5 5 5 5 3 5 5 3 5 5 5 5 5 5 5 5 5 3 5 5 3 3 5 5 5 5 5 5 5 5 5 3 5 5 5 5 5 5 3 5 5 3 5 5 3 5 3 5 5 5 5 5 5 5 5 5 5 5 5 5 5 5 3 5 5 5 3 5 5 5 5 5 5 5 5 5 5 5 5 5 5 3 5 5 5 5 3 5 5 5 5 5 5 5 3 5 3 5 5 3 5 5 5 3 5 5 5 5 5 5 3 5 3 5 5 5 3 5 3 5 5 5 5 5 3 5 3 5 5 5 5 5 5 5 5 5 5 5 5 5 5 3 5 5 5 5 3 3 5 5 3 3 3 5 5 5 3 5 5 5 5 5 5 5 5 3 5 5 5 5 3 5 5 5 5 5 5 5 3 5 3 5 5 5 3 5 5 5 5 5 5 3 5 5 3 5 5 5 3 5 5 5 5 5 5 5 3 5 3 5 3 5 5 5 5 5 5 5 5 5 5 5 5 5 5 3 5 3 5 3 5 5 3 5 5 5 3 5 3 5 5 5 5 3 5 3 3 5 5 5 5 5 5 5 3 5 5 5 5 5 5 5 5 5 5 5 5 5 5 5 5 3 3 3 3 5 5 3 5 5 5 3 5 5 5 5 3 5 5 3 3 5 3 5 5 5 5 5 5 5 5 5 5 3 3 5 5 5 5 3 3 5 5 3 5 5 5 5 3 5 5 5 5 5 5 3 5 3 5 5 5 5 3 5 5 5 5 5 5 5 5 5 5 3 5 5 5 5 5 5 3 3 3 5 5 5 5 5 5 5 5 5 3 5 5 5 3 5 5 3 5 5 5 3 5 5 5 5 5 3 5 3 5 3 5 5 5 5 3 5 3 5 5 5 5 5 5 5 5 5 3 5 5 5 5 5 5 5 5 5 5 5 5 5 5 5 5 3 3 5 5 5 5 5 5 5 5 5 5 5 5 5 5 5 3 3 3 5 5 5 5 5 3 3 5 5 5 3 3 5 5 5 5 3 5 5 5 3 3 5 5 3 5 5 5 5 5 5 5 5 5 5 5 5 5 5 5 5 5 5 5 5 5 5 5 5 5 5 5 5 5 5 5 3 5 5 5 5 5 5 5 3 5 3 5 5 5 5 5 3 5 3 5 3 5 5 5 5 3 5 5 5 5 5 5 5 5 5 5 5 5 5 5 5 5 5 5 5 5 5 5 5 5 5 5 5 5 5 5 5 5 5 5 3 5 5 5 5 5 5 5 3 5 5 5 5 5 5 5 5 5 5 5 5 5 5 3 3 5 5 5 5 5 3 5 5 5 5 5 5 5 5 5 5 5 5 3 5 5 5 5 3 5 5 3 5 5 3 5 3 5 5 5 5 5 5 5 3 5 5 5 5 3 5 5 5 5 5 5 3 5 5 5 5 5 5 5 5 5 3 5 5 5 5 5 5 5 5 3 5 3 5 5 3 5 5 3 5 5 5 5 5 5 5 5 5 3 5 5 5 3 5 5 5 3 5 5 5 5 5 5 5 5 5 5 5 5 5 5 5 5 5 5 5 5 3 5 5 5 5 5 5 3 5 5 5 3 5 5 3 5 5 3 5 5 3 5 3 5 5 3 3 5 5 5 5 5 5 5 5 5 5 5 5 5 5 5 5 5 5 5 5 5 3 5 5 5 5 5 3 3 3 5 3 5 3 5 5 5 3 5 5 3 5 3 5 5 5 3 5 3 5 3 5 5 5 5 5 3 3 5 5 5 5 5 5 5 5 5 3 5 5 5 3 5 3 3 5 5 5 5 5 5 5 5 5 5 5 5 5 5 5 5 5 5 3 5 5 5 5 5 5 5 5 3 5 5 5 3 5 5 5 5 5 5 5 5 5 5 5 3 5 5 5 5 5 5 3 5 3 5 5 3 5 5 5 5 5 5 5 5 5 5 5 5 5 5 5 5 3 5 5 5 3 3 5 5 3 5 3 5 5 5 5 3 3 5 5 5 5 5 5 3 5 5 5 3 3 5 5 5 5 5 5 5 5 5 3 5 5 5 5 5 3 5 5 3 5 3 5 5 5 5 5 5 5 5 5 5 5 5 5 5 5 3 5 5 5 5 5 3 5 5 5 5 5 5 5 5 5 3 5 5 5 5 3 5 5 5 5 5 5 5 5 5 3 5 5 5 5 5 5 5 3 5 5 3 3 5 5 5 3 5 5 3 5 5 5 5 5 5 3 5 5 3 5 3 5 5 5 5 5 5 5 3 5 3 5 5 5 3 5 5 5 5 5 3 5 5 3 5 5 3 5 3 5 5 5 5 5 5 5 5 5 5 5 5 5 5 5 5 5 5 5 5 5 3 5 5 5 5 5 3 5 3 5 5 5 5 5 5 5 3 5 5 5 5 5 5 5 5 5 5 5 3 5 5 5 5 5 5 5 5 5 5 5 5 5 5 5 3 5 3 5 3 3 3 5 5 3 3 5 5 3 5 5 5 5 3 5 5 5 3 5 3 5 3 5 5 5 5 3 5 5 5 5 5 5 5 5 3 5 3 5 5 5 5 5 5 5 5 5 5 5 5 5 5 5 5 5 5 5 5 5 5 5 3 5 5 3 5 5 5 5 5 5 5 5 5 5 3 3 5 3 5 5 5 3 3 5 3 5 5 5 5 5 5 5 5 5 5 5 5 3 5 5 5 5 5 5 5 5 3 5 5 5 5 5 5 5 5 5 5 5 5 5 3 3 5 5 3 5 5 5 5 5 3 5 5 5 5 5 5 5 5 3 5 5 5 5 3 5 5 5 5 5 5 5 5 5 3 3 5 5 5 5 5 5 3 5 3 5 3 5 5 5 3 5 5 5 3 5 5 3 5 5 5 5 5 5 5 5 5 5 5 3 5 5 5 5 3 5 5 5 5 5 5 5 5 5 5 5 5 5 5 5 5 5 5 5 5 3 5 5 5 5 5 3 5 5 5 5 5 3 5 5 5 5 3 5 5 5 5 5 5 5 5 5 5 5 5 5 5 5 5 5 5 5 5 5 5 5 5 5 5 3 5 5 5 5 5 5 5 5 5 5 5 5 5 5 5 5 5 5 5 5 5 5 5 5 5 5 5 5 5 5 5 5 3 5 5 5 5 5 5 5 5 5 5 3 3 5 5 5 5 5 5 5 5 5 5 5 5 5 3 5 5 5 5 5 5 5 5 5 5 5 5 5 5 5 5 5 5 5 5 5 5 5 5 5 5 5 5 5 5 5 5 5 5 5 5 5 5 5 5 5 5 5 5 5 5 5 5 3 5 5 5 5 5 5 5 5 5 5 5 5 5 5 5 5 5 5 5 5 5 5 5 5 5 5 5 5 5 5 3 5 5 5 3 5 5 5 5 5 5 5 5 5 3 5 5 3 5 5 5 5 5 3 5 5 5 5 5 3 5 5 5 5 5 5 5 5 5 5 5 5 5 5 5 5 5 5 5 5 3 5 5 5 5 5 5 5 5 5 5 5 3 5 5 5 5 5 5 5 5 5 5 5 5 5 5 5 5 5 5 3 5 5 5 5 5 5 5 5 5 5 5 5 5 5 5 5 5 3 5 5 5 5 5 5 5 5 5 5 5 5 5 3 5 5 5 5 5 5 5 5 5 5 5 5 5 3 5 3 5 5 5 5 5 5 5 5 5 5 5 5 5 5 5 5 5 5 5 5 5 5 5 5 5 5 3 5 5 5 5 5 5 3 5 5 5 5 3 5 5 5 5 3 5 5 5 5 5 5 5 5 5 5 3 5 5 5 5 3 5 5 5 5 5 5 5 5 3 5 5 5 3 5 5 5 5 5 5 5 5 5 5 5 3 3 5 5 3 5 5 5 5 3 3 5 5 5 5 5 5 5 5 5 3 5 5 5 5 5 5 5 5 5 5 5 5 5 5 5 5 5 5 5 5 5 5 5 3 5 3 5 5 5 5 5 5 5 5 5 5 3 5 5 5 5 3 5 5 3 5 5 3 5 5 5 3 5 5 3 5 5 5 5 5 5 5 5 5 5 5 5 5 5 5 5 5 5 5 5 5 5 5 5 5 5 5 5 5 5 5 5 5 5 5 5 5 5 5 5 5 5 5 5 5 5 5 5 5 5 5 5 5 5 5 5 5 5 5 5 5 5 5 5 5 5 3 3 5 5 5 5 5 5 5 5 5 3 5 5 5 5 5 3 5 5 5 3 5 5 5 5 5 5 5 5 5 5 5 5 5 5 5 5 5 5 5 5 3 5 5 5 5 5 5 5 5 5 5 5 5 5 5 5 5 5 5 3 5 5 5 5 3 5 5 3 5 5 5 5 5 5 5 5 5 5 5 5 5 5 5 5 5 5 5 5 5 5 5 5 5 5 5 5 5 5 5 5 5 5 5 5 5 5 5 5 3 5 5 5 5 5 5 5 5 3 5 5 5 5 5 5 5 5 5 5 5 5 5 5 5 5 5 5 5 5 5 5 5 5 5 5 5 5 3 3 5 5 5 5 5 5 5 5 3 3 5 5 5 3 5 5 5 5 5 5 5 5 5 5 3 5 5 5 5 5 5 5 5 5 5 5 5 5 5 5 5 5 5 5 5 5 5 5 5 5 5 5 5 5 5 5 5 5 5 3 5 5 5 5 3 5 5 5 5 5 5 5 5 5 5 5 5 5 5 5 5 3 5 3 5 5 5 5 3 5 5 5 5 5 5 5 5 5 5 5 5 5 5 5 5 5 5 5 5 5 5 5 5 5 5 5 5 5 5 3 5 5 5 5 5 5 5 5 5 5 5 3 5 5 3 5 3 5 5 5 5 5 5 3 5 5 5 5 5 5 5 5 5 5 5 5 3 5 3 5 5 3 5 5 5 5 5 5 5 5 5 5 5 5 5 5 5 5 5 5 5 5 5 5 5 5 5 5 5 5 5 5 5 5 5 5 5 5 5 5 5 5 5 5 5 5 5 5 5 5 5 5 5 3 5 5 5 5 5 5 5 5 5 5 5 5 5 5 5 5 5 5 5 5 5 5 5 5 5 5 5 5 5 5 5 5 5 5 5 5 5 5 5 3 5 5 5 5 5 3 5 5 5 5 5 5 5 5 5 5 5 5 5 5 5 5 5 5 5 5 5 5 5 5 5 5 5 5 5 5 5 5 5 5 5 5 5 5 5 5 5 5 5 5 5 5 5 5 5 5 5 5 5 5 3 5 3 5 5 5 5 5 5 5 5 3 5 5 5 5 5 5 5 5 5 5 5 5 5 5 5 5 5 5 5 3 5 5 5 5 5 5 5 5 3 5 5 5 5 5 5 5 5 5 5 5 5 5 5 5 5 5 5 5 5 5 5 5 5 5 3 5 5 5 5 5 5 5 5 5 5 5 5 5 3 5 5 5 5 5 5 5 5 5 5 5 5 5 5 5 5 5 5 3 5 5 5 5 5 5 5 5 5 5 5 5 5 5 5 5 5 5 5 5 5 5 5 5 5 5 3 5 5 5 5 3 5 5 5 5 5 5 5 5 5 5 5 5 5 5 5 5 5 5 3 5 5 3 5 5 5 5 5 5 5 5 5 3 5 5 5 5 3 5 5 3 5 5 5 5 5 5 5 5 5 5 5 5 5 5 5 5 5 5 5 5 5 5 5 5 5 5 5 5 5 3 5 5 3 5 5 5 5 5 5 3 5 5 5 3 5 5 5 5 5 5 5 5 5 5 5 5 5 5 5 5 5 5 5 5 5 5 5 5 5 3 5 5 5 5 5 3 5 5 5 5 5 5 5 5 5 5 5 5 5 3 5 5 5 5 5 5 5 5 5 5 5 5 3 5 5 5 5 5 3 5 5 3 5 5 5 5 5 3 5 5 3 5 5 5 5 5 5 5 5 5 5 5 3 5 5 5 5 5 5 5 5 5 5 5 5 5 5 5 5 5 5 5 5 5 5 5 5 5 5 5 5 5 3 5 5 3 5 5 3 5 5 5 3 5 5 5 3 5 5 5 5 5 5 5 5 5 5 5 5 5 5 5 5 3 5 5 5 5 5 5 5 5 5 5 5 5 5 5 3 5 5 5 5 5 5 5 5 5 5 5 5 5 5 5 5 5 5 5 5 5 5 5 5 5 5 5 5 5 5 5 5 5 5 5 3 5 5 5 5 5 5 5 5 5 5 5 5 5 5 5 5 5 3 5 5 5 5 3 5 5 5 5 5 5 5 5 5 5 5 5 3 5 5 5 5 5 5 5 3 5 5 5 5 5 5 5 5 5 5 5 3 5 5 5 5 5 5 5 5 5 5 5 5 5 5 5 5 5 3 5 5 5 5 3 5 5 5 5 5 3 5 5 3 5 3 3 5 5 5 5 5 5 5 5 5 5 5 5 5 5 5 5 3 3 5 5 5 5 5 5 5 5 5 3 5 5 5 5 5 3 5 5 5 5 5 5 3 5 5 3 5 3 5 5 3 5 3 5 5 5 3 5 5 5 5 5 5 3 3 5 3 5 5 3 5 5 5 5 5 5 5 5 5 5 5 5 5 3 5 5 5 5 5 5 5 5 5 5 3 3 5 5 3 5 5 5 3 5 3 5 5 5 5 3 5 5 3 5 5 5 5 5 5 5 3 5 5 5 5 5 5 5 5 5 5 5 3 5 5 5 5 5 3 3 5 5 5 5 5 5 3 5 5 5 5 3 5 3 5 5 5 5 5 5 5 5 5 5 5 5 5 3 5 5 5 5 3 5 5 5 5 5 5 5 5 5 5 5 5 5 5 5 5 5 5 5 5 5 5 3 5 5 5 5 5 5 5 5 5 5 5 5 5 5 5 3 5 5 5 5 5 5 3 5 5 5 5 5 5 5 5 5 5 5 5 5 5 5 5 5 5 5 5 5 5 5 5 5 5 5 5 5 5 5 5 3 5 5 5 5 5 5 5 5 5 5 5 5 5 5 5 5 5 5 5 3 5 5 5 5 5 5 3 3 5 5 5 5 3 3 5 5 5 5 5 5 5 5 5 5 3 5 5 5 5 5 5 5 5 5 5 5 5 5 5 5 5 5 5 5 5 5 5 5 5 3 5 5 5 5 5 5 5 5 5 5 3 5 5 5 5 5 5 5 5 5 5 5 5 5 5 5 5 5 3 5 5 5 5 5 5 5 5 5 3 3 5 3 5 5 5 5 5 5 5 5 5 5 5 5 5 5 5 5 5 5 5 5 5 5 3 5 5 5 3 5 5 5 5 5 5 5 5 5 5 3 5 5 5 5 5 3 5 3 3 5 5 5 5 5 5 5 5 5 5 5 5 5 5 5 5 5 3 5 5 3 5 5 5 3 5 5 3 5 3 5 5 5 5 5 5 5 5 5 5 5 3 5 5 5 3 5 5 5 5 5 5 5 5 5 5 3 5 5 5 5 5 3 5 5 5 5 5 5 5 3 5 5 5 5 5 5 5 5 5 5 5 5 5 5 3 3 5 5 5 5 3 5 5 5 5 3 5 5 5 5 5 3 5 3 5 5 5 5 5 5 5 5 5 5 5 5 5 5 3 3 5 5 5 5 5 5 5 5 5 5 5 5 5 5 5 5 5 5 5 5 5 5 5 5 5 5 5 5 5 3 5 5 5 5 5 5 5 5 5 5 5 5 5 3 3 5 5 3 5 5 5 5 5 5 5 5 5 5 5 5 5 5 5 5 5 5 5 5 5 5 5 5 5 5 5 5 5 5 5 5 5 5 5 5 5 5 5 5 5 5 5 5 5 5 5 5 5 5 5 5 3 5 3 5 5 5 5 5 3 5 5 5 5 5 3 3 5 5 5 5 5 5 5 5 3 5 5 5 5 5 5 5 5 5 5 3 5 5 3 5 5 3 5 5 5 5 5 5 5 3 3 5 3 3 5 5 3 5 5 5 5 5 5 5 5 5 5 3 5 5 5 5 5 5 5 5 5 5 5 5 5 5 5 5 5 5 5 5 5 5 5 5 5 5 5 5 5 5 5 5 5 5 5 5 5 5 5 5 5 5 5 3 5 5 5 5 3 5 5 3 5 5 5 5 5 5 5 5 5 5 5 5 5 5 5 5 5 5 5 3 5 5 5 5 5 5 5 5 5 5 5 5 5 5 5 5 5 5 5 5 5 5 3 5 5 5 5 5 5 5 5 5 5 3 5 5 5 5 5 5 3 5 5 5 3 5 5 5 3 5 5 5 5 5 5 3 5 5 5 5 3 5 3 3 5 5 5 5 5 5 5 5 5 5 5 5 3 5 5 5 5 5 5 5 5 5 5 5 5 5 5 3 5 5 5 5 5 3 5 5 5 5 5 5 3 5 5 5 5 5 5 5 5 5 5 5 5 5 5 5 5 5 5 5 5 5 5 5 3 3 5 5 5 3 5 5 5 5 5 3 5 5 5 5 5 5 5 5 5 5 5 5 5 5 5 5 3 5 5 5 5 5 5 5 5 5 5 5 5 5 5 5 5 5 5 3 5 5 5 5 5 5 5 3 5 5 5 5 5 5 5 5 5 5 3 5 5 5 5 3 5 3 5 5 3 5 5 5 5 5 3 5 5 5 5 5 3 5 3 5 5 5 5 3 5 5 5 5 5 5 5 5 3 5 5 5 5 5 5 5 5 5 5 5 5 5 5 5 5 5 3 5 5 5 5 5 3 5 5 5 5 5 5 5 5 5 5 5 5 5 5 5 5 5 5 5 5 5 5 5 5 5 5 5 5 5 5 5 5 5 5 5 5 5 5 5 5 5 5 5 5 3 5 5 5 5 5 5 5 5 5 5 5 5 5 5 5 5 5 5 5 5 5 5 5 5 5 5 5 3 5 5 5 5 5 3 5 5 5 3 3 5 5 5 5 5 5 5 5 5 5 5 5 5 3 5 5 5 5 5 3 5 3 5 3 5 3 3 5 5 5 5 5 5 5 5 5 5 3 5 3 5 5 5 5 5 5 5 5 5 5 5 3 5 5 5 5 5 5 5 5 3 5 5 5 5 5 5 5 5 5 5 5 5 3 5 5 5 5 5 5 5 5 5 5 5 5 5 5 5 5 5 5 5 5 5 5 5 5 5 5 3 5 5 5 3 5 5 3 5 3 5 5 5 3 5 5 5 5 5 5 5 5 5 5 5 5 5 5 5 5 5 5 5 5 5 5 5 5 5 5 3 5 5 5 5 5 5 5 3 5 5 3 5 5 5 5 5 5 5 5 5 5 5 3 5 5 5 5 5 3 5 5 5 5 5 5 5 3 3 5 5 5 5 3 5 5 5 5 5 5 3 5 5 5 5 5 5 5 5 5 3 3 5 5 5 5 5 3 5 5 5 3 5 3 5 3 5 5 5 5 5 3 5 5 5 5 5 5 5 5 5 5 5 5 3 5 5 5 5 5 5 5 5 5 5 5 5 5 5 5 5 5 5 5 5 5 3 5 5 5 5 5 3 5 5 5 3 5 5 5 5 5 5 5 5 5 5 5 5 5 5 5 5 5 5 5 5 5 5 5 5 5 5 5 5 5 5 5 5 3 5 5 5 5 5 5 5 5 5 5 5 5 5 3 5 5 5 3 5 5 5 5 3 5 5 5 5 5 5 5 5 5 5 5 5 5 5 5 5 5 5 5 5 5 5 5 5 5 5 5 5 5 5 5 5 5 5 5 5 3 5 5 5 3 5 5 5 3 5 5 5 3 5 5 3 3 5 5 5 5 5 5 3 5 3 5 5 3 5 5 5 5 5 5 5 3 5 5 5 5 5 5 5 5 5 3 5 5 3 5 5 5 5 5 5 5 5 5 5 5 5 5 5 5 5 5 5 3 5 5 5 5 5 5 5 5 3 5 5 5 5 5 5 5 5 5 5 5 5 5 5 5 5 5 5 5 5 5 5 3 5 5 5 5 5 5 3 5 5 5 5 5 5 3 5 5 5 5 5 5 5 5 5 5 5 5 5 5 5 5 5 5 5 5 5 5 5 5 5 5 5 5 5 5 5 5 5 3 3 5 5 3 3 5 3 5 3 5 3 5 5 5 5 5 5 5 5 5 5 3 5 5 5 5 3 5 5 3 3 5 5 3 5 5 5 5 5 5 5 5 5 5 5 5 5 5 5 3 5 5 5 5 3 5 5 5 5 5 3 5 5 5 5 5 3 5 5 5 5 5 3 5 3 3 5 5 5 5 5 5 5 5 5 5 5 3 5 3 5 5 5 5 3 5 5 5 3 3 5 3 5 5 5 3 5 5 5 5 5 5 5 5 5 5 5 5 5 5 5 5 5 5 5 5 5 5 5 5 5 5 5 5 5 3 5 3 5 5 3 5 5 3 5 5 3 5 5 3 3 5 5 5 3 5 3 5 5 5 3 5 5 5 3 5 5 5 5 5 5 3 5 5 5 5 5 5 5 5 5 5 5 5 5 5 5 5 5 5 5 3 5 5 5 3 5 5 3 5 5 5 5 5 5 5 5 5 3 5 3 5 5 5 5 5 5 5 5 5 5 5 3 5 5 5 5 5 5 3 5 5 5 5 5 5 5 5 5 5 3 3 5 5 5 5 5 5 5 5 5 5 5 3 3 5 5 3 5 5 3 5 5 5 5 5 5 5 5 5 5 5 5 3 5 5 5 5 5 5 5 5 5 5 5 5 5 5 5 5 5 5 5 5 5 5 5 5 5 5 5 5 5 5 5 5 3 5 5 5 5 3 5 3 5 5 5 5 5 5 5 5 5 3 5 5 5 3 5 5 5 3 5 5 5 3 5 5 5 5 5 5 5 5 5 5 5 5 5 5 5 5 5 3 3 5 5 5 5 3 5 3 3 5 5 5 5 5 5 5 3 5 5 3 5 5 5 5 5 5 5 5 5 5 3 5 5 5 3 5 5 5 5 5 5 5 5 5 5 5 5 5 3 5 5 5 5 5 5 5 5 5 5 3 3 5 5 5 5 5 5 5 3 5 5 5 5 5 3 5 5 5 5 5 5 5 5 5 5 5 5 5 5 5 5 5 3 5 5 5 5 5 5 5 5 5 5 5 5 5 5 5 5 5 5 5 5 5 5 5 5 5 5 5 5 5 5 5 5 5 5 5 5 5 5 5 5 5 5 5 5 5 5 5 5 3 5 5 5 5 3 5 5 5 3 5 5 3 5 5 5 5 5 5 5 5 3 5 5 5 5 5 5 3 5 5 5 5 5 5 5 5 5 5 5 5 5 5 3 5 3 5 5 5 3 5 5 3 5 5 5 3 5 3 5 5 3 3 5 5 5 3 5 5 3 5 5 5 5 5 5 5 5 5 5 5 5 5 5 3 3 5 5 5 3 5 5 5 5 5 5 5 5 5 5 5 5 5 5 5 5 5 5 5 3 5 5 5 5 5 5 5 5 5 5 5 5 5 5 5 5 5 5 5 5 5 5 5 5 5 5 5 5 3 5 5 5 5 5 5 5 5 5 3 5 5 5 3 5 5 3 5 3 5 5 3 5 5 3 3 5 3 5 5 5 3 5 5 5 5 5 5 5 5 5 5 5 5 5 5 5 5 5 5 5 5 5 5 3 5 5 5 5 3 5 5 5 5 3 5 5 5 5 5 3 5 5 5 5 5 5 5 5 5 5 3 5 5 5 5 5 3 5 5 5 5 5 3 5 5 5 5 5 5 5 5 3 5 5 5 5 5 5 5 3 3 5 5 5 5 5 5 5 5 5 5 5 5 5 5 5 5 5 5 5 5 5 5 5 5 5 3 3 5 5 3 5 5 3 3 5 3 5 5 5 5 5 5 5 5 5 5 3 5 5 5 5 3 5 3 5 5 5 5 3 5 5 5 3 5 5 5 5 5 3 5 3 5 3 5 5 5 3 5 5 5 5 5 3 5 5 5 5 5 3 5 3 5 5 5 5 5 5 3 5 5 3 5 5 5 5 5 5 5 5 5 5 5 5 5 5 5 3 5 5 5 5 5 5 5 5 5 5 5 5 5 5 5 5 5 5 5 5 5 5 5 5 5 5 5 5 3 5 5 5 5 5 3 5 5 5 5 3 5 5 5 5 5 3 5 5 5 5 5 5 5 5 5 5 5 5 5 5 5 5 5 5 5 5 5 5 5 5 5 5 5 5 3 5 5 
</DataArray>
</Cells>
<PointData Scalars="" Vectors="displacement," Tensors="">
<DataArray type="Float64" Name="displacement" NumberOfComponents="3" format="ascii">
-0.014999730310943201 -4.2837449223533241e-08 0 -0.014584931612702365 4.2201086635816113e-08 0 -0.015000103731692459 3.1216487278234598e-11 0 -0.014999790766854482 -1.9133920059261412e-10 0 -0.014584976989606216 2.6690285803297309e-10 0 -0.014999284048517528 -2.644617818511089e-07 0 -0.014870887005121458 -1.551500678009609e-05 0 -0.014584068300335127 -3.3834007965551792e-07 0 -0.014870887005121458 -1.551500678009609e-05 0 -0.014584068300335127 -3.3834007965551792e-07 0 -0.014458743109650337 4.6672878497709092e-07 0 -0.014870887005121458 -1.551500678009609e-05 0 -0.015000044554586414 3.692805201905375e-08 0 -0.014973940025901081 4.0570581260696984e-05 0 -0.014999284048517528 -2.644617818511089e-07 0 -0.014870887005121458 -1.551500678009609e-05 0 -0.015000044554586414 3.692805201905375e-08 0 -0.014870887005121458 -1.551500678009609e-05 0 -0.014903323277955677 0.00013024335477516293 0 -0.014973940025901081 4.0570581260696984e-05 0 -0.014903323277955677 0.00013024335477516293 0 -0.01495991678734856 8.4710611150519766e-05 0 -0.014973940025901081 4.0570581260696984e-05 0 -0.014870887005121458 -1.551500678009609e-05 0 -0.014903323277955677 0.00013024335477516293 0 -0.014458743109650337 4.6672878497709092e-07 0 -0.014269290237307396 9.6665335874440711e-06 0 -0.014457454325048641 2.755369205643577e-09 0 -0.01371493817432686 -1.1637260068118408e-05 0 -0.013616395607444296 -2.3770026644071294e-07 0 -0.013530004910559246 -1.6680596934029533e-05 0 -0.01371493817432686 -1.1637260068118408e-05 0 -0.014456475230269364 3.8607404035648886e-07 0 -0.013616395607444296 -2.3770026644071294e-07 0 -0.014269290237307396 9.6665335874440711e-06 0 -0.014516827371117811 9.8359450513888386e-05 0 -0.01371493817432686 -1.1637260068118408e-05 0 -0.013530004910559246 -1.6680596934029533e-05 0 -0.013684911482862718 -2.3628401839244074e-05 0 -0.013530004910559246 -1.6680596934029533e-05 0 -0.013651563943657054 0.00014321299277039916 0 -0.012943411292102793 0.0001485090542228566 0 -0.013530004910559246 -1.6680596934029533e-05 0 -0.013651563943657054 0.00014321299277039916 0 -0.013684911482862718 -2.3628401839244074e-05 0 -0.013616395607444296 -2.3770026644071294e-07 0 -0.012774515910877769 9.2747406723805413e-07 0 -0.012943411292102793 0.0001485090542228566 0 -0.013616395607444296 -2.3770026644071294e-07 0 -0.013530004910559246 -1.6680596934029533e-05 0 -0.012943411292102793 0.0001485090542228566 0 -0.013651563943657054 0.00014321299277039916 0 -0.013823709171690395 8.5409050266745703e-05 0 -0.013684911482862718 -2.3628401839244074e-05 0 -0.011394923467222373 0.00095253046667388426 0 -0.010658793781635098 0.0010433876490936885 0 -0.010914892203774869 0.00063159250365826933 0 -0.013000574950217071 0.00035129837720918196 0 -0.014516827371117811 9.8359450513888386e-05 0 -0.012353178312594706 0.00054947771733238591 0 -0.013000574950217071 0.00035129837720918196 0 -0.014960998320321562 6.6341874066546308e-05 0 -0.01495991678734856 8.4710611150519766e-05 0 -0.014971246925794615 5.9816375521433791e-05 0 -0.01495991678734856 8.4710611150519766e-05 0 -0.014971246925794615 5.9816375521433791e-05 0 -0.014981988540993444 3.8895920928655471e-05 0 -0.014960998320321562 6.6341874066546308e-05 0 -0.014971246925794615 5.9816375521433791e-05 0 -0.014977720097986071 4.7605414335147459e-05 0 -0.014971246925794615 5.9816375521433791e-05 0 -0.014981988540993444 3.8895920928655471e-05 0 -0.014977720097986071 4.7605414335147459e-05 0 -0.01495991678734856 8.4710611150519766e-05 0 -0.014981988540993444 3.8895920928655471e-05 0 -0.014973940025901081 4.0570581260696984e-05 0 -0.014981988540993444 3.8895920928655471e-05 0 -0.014973940025901081 4.0570581260696984e-05 0 -0.014999971869361079 1.0427213465720128e-08 0 -0.015000044554586414 3.692805201905375e-08 0 -0.014973940025901081 4.0570581260696984e-05 0 -0.014999971869361079 1.0427213465720128e-08 0 -0.014981988540993444 3.8895920928655471e-05 0 -0.014999971869361079 1.0427213465720128e-08 0 -0.014991376905529912 2.2659685528477044e-05 0 -0.014999971869361079 1.0427213465720128e-08 0 -0.014999995774320644 6.808506891467976e-09 0 -0.014991376905529912 2.2659685528477044e-05 0 -0.014999995774320644 6.808506891467976e-09 0 -0.014993982552332525 1.8551072267714649e-05 0 -0.014997087795432469 7.4063157940364038e-06 0 -0.014999995774320644 6.808506891467976e-09 0 -0.014993982552332525 1.8551072267714649e-05 0 -0.014991376905529912 2.2659685528477044e-05 0 -0.014993982552332525 1.8551072267714649e-05 0 -0.014991376905529912 2.2659685528477044e-05 0 -0.014988016964357387 3.3436415715558965e-05 0 -0.014993982552332525 1.8551072267714649e-05 0 -0.014992856440079539 2.7978065220806229e-05 0 -0.014988016964357387 3.3436415715558965e-05 0 -0.014993982552332525 1.8551072267714649e-05 0 -0.014992856440079539 2.7978065220806229e-05 0 -0.014995988572524804 2.029484020687969e-05 0 -0.014981988540993444 3.8895920928655471e-05 0 -0.014991376905529912 2.2659685528477044e-05 0 -0.014977720097986071 4.7605414335147459e-05 0 -0.014991376905529912 2.2659685528477044e-05 0 -0.014977720097986071 4.7605414335147459e-05 0 -0.014988016964357387 3.3436415715558965e-05 0 -0.014999995119522687 -9.1378796586238349e-10 0 -0.014983834834252998 -4.5843631634363194e-06 0 -0.014999928576579146 -9.1146247818064242e-09 0 -0.015000060763970799 9.8031498591868953e-09 0 -0.014980216524078336 -1.8782387903678309e-05 0 -0.01497851342368494 -1.1066481504429953e-05 0 -0.014999928576579146 -9.1146247818064242e-09 0 -0.014965782587574101 -8.0773251222313874e-06 0 -0.015000003540325773 2.6977091526412583e-08 0 -0.014995001361211633 -6.4710320586898783e-07 0 -0.014972272304063229 -6.619187154086166e-06 0 -0.01497851342368494 -1.1066481504429953e-05 0 -0.014999928576579146 -9.1146247818064242e-09 0 -0.014980216524078336 -1.8782387903678309e-05 0 -0.014999957307981116 -5.5816746396491909e-08 0 -0.01502386573880278 2.3287408491302029e-05 0 -0.01497851342368494 -1.1066481504429953e-05 0 -0.014980216524078336 -1.8782387903678309e-05 0 -0.01496950146610182 -1.5496493187858068e-05 0 -0.014995001361211633 -6.4710320586898783e-07 0 -0.014997087795432469 7.4063157940364038e-06 0 -0.015002641754054863 1.9205196490034929e-05 0 -0.014999995774320644 6.808506891467976e-09 0 -0.015000003540325773 2.6977091526412583e-08 0 -0.014997087795432469 7.4063157940364038e-06 0 -0.014992598926846994 -3.823196097637714e-06 0 -0.014982424290147373 2.05062523045897e-05 0 -0.015000003540325773 2.6977091526412583e-08 0 -0.014995001361211633 -6.4710320586898783e-07 0 -0.014997087795432469 7.4063157940364038e-06 0 -0.014993982552332525 1.8551072267714649e-05 0 -0.014997087795432469 7.4063157940364038e-06 0 -0.014995988572524804 2.029484020687969e-05 0 -0.014992856440079539 2.7978065220806229e-05 0 -0.014995988572524804 2.029484020687969e-05 0 -0.014995756420093292 2.8451769519262712e-05 0 -0.014995988572524804 2.029484020687969e-05 0 -0.015002641754054863 1.9205196490034929e-05 0 -0.014995756420093292 2.8451769519262712e-05 0 -0.014997087795432469 7.4063157940364038e-06 0 -0.014995988572524804 2.029484020687969e-05 0 -0.015002641754054863 1.9205196490034929e-05 0 -0.014995001361211633 -6.4710320586898783e-07 0 -0.014979898388989898 -1.5422706754243124e-05 0 -0.014972272304063229 -6.619187154086166e-06 0 -0.014979898388989898 -1.5422706754243124e-05 0 -0.014972272304063229 -6.619187154086166e-06 0 -0.014934381432783916 -4.9717030615228125e-05 0 -0.01502386573880278 2.3287408491302029e-05 0 -0.014400100005477881 -8.3584955985772225e-05 0 -0.014980216524078336 -1.8782387903678309e-05 0 -0.014965533768729805 -1.9806587885930227e-05 0 -0.014964658609541583 -2.6543514914512236e-05 0 -0.014980216524078336 -1.8782387903678309e-05 0 -0.01496950146610182 -1.5496493187858068e-05 0 -0.014965533768729805 -1.9806587885930227e-05 0 -0.014979898388989898 -1.5422706754243124e-05 0 -0.014963638250013981 -5.7090428101796475e-05 0 -0.014934381432783916 -4.9717030615228125e-05 0 -0.014982424290147373 2.05062523045897e-05 0 -0.014039818218182665 6.7640871260935451e-05 0 -0.013202337553427557 0.00013263138302247918 0 -0.01310039607268979 2.2118931613636279e-05 0 -0.013097495808717085 0.00015825800038516742 0 -0.014039818218182665 6.7640871260935451e-05 0 -0.014400100005477881 -8.3584955985772225e-05 0 -0.015002641754054863 1.9205196490034929e-05 0 -0.014998453437701557 3.2465541129547897e-05 0 -0.014995756420093292 2.8451769519262712e-05 0 -0.014998453437701557 3.2465541129547897e-05 0 -0.014995756420093292 2.8451769519262712e-05 0 -0.014990137926198299 3.6876905378897935e-05 0 -0.014039818218182665 6.7640871260935451e-05 0 -0.014290525881388925 6.6849405170916061e-05 0 -0.014992856440079539 2.7978065220806229e-05 0 -0.014995756420093292 2.8451769519262712e-05 0 -0.014990137926198299 3.6876905378897935e-05 0 -0.013457939672741668 0.00012268037839730685 0 -0.013076245036795829 -0.00012257923655456228 0 -0.013446756880177794 -0.00022818911090423987 0 -0.01314646304426405 0.00019666664359174299 0 -0.013457939672741668 0.00012268037839730685 0 -0.013076245036795829 -0.00012257923655456228 0 -0.013202337553427557 0.00013263138302247918 0 -0.01315744441548369 -3.4293355664915656e-05 0 -0.01310039607268979 2.2118931613636279e-05 0 -0.014039818218182665 6.7640871260935451e-05 0 -0.013103485789873524 -8.3314581128839584e-05 0 -0.01315744441548369 -3.4293355664915656e-05 0 -0.01310039607268979 2.2118931613636279e-05 0 -0.013073642843619714 -7.4527962137096936e-05 0 -0.014977720097986071 4.7605414335147459e-05 0 -0.014988016964357387 3.3436415715558965e-05 0 -0.014980024671423257 4.5573185690863265e-05 0 -0.01500393261783481 0.00025993667132926431 0 -0.014001770332145983 5.5668147268296471e-05 0 -0.014290525881388925 6.6849405170916061e-05 0 -0.014001770332145983 5.5668147268296471e-05 0 -0.014990137926198299 3.6876905378897935e-05 0 -0.014988016964357387 3.3436415715558965e-05 0 -0.014980024671423257 4.5573185690863265e-05 0 -0.014992856440079539 2.7978065220806229e-05 0 -0.014990137926198299 3.6876905378897935e-05 0 -0.014988016964357387 3.3436415715558965e-05 0 -0.014001770332145983 5.5668147268296471e-05 0 -0.012598079870812911 -4.8629347727244085e-05 0 -0.013457939672741668 0.00012268037839730685 0 -0.013773632196783613 4.8032470334045186e-05 0 -0.013446756880177794 -0.00022818911090423987 0 -0.012352738267759403 0.00052768742850381684 0 -0.012407026392859148 3.3811120113386189e-05 0 -0.011951332794518004 0.0001902056016303746 0 -0.012921707154332461 0.00039100459820208251 0 -0.012352738267759403 0.00052768742850381684 0 -0.012407026392859148 3.3811120113386189e-05 0 -0.014960998320321562 6.6341874066546308e-05 0 -0.014977720097986071 4.7605414335147459e-05 0 -0.014975327731974188 5.2141291204819686e-05 0 -0.013000574950217071 0.00035129837720918196 0 -0.014001770332145983 5.5668147268296471e-05 0 -0.013000574950217071 0.00035129837720918196 0 -0.011092448103154755 0.00032134881739819731 0 -0.012407026392859148 3.3811120113386189e-05 0 -0.011951332794518004 0.0001902056016303746 0 -0.011890251985354922 3.3412806768856729e-05 0 -0.012407026392859148 3.3811120113386189e-05 0 -0.011890251985354922 3.3412806768856729e-05 0 -0.011892684311953183 -0.00031951857793280331 0 -0.010017448065456382 0.00028241357068444709 0 -0.010185910221893276 0.0004008435440394461 0 -0.0098619600424467574 0.00036151160243190673 0 -0.010201834915972647 0.0006354756222825054 0 -0.010185910221893276 0.0004008435440394461 0 -0.0098619600424467574 0.00036151160243190673 0 -0.011092448103154755 0.00032134881739819731 0 -0.010836648092834749 0.00021558116789882639 0 -0.0097547316076902722 0.00055036452171731455 0 -0.010836648092834749 0.00021558116789882639 0 -0.010201834915972647 0.0006354756222825054 0 -0.010185910221893276 0.0004008435440394461 0 -0.010511243484730577 0.00046852339277527415 0 -0.010017448065456382 0.00028241357068444709 0 -0.010185910221893276 0.0004008435440394461 0 -0.010365592639505289 0.00024726568572783995 0 -0.010185910221893276 0.0004008435440394461 0 -0.010365592639505289 0.00024726568572783995 0 -0.010511243484730577 0.00046852339277527415 0 -0.01315744441548369 -3.4293355664915656e-05 0 -0.013114219242748752 -0.00019821039480334322 0 -0.013073642843619714 -7.4527962137096936e-05 0 -0.013076245036795829 -0.00012257923655456228 0 -0.013005974342204242 -0.00044342769981996297 0 -0.013153926685215441 -0.00030509108239638291 0 -0.013103485789873524 -8.3314581128839584e-05 0 -0.012704409638167704 -0.00027827531724628217 0 -0.012704409638167704 -0.00027827531724628217 0 -0.012061791689261938 -0.00013074985638047087 0 -0.013005974342204242 -0.00044342769981996297 0 -0.013153926685215441 -0.00030509108239638291 0 -0.013120394025727842 -0.00050278813501583391 0 -0.013076245036795829 -0.00012257923655456228 0 -0.013153926685215441 -0.00030509108239638291 0 -0.013446756880177794 -0.00022818911090423987 0 -0.013153926685215441 -0.00030509108239638291 0 -0.013446756880177794 -0.00022818911090423987 0 -0.013120394025727842 -0.00050278813501583391 0 -0.011951332794518004 0.0001902056016303746 0 -0.011890251985354922 3.3412806768856729e-05 0 -0.011565653529988208 -0.00014134942815939049 0 -0.012598079870812911 -4.8629347727244085e-05 0 -0.012061791689261938 -0.00013074985638047087 0 -0.011781069542757195 1.6921044091298276e-05 0 -0.011066422604336377 2.6401343555497114e-05 0 -0.011890251985354922 3.3412806768856729e-05 0 -0.011892684311953183 -0.00031951857793280331 0 -0.011774296390359132 -0.00025871432673871551 0 -0.0099253842107136347 0.00051539310808358598 0 -0.010391075853561966 0.00034460350401365456 0 -0.010633871846522853 0.00042942468435759991 0 -0.0097547316076902722 0.00055036452171731455 0 -0.0099811791601530243 0.00031909703128524177 0 -0.0099253842107136347 0.00051539310808358598 0 -0.010391075853561966 0.00034460350401365456 0 -0.010333955196232548 0.00030427572364823358 0 -0.010836648092834749 0.00021558116789882639 0 -0.011066422604336377 2.6401343555497114e-05 0 -0.010391075853561966 0.00034460350401365456 0 -0.010334307106270939 0.0003041136268123317 0 -0.010548751799800667 0.0001935847624574352 0 -0.010799675584478219 0.00020347678832473331 0 -0.010836648092834749 0.00021558116789882639 0 -0.010391075853561966 0.00034460350401365456 0 -0.010633871846522853 0.00042942468435759991 0 -0.010548751799800667 0.0001935847624574352 0 -0.0099811791601530243 0.00031909703128524177 0 -0.011066422604336377 2.6401343555497114e-05 0 -0.01092871483192024 0.00013212660230727346 0 -0.01086818635164467 -3.7797717423872897e-05 0 -0.01115613327191607 3.0574351596477648e-07 0 -0.011890251985354922 3.3412806768856729e-05 0 -0.011782659143070208 -0.00025262048833571014 0 -0.011565653529988208 -0.00014134942815939049 0 -0.011066422604336377 2.6401343555497114e-05 0 -0.012061791689261938 -0.00013074985638047087 0 -0.0096921129566497101 8.2751508919702032e-06 0 -0.010302716709699814 6.7421288019078684e-05 0 -0.010278794358110431 -6.1313099076273228e-05 0 -0.0099811791601530243 0.00031909703128524177 0 -0.011189750532229686 -6.3709924537051012e-05 0 -0.01092871483192024 0.00013212660230727346 0 -0.01115613327191607 3.0574351596477648e-07 0 -0.011415135781610431 7.4143770752764751e-05 0 -0.011163278758783346 -0.00018830141881405504 0 -0.01115613327191607 3.0574351596477648e-07 0 -0.011405103251004457 2.1391572097263195e-05 0 -0.01086818635164467 -3.7797717423872897e-05 0 -0.011163278758783346 -0.00018830141881405504 0 -0.01115613327191607 3.0574351596477648e-07 0 -0.01115613327191607 3.0574351596477648e-07 0 -0.011415135781610431 7.4143770752764751e-05 0 -0.011405103251004457 2.1391572097263195e-05 0 -0.010302716709699814 6.7421288019078684e-05 0 -0.010280549493542764 -6.1474434186185528e-05 0 -0.010334290157049272 -6.78859268849037e-05 0 -0.011062632697882173 -7.5482659213625114e-05 0 -0.011189750532229686 -6.3709924537051012e-05 0 -0.01135019791815893 -0.00015032323410164725 0 -0.011362234016297715 -0.00015183965399328902 0 -0.011347656483641137 -0.0001644484432777015 0 -0.011189750532229686 -6.3709924537051012e-05 0 -0.011501950249638144 -2.1596331815040432e-05 0 -0.011189750532229686 -6.3709924537051012e-05 0 -0.011205891494377342 -8.0388754277942043e-05 0 -0.011205891494377342 -8.0388754277942043e-05 0 -0.011501950249638144 -2.1596331815040432e-05 0 -0.012052121442366464 -2.6322950754291803e-05 0 -0.012138803613017337 -7.0925737353710753e-05 0 -0.012021227061742227 -0.00017060422336599349 0 -0.012704409638167704 -0.00027827531724628217 0 -0.011501950249638144 -2.1596331815040432e-05 0 -0.012061791689261938 -0.00013074985638047087 0 -0.011501950249638144 -2.1596331815040432e-05 0 -0.013069417453260863 -0.0001815981042255284 0 -0.013054412485202905 -0.00024601881811400875 0 -0.013031639924384213 -0.00019600906872880994 0 -0.0082344863100633457 0.00012556467124453163 0 -0.0082461652634232968 8.0685653710467692e-05 0 -0.0082414221209959476 0.00010873947366839024 0 -0.010302716709699814 6.7421288019078684e-05 0 -0.0099480454885590743 0.00073147597648809794 0 -0.010390445551921947 -1.8643554888859193e-05 0 -0.0099811791601530243 0.00031909703128524177 0 -0.0087302585288824442 0.00049888458643797175 0 -0.0096921129566497101 8.2751508919702032e-06 0 -0.010302716709699814 6.7421288019078684e-05 0 -0.0099480454885590743 0.00073147597648809794 0 -0.0087302585288824442 0.00049888458643797175 0 -0.010555126873770389 -0.00010538384640597596 0 -0.0085844792959924258 0.0010259712040351281 0 -0.008756131025973727 0.00073114822704886586 0 -0.0084105633958706707 0.00052932947877485791 0 -0.0090083063336789792 0.0009998043010817281 0 -0.0085844792959924258 0.0010259712040351281 0 -0.008756131025973727 0.00073114822704886586 0 -0.008756131025973727 0.00073114822704886586 0 -0.0087102417485524358 0.00044557121247227249 0 -0.008978866597014178 0.0004860125395799671 0 -0.0087102417485524358 0.00044557121247227249 0 -0.0088294545574852425 0.00026014272463881959 0 -0.008978866597014178 0.0004860125395799671 0 -0.0087102417485524358 0.00044557121247227249 0 -0.0088294545574852425 0.00026014272463881959 0 -0.0085838385392780145 0.00025374766609957374 0 -0.0087102417485524358 0.00044557121247227249 0 -0.0084105633958706707 0.00052932947877485791 0 -0.0085838385392780145 0.00025374766609957374 0 -0.008756131025973727 0.00073114822704886586 0 -0.0087102417485524358 0.00044557121247227249 0 -0.0084105633958706707 0.00052932947877485791 0 -0.0082344863100633457 0.00012556467124453163 0 -0.008237768412816036 0.00012572858289971477 0 -0.0082520903698941103 0.00011778827184608304 0 -0.0087302585288824442 0.00049888458643797175 0 -0.0082380384127109883 0.00010196146267510185 0 -0.0084014439315625699 0.00048563019941517098 0 -0.0083006648948845841 0.00020369863729547677 0 -0.0085092937088384335 0.00029471995845407433 0 -0.0087302585288824442 0.00049888458643797175 0 -0.0085448008898137209 0.00029896744173155116 0 -0.0082344863100633457 0.00012556467124453163 0 -0.0082414221209959476 0.00010873947366839024 0 -0.008237768412816036 0.00012572858289971477 0 -0.010343337378314001 0.00026542721953255825 0 -0.010365592639505289 0.00024726568572783995 0 -0.010364605913497983 0.0002556983328706488 0 -0.0095181596639843952 0.00079741687986877475 0 -0.0093813365063135576 0.00043917896391692932 0 -0.010263876881710024 0.00026063543213776882 0 -0.010365592639505289 0.00024726568572783995 0 -0.010364605913497983 0.0002556983328706488 0 -0.010263876881710024 0.00026063543213776882 0 -0.0097547316076902722 0.00055036452171731455 0 -0.01052432726173219 0.00019668979247012002 0 -0.0095181596639843952 0.00079741687986877475 0 -0.0091056377638237037 0.00069894773400741496 0 -0.0093813365063135576 0.00043917896391692932 0 -0.0090083063336789792 0.0009998043010817281 0 -0.0095181596639843952 0.00079741687986877475 0 -0.0091056377638237037 0.00069894773400741496 0 -0.0097547316076902722 0.00055036452171731455 0 -0.0099262323256068836 0.00051702868371545751 0 -0.0090083063336789792 0.0009998043010817281 0 -0.008756131025973727 0.00073114822704886586 0 -0.0091056377638237037 0.00069894773400741496 0 -0.008756131025973727 0.00073114822704886586 0 -0.0091056377638237037 0.00069894773400741496 0 -0.008978866597014178 0.0004860125395799671 0 -0.008978866597014178 0.0004860125395799671 0 -0.0091602538018969396 0.00023987490163733223 0 -0.0093813365063135576 0.00043917896391692932 0 -0.0091056377638237037 0.00069894773400741496 0 -0.008978866597014178 0.0004860125395799671 0 -0.0093813365063135576 0.00043917896391692932 0 -0.0088294545574852425 0.00026014272463881959 0 -0.008978866597014178 0.0004860125395799671 0 -0.0091602538018969396 0.00023987490163733223 0 -0.0093813365063135576 0.00043917896391692932 0 -0.010263876881710024 0.00026063543213776882 0 -0.009566257419459363 0.0001345632036844792 0 -0.0091602538018969396 0.00023987490163733223 0 -0.0093813365063135576 0.00043917896391692932 0 -0.009566257419459363 0.0001345632036844792 0 -0.010263876881710024 0.00026063543213776882 0 -0.0099370147702271868 1.7368339565255278e-05 0 -0.009566257419459363 0.0001345632036844792 0 -0.0099262323256068836 0.00051702868371545751 0 -0.010240117573590694 0.0003018514413776682 0 -0.010365592639505289 0.00024726568572783995 0 -0.010263876881710024 0.00026063543213776882 0 -0.010517681427533655 0.00024604351913625562 0 -0.010759139095178201 0.0001266138412025986 0 -0.011372114883212096 7.9836614961155606e-05 0 -0.010903884800265235 0.00027225012925668091 0 -0.010517681427533655 0.00024604351913625562 0 -0.010759139095178201 0.0001266138412025986 0 -0.010903884800265235 0.00027225012925668091 0 -0.010263876881710024 0.00026063543213776882 0 -0.010517681427533655 0.00024604351913625562 0 -0.010759139095178201 0.0001266138412025986 0 -0.010263876881710024 0.00026063543213776882 0 -0.010455000437273562 -1.8792379053132207e-05 0 -0.0099370147702271868 1.7368339565255278e-05 0 -0.010263876881710024 0.00026063543213776882 0 -0.010759139095178201 0.0001266138412025986 0 -0.010455000437273562 -1.8792379053132207e-05 0 -0.011136369468682961 9.6400315584501679e-06 0 -0.011092098862814816 -4.6193923519276905e-08 0 -0.010455000437273562 -1.8792379053132207e-05 0 -0.010759139095178201 0.0001266138412025986 0 -0.011136369468682961 9.6400315584501679e-06 0 -0.010455000437273562 -1.8792379053132207e-05 0 -0.011136369468682961 9.6400315584501679e-06 0 -0.011933219851734286 -1.5715105100820738e-07 0 -0.011092098862814816 -4.6193923519276905e-08 0 -0.011136369468682961 9.6400315584501679e-06 0 -0.011933219851734286 -1.5715105100820738e-07 0 -0.011372114883212096 7.9836614961155606e-05 0 -0.011933219851734286 -1.5715105100820738e-07 0 -0.011372114883212096 7.9836614961155606e-05 0 -0.011981166848986419 7.274593005187492e-05 0 -0.010759139095178201 0.0001266138412025986 0 -0.011136369468682961 9.6400315584501679e-06 0 -0.011372114883212096 7.9836614961155606e-05 0 -0.011372114883212096 7.9836614961155606e-05 0 -0.011475252768123546 0.00023743025728275286 0 -0.011981166848986419 7.274593005187492e-05 0 -0.011372114883212096 7.9836614961155606e-05 0 -0.011475252768123546 0.00023743025728275286 0 -0.010903884800265235 0.00027225012925668091 0 -0.011475252768123546 0.00023743025728275286 0 -0.011981166848986419 7.274593005187492e-05 0 -0.012204580168318312 0.00018041479864496122 0 -0.011933219851734286 -1.5715105100820738e-07 0 -0.011981166848986419 7.274593005187492e-05 0 -0.012774515910877769 9.2747406723805413e-07 0 -0.011394923467222373 0.00095253046667388426 0 -0.012204580168318312 0.00018041479864496122 0 -0.012943411292102793 0.0001485090542228566 0 -0.012774515910877769 9.2747406723805413e-07 0 -0.012204580168318312 0.00018041479864496122 0 -0.012943411292102793 0.0001485090542228566 0 -0.011981166848986419 7.274593005187492e-05 0 -0.012774515910877769 9.2747406723805413e-07 0 -0.012204580168318312 0.00018041479864496122 0 -0.011394923467222373 0.00095253046667388426 0 -0.011475252768123546 0.00023743025728275286 0 -0.012204580168318312 0.00018041479864496122 0 -0.012353178312594706 0.00054947771733238591 0 -0.012977327557247237 0.00020872257244693425 0 -0.011394923467222373 0.00095253046667388426 0 -0.011475252768123546 0.00023743025728275286 0 -0.010914892203774869 0.00063159250365826933 0 -0.010658793781635098 0.0010433876490936885 0 -0.010914892203774869 0.00063159250365826933 0 -0.010511243484730577 0.00046852339277527415 0 -0.010658793781635098 0.0010433876490936885 0 -0.010201834915972647 0.0006354756222825054 0 -0.010511243484730577 0.00046852339277527415 0 -0.010365592639505289 0.00024726568572783995 0 -0.010517681427533655 0.00024604351913625562 0 -0.010511243484730577 0.00046852339277527415 0 -0.010517681427533655 0.00024604351913625562 0 -0.010511243484730577 0.00046852339277527415 0 -0.010903884800265235 0.00027225012925668091 0 -0.010914892203774869 0.00063159250365826933 0 -0.010511243484730577 0.00046852339277527415 0 -0.010903884800265235 0.00027225012925668091 0 -0.011475252768123546 0.00023743025728275286 0 -0.010914892203774869 0.00063159250365826933 0 -0.010903884800265235 0.00027225012925668091 0 -0.014930436649643391 -2.7745795667522221e-05 0 -0.014924739398842988 -4.751785179092034e-06 0 -0.014876918099746252 -6.1409623536830588e-05 0 -0.014930436649643391 -2.7745795667522221e-05 0 -0.014942427420164901 -5.4555782732010421e-05 0 -0.014907343380826809 -7.102500327365357e-05 0 -0.014930436649643391 -2.7745795667522221e-05 0 -0.014966962750546993 -5.5203400298562374e-06 0 -0.014956256009267822 -2.109339863430946e-05 0 -0.014924739398842988 -4.751785179092034e-06 0 -0.014966962750546993 -5.5203400298562374e-06 0 -0.014967948723864847 -7.3482614933882464e-06 0 -0.014930436649643391 -2.7745795667522221e-05 0 -0.014924739398842988 -4.751785179092034e-06 0 -0.014966962750546993 -5.5203400298562374e-06 0 -0.014966962750546993 -5.5203400298562374e-06 0 -0.014999965351800823 -1.3471024791340238e-08 0 -0.014967948723864847 -7.3482614933882464e-06 0 -0.014999958575440854 4.502712835651171e-09 0 -0.014966962750546993 -5.5203400298562374e-06 0 -0.014999965351800823 -1.3471024791340238e-08 0 -0.014999958575440854 4.502712835651171e-09 0 -0.014966962750546993 -5.5203400298562374e-06 0 -0.014980069336632316 -7.6668899971130529e-06 0 -0.014966962750546993 -5.5203400298562374e-06 0 -0.014980069336632316 -7.6668899971130529e-06 0 -0.014956256009267822 -2.109339863430946e-05 0 -0.014999958575440854 4.502712835651171e-09 0 -0.014999977962713807 -8.7654547438691338e-09 0 -0.014980069336632316 -7.6668899971130529e-06 0 -0.014999977962713807 -8.7654547438691338e-09 0 -0.014987293401499744 -8.2418555137104952e-06 0 -0.014980069336632316 -7.6668899971130529e-06 0 -0.014987293401499744 -8.2418555137104952e-06 0 -0.014980069336632316 -7.6668899971130529e-06 0 -0.014980124384471091 -1.6055001831925319e-05 0 -0.014980069336632316 -7.6668899971130529e-06 0 -0.014967372990879276 -3.0676354297249879e-05 0 -0.014980124384471091 -1.6055001831925319e-05 0 -0.014980069336632316 -7.6668899971130529e-06 0 -0.014956256009267822 -2.109339863430946e-05 0 -0.014967372990879276 -3.0676354297249879e-05 0 -0.014930436649643391 -2.7745795667522221e-05 0 -0.014956256009267822 -2.109339863430946e-05 0 -0.014942427420164901 -5.4555782732010421e-05 0 -0.014956256009267822 -2.109339863430946e-05 0 -0.014967372990879276 -3.0676354297249879e-05 0 -0.014942427420164901 -5.4555782732010421e-05 0 -0.014967372990879276 -3.0676354297249879e-05 0 -0.014989026481288529 -4.8701001675360514e-05 0 -0.014961959408451252 -6.182827546552877e-05 0 -0.014967372990879276 -3.0676354297249879e-05 0 -0.014961959408451252 -6.182827546552877e-05 0 -0.014942427420164901 -5.4555782732010421e-05 0 -0.014967372990879276 -3.0676354297249879e-05 0 -0.014989026481288529 -4.8701001675360514e-05 0 -0.014980124384471091 -1.6055001831925319e-05 0 -0.015018251914008357 2.8252505152971163e-05 0 -0.014972398558960506 -4.2513660777113647e-05 0 -0.014958985216958667 -1.4770014869048746e-05 0 -0.014956830601233652 -1.5378517590152251e-05 0 -0.014949488373289164 -1.6246736619788566e-05 0 -0.014958985216958667 -1.4770014869048746e-05 0 -0.014956830601233652 -1.5378517590152251e-05 0 -0.014966905197890294 -1.4827064288119797e-05 0 -0.014966905197890294 -1.4827064288119797e-05 0 -0.014980124384471091 -1.6055001831925319e-05 0 -0.01497046267382419 -1.4447210825708376e-05 0 -0.014956830601233652 -1.5378517590152251e-05 0 -0.014966905197890294 -1.4827064288119797e-05 0 -0.014959200980866599 -1.6872306220444049e-05 0 -0.014966905197890294 -1.4827064288119797e-05 0 -0.01497046267382419 -1.4447210825708376e-05 0 -0.014959200980866599 -1.6872306220444049e-05 0 -0.014958985216958667 -1.4770014869048746e-05 0 -0.014966905197890294 -1.4827064288119797e-05 0 -0.014980124384471091 -1.6055001831925319e-05 0 -0.014980124384471091 -1.6055001831925319e-05 0 -0.014988707041201272 -1.077527625767114e-05 0 -0.01497046267382419 -1.4447210825708376e-05 0 -0.014987293401499744 -8.2418555137104952e-06 0 -0.014980124384471091 -1.6055001831925319e-05 0 -0.014988707041201272 -1.077527625767114e-05 0 -0.014999977962713807 -8.7654547438691338e-09 0 -0.014988707041201272 -1.077527625767114e-05 0 -0.014999985783408087 -5.2218879955301354e-09 0 -0.014999977962713807 -8.7654547438691338e-09 0 -0.014987293401499744 -8.2418555137104952e-06 0 -0.014988707041201272 -1.077527625767114e-05 0 -0.014988707041201272 -1.077527625767114e-05 0 -0.014970814284767561 -1.4664115578111113e-05 0 -0.014963378024138453 -1.9816645696992234e-05 0 -0.014988707041201272 -1.077527625767114e-05 0 -0.014999985783408087 -5.2218879955301354e-09 0 -0.015001275855309719 -1.8306322790215239e-06 0 -0.014987393113592691 -1.0852105249469707e-05 0 -0.014982540342589466 -1.0116221015622529e-05 0 -0.014988707041201272 -1.077527625767114e-05 0 -0.014970814284767561 -1.4664115578111113e-05 0 -0.01497046267382419 -1.4447210825708376e-05 0 -0.014970814284767561 -1.4664115578111113e-05 0 -0.01497046267382419 -1.4447210825708376e-05 0 -0.014962879484807224 -1.6922449292883007e-05 0 -0.014970814284767561 -1.4664115578111113e-05 0 -0.014962879484807224 -1.6922449292883007e-05 0 -0.014963378024138453 -1.9816645696992234e-05 0 -0.014962879484807224 -1.6922449292883007e-05 0 -0.014963378024138453 -1.9816645696992234e-05 0 -0.01496257980330758 -1.75309016209029e-05 0 -0.014962879484807224 -1.6922449292883007e-05 0 -0.01496257980330758 -1.75309016209029e-05 0 -0.014957884067472031 -2.0992854479040375e-05 0 -0.014982540342589466 -1.0116221015622529e-05 0 -0.014983834834252998 -4.5843631634363194e-06 0 -0.014999985783408087 -5.2218879955301354e-09 0 -0.015001275855309719 -1.8306322790215239e-06 0 -0.015000007219094462 -5.7802986467053069e-10 0 -0.014963378024138453 -1.9816645696992234e-05 0 -0.014965782587574101 -8.0773251222313874e-06 0 -0.01496257980330758 -1.75309016209029e-05 0 -0.014999996082566887 3.9170104384016411e-10 0 -0.015000007219094462 -5.7802986467053069e-10 0 -0.014999932435328147 8.4931782790183364e-08 0 -0.015001275855309719 -1.8306322790215239e-06 0 -0.015000007219094462 -5.7802986467053069e-10 0 -0.014999932435328147 8.4931782790183364e-08 0 -0.01497851342368494 -1.1066481504429953e-05 0 -0.014965782587574101 -8.0773251222313874e-06 0 -0.01496950146610182 -1.5496493187858068e-05 0 -0.014965782587574101 -8.0773251222313874e-06 0 -0.01496950146610182 -1.5496493187858068e-05 0 -0.01496257980330758 -1.75309016209029e-05 0 -0.01496257980330758 -1.75309016209029e-05 0 -0.014965533768729805 -1.9806587885930227e-05 0 -0.014957884067472031 -2.0992854479040375e-05 0 -0.01496950146610182 -1.5496493187858068e-05 0 -0.01496257980330758 -1.75309016209029e-05 0 -0.014965533768729805 -1.9806587885930227e-05 0 -0.014950946661791781 -2.0808068513589053e-05 0 -0.014957884067472031 -2.0992854479040375e-05 0 -0.01494815330710355 -1.5899259217894692e-05 0 -0.014965533768729805 -1.9806587885930227e-05 0 -0.014964658609541583 -2.6543514914512236e-05 0 -0.014957884067472031 -2.0992854479040375e-05 0 -0.014400100005477881 -8.3584955985772225e-05 0 -0.015012776678600449 -0.00010206739327524872 0 -0.014957884067472031 -2.0992854479040375e-05 0 -0.014959200980866599 -1.6872306220444049e-05 0 -0.01494815330710355 -1.5899259217894692e-05 0 -0.014962879484807224 -1.6922449292883007e-05 0 -0.014957884067472031 -2.0992854479040375e-05 0 -0.014959200980866599 -1.6872306220444049e-05 0 -0.01497046267382419 -1.4447210825708376e-05 0 -0.014962879484807224 -1.6922449292883007e-05 0 -0.014959200980866599 -1.6872306220444049e-05 0 -0.014956830601233652 -1.5378517590152251e-05 0 -0.014959200980866599 -1.6872306220444049e-05 0 -0.01494815330710355 -1.5899259217894692e-05 0 -0.014956830601233652 -1.5378517590152251e-05 0 -0.01494815330710355 -1.5899259217894692e-05 0 -0.014949488373289164 -1.6246736619788566e-05 0 -0.014400100005477881 -8.3584955985772225e-05 0 -0.014027149078183554 4.0491475162134861e-05 0 -0.01310039607268979 2.2118931613636279e-05 0 -0.013097495808717085 0.00015825800038516742 0 -0.01297369094211131 -6.9030492505724335e-05 0 -0.01310039607268979 2.2118931613636279e-05 0 -0.01297369094211131 -6.9030492505724335e-05 0 -0.013073642843619714 -7.4527962137096936e-05 0 -0.013069417453260863 -0.0001815981042255284 0 -0.013025610220416494 -0.00015112595248515406 0 -0.013031639924384213 -0.00019600906872880994 0 -0.012704409638167704 -0.00027827531724628217 0 -0.01303216513542234 -0.00026067481342118915 0 -0.012972857805116783 -0.00014558909464688002 0 -0.013025610220416494 -0.00015112595248515406 0 -0.013031639924384213 -0.00019600906872880994 0 -0.01297369094211131 -6.9030492505724335e-05 0 -0.013073642843619714 -7.4527962137096936e-05 0 -0.013025610220416494 -0.00015112595248515406 0 -0.013114219242748752 -0.00019821039480334322 0 -0.013073642843619714 -7.4527962137096936e-05 0 -0.013025610220416494 -0.00015112595248515406 0 -0.01297369094211131 -6.9030492505724335e-05 0 -0.012972857805116783 -0.00014558909464688002 0 -0.013025610220416494 -0.00015112595248515406 0 -0.01494815330710355 -1.5899259217894692e-05 0 -0.014937128558366103 -1.7811534775882742e-05 0 -0.014949488373289164 -1.6246736619788566e-05 0 -0.014027149078183554 4.0491475162134861e-05 0 -0.013163953017461915 -0.00033668793702327398 0 -0.01297369094211131 -6.9030492505724335e-05 0 -0.012972857805116783 -0.00014558909464688002 0 -0.01288022622051431 -0.00025545731367588876 0 -0.012972857805116783 -0.00014558909464688002 0 -0.01288022622051431 -0.00025545731367588876 0 -0.013029238365198823 -0.00026996331497234927 0 -0.013163953017461915 -0.00033668793702327398 0 -0.011577338484951892 -0.00036237356596478495 0 -0.012972857805116783 -0.00014558909464688002 0 -0.013031639924384213 -0.00019600906872880994 0 -0.013027104480598897 -0.00025570879309663681 0 -0.013198146171036415 -0.0003008324031582743 0 -0.011577338484951892 -0.00036237356596478495 0 -0.012115414467900718 -0.00080692463114576964 0 -0.011410697412467745 -0.00072215277907636949 0 -0.011876804929568881 -0.00024206720547886632 0 -0.013054412485202905 -0.00024601881811400875 0 -0.013031639924384213 -0.00019600906872880994 0 -0.013027104480598897 -0.00025570879309663681 0 -0.013042127163371463 -0.00025678291939691629 0 -0.013054412485202905 -0.00024601881811400875 0 -0.013027104480598897 -0.00025570879309663681 0 -0.011577338484951892 -0.00036237356596478495 0 -0.010555126873770389 -0.00010538384640597596 0 -0.011205891494377342 -8.0388754277942043e-05 0 -0.011577338484951892 -0.00036237356596478495 0 -0.010944424653274418 3.6779538626388216e-05 0 -0.010622003792382952 7.3641109927678731e-05 0 -0.01074265726490632 -0.00013776582105722721 0 -0.011205891494377342 -8.0388754277942043e-05 0 -0.010555126873770389 -0.00010538384640597596 0 -0.010302716709699814 6.7421288019078684e-05 0 -0.010334290157049272 -6.78859268849037e-05 0 -0.010390445551921947 -1.8643554888859193e-05 0 -0.0082461652634232968 8.0685653710467692e-05 0 -0.0082414221209959476 0.00010873947366839024 0 -0.0082963872320481503 8.7803300445239338e-05 0 -0.011410697412467745 -0.00072215277907636949 0 -0.011378422811826348 -0.00066697760887991504 0 -0.011876804929568881 -0.00024206720547886632 0 -0.010555126873770389 -0.00010538384640597596 0 -0.01005426893162052 -9.2557851757769298e-05 0 -0.0082422788853394411 0.00011914004992397714 0 -0.0082414221209959476 0.00010873947366839024 0 -0.0082963872320481503 8.7803300445239338e-05 0 -0.0082422788853394411 0.00011914004992397714 0 -0.0082414221209959476 0.00010873947366839024 0 -0.008237768412816036 0.00012572858289971477 0 -0.008237768412816036 0.00012572858289971477 0 -0.0082323016437632433 0.00013422072033060706 0 -0.0082520903698941103 0.00011778827184608304 0 -0.0082422788853394411 0.00011914004992397714 0 -0.008237768412816036 0.00012572858289971477 0 -0.0082323016437632433 0.00013422072033060706 0 -0.0082422788853394411 0.00011914004992397714 0 -0.0082323016437632433 0.00013422072033060706 0 -0.0082351129041404857 0.00015250438552692034 0 -0.0082351129041404857 0.00015250438552692034 0 -0.0083656501553726077 0.00010649469106352887 0 -0.0083342521275479083 0.0003249179776397139 0 -0.01005426893162052 -9.2557851757769298e-05 0 -0.009948690779335273 2.5772480208705665e-05 0 -0.0082422788853394411 0.00011914004992397714 0 -0.0082351129041404857 0.00015250438552692034 0 -0.0083656501553726077 0.00010649469106352887 0 -0.0082422788853394411 0.00011914004992397714 0 -0.0082963872320481503 8.7803300445239338e-05 0 -0.0084928137566095858 0.0002279372560130841 0 -0.0076996367720605936 3.3737379619377829e-05 0 -0.009948690779335273 2.5772480208705665e-05 0 -0.012115414467900718 -0.00080692463114576964 0 -0.011876804929568881 -0.00024206720547886632 0 -0.012414620431518837 -0.00022283882144226864 0 -0.013163953017461915 -0.00033668793702327398 0 -0.012166246885188671 -0.0005199937477649776 0 -0.011876804929568881 -0.00024206720547886632 0 -0.012414620431518837 -0.00022283882144226864 0 -0.012372304424554796 0.00016898095415466202 0 -0.012635577607806123 -0.00052148100256577026 0 -0.012414620431518837 -0.00022283882144226864 0 -0.012963052184512838 -0.00024304016310418446 0 -0.012414620431518837 -0.00022283882144226864 0 -0.012681589242211209 9.4264300981097566e-06 0 -0.012963052184512838 -0.00024304016310418446 0 -0.01216262153908337 -0.00075601305030928076 0 -0.012635577607806123 -0.00052148100256577026 0 -0.012414620431518837 -0.00022283882144226864 0 -0.010671952786138307 -0.00049713731551165221 0 -0.011255196928387348 -2.4923500663869522e-05 0 -0.011359403603585538 -0.00023408625781948421 0 -0.009948690779335273 2.5772480208705665e-05 0 -0.0128475518945618 8.2720412812207887e-05 0 -0.012414620431518837 -0.00022283882144226864 0 -0.012681589242211209 9.4264300981097566e-06 0 -0.012372304424554796 0.00016898095415466202 0 -0.012681589242211209 9.4264300981097566e-06 0 -0.012372304424554796 0.00016898095415466202 0 -0.012917391239927533 0.00038528410872350151 0 -0.009948690779335273 2.5772480208705665e-05 0 -0.0099455205644630364 0.00014376801212875716 0 -0.014000375484930222 -0.00021888762173115492 0 -0.0128475518945618 8.2720412812207887e-05 0 -0.014928356200470172 -0.00017503332471130456 0 -0.014948376748558444 -0.00014612975263713984 0 -0.01491839395362334 -0.00016593235215178824 0 -0.012681589242211209 9.4264300981097566e-06 0 -0.012963052184512838 -0.00024304016310418446 0 -0.012917391239927533 0.00038528410872350151 0 -0.014928356200470172 -0.00017503332471130456 0 -0.014948376748558444 -0.00014612975263713984 0 -0.014936621882118391 -0.00018523173763591611 0 -0.014000375484930222 -0.00021888762173115492 0 -0.014405133470512766 -0.00036678138126836573 0 -0.014948376748558444 -0.00014612975263713984 0 -0.014952322636070608 -0.00011328359841548994 0 -0.014938766785384947 -0.00012909898480623777 0 -0.012635577607806123 -0.00052148100256577026 0 -0.012963052184512838 -0.00024304016310418446 0 -0.013007667055896862 -0.00085689056813873041 0 -0.014937128558366103 -1.7811534775882742e-05 0 -0.014946624473106114 -1.6897430940512534e-05 0 -0.014949488373289164 -1.6246736619788566e-05 0 -0.013163953017461915 -0.00033668793702327398 0 -0.014405133470512766 -0.00036678138126836573 0 -0.01216262153908337 -0.00075601305030928076 0 -0.012635577607806123 -0.00052148100256577026 0 -0.013007667055896862 -0.00085689056813873041 0 -0.014989026481288529 -4.8701001675360514e-05 0 -0.014990527759527573 -0.00010403746648217425 0 -0.014961959408451252 -6.182827546552877e-05 0 -0.015018251914008357 2.8252505152971163e-05 0 -0.014405133470512766 -0.00036678138126836573 0 -0.014958985216958667 -1.4770014869048746e-05 0 -0.014946624473106114 -1.6897430940512534e-05 0 -0.014949488373289164 -1.6246736619788566e-05 0 -0.014961959408451252 -6.182827546552877e-05 0 -0.014942427420164901 -5.4555782732010421e-05 0 -0.014944592717333735 -0.00010028684114018002 0 -0.014990527759527573 -0.00010403746648217425 0 -0.014961959408451252 -6.182827546552877e-05 0 -0.014944592717333735 -0.00010028684114018002 0 -0.014942427420164901 -5.4555782732010421e-05 0 -0.014916581536959727 -9.9069553487214892e-05 0 -0.014907343380826809 -7.102500327365357e-05 0 -0.014942427420164901 -5.4555782732010421e-05 0 -0.014916581536959727 -9.9069553487214892e-05 0 -0.014944592717333735 -0.00010028684114018002 0 -0.014916581536959727 -9.9069553487214892e-05 0 -0.014917334645624582 -0.00013228817843676904 0 -0.014884819987512501 -0.00013403184309006006 0 -0.014916581536959727 -9.9069553487214892e-05 0 -0.014944592717333735 -0.00010028684114018002 0 -0.014917334645624582 -0.00013228817843676904 0 -0.014944592717333735 -0.00010028684114018002 0 -0.014938766785384947 -0.00012909898480623777 0 -0.014917334645624582 -0.00013228817843676904 0 -0.014952322636070608 -0.00011328359841548994 0 -0.014944592717333735 -0.00010028684114018002 0 -0.014938766785384947 -0.00012909898480623777 0 -0.014405133470512766 -0.00036678138126836573 0 -0.015133683104632374 -0.00010995077987516265 0 -0.014948376748558444 -0.00014612975263713984 0 -0.014938766785384947 -0.00012909898480623777 0 -0.01491839395362334 -0.00016593235215178824 0 -0.014938766785384947 -0.00012909898480623777 0 -0.01491839395362334 -0.00016593235215178824 0 -0.014917334645624582 -0.00013228817843676904 0 -0.014928356200470172 -0.00017503332471130456 0 -0.01491839395362334 -0.00016593235215178824 0 -0.014909590646724865 -0.00020367204202562041 0 -0.01491839395362334 -0.00016593235215178824 0 -0.014888578830535869 -0.00016922776773595869 0 -0.014890217850845537 -0.000198234321132002 0 -0.014888578830535869 -0.00016922776773595869 0 -0.014864935503081904 -0.00020165069926673506 0 -0.014890217850845537 -0.000198234321132002 0 -0.014888578830535869 -0.00016922776773595869 0 -0.014917334645624582 -0.00013228817843676904 0 -0.014884819987512501 -0.00013403184309006006 0 -0.01491839395362334 -0.00016593235215178824 0 -0.014888578830535869 -0.00016922776773595869 0 -0.014917334645624582 -0.00013228817843676904 0 -0.014888578830535869 -0.00016922776773595869 0 -0.014884819987512501 -0.00013403184309006006 0 -0.014847107392375077 -0.00017693379819192751 0 -0.014888578830535869 -0.00016922776773595869 0 -0.014847107392375077 -0.00017693379819192751 0 -0.014864935503081904 -0.00020165069926673506 0 -0.014847107392375077 -0.00017693379819192751 0 -0.014816359238275349 -0.00023007107035748212 0 -0.014784695790579366 -0.00018132561622625755 0 -0.014847107392375077 -0.00017693379819192751 0 -0.014839904854276359 -0.00013882417897853055 0 -0.014784695790579366 -0.00018132561622625755 0 -0.014884819987512501 -0.00013403184309006006 0 -0.014847107392375077 -0.00017693379819192751 0 -0.014839904854276359 -0.00013882417897853055 0 -0.014839904854276359 -0.00013882417897853055 0 -0.01484385253189599 -0.00010334179199406125 0 -0.01487751974475076 -0.00010262492279379328 0 -0.014884819987512501 -0.00013403184309006006 0 -0.014839904854276359 -0.00013882417897853055 0 -0.01487751974475076 -0.00010262492279379328 0 -0.014916581536959727 -9.9069553487214892e-05 0 -0.01487751974475076 -0.00010262492279379328 0 -0.014907343380826809 -7.102500327365357e-05 0 -0.014916581536959727 -9.9069553487214892e-05 0 -0.014884819987512501 -0.00013403184309006006 0 -0.01487751974475076 -0.00010262492279379328 0 -0.014930436649643391 -2.7745795667522221e-05 0 -0.014907343380826809 -7.102500327365357e-05 0 -0.014876918099746252 -6.1409623536830588e-05 0 -0.01487751974475076 -0.00010262492279379328 0 -0.014907343380826809 -7.102500327365357e-05 0 -0.014876918099746252 -6.1409623536830588e-05 0 -0.01484385253189599 -0.00010334179199406125 0 -0.01487751974475076 -0.00010262492279379328 0 -0.014876918099746252 -6.1409623536830588e-05 0 -0.011340623664527578 -0.00034609392037444702 0 -0.011109007583154522 -0.00035733209656786002 0 -0.011278727740657784 -0.00051844799138666645 0 -0.011340623664527578 -0.00034609392037444702 0 -0.011278727740657784 -0.00051844799138666645 0 -0.011520290304539252 -0.00044157950800148939 0 -0.011340623664527578 -0.00034609392037444702 0 -0.011109007583154522 -0.00035733209656786002 0 -0.011331193534370147 -0.00016878834745682781 0 -0.0094708793248694974 -0.00019894786947544039 0 -0.0096644074688482535 -4.6201249405370678e-05 0 -0.0078799174713114102 -4.6952958098187278e-06 0 -0.0079342243206704452 -1.8297590244973917e-05 0 -0.0078864918782698776 -4.4237373193061025e-05 0 -0.0094708793248694974 -0.00019894786947544039 0 -0.0094565066015143192 -0.00024329048221515725 0 -0.011052026763530176 -0.00060241653980065647 0 -0.011278727740657784 -0.00051844799138666645 0 -0.011187796215873132 -0.00070013478368985654 0 -0.011109007583154522 -0.00035733209656786002 0 -0.011052026763530176 -0.00060241653980065647 0 -0.011278727740657784 -0.00051844799138666645 0 -0.011109007583154522 -0.00035733209656786002 0 -0.011052026763530176 -0.00060241653980065647 0 -0.010882622354037365 -0.00054858622553182856 0 -0.011278727740657784 -0.00051844799138666645 0 -0.011187796215873132 -0.00070013478368985654 0 -0.011435453478947304 -0.00066194568498230183 0 -0.011307891779043669 -0.00090278100709417937 0 -0.011187796215873132 -0.00070013478368985654 0 -0.011435453478947304 -0.00066194568498230183 0 -0.014847107392375077 -0.00017693379819192751 0 -0.014816359238275349 -0.00023007107035748212 0 -0.014864935503081904 -0.00020165069926673506 0 -0.014816359238275349 -0.00023007107035748212 0 -0.014864935503081904 -0.00020165069926673506 0 -0.014867463070433575 -0.00022544956490058325 0 -0.013058526332987217 -0.00060175923329945549 0 -0.012957434652909414 -0.00027984355001139976 0 -0.011052026763530176 -0.00060241653980065647 0 -0.011187796215873132 -0.00070013478368985654 0 -0.010958842311348088 -0.00084325998283384974 0 -0.011307891779043669 -0.00090278100709417937 0 -0.011187796215873132 -0.00070013478368985654 0 -0.010958842311348088 -0.00084325998283384974 0 -0.010895297685535899 -0.0006546550138217303 0 -0.010590170602286553 -0.00078105536754523948 0 -0.010880506003421539 -0.00053829722373605711 0 -0.011052026763530176 -0.00060241653980065647 0 -0.010895297685535899 -0.0006546550138217303 0 -0.010958842311348088 -0.00084325998283384974 0 -0.010895297685535899 -0.0006546550138217303 0 -0.010931872911079908 -0.00083907763706462808 0 -0.010590170602286553 -0.00078105536754523948 0 -0.010895297685535899 -0.0006546550138217303 0 -0.010931872911079908 -0.00083907763706462808 0 -0.010958842311348088 -0.00084325998283384974 0 -0.012975099221111109 -0.00016422192692756561 0 -0.012957434652909414 -0.00027984355001139976 0 -0.014871112174195648 -0.00022579614709349597 0 -0.014873415205653988 -0.00021265176456031391 0 -0.014890217850845537 -0.000198234321132002 0 -0.014871112174195648 -0.00022579614709349597 0 -0.014890217850845537 -0.000198234321132002 0 -0.014909590646724865 -0.00020367204202562041 0 -0.012975099221111109 -0.00016422192692756561 0 -0.013634423083720929 -3.9904072304327276e-05 0 -0.014864935503081904 -0.00020165069926673506 0 -0.014867463070433575 -0.00022544956490058325 0 -0.014873415205653988 -0.00021265176456031391 0 -0.014871112174195648 -0.00022579614709349597 0 -0.014867463070433575 -0.00022544956490058325 0 -0.014873415205653988 -0.00021265176456031391 0 -0.014864935503081904 -0.00020165069926673506 0 -0.014873415205653988 -0.00021265176456031391 0 -0.014890217850845537 -0.000198234321132002 0 -0.012661672927173885 0.0002945685145147221 0 -0.012008614796285226 2.8649416851736207e-05 0 -0.011797192535778234 0.00043167474599383181 0 -0.01491839395362334 -0.00016593235215178824 0 -0.014890217850845537 -0.000198234321132002 0 -0.014909590646724865 -0.00020367204202562041 0 -0.012008614796285226 2.8649416851736207e-05 0 -0.011797192535778234 0.00043167474599383181 0 -0.011553847189476151 2.9883422732912662e-05 0 -0.012975099221111109 -0.00016422192692756561 0 -0.0099850084767606762 3.0550589281327914e-05 0 -0.0099850084767606762 3.0550589281327914e-05 0 -0.0094565066015143192 -0.00024329048221515725 0 -0.0088104594024915554 5.74697414380247e-05 0 -0.0087865300047947278 -9.1018501610628981e-06 0 -0.0088316168783750017 -2.1458518261979173e-06 0 -0.0088104594024915554 5.74697414380247e-05 0 -0.0087865300047947278 -9.1018501610628981e-06 0 -0.0087450926061018019 6.0574419096809019e-06 0 -0.0087865300047947278 -9.1018501610628981e-06 0 -0.0087450926061018019 6.0574419096809019e-06 0 -0.008740616553017274 -5.2394478656112698e-05 0 -0.011052026763530176 -0.00060241653980065647 0 -0.010895297685535899 -0.0006546550138217303 0 -0.010882622354037365 -0.00054858622553182856 0 -0.010182180260713073 -0.00067724016911784545 0 -0.0094565066015143192 -0.00024329048221515725 0 -0.0094565066015143192 -0.00024329048221515725 0 -0.0082906048969891948 3.0080383477828868e-05 0 -0.0078799174713114102 -4.6952958098187278e-06 0 -0.0079449379443531608 4.1274528973763885e-05 0 -0.0079342243206704452 -1.8297590244973917e-05 0 -0.0087865300047947278 -9.1018501610628981e-06 0 -0.008740616553017274 -5.2394478656112698e-05 0 -0.0087895934427663722 -5.8050343542514906e-05 0 -0.0087865300047947278 -9.1018501610628981e-06 0 -0.0087895934427663722 -5.8050343542514906e-05 0 -0.0088316168783750017 -2.1458518261979173e-06 0 -0.00788274994811081 -5.6804315769408471e-05 0 -0.0079655577534341482 -5.0140821550949935e-05 0 -0.0079374048515138112 -1.6780599778647553e-05 0 -0.0083604653049273413 -4.2623383124209145e-05 0 -0.0083949757113288854 -2.6455015463772644e-05 0 -0.00788274994811081 -5.6804315769408471e-05 0 -0.0079655577534341482 -5.0140821550949935e-05 0 -0.0079214206155347102 -8.1794872202628084e-05 0 -0.0080163460647796666 5.9281255876272976e-07 0 -0.0079374048515138112 -1.6780599778647553e-05 0 -0.0080187402789691394 4.7976595515696796e-05 0 -0.0079655577534341482 -5.0140821550949935e-05 0 -0.0080163460647796666 5.9281255876272976e-07 0 -0.0081003543411530612 -1.6177285676135276e-05 0 -0.0079655577534341482 -5.0140821550949935e-05 0 -0.0080163460647796666 5.9281255876272976e-07 0 -0.0079374048515138112 -1.6780599778647553e-05 0 -0.0083949757113288854 -2.6455015463772644e-05 0 -0.0082643205222797996 0.00018662476174868619 0 -0.0088104594024915554 5.74697414380247e-05 0 -0.0088316168783750017 -2.1458518261979173e-06 0 -0.0088659849873902151 4.7004471060253242e-05 0 -0.0099850084767606762 3.0550589281327914e-05 0 -0.0082643205222797996 0.00018662476174868619 0 -0.0088927910307698647 0.00047914860717155532 0 -0.0086293695879704271 0.00027060427368605535 0 -0.0084919510110061797 0.00053583377197986848 0 -0.013634423083720929 -3.9904072304327276e-05 0 -0.0128475518945618 8.2720412812207887e-05 0 -0.0099850084767606762 3.0550589281327914e-05 0 -0.0099455205644630364 0.00014376801212875716 0 -0.014928356200470172 -0.00017503332471130456 0 -0.014909590646724865 -0.00020367204202562041 0 -0.014936621882118391 -0.00018523173763591611 0 -0.012008614796285226 2.8649416851736207e-05 0 -0.011553847189476151 2.9883422732912662e-05 0 -0.01136071149800834 -0.00022862936407637378 0 -0.011797192535778234 0.00043167474599383181 0 -0.011553847189476151 2.9883422732912662e-05 0 -0.011255196928387348 -2.4923500663869522e-05 0 -0.011553847189476151 2.9883422732912662e-05 0 -0.011346187299398612 -5.6764536631156586e-05 0 -0.011255196928387348 -2.4923500663869522e-05 0 -0.011346187299398612 -5.6764536631156586e-05 0 -0.011255196928387348 -2.4923500663869522e-05 0 -0.011359403603585538 -0.00023408625781948421 0 -0.011553847189476151 2.9883422732912662e-05 0 -0.011346187299398612 -5.6764536631156586e-05 0 -0.01136071149800834 -0.00022862936407637378 0 -0.012534700381382373 1.9639693832697357e-06 0 -0.0128475518945618 8.2720412812207887e-05 0 -0.0086293695879704271 0.00027060427368605535 0 -0.0084919510110061797 0.00053583377197986848 0 -0.0083342521275479083 0.0003249179776397139 0 -0.0083656501553726077 0.00010649469106352887 0 -0.0086293695879704271 0.00027060427368605535 0 -0.0083342521275479083 0.0003249179776397139 0 -0.0082643205222797996 0.00018662476174868619 0 -0.0082327893386001955 0.00022193909021066139 0 -0.0080173179124549722 4.9045997119746792e-05 0 -0.0080304793330409682 4.6266855228494448e-05 0 -0.0081080339738028376 0.0001078997147738332 0 -0.0082643205222797996 0.00018662476174868619 0 -0.0082309585024849703 0.00018442383267905471 0 -0.0080163460647796666 5.9281255876272976e-07 0 -0.0080187402789691394 4.7976595515696796e-05 0 -0.0080304793330409682 4.6266855228494448e-05 0 -0.0080163460647796666 5.9281255876272976e-07 0 -0.0080304793330409682 4.6266855228494448e-05 0 -0.0080643060857737408 1.8703919376165615e-05 0 -0.0080304793330409682 4.6266855228494448e-05 0 -0.0080643060857737408 1.8703919376165615e-05 0 -0.0081114771952802128 4.666854724965602e-05 0 -0.0081114771952802128 4.666854724965602e-05 0 -0.0081992186336823196 9.7132053632607989e-05 0 -0.0081621307206476389 1.5690231781049869e-05 0 -0.0080643060857737408 1.8703919376165615e-05 0 -0.0081114771952802128 4.666854724965602e-05 0 -0.0081003543411530612 -1.6177285676135276e-05 0 -0.0081114771952802128 4.666854724965602e-05 0 -0.0081621307206476389 1.5690231781049869e-05 0 -0.0081003543411530612 -1.6177285676135276e-05 0 -0.0080304793330409682 4.6266855228494448e-05 0 -0.0081114771952802128 4.666854724965602e-05 0 -0.0081080339738028376 0.0001078997147738332 0 -0.0082351129041404857 0.00015250438552692034 0 -0.0081080339738028376 0.0001078997147738332 0 -0.0081992186336823196 9.7132053632607989e-05 0 -0.0081114771952802128 4.666854724965602e-05 0 -0.0081080339738028376 0.0001078997147738332 0 -0.0081992186336823196 9.7132053632607989e-05 0 -0.0082193300684279304 0.00016029437053426937 0 -0.0082327893386001955 0.00022193909021066139 0 -0.0081992186336823196 9.7132053632607989e-05 0 -0.0082260674211550467 1.7460013017488565e-05 0 -0.0082520903698941103 0.00011778827184608304 0 -0.0082323016437632433 0.00013422072033060706 0 -0.0081992186336823196 9.7132053632607989e-05 0 -0.0082520903698941103 0.00011778827184608304 0 -0.0082323016437632433 0.00013422072033060706 0 -0.0082351129041404857 0.00015250438552692034 0 -0.0081992186336823196 9.7132053632607989e-05 0 -0.0081992186336823196 9.7132053632607989e-05 0 -0.0082260674211550467 1.7460013017488565e-05 0 -0.0081621307206476389 1.5690231781049869e-05 0 -0.0082260674211550467 1.7460013017488565e-05 0 -0.0081621307206476389 1.5690231781049869e-05 0 -0.0081715251869693695 -5.2071582554687002e-05 0 -0.0081621307206476389 1.5690231781049869e-05 0 -0.0081715251869693695 -5.2071582554687002e-05 0 -0.0081003543411530612 -1.6177285676135276e-05 0 -0.0080163460647796666 5.9281255876272976e-07 0 -0.0080643060857737408 1.8703919376165615e-05 0 -0.0081003543411530612 -1.6177285676135276e-05 0 -0.0081715251869693695 -5.2071582554687002e-05 0 -0.0081003543411530612 -1.6177285676135276e-05 0 -0.0080705308661897547 -7.7331900219493739e-05 0 -0.0080911237073235196 -1.4370699065116591e-05 0 -0.008030692458820151 -7.33681826842807e-05 0 -0.0079655577534341482 -5.0140821550949935e-05 0 -0.0081003543411530612 -1.6177285676135276e-05 0 -0.0079883527863907865 -7.6032263750934226e-05 0 -0.0081715251869693695 -5.2071582554687002e-05 0 -0.0081259609497407962 -7.6306444612500406e-05 0 -0.0080705308661897547 -7.7331900219493739e-05 0 -0.0081259609497407962 -7.6306444612500406e-05 0 -0.0080705308661897547 -7.7331900219493739e-05 0 -0.008057576176624618 -8.5565318541274221e-05 0 -0.008030692458820151 -7.33681826842807e-05 0 -0.0079509429468235422 -9.725676014119873e-05 0 -0.0080705308661897547 -7.7331900219493739e-05 0 -0.008057576176624618 -8.5565318541274221e-05 0 -0.007989358262248775 -8.6544679590795155e-05 0 -0.008057576176624618 -8.5565318541274221e-05 0 -0.0079648050815863125 -0.00011774667568542296 0 -0.007989358262248775 -8.6544679590795155e-05 0 -0.0079648050815863125 -0.00011774667568542296 0 -0.007989358262248775 -8.6544679590795155e-05 0 -0.0078741074348960098 -0.00011213307959907873 0 -0.0079171750746276567 -0.00010287193180118326 0 -0.0078755253421196672 -0.00010675281726953683 0 -0.0078730435777450512 -0.00010009656811427577 0 -0.0079171750746276567 -0.00010287193180118326 0 -0.0078755253421196672 -0.00010675281726953683 0 -0.0078741074348960098 -0.00011213307959907873 0 -0.0079509429468235422 -9.725676014119873e-05 0 -0.0078854842468951344 -0.00011547055592154506 0 -0.0078755253421196672 -0.00010675281726953683 0 -0.0078741074348960098 -0.00011213307959907873 0 -0.0078327231948402305 -0.000114563954333843 0 -0.0078755253421196672 -0.00010675281726953683 0 -0.0078327231948402305 -0.000114563954333843 0 -0.0078730435777450512 -0.00010009656811427577 0 -0.0078730435777450512 -0.00010009656811427577 0 -0.0079214206155347102 -8.1794872202628084e-05 0 -0.0078804696724133778 -8.2196168861826252e-05 0 -0.0079171750746276567 -0.00010287193180118326 0 -0.0078730435777450512 -0.00010009656811427577 0 -0.0079214206155347102 -8.1794872202628084e-05 0 -0.0079655577534341482 -5.0140821550949935e-05 0 -0.0079883527863907865 -7.6032263750934226e-05 0 -0.0079214206155347102 -8.1794872202628084e-05 0 -0.0079883527863907865 -7.6032263750934226e-05 0 -0.0079171750746276567 -0.00010287193180118326 0 -0.0079214206155347102 -8.1794872202628084e-05 0 -0.00788274994811081 -5.6804315769408471e-05 0 -0.0079214206155347102 -8.1794872202628084e-05 0 -0.0078804696724133778 -8.2196168861826252e-05 0 -0.0083604653049273413 -4.2623383124209145e-05 0 -0.0081072678005328046 -0.00011888241294453713 0 -0.00788274994811081 -5.6804315769408471e-05 0 -0.0078804696724133778 -8.2196168861826252e-05 0 -0.007849293450907598 -8.3348717404861092e-05 0 -0.0079342243206704452 -1.8297590244973917e-05 0 -0.0079234465557638072 -7.532878369486239e-05 0 -0.0078864918782698776 -4.4237373193061025e-05 0 -0.0082906048969891948 3.0080383477828868e-05 0 -0.0081072678005328046 -0.00011888241294453713 0 -0.008740616553017274 -5.2394478656112698e-05 0 -0.0087895934427663722 -5.8050343542514906e-05 0 -0.0087387445182024511 -0.00011681557294518114 0 -0.0081072678005328046 -0.00011888241294453713 0 -0.0077753381843246308 -0.000134449056204637 0 -0.0081072678005328046 -0.00011888241294453713 0 -0.0077554820208992946 -0.0001071794075138419 0 -0.0078730435777450512 -0.00010009656811427577 0 -0.0078804696724133778 -8.2196168861826252e-05 0 -0.007849293450907598 -8.3348717404861092e-05 0 -0.0078730435777450512 -0.00010009656811427577 0 -0.007849293450907598 -8.3348717404861092e-05 0 -0.0078257741162817297 -0.00011434999689407253 0 -0.0078327231948402305 -0.000114563954333843 0 -0.0078730435777450512 -0.00010009656811427577 0 -0.0078257741162817297 -0.00011434999689407253 0 -0.0078327231948402305 -0.000114563954333843 0 -0.0078119829510462637 -0.00011638578514747498 0 -0.0078257741162817297 -0.00011434999689407253 0 -0.0078119829510462637 -0.00011638578514747498 0 -0.0078063734848500483 -0.0001187194439901412 0 -0.0078257741162817297 -0.00011434999689407253 0 -0.0078063734848500483 -0.0001187194439901412 0 -0.0078257741162817297 -0.00011434999689407253 0 -0.0078191222715930132 -0.00012209006122975748 0 -0.0078312958757311823 -0.00013494446591184555 0 -0.0078257741162817297 -0.00011434999689407253 0 -0.0078405431352274024 -0.00012029980857443369 0 -0.0078257741162817297 -0.00011434999689407253 0 -0.0078405431352274024 -0.00012029980857443369 0 -0.0078191222715930132 -0.00012209006122975748 0 -0.0078405431352274024 -0.00012029980857443369 0 -0.0078191222715930132 -0.00012209006122975748 0 -0.0078151117173972662 -0.00012970264349849214 0 -0.0078191222715930132 -0.00012209006122975748 0 -0.0078151117173972662 -0.00012970264349849214 0 -0.0077979884999452714 -0.00012408226750867078 0 -0.0078063734848500483 -0.0001187194439901412 0 -0.0078191222715930132 -0.00012209006122975748 0 -0.0077979884999452714 -0.00012408226750867078 0 -0.0078010270620434714 -0.0001317697942393993 0 -0.0078151117173972662 -0.00012970264349849214 0 -0.0077979884999452714 -0.00012408226750867078 0 -0.0078010270620434714 -0.0001317697942393993 0 -0.0078151117173972662 -0.00012970264349849214 0 -0.0078002291563208466 -0.0001453536771353186 0 -0.0078151117173972662 -0.00012970264349849214 0 -0.0078138895906103827 -0.00012239896069088705 0 -0.0078002291563208466 -0.0001453536771353186 0 -0.0078151117173972662 -0.00012970264349849214 0 -0.0078138895906103827 -0.00012239896069088705 0 -0.0078297975651055729 -0.00010502518841962913 0 -0.0078405431352274024 -0.00012029980857443369 0 -0.0078151117173972662 -0.00012970264349849214 0 -0.0078297975651055729 -0.00010502518841962913 0 -0.0078297975651055729 -0.00010502518841962913 0 -0.0078606600158675159 -8.1170725143333818e-05 0 -0.0078293899682421106 -5.1880432620196873e-05 0 -0.0078138895906103827 -0.00012239896069088705 0 -0.0078297975651055729 -0.00010502518841962913 0 -0.0078109483719733599 -0.00010354374217325986 0 -0.0078297975651055729 -0.00010502518841962913 0 -0.0078293899682421106 -5.1880432620196873e-05 0 -0.0078109483719733599 -0.00010354374217325986 0 -0.0078405431352274024 -0.00012029980857443369 0 -0.0078297975651055729 -0.00010502518841962913 0 -0.0078606600158675159 -8.1170725143333818e-05 0 -0.0079234465557638072 -7.532878369486239e-05 0 -0.0078405431352274024 -0.00012029980857443369 0 -0.0078606600158675159 -8.1170725143333818e-05 0 -0.0078606600158675159 -8.1170725143333818e-05 0 -0.0078864918782698776 -4.4237373193061025e-05 0 -0.0078293899682421106 -5.1880432620196873e-05 0 -0.0078799174713114102 -4.6952958098187278e-06 0 -0.0078864918782698776 -4.4237373193061025e-05 0 -0.0078293899682421106 -5.1880432620196873e-05 0 -0.0079234465557638072 -7.532878369486239e-05 0 -0.0078606600158675159 -8.1170725143333818e-05 0 -0.0078864918782698776 -4.4237373193061025e-05 0 -0.0094220174121120194 -0.00021082122070049817 0 -0.010068081242274757 -0.00010494889215288076 0 -0.0097157014195377329 -0.00013504335025273312 0 -0.0094220174121120194 -0.00021082122070049817 0 -0.0097157014195377329 -0.00013504335025273312 0 -0.0092114393965920614 -0.00023661989179605742 0 -0.0094220174121120194 -0.00021082122070049817 0 -0.0089836723786968099 -0.00027606613588114048 0 -0.0092114393965920614 -0.00023661989179605742 0 -0.0094220174121120194 -0.00021082122070049817 0 -0.0089836723786968099 -0.00027606613588114048 0 -0.0090963655835266354 -0.00022326973617142716 0 -0.0094220174121120194 -0.00021082122070049817 0 -0.0094953051371380499 -0.00014996245802645431 0 -0.0090963655835266354 -0.00022326973617142716 0 -0.0094953051371380499 -0.00014996245802645431 0 -0.0094096971617400448 -2.1516059621244049e-07 0 -0.0089264976648423984 -0.00015135253768346014 0 -0.0094953051371380499 -0.00014996245802645431 0 -0.0094096971617400448 -2.1516059621244049e-07 0 -0.01025090776633265 -1.9220748091266862e-07 0 -0.0094220174121120194 -0.00021082122070049817 0 -0.0094953051371380499 -0.00014996245802645431 0 -0.010068081242274757 -0.00010494889215288076 0 -0.0094953051371380499 -0.00014996245802645431 0 -0.01025090776633265 -1.9220748091266862e-07 0 -0.010068081242274757 -0.00010494889215288076 0 -0.01025090776633265 -1.9220748091266862e-07 0 -0.010068081242274757 -0.00010494889215288076 0 -0.011092098862814816 -4.6193923519276905e-08 0 -0.010068081242274757 -0.00010494889215288076 0 -0.011092098862814816 -4.6193923519276905e-08 0 -0.010455000437273562 -1.8792379053132207e-05 0 -0.010455000437273562 -1.8792379053132207e-05 0 -0.0097157014195377329 -0.00013504335025273312 0 -0.0099370147702271868 1.7368339565255278e-05 0 -0.010068081242274757 -0.00010494889215288076 0 -0.010455000437273562 -1.8792379053132207e-05 0 -0.0097157014195377329 -0.00013504335025273312 0 -0.0097157014195377329 -0.00013504335025273312 0 -0.0099370147702271868 1.7368339565255278e-05 0 -0.0093629022861346101 -8.4734968551529566e-05 0 -0.0097157014195377329 -0.00013504335025273312 0 -0.0093629022861346101 -8.4734968551529566e-05 0 -0.0092114393965920614 -0.00023661989179605742 0 -0.0092700894332827573 8.1657398228876451e-05 0 -0.0089887353563264591 7.1531655543356296e-05 0 -0.0093629022861346101 -8.4734968551529566e-05 0 -0.009566257419459363 0.0001345632036844792 0 -0.0092700894332827573 8.1657398228876451e-05 0 -0.0093629022861346101 -8.4734968551529566e-05 0 -0.0099370147702271868 1.7368339565255278e-05 0 -0.009566257419459363 0.0001345632036844792 0 -0.0093629022861346101 -8.4734968551529566e-05 0 -0.0091602538018969396 0.00023987490163733223 0 -0.009566257419459363 0.0001345632036844792 0 -0.0092700894332827573 8.1657398228876451e-05 0 -0.0091602538018969396 0.00023987490163733223 0 -0.0092700894332827573 8.1657398228876451e-05 0 -0.0089887353563264591 7.1531655543356296e-05 0 -0.0088294545574852425 0.00026014272463881959 0 -0.0091602538018969396 0.00023987490163733223 0 -0.0089887353563264591 7.1531655543356296e-05 0 -0.0088294545574852425 0.00026014272463881959 0 -0.0089887353563264591 7.1531655543356296e-05 0 -0.0086588413854542644 6.8311004492231298e-05 0 -0.0089887353563264591 7.1531655543356296e-05 0 -0.0093629022861346101 -8.4734968551529566e-05 0 -0.0089698770913083509 -0.00025787356115506728 0 -0.0089887353563264591 7.1531655543356296e-05 0 -0.0085572131660506447 -8.8531449891932976e-05 0 -0.0085796405087350657 -0.00016579720028690923 0 -0.0089582017184984229 7.7632697710435411e-05 0 -0.0087796004360327935 -0.00019410147156216604 0 -0.0082396342295555768 5.1926823273590051e-05 0 -0.0082380384127109883 0.00010196146267510185 0 -0.0082260674211550467 1.7460013017488565e-05 0 -0.0083006648948845841 0.00020369863729547677 0 -0.0084182762341712333 7.4148782535683871e-05 0 -0.0083006648948845841 0.00020369863729547677 0 -0.0085092937088384335 0.00029471995845407433 0 -0.0084182762341712333 7.4148782535683871e-05 0 -0.0085092937088384335 0.00029471995845407433 0 -0.0086588413854542644 6.8311004492231298e-05 0 -0.0084182762341712333 7.4148782535683871e-05 0 -0.0085448008898137209 0.00029896744173155116 0 -0.0086505919733172749 8.8596784560160914e-05 0 -0.0088294545574852425 0.00026014272463881959 0 -0.0085838385392780145 0.00025374766609957374 0 -0.0086588413854542644 6.8311004492231298e-05 0 -0.0089887353563264591 7.1531655543356296e-05 0 -0.0086588413854542644 6.8311004492231298e-05 0 -0.0085572131660506447 -8.8531449891932976e-05 0 -0.0085572131660506447 -8.8531449891932976e-05 0 -0.0084182762341712333 7.4148782535683871e-05 0 -0.0083614083393363462 -3.8594476938337514e-05 0 -0.0086588413854542644 6.8311004492231298e-05 0 -0.0085572131660506447 -8.8531449891932976e-05 0 -0.0084182762341712333 7.4148782535683871e-05 0 -0.0082260674211550467 1.7460013017488565e-05 0 -0.0084182762341712333 7.4148782535683871e-05 0 -0.0083614083393363462 -3.8594476938337514e-05 0 -0.0083465215142877226 -3.7180200652213174e-05 0 -0.0082926743739810942 -0.00013795070828872153 0 -0.0082260674211550467 1.7460013017488565e-05 0 -0.0081715251869693695 -5.2071582554687002e-05 0 -0.0083614083393363462 -3.8594476938337514e-05 0 -0.0081715251869693695 -5.2071582554687002e-05 0 -0.0083614083393363462 -3.8594476938337514e-05 0 -0.0081981163363014694 -7.1856039078230639e-05 0 -0.0085572131660506447 -8.8531449891932976e-05 0 -0.0083839047546867447 -0.00022493631221287506 0 -0.0085796405087350657 -0.00016579720028690923 0 -0.0085572131660506447 -8.8531449891932976e-05 0 -0.0083614083393363462 -3.8594476938337514e-05 0 -0.0083839047546867447 -0.00022493631221287506 0 -0.0083839047546867447 -0.00022493631221287506 0 -0.0085796405087350657 -0.00016579720028690923 0 -0.0083600003141501063 -0.00021755843207947034 0 -0.0081715251869693695 -5.2071582554687002e-05 0 -0.0081259609497407962 -7.6306444612500406e-05 0 -0.0081981163363014694 -7.1856039078230639e-05 0 -0.0093629022861346101 -8.4734968551529566e-05 0 -0.0092114393965920614 -0.00023661989179605742 0 -0.0089698770913083509 -0.00025787356115506728 0 -0.0092114393965920614 -0.00023661989179605742 0 -0.0089698770913083509 -0.00025787356115506728 0 -0.0089244798539109774 -0.00028954469920453089 0 -0.0089698770913083509 -0.00025787356115506728 0 -0.0089244798539109774 -0.00028954469920453089 0 -0.0087702905636146862 -0.00029686678032928568 0 -0.0087796004360327935 -0.00019410147156216604 0 -0.0085619082216807155 -0.00026015292947136103 0 -0.0089836723786968099 -0.00027606613588114048 0 -0.0092114393965920614 -0.00023661989179605742 0 -0.0089244798539109774 -0.00028954469920453089 0 -0.0089836723786968099 -0.00027606613588114048 0 -0.0089244798539109774 -0.00028954469920453089 0 -0.0086220243522808059 -0.00028194544576980846 0 -0.0089244798539109774 -0.00028954469920453089 0 -0.0087702905636146862 -0.00029686678032928568 0 -0.0086220243522808059 -0.00028194544576980846 0 -0.0085619082216807155 -0.00026015292947136103 0 -0.0083259751981607441 -0.00020337852728092581 0 -0.0087702905636146862 -0.00029686678032928568 0 -0.0086220243522808059 -0.00028194544576980846 0 -0.008460838444428671 -0.00026125747511421455 0 -0.0082926743739810942 -0.00013795070828872153 0 -0.0082107375735572651 -0.00013556387769190654 0 -0.0081259609497407962 -7.6306444612500406e-05 0 -0.0081981163363014694 -7.1856039078230639e-05 0 -0.008125960946512762 -7.8619080979125072e-05 0 -0.0081259609497407962 -7.6306444612500406e-05 0 -0.008057576176624618 -8.5565318541274221e-05 0 -0.008125960946512762 -7.8619080979125072e-05 0 -0.0083839047546867447 -0.00022493631221287506 0 -0.0083600003141501063 -0.00021755843207947034 0 -0.0083037876315201885 -0.00017960184424867262 0 -0.0083037876315201885 -0.00017960184424867262 0 -0.0081162419033452768 -0.00011421630010401093 0 -0.0081952204652854452 -0.00012540896585286045 0 -0.0083600003141501063 -0.00021755843207947034 0 -0.0083037876315201885 -0.00017960184424867262 0 -0.0081952204652854452 -0.00012540896585286045 0 -0.0082107375735572651 -0.00013556387769190654 0 -0.0081360745023383533 -0.00012361468094778235 0 -0.008057576176624618 -8.5565318541274221e-05 0 -0.008125960946512762 -7.8619080979125072e-05 0 -0.0081162419033452768 -0.00011421630010401093 0 -0.008057576176624618 -8.5565318541274221e-05 0 -0.0079648050815863125 -0.00011774667568542296 0 -0.0081162419033452768 -0.00011421630010401093 0 -0.0081162419033452768 -0.00011421630010401093 0 -0.0081220429101968895 -0.00016615094610470947 0 -0.0081952204652854452 -0.00012540896585286045 0 -0.0081162419033452768 -0.00011421630010401093 0 -0.0081220429101968895 -0.00016615094610470947 0 -0.0080103438004748336 -0.00013720089330757922 0 -0.0079648050815863125 -0.00011774667568542296 0 -0.0081162419033452768 -0.00011421630010401093 0 -0.0080103438004748336 -0.00013720089330757922 0 -0.0086220243522808059 -0.00028194544576980846 0 -0.008276127099408696 -0.00022143780950800856 0 -0.0082436045880605862 -0.00022889816473212687 0 -0.0086220243522808059 -0.00028194544576980846 0 -0.008460838444428671 -0.00026125747511421455 0 -0.008276127099408696 -0.00022143780950800856 0 -0.0081220429101968895 -0.00016615094610470947 0 -0.008460838444428671 -0.00026125747511421455 0 -0.008276127099408696 -0.00022143780950800856 0 -0.0081534762237987449 -0.00018174854646068984 0 -0.0083259751981607441 -0.00020337852728092581 0 -0.0081220429101968895 -0.00016615094610470947 0 -0.008276127099408696 -0.00022143780950800856 0 -0.0080741764651823568 -0.00019857271228833532 0 -0.008276127099408696 -0.00022143780950800856 0 -0.0082436045880605862 -0.00022889816473212687 0 -0.0080741764651823568 -0.00019857271228833532 0 -0.0082436045880605862 -0.00022889816473212687 0 -0.0079508989714652083 -0.00020047468476707065 0 -0.0080741764651823568 -0.00019857271228833532 0 -0.0082436045880605862 -0.00022889816473212687 0 -0.0083314294404867803 -0.0002296138855065978 0 -0.0079508989714652083 -0.00020047468476707065 0 -0.0080617086667439299 -0.00018791537902003249 0 -0.0076320515181478553 -0.00011491456808597715 0 -0.0079508989714652083 -0.00020047468476707065 0 -0.0080617086667439299 -0.00018791537902003249 0 -0.0083314294404867803 -0.0002296138855065978 0 -0.0079508989714652083 -0.00020047468476707065 0 -0.0080617086667439299 -0.00018791537902003249 0 -0.0083314294404867803 -0.0002296138855065978 0 -0.0083862669588199313 -0.00014113851635667645 0 -0.0083314294404867803 -0.0002296138855065978 0 -0.0086642656050538083 -0.00024393189883852907 0 -0.0083862669588199313 -0.00014113851635667645 0 -0.0086220243522808059 -0.00028194544576980846 0 -0.0082436045880605862 -0.00022889816473212687 0 -0.0083314294404867803 -0.0002296138855065978 0 -0.0086220243522808059 -0.00028194544576980846 0 -0.0083314294404867803 -0.0002296138855065978 0 -0.0086642656050538083 -0.00024393189883852907 0 -0.0086642656050538083 -0.00024393189883852907 0 -0.0090963655835266354 -0.00022326973617142716 0 -0.0089264976648423984 -0.00015135253768346014 0 -0.0089836723786968099 -0.00027606613588114048 0 -0.0086642656050538083 -0.00024393189883852907 0 -0.0090963655835266354 -0.00022326973617142716 0 -0.0089836723786968099 -0.00027606613588114048 0 -0.0086220243522808059 -0.00028194544576980846 0 -0.0086642656050538083 -0.00024393189883852907 0 -0.0094096971617400448 -2.1516059621244049e-07 0 -0.0089264976648423984 -0.00015135253768346014 0 -0.0085684943002030944 -2.1669765293902785e-07 0 -0.0094953051371380499 -0.00014996245802645431 0 -0.0090963655835266354 -0.00022326973617142716 0 -0.0089264976648423984 -0.00015135253768346014 0 -0.0086642656050538083 -0.00024393189883852907 0 -0.0089264976648423984 -0.00015135253768346014 0 -0.0083862669588199313 -0.00014113851635667645 0 -0.0089264976648423984 -0.00015135253768346014 0 -0.0085684943002030944 -2.1669765293902785e-07 0 -0.0083862669588199313 -0.00014113851635667645 0 -0.0085684943002030944 -2.1669765293902785e-07 0 -0.0083862669588199313 -0.00014113851635667645 0 -0.007727313921449026 -2.6826785941923046e-07 0 -0.0080617086667439299 -0.00018791537902003249 0 -0.0083862669588199313 -0.00014113851635667645 0 -0.0076320515181478553 -0.00011491456808597715 0 -0.0083862669588199313 -0.00014113851635667645 0 -0.007727313921449026 -2.6826785941923046e-07 0 -0.0076320515181478553 -0.00011491456808597715 0 -0.007727313921449026 -2.6826785941923046e-07 0 -0.0076320515181478553 -0.00011491456808597715 0 -0.0068861509135044038 -5.3754100993686913e-08 0 -0.0076320515181478553 -0.00011491456808597715 0 -0.0072773495783838779 -0.00012569081817715187 0 -0.0079508989714652083 -0.00020047468476707065 0 -0.0076320515181478553 -0.00011491456808597715 0 -0.0072773495783838779 -0.00012569081817715187 0 -0.0068861509135044038 -5.3754100993686913e-08 0 -0.0072773495783838779 -0.00012569081817715187 0 -0.0068861509135044038 -5.3754100993686913e-08 0 -0.006044694975966409 -6.0517234123873018e-07 0 -0.0079508989714652083 -0.00020047468476707065 0 -0.0077319091811098046 -0.00015905127551236708 0 -0.0080741764651823568 -0.00019857271228833532 0 -0.0072773495783838779 -0.00012569081817715187 0 -0.0079508989714652083 -0.00020047468476707065 0 -0.0077319091811098046 -0.00015905127551236708 0 -0.0072773495783838779 -0.00012569081817715187 0 -0.0077319091811098046 -0.00015905127551236708 0 -0.0074371903134834343 -7.6009816974263641e-05 0 -0.0074371903134834343 -7.6009816974263641e-05 0 -0.0073813235974609899 0.00016547969702174691 0 -0.0076866662574533165 -3.8736920051833395e-05 0 -0.0077319091811098046 -0.00015905127551236708 0 -0.0074371903134834343 -7.6009816974263641e-05 0 -0.0076866662574533165 -3.8736920051833395e-05 0 -0.0072773495783838779 -0.00012569081817715187 0 -0.0074371903134834343 -7.6009816974263641e-05 0 -0.0069653697908581107 -2.5467985950612584e-05 0 -0.0074371903134834343 -7.6009816974263641e-05 0 -0.0069653697908581107 -2.5467985950612584e-05 0 -0.0073813235974609899 0.00016547969702174691 0 -0.0069653697908581107 -2.5467985950612584e-05 0 -0.0073813235974609899 0.00016547969702174691 0 -0.0067183848055932978 0.00059368744020291521 0 -0.0073813235974609899 0.00016547969702174691 0 -0.0077112760022506385 0.00023652150765370595 0 -0.0076866662574533165 -3.8736920051833395e-05 0 -0.0069653697908581107 -2.5467985950612584e-05 0 -0.006044694975966409 -6.0517234123873018e-07 0 -0.0059580262673280173 8.8016420261570843e-05 0 -0.0072773495783838779 -0.00012569081817715187 0 -0.0069653697908581107 -2.5467985950612584e-05 0 -0.006044694975966409 -6.0517234123873018e-07 0 -0.006044694975966409 -6.0517234123873018e-07 0 -0.0059580262673280173 8.8016420261570843e-05 0 -0.0052047459067046525 2.2591289300387647e-06 0 -0.0059580262673280173 8.8016420261570843e-05 0 -0.0052047459067046525 2.2591289300387647e-06 0 -0.0051481655101037289 8.4715608477117844e-05 0 -0.0052025255630711075 5.222968643307235e-07 0 -0.0043101832204308077 6.0001682071290655e-08 0 -0.0039925863845819897 0.00015099493569903564 0 -0.0052047459067046525 2.2591289300387647e-06 0 -0.0051481655101037289 8.4715608477117844e-05 0 -0.0044649905021657294 -0.00015664705724328958 0 -0.0052029460739592822 2.2655564715659832e-08 0 -0.004223746925036187 -3.616847805365183e-05 0 -0.0039391084245634783 0.00046091888198473204 0 -0.0034841057112392202 -0.00016167717531766993 0 -0.0044649905021657294 -0.00015664705724328958 0 -0.0051481655101037289 8.4715608477117844e-05 0 -0.0039391084245634783 0.00046091888198473204 0 -0.0044649905021657294 -0.00015664705724328958 0 -0.005163536445816414 0.00017913334240853519 0 -0.005360421373122864 0.00046624023784687927 0 -0.0069653697908581107 -2.5467985950612584e-05 0 -0.0059580262673280173 8.8016420261570843e-05 0 -0.0067183848055932978 0.00059368744020291521 0 -0.0059580262673280173 8.8016420261570843e-05 0 -0.0051481655101037289 8.4715608477117844e-05 0 -0.0067183848055932978 0.00059368744020291521 0 -0.005360421373122864 0.00046624023784687927 0 -0.0051877580566601087 0.00057526444809206587 0 -0.0073813235974609899 0.00016547969702174691 0 -0.0067183848055932978 0.00059368744020291521 0 -0.0074619072876469968 0.00057043187832743188 0 -0.0073813235974609899 0.00016547969702174691 0 -0.0074619072876469968 0.00057043187832743188 0 -0.0077112760022506385 0.00023652150765370595 0 -0.0039391084245634783 0.00046091888198473204 0 -0.0031974979706826299 0.00045183158405879734 0 -0.003199184776700744 8.6902176420748767e-05 0 -0.0031974979706826299 0.00045183158405879734 0 -0.003199184776700744 8.6902176420748767e-05 0 -0.0029444379217356122 0.00022142896114065258 0 -0.0039391084245634783 0.00046091888198473204 0 -0.003199184776700744 8.6902176420748767e-05 0 -0.0034841057112392202 -0.00016167717531766993 0 -0.003199184776700744 8.6902176420748767e-05 0 -0.0034841057112392202 -0.00016167717531766993 0 -0.00308591471120251 -0.00021296909934256922 0 -0.00308591471120251 -0.00021296909934256922 0 -0.0030690748303800878 -0.00036108276332830983 0 -0.0029533069259161686 -0.00034575711290144186 0 -0.0034841057112392202 -0.00016167717531766993 0 -0.00308591471120251 -0.00021296909934256922 0 -0.0030690748303800878 -0.00036108276332830983 0 -0.0034841057112392202 -0.00016167717531766993 0 -0.0030690748303800878 -0.00036108276332830983 0 -0.0035555008025753309 -0.00046420904507288112 0 -0.0030971439288900475 1.7795278899264694e-05 0 -0.0035782748827995281 -2.6321699141851103e-05 0 -0.0029642871638762727 -0.00013676780240208451 0 -0.0030971439288900475 1.7795278899264694e-05 0 -0.0035782748827995281 -2.6321699141851103e-05 0 -0.0039925863845819897 0.00015099493569903564 0 -0.0035782748827995281 -2.6321699141851103e-05 0 -0.0043101832204308077 6.0001682071290655e-08 0 -0.0034175272654785025 -2.3415688537974618e-07 0 -0.0035782748827995281 -2.6321699141851103e-05 0 -0.0043101832204308077 6.0001682071290655e-08 0 -0.0039925863845819897 0.00015099493569903564 0 -0.0033413658123460509 -0.00020697357506867619 0 -0.004223746925036187 -3.616847805365183e-05 0 -0.0034841057112392202 -0.00016167717531766993 0 -0.0035555008025753309 -0.00046420904507288112 0 -0.0044649905021657294 -0.00015664705724328958 0 -0.007360465493779408 -0.00045798789576140876 0 -0.0069829676676926768 -0.00064302640799153291 0 -0.0073748873496121622 -0.00072053300441095173 0 -0.007360465493779408 -0.00045798789576140876 0 -0.0075807759908636928 -0.00060317614488001649 0 -0.0076208197624081297 -0.00032586654908456196 0 -0.007360465493779408 -0.00045798789576140876 0 -0.0073748873496121622 -0.00072053300441095173 0 -0.0075807759908636928 -0.00060317614488001649 0 -0.007360465493779408 -0.00045798789576140876 0 -0.0076208197624081297 -0.00032586654908456196 0 -0.0075372561333209845 -0.00014464112350550296 0 -0.0069829676676926768 -0.00064302640799153291 0 -0.0068714760279264637 -0.0002912293976171515 0 -0.0067483150293058958 -0.00062063709206178273 0 -0.007360465493779408 -0.00045798789576140876 0 -0.0069829676676926768 -0.00064302640799153291 0 -0.0068714760279264637 -0.0002912293976171515 0 -0.0069829676676926768 -0.00064302640799153291 0 -0.0070501398490999375 -0.0011308220180211992 0 -0.0068851483976512754 -0.00095721412018503322 0 -0.0068384142715121948 -0.00082121494223479097 0 -0.0067162169686986167 -0.00093100510739865306 0 -0.0068851483976512754 -0.00095721412018503322 0 -0.0068126108349140912 -0.00051008494410197851 0 -0.0076906537249787606 -0.0013305000203845813 0 -0.0069829676676926768 -0.00064302640799153291 0 -0.0068384142715121948 -0.00082121494223479097 0 -0.0068851483976512754 -0.00095721412018503322 0 -0.0069829676676926768 -0.00064302640799153291 0 -0.0068384142715121948 -0.00082121494223479097 0 -0.0067483150293058958 -0.00062063709206178273 0 -0.0069829676676926768 -0.00064302640799153291 0 -0.0073748873496121622 -0.00072053300441095173 0 -0.00734677796145563 -0.0010058155252259252 0 -0.0073748873496121622 -0.00072053300441095173 0 -0.0075516986232474978 -0.00086924640469073812 0 -0.00734677796145563 -0.0010058155252259252 0 -0.0077048850834539242 -0.00075109642782826688 0 -0.0075807759908636928 -0.00060317614488001649 0 -0.0078097035505158719 -0.00042709747991263777 0 -0.0077048850834539242 -0.00075109642782826688 0 -0.0075807759908636928 -0.00060317614488001649 0 -0.0075516986232474978 -0.00086924640469073812 0 -0.0077048850834539242 -0.00075109642782826688 0 -0.0076964358769650177 -0.00095171170196842474 0 -0.0075516986232474978 -0.00086924640469073812 0 -0.0073748873496121622 -0.00072053300441095173 0 -0.0075807759908636928 -0.00060317614488001649 0 -0.0075516986232474978 -0.00086924640469073812 0 -0.0054176098038054218 -0.00025423257573176111 0 -0.0039051712846475354 -0.00060809887959020965 0 -0.00308591471120251 -0.00021296909934256922 0 -0.0028317971406772897 -8.9048090017240276e-05 0 -0.002970120145335963 -0.000531770558496308 0 -0.0077048850834539242 -0.00075109642782826688 0 -0.0078097035505158719 -0.00042709747991263777 0 -0.0078915036458460184 -0.00088575154176133138 0 -0.0029433228419266998 -0.00026737547114950437 0 -0.0039051712846475354 -0.00060809887959020965 0 -0.003199184776700744 8.6902176420748767e-05 0 -0.00308591471120251 -0.00021296909934256922 0 -0.0028317971406772897 -8.9048090017240276e-05 0 -0.0075807759908636928 -0.00060317614488001649 0 -0.0078097035505158719 -0.00042709747991263777 0 -0.0076208197624081297 -0.00032586654908456196 0 -0.0054176098038054218 -0.00025423257573176111 0 -0.005932748284645524 -5.9218720766326731e-05 0 -0.0078097035505158719 -0.00042709747991263777 0 -0.0076208197624081297 -0.00032586654908456196 0 -0.0077204110251265544 -9.8212142833391057e-05 0 -0.0076208197624081297 -0.00032586654908456196 0 -0.0077204110251265544 -9.8212142833391057e-05 0 -0.0075372561333209845 -0.00014464112350550296 0 -0.0028317971406772897 -8.9048090017240276e-05 0 -0.0029444379217356122 0.00022142896114065258 0 -0.0027008954477296299 0.00042067782650273214 0 -0.003199184776700744 8.6902176420748767e-05 0 -0.0028317971406772897 -8.9048090017240276e-05 0 -0.0029444379217356122 0.00022142896114065258 0 -0.0031974979706826299 0.00045183158405879734 0 -0.0029444379217356122 0.00022142896114065258 0 -0.0027008954477296299 0.00042067782650273214 0 -0.0074619072876469968 0.00057043187832743188 0 -0.0079062541745379428 0.00047500982267802106 0 -0.0077112760022506385 0.00023652150765370595 0 -0.0051877580566601087 0.00057526444809206587 0 -0.005932748284645524 -5.9218720766326731e-05 0 -0.005932748284645524 -5.9218720766326731e-05 0 -0.0078828334206853517 7.7218094510970073e-06 0 -0.0077204110251265544 -9.8212142833391057e-05 0 -0.0076978809584813393 -0.00010621420103104485 0 -0.0077748698337967341 -9.1836997088976739e-05 0 -0.0079062541745379428 0.00047500982267802106 0 -0.0077112760022506385 0.00023652150765370595 0 -0.0079588125801980086 0.00018079929810520389 0 -0.0077204110251265544 -9.8212142833391057e-05 0 -0.0076978809584813393 -0.00010621420103104485 0 -0.0075372561333209845 -0.00014464112350550296 0 -0.0076978809584813393 -0.00010621420103104485 0 -0.0075372561333209845 -0.00014464112350550296 0 -0.0076935081463871654 -0.00010985994340011646 0 -0.0075372561333209845 -0.00014464112350550296 0 -0.0077108958988388425 -6.487247601044311e-05 0 -0.0076935081463871654 -0.00010985994340011646 0 -0.007360465493779408 -0.00045798789576140876 0 -0.0075372561333209845 -0.00014464112350550296 0 -0.0068714760279264637 -0.0002912293976171515 0 -0.007519456703047561 -0.00014269955277264451 0 -0.0073024597143376098 -0.00018468004534411979 0 -0.0076978809584813393 -0.00010621420103104485 0 -0.0076935081463871654 -0.00010985994340011646 0 -0.0077559640882145396 -0.00010180613989470477 0 -0.0076935081463871654 -0.00010985994340011646 0 -0.0077559640882145396 -0.00010180613989470477 0 -0.0077236832164659626 -6.819293545057296e-05 0 -0.0077559640882145396 -0.00010180613989470477 0 -0.0078508451218021989 -9.7696190670509622e-05 0 -0.0077831188058158892 -9.2144209357414249e-05 0 -0.0077559640882145396 -0.00010180613989470477 0 -0.0077919371789878459 -9.7347076397353573e-05 0 -0.0078508451218021989 -9.7696190670509622e-05 0 -0.0077919371789878459 -9.7347076397353573e-05 0 -0.0077748698337967341 -9.1836997088976739e-05 0 -0.0079073840606117916 -5.9350371008119164e-05 0 -0.0076978809584813393 -0.00010621420103104485 0 -0.0077559640882145396 -0.00010180613989470477 0 -0.0077919371789878459 -9.7347076397353573e-05 0 -0.0076978809584813393 -0.00010621420103104485 0 -0.0077919371789878459 -9.7347076397353573e-05 0 -0.0077748698337967341 -9.1836997088976739e-05 0 -0.0078508451218021989 -9.7696190670509622e-05 0 -0.0079073840606117916 -5.9350371008119164e-05 0 -0.007969924625824262 -0.00012292014054398416 0 -0.0077919371789878459 -9.7347076397353573e-05 0 -0.0078508451218021989 -9.7696190670509622e-05 0 -0.0079073840606117916 -5.9350371008119164e-05 0 -0.0078508451218021989 -9.7696190670509622e-05 0 -0.00790469782789688 -0.00012001583740091704 0 -0.0077831188058158892 -9.2144209357414249e-05 0 -0.0077112760022506385 0.00023652150765370595 0 -0.0078480523020957628 6.1979112989775291e-06 0 -0.0076866662574533165 -3.8736920051833395e-05 0 -0.0079588125801980086 0.00018079929810520389 0 -0.0078480523020957628 6.1979112989775291e-06 0 -0.0079073840606117916 -5.9350371008119164e-05 0 -0.0077112760022506385 0.00023652150765370595 0 -0.0079588125801980086 0.00018079929810520389 0 -0.0078480523020957628 6.1979112989775291e-06 0 -0.0078828334206853517 7.7218094510970073e-06 0 -0.0078901197556317422 -1.2385046589816631e-05 0 -0.0078480523020957628 6.1979112989775291e-06 0 -0.0079073840606117916 -5.9350371008119164e-05 0 -0.0079388808745970898 -0.00012728329023330888 0 -0.0078480523020957628 6.1979112989775291e-06 0 -0.0076866662574533165 -3.8736920051833395e-05 0 -0.0079388808745970898 -0.00012728329023330888 0 -0.0077319091811098046 -0.00015905127551236708 0 -0.0076866662574533165 -3.8736920051833395e-05 0 -0.0079388808745970898 -0.00012728329023330888 0 -0.0079073840606117916 -5.9350371008119164e-05 0 -0.0079388808745970898 -0.00012728329023330888 0 -0.007969924625824262 -0.00012292014054398416 0 -0.0081220429101968895 -0.00016615094610470947 0 -0.0079388808745970898 -0.00012728329023330888 0 -0.0080741764651823568 -0.00019857271228833532 0 -0.0081220429101968895 -0.00016615094610470947 0 -0.0079388808745970898 -0.00012728329023330888 0 -0.007969924625824262 -0.00012292014054398416 0 -0.0077319091811098046 -0.00015905127551236708 0 -0.0079388808745970898 -0.00012728329023330888 0 -0.0080741764651823568 -0.00019857271228833532 0 -0.00790469782789688 -0.00012001583740091704 0 -0.007969924625824262 -0.00012292014054398416 0 -0.0080103438004748336 -0.00013720089330757922 0 -0.0078508451218021989 -9.7696190670509622e-05 0 -0.00790469782789688 -0.00012001583740091704 0 -0.007969924625824262 -0.00012292014054398416 0 -0.0081220429101968895 -0.00016615094610470947 0 -0.007969924625824262 -0.00012292014054398416 0 -0.0080103438004748336 -0.00013720089330757922 0 -0.0079648050815863125 -0.00011774667568542296 0 -0.00790469782789688 -0.00012001583740091704 0 -0.0080103438004748336 -0.00013720089330757922 0 -0.0079648050815863125 -0.00011774667568542296 0 -0.00790469782789688 -0.00012001583740091704 0 -0.0078341031885970948 -0.0001105256489286924 0 -0.00790469782789688 -0.00012001583740091704 0 -0.0078341031885970948 -0.0001105256489286924 0 -0.0077831188058158892 -9.2144209357414249e-05 0 -0.0079648050815863125 -0.00011774667568542296 0 -0.0078741074348960098 -0.00011213307959907873 0 -0.0078341031885970948 -0.0001105256489286924 0 -0.0078741074348960098 -0.00011213307959907873 0 -0.0078327231948402305 -0.000114563954333843 0 -0.0077899778022081229 -0.00010845633028948365 0 -0.0078741074348960098 -0.00011213307959907873 0 -0.0078341031885970948 -0.0001105256489286924 0 -0.0077899778022081229 -0.00010845633028948365 0 -0.0078327231948402305 -0.000114563954333843 0 -0.0077899778022081229 -0.00010845633028948365 0 -0.0077905104144477344 -0.00011338807895882508 0 -0.0077899778022081229 -0.00010845633028948365 0 -0.0077551474167952819 -9.9448456684169106e-05 0 -0.0077905104144477344 -0.00011338807895882508 0 -0.0078341031885970948 -0.0001105256489286924 0 -0.0077899778022081229 -0.00010845633028948365 0 -0.0077576714663307152 -8.7297199664790887e-05 0 -0.0077899778022081229 -0.00010845633028948365 0 -0.0077054797610732351 -7.416271087767133e-05 0 -0.0077576714663307152 -8.7297199664790887e-05 0 -0.0077551474167952819 -9.9448456684169106e-05 0 -0.0077054797610732351 -7.416271087767133e-05 0 -0.0077205488399976797 -7.8440384932696383e-05 0 -0.0077899778022081229 -0.00010845633028948365 0 -0.0077551474167952819 -9.9448456684169106e-05 0 -0.0077054797610732351 -7.416271087767133e-05 0 -0.0077054797610732351 -7.416271087767133e-05 0 -0.0076690900637483442 -4.0156520568515872e-05 0 -0.0076112173278045691 -1.2376017165893537e-05 0 -0.0077054797610732351 -7.416271087767133e-05 0 -0.0077205488399976797 -7.8440384932696383e-05 0 -0.0076690900637483442 -4.0156520568515872e-05 0 -0.0077054797610732351 -7.416271087767133e-05 0 -0.0076970591208755526 -5.0314348771375224e-05 0 -0.0076112173278045691 -1.2376017165893537e-05 0 -0.0077054797610732351 -7.416271087767133e-05 0 -0.0076970591208755526 -5.0314348771375224e-05 0 -0.0077576714663307152 -8.7297199664790887e-05 0 -0.0076970591208755526 -5.0314348771375224e-05 0 -0.0077831188058158892 -9.2144209357414249e-05 0 -0.0077576714663307152 -8.7297199664790887e-05 0 -0.0076970591208755526 -5.0314348771375224e-05 0 -0.0077831188058158892 -9.2144209357414249e-05 0 -0.0077236832164659626 -6.819293545057296e-05 0 -0.0077559640882145396 -0.00010180613989470477 0 -0.0077831188058158892 -9.2144209357414249e-05 0 -0.0077236832164659626 -6.819293545057296e-05 0 -0.0078341031885970948 -0.0001105256489286924 0 -0.0077831188058158892 -9.2144209357414249e-05 0 -0.0077576714663307152 -8.7297199664790887e-05 0 -0.0077748968409709525 -0.00010578084699903939 0 -0.0077979884999452714 -0.00012408226750867078 0 -0.0077873532001370869 -0.00011822993632424897 0 -0.0078010270620434714 -0.0001317697942393993 0 -0.0077979884999452714 -0.00012408226750867078 0 -0.0077873532001370869 -0.00011822993632424897 0 -0.0078063734848500483 -0.0001187194439901412 0 -0.0077979884999452714 -0.00012408226750867078 0 -0.0077847698230108578 -0.00011225477485705192 0 -0.0077748968409709525 -0.00010578084699903939 0 -0.0077979884999452714 -0.00012408226750867078 0 -0.0077847698230108578 -0.00011225477485705192 0 -0.0077748968409709525 -0.00010578084699903939 0 -0.0077847698230108578 -0.00011225477485705192 0 -0.0077665759943124912 -9.4770194296759199e-05 0 -0.0077847698230108578 -0.00011225477485705192 0 -0.0077905104144477344 -0.00011338807895882508 0 -0.0077636874628616848 -0.00010000224506332244 0 -0.0077847698230108578 -0.00011225477485705192 0 -0.0077636874628616848 -0.00010000224506332244 0 -0.0077665759943124912 -9.4770194296759199e-05 0 -0.0078063734848500483 -0.0001187194439901412 0 -0.0077847698230108578 -0.00011225477485705192 0 -0.0077905104144477344 -0.00011338807895882508 0 -0.0078119829510462637 -0.00011638578514747498 0 -0.0078063734848500483 -0.0001187194439901412 0 -0.0077905104144477344 -0.00011338807895882508 0 -0.0078327231948402305 -0.000114563954333843 0 -0.0078119829510462637 -0.00011638578514747498 0 -0.0077905104144477344 -0.00011338807895882508 0 -0.0077551474167952819 -9.9448456684169106e-05 0 -0.0077905104144477344 -0.00011338807895882508 0 -0.0077636874628616848 -0.00010000224506332244 0 -0.0077205488399976797 -7.8440384932696383e-05 0 -0.0077450947356365648 -7.0263534221611882e-05 0 -0.0077636874628616848 -0.00010000224506332244 0 -0.0077551474167952819 -9.9448456684169106e-05 0 -0.0077205488399976797 -7.8440384932696383e-05 0 -0.0077636874628616848 -0.00010000224506332244 0 -0.0077205488399976797 -7.8440384932696383e-05 0 -0.0076690900637483442 -4.0156520568515872e-05 0 -0.0077450947356365648 -7.0263534221611882e-05 0 -0.0076690900637483442 -4.0156520568515872e-05 0 -0.0077450947356365648 -7.0263534221611882e-05 0 -0.0077392794036255192 -8.8828202632172269e-06 0 -0.0077450947356365648 -7.0263534221611882e-05 0 -0.0077845690789454533 -4.3770775983030669e-05 0 -0.0077392794036255192 -8.8828202632172269e-06 0 -0.0077450947356365648 -7.0263534221611882e-05 0 -0.0077665759943124912 -9.4770194296759199e-05 0 -0.0077845690789454533 -4.3770775983030669e-05 0 -0.0077450947356365648 -7.0263534221611882e-05 0 -0.0077636874628616848 -0.00010000224506332244 0 -0.0077665759943124912 -9.4770194296759199e-05 0 -0.0077748968409709525 -0.00010578084699903939 0 -0.0077665759943124912 -9.4770194296759199e-05 0 -0.0077501348189092283 -8.2176952863265864e-05 0 -0.0077147723292426279 -6.4196053036561044e-05 0 -0.0077501348189092283 -8.2176952863265864e-05 0 -0.0077390287063230081 -3.6812523780310851e-05 0 -0.0077554264543225416 -4.535139553827283e-05 0 -0.007820468073080393 -0.00016055170863216311 0 -0.0077665759943124912 -9.4770194296759199e-05 0 -0.0077147723292426279 -6.4196053036561044e-05 0 -0.0077501348189092283 -8.2176952863265864e-05 0 -0.0056607099150237528 -0.00028989195124075036 0 -0.0043902527498029236 0.00018195262418811231 0 -0.0077501348189092283 -8.2176952863265864e-05 0 -0.0077685693909852653 -8.9264939890462854e-05 0 -0.0077390287063230081 -3.6812523780310851e-05 0 -0.0077748968409709525 -0.00010578084699903939 0 -0.0077501348189092283 -8.2176952863265864e-05 0 -0.0077685693909852653 -8.9264939890462854e-05 0 -0.0077748968409709525 -0.00010578084699903939 0 -0.0077685693909852653 -8.9264939890462854e-05 0 -0.0077873532001370869 -0.00011822993632424897 0 -0.002906950650884641 0.0011763194944931709 0 -0.0043902527498029236 0.00018195262418811231 0 -0.0030920047906307989 0.00099879089998460664 0 -0.0032515687743518594 0.00050181671504216045 0 -0.0036253174786467011 0.00092490775246548021 0 -0.0030920047906307989 0.00099879089998460664 0 -0.0032162099871091538 0.00060236910242353369 0 -0.0028719419058467039 0.00094385429850151273 0 -0.007820468073080393 -0.00016055170863216311 0 -0.0056635856049876299 0.00048741136476230823 0 -0.0043902527498029236 0.00018195262418811231 0 -0.0056635856049876299 0.00048741136476230823 0 -0.0077147723292426279 -6.4196053036561044e-05 0 -0.0077390287063230081 -3.6812523780310851e-05 0 -0.0076857604338208107 -1.6338730679617324e-05 0 -0.0032162099871091538 0.00060236910242353369 0 -0.0027737292581023593 0.0007383751793922234 0 -0.0028719419058467039 0.00094385429850151273 0 -0.0056635856049876299 0.00048741136476230823 0 -0.0030153101300624818 0.00081251779097466956 0 -0.0027737292581023593 0.0007383751793922234 0 -0.0028719419058467039 0.00094385429850151273 0 -0.0027486448423652936 0.0011289457479502717 0 -0.0030920047906307989 0.00099879089998460664 0 -0.0028719419058467039 0.00094385429850151273 0 -0.0028974493007688702 0.0011371739166683567 0 -0.0037749086309868595 0.0010695910314206397 0 -0.0037857692187077373 0.00055392516677414444 0 -0.0053254108251934058 0.00089181035119902054 0 -0.0037857692187077373 0.00055392516677414444 0 -0.0053254108251934058 0.00089181035119902054 0 -0.0048107429305388714 0.00013886425670582624 0 -0.0037749086309868595 0.0010695910314206397 0 -0.0037857692187077373 0.00055392516677414444 0 -0.0036051743016279384 0.00028228888210379539 0 -0.0056635856049876299 0.00048741136476230823 0 -0.0065502895846305097 0.00046166942827296684 0 -0.0077832477160637925 3.9461763150515885e-05 0 -0.0077392794036255192 -8.8828202632172269e-06 0 -0.0077000412144021708 8.8854438914786948e-05 0 -0.0077845690789454533 -4.3770775983030669e-05 0 -0.0077832477160637925 3.9461763150515885e-05 0 -0.0077392794036255192 -8.8828202632172269e-06 0 -0.0076690900637483442 -4.0156520568515872e-05 0 -0.0077000412144021708 8.8854438914786948e-05 0 -0.0075611640143931486 2.3883217535363337e-05 0 -0.0076690900637483442 -4.0156520568515872e-05 0 -0.0077392794036255192 -8.8828202632172269e-06 0 -0.0077000412144021708 8.8854438914786948e-05 0 -0.0053254108251934058 0.00089181035119902054 0 -0.0057973648436099963 -0.00069070665279210718 0 -0.0048107429305388714 0.00013886425670582624 0 -0.0057973648436099963 -0.00069070665279210718 0 -0.0048045862596370137 -0.0007244770993661818 0 -0.0048107429305388714 0.00013886425670582624 0 -0.0057973648436099963 -0.00069070665279210718 0 -0.00554894578184713 -0.0013137464429326998 0 -0.0058826543658996241 -0.00098960247701214248 0 -0.0057973648436099963 -0.00069070665279210718 0 -0.00554894578184713 -0.0013137464429326998 0 -0.0048045862596370137 -0.0007244770993661818 0 -0.0037614256379048016 -0.00016242262366038913 0 -0.0040901084735448165 -0.00016792978484831713 0 -0.0037614256379048016 -0.00016242262366038913 0 -0.0028752592868904522 0.00063538518825202034 0 -0.0030682087640737095 0.00093375609391584374 0 -0.0030153101300624818 0.00081251779097466956 0 -0.0032701328147430112 0.00050769609291197529 0 -0.0033297613247544786 0.00062479703300791353 0 -0.0036051743016279384 0.00028228888210379539 0 -0.0029457650286681927 0.00068635239450944116 0 -0.0032701328147430112 0.00050769609291197529 0 -0.0032685509667913001 0.00032889091552972764 0 -0.0029457650286681927 0.00068635239450944116 0 -0.0032701328147430112 0.00050769609291197529 0 -0.003177797174035745 0.00068364736592251311 0 -0.0032701328147430112 0.00050769609291197529 0 -0.003177797174035745 0.00068364736592251311 0 -0.0033297613247544786 0.00062479703300791353 0 -0.0032701328147430112 0.00050769609291197529 0 -0.0032685509667913001 0.00032889091552972764 0 -0.0036051743016279384 0.00028228888210379539 0 -0.0037857692187077373 0.00055392516677414444 0 -0.0032685509667913001 0.00032889091552972764 0 -0.0036051743016279384 0.00028228888210379539 0 -0.0037857692187077373 0.00055392516677414444 0 -0.0048045862596370137 -0.0007244770993661818 0 -0.0048107429305388714 0.00013886425670582624 0 -0.0037368887796672989 0.00051926173146082271 0 -0.0040901084735448165 -0.00016792978484831713 0 -0.0030920047906307989 0.00099879089998460664 0 -0.0028974493007688702 0.0011371739166683567 0 -0.0029248819592978255 0.0012803968083310694 0 -0.0028719419058467039 0.00094385429850151273 0 -0.0027486448423652936 0.0011289457479502717 0 -0.0028974493007688702 0.0011371739166683567 0 -0.0028974493007688702 0.0011371739166683567 0 -0.0028313997448237435 0.0012702142652139469 0 -0.0029248819592978255 0.0012803968083310694 0 -0.0027486448423652936 0.0011289457479502717 0 -0.0028974493007688702 0.0011371739166683567 0 -0.0028313997448237435 0.0012702142652139469 0 -0.0027844883087937661 0.0013468190166874971 0 -0.0029248819592978255 0.0012803968083310694 0 -0.002684988709767246 0.0013744001232572991 0 -0.0028116255120669321 0.0013690162998905935 0 -0.0027486448423652936 0.0011289457479502717 0 -0.0028313997448237435 0.0012702142652139469 0 -0.0028116255120669321 0.0013690162998905935 0 -0.0027844883087937661 0.0013468190166874971 0 -0.0027856677396417479 0.00122670526397221 0 -0.0028116255120669321 0.0013690162998905935 0 -0.0028313997448237435 0.0012702142652139469 0 -0.0027844883087937661 0.0013468190166874971 0 -0.0028313997448237435 0.0012702142652139469 0 -0.0027844883087937661 0.0013468190166874971 0 -0.0029248819592978255 0.0012803968083310694 0 -0.0029248819592978255 0.0012803968083310694 0 -0.0030273362451712278 0.0014608982224940854 0 -0.0034370488092471379 0.0012925784099769237 0 -0.0029248819592978255 0.0012803968083310694 0 -0.0030273362451712278 0.0014608982224940854 0 -0.002684988709767246 0.0013744001232572991 0 -0.0030920047906307989 0.00099879089998460664 0 -0.0029248819592978255 0.0012803968083310694 0 -0.0034370488092471379 0.0012925784099769237 0 -0.0077236832164659626 -6.819293545057296e-05 0 -0.0076377327363372095 -5.0693632336441635e-06 0 -0.0077210163365674708 -7.7162088557839221e-05 0 -0.0076377327363372095 -5.0693632336441635e-06 0 -0.0075823329396856173 -3.859715721057734e-06 0 -0.0077210163365674708 -7.7162088557839221e-05 0 -0.0073024597143376098 -0.00018468004534411979 0 -0.0071179507934215755 -0.00028668226235688634 0 -0.0077108958988388425 -6.487247601044311e-05 0 -0.0076935081463871654 -0.00010985994340011646 0 -0.0077236832164659626 -6.819293545057296e-05 0 -0.0077108958988388425 -6.487247601044311e-05 0 -0.0077236832164659626 -6.819293545057296e-05 0 -0.0077210163365674708 -7.7162088557839221e-05 0 -0.0076970591208755526 -5.0314348771375224e-05 0 -0.0077236832164659626 -6.819293545057296e-05 0 -0.0076377327363372095 -5.0693632336441635e-06 0 -0.0076970591208755526 -5.0314348771375224e-05 0 -0.0076112173278045691 -1.2376017165893537e-05 0 -0.0076377327363372095 -5.0693632336441635e-06 0 -0.0076112173278045691 -1.2376017165893537e-05 0 -0.0076377327363372095 -5.0693632336441635e-06 0 -0.0075159103250720125 4.7825922841387519e-05 0 -0.0076690900637483442 -4.0156520568515872e-05 0 -0.0076112173278045691 -1.2376017165893537e-05 0 -0.0075611640143931486 2.3883217535363337e-05 0 -0.0076112173278045691 -1.2376017165893537e-05 0 -0.0075611640143931486 2.3883217535363337e-05 0 -0.0075159103250720125 4.7825922841387519e-05 0 -0.0065502895846305097 0.00046166942827296684 0 -0.0072404932714203634 0.00021159489443552961 0 -0.0077000412144021708 8.8854438914786948e-05 0 -0.0075611640143931486 2.3883217535363337e-05 0 -0.0073102610054835921 0.00016973921499462632 0 -0.0053254108251934058 0.00089181035119902054 0 -0.0057973648436099963 -0.00069070665279210718 0 -0.0073102610054835921 0.00016973921499462632 0 -0.0075611640143931486 2.3883217535363337e-05 0 -0.0073102610054835921 0.00016973921499462632 0 -0.0075159103250720125 4.7825922841387519e-05 0 -0.0076377327363372095 -5.0693632336441635e-06 0 -0.0075159103250720125 4.7825922841387519e-05 0 -0.0075823329396856173 -3.859715721057734e-06 0 -0.0073102610054835921 0.00016973921499462632 0 -0.0075823329396856173 -3.859715721057734e-06 0 -0.0075441514104775762 -0.00031314873733013392 0 -0.0073102610054835921 0.00016973921499462632 0 -0.0075159103250720125 4.7825922841387519e-05 0 -0.0075823329396856173 -3.859715721057734e-06 0 -0.0068133613651133532 -0.00046032700438059822 0 -0.0071179507934215755 -0.00028668226235688634 0 -0.0061924161343141519 -0.00061648110584240124 0 -0.0063379897864010793 -0.00078710284149422036 0 -0.0064439700808288708 -0.00066752647349470221 0 -0.0075823329396856173 -3.859715721057734e-06 0 -0.0075441514104775762 -0.00031314873733013392 0 -0.0077210163365674708 -7.7162088557839221e-05 0 -0.0061924161343141519 -0.00061648110584240124 0 -0.0063379897864010793 -0.00078710284149422036 0 -0.0061626027757638781 -0.00085469436878917002 0 -0.0057973648436099963 -0.00069070665279210718 0 -0.0073102610054835921 0.00016973921499462632 0 -0.0075441514104775762 -0.00031314873733013392 0 -0.0058898352514861032 -0.0006740989698086154 0 -0.0068133613651133532 -0.00046032700438059822 0 -0.0057973648436099963 -0.00069070665279210718 0 -0.0061924161343141519 -0.00061648110584240124 0 -0.0061626027757638781 -0.00085469436878917002 0 -0.0057973648436099963 -0.00069070665279210718 0 -0.0058826543658996241 -0.00098960247701214248 0 -0.0061626027757638781 -0.00085469436878917002 0 -0.00554894578184713 -0.0013137464429326998 0 -0.0058826543658996241 -0.00098960247701214248 0 -0.0061068397804682015 -0.0010868031140401225 0 -0.0037614256379048016 -0.00016242262366038913 0 -0.0050970580101654403 -0.0006763605533609908 0 -0.0058826543658996241 -0.00098960247701214248 0 -0.0061068397804682015 -0.0010868031140401225 0 -0.0061626027757638781 -0.00085469436878917002 0 -0.0061068397804682015 -0.0010868031140401225 0 -0.0061626027757638781 -0.00085469436878917002 0 -0.0064109424161323744 -0.00097782555717727641 0 -0.0063379897864010793 -0.00078710284149422036 0 -0.0061626027757638781 -0.00085469436878917002 0 -0.0064109424161323744 -0.00097782555717727641 0 -0.0064440957309657276 -0.00094890779431477858 0 -0.0064650595205427352 -0.00082900770605542462 0 -0.0064109424161323744 -0.00097782555717727641 0 -0.0063379897864010793 -0.00078710284149422036 0 -0.0064650595205427352 -0.00082900770605542462 0 -0.0064109424161323744 -0.00097782555717727641 0 -0.0064440957309657276 -0.00094890779431477858 0 -0.0065701529786175794 -0.0008667504220569365 0 -0.0067162169686986167 -0.00093100510739865306 0 -0.0053603354505815182 -0.00063019611943281528 0 -0.0050506664685501367 -0.00069835489038678979 0 -0.0064440957309657276 -0.00094890779431477858 0 -0.0065701529786175794 -0.0008667504220569365 0 -0.0064650595205427352 -0.00082900770605542462 0 -0.0065701529786175794 -0.0008667504220569365 0 -0.0065762204720917579 -0.00072509396940556949 0 -0.0064650595205427352 -0.00082900770605542462 0 -0.0065762204720917579 -0.00072509396940556949 0 -0.0064650595205427352 -0.00082900770605542462 0 -0.0064439700808288708 -0.00066752647349470221 0 -0.0063379897864010793 -0.00078710284149422036 0 -0.0064650595205427352 -0.00082900770605542462 0 -0.0064439700808288708 -0.00066752647349470221 0 -0.0061924161343141519 -0.00061648110584240124 0 -0.0064439700808288708 -0.00066752647349470221 0 -0.0065022589152232543 -0.00048193556508888932 0 -0.0065762204720917579 -0.00072509396940556949 0 -0.0064439700808288708 -0.00066752647349470221 0 -0.0065022589152232543 -0.00048193556508888932 0 -0.0068714760279264637 -0.0002912293976171515 0 -0.0065022589152232543 -0.00048193556508888932 0 -0.0067483150293058958 -0.00062063709206178273 0 -0.0065762204720917579 -0.00072509396940556949 0 -0.0065022589152232543 -0.00048193556508888932 0 -0.0067483150293058958 -0.00062063709206178273 0 -0.0065762204720917579 -0.00072509396940556949 0 -0.0067483150293058958 -0.00062063709206178273 0 -0.0067162169686986167 -0.00093100510739865306 0 -0.0068384142715121948 -0.00082121494223479097 0 -0.0067483150293058958 -0.00062063709206178273 0 -0.0067162169686986167 -0.00093100510739865306 0 -0.0065701529786175794 -0.0008667504220569365 0 -0.0065762204720917579 -0.00072509396940556949 0 -0.0067162169686986167 -0.00093100510739865306 0 -0.0052091771110749337 -0.00065247944611308676 0 -0.0047650703542886008 -0.0018484581698628637 0 -0.0060382973609096986 -0.0014094726678370909 0 -0.0032810725973708402 -0.0015211753615287081 0 -0.0032426221241043498 -0.0015085770632973967 0 -0.0017131247505202949 -0.0012844530683074045 0 -0.0015535167523858622 -0.00070710143045514551 0 -0.0023036432892547462 -0.00071995174449270753 0 -0.0015535167523858622 -0.00070710143045514551 0 -0.0023036432892547462 -0.00071995174449270753 0 -0.001652491806917388 -0.00020990951838525067 0 -0.0017131247505202949 -0.0012844530683074045 0 -0.0015535167523858622 -0.00070710143045514551 0 -0.00084987726953584858 -0.00067664806908778494 0 -0.0015535167523858622 -0.00070710143045514551 0 -0.001652491806917388 -0.00020990951838525067 0 -0.00084987726953584858 -0.00067664806908778494 0 -0.0023036432892547462 -0.00071995174449270753 0 -0.0025865409510975245 -0.0010053018875903479 0 -0.0030599615140419834 -0.00091334422114822242 0 -0.0017131247505202949 -0.0012844530683074045 0 -0.0025865409510975245 -0.0010053018875903479 0 -0.0031103763835097589 -0.0012093123214767187 0 -0.0017131247505202949 -0.0012844530683074045 0 -0.0023036432892547462 -0.00071995174449270753 0 -0.0025865409510975245 -0.0010053018875903479 0 -0.0052091771110749337 -0.00065247944611308676 0 -0.0047650703542886008 -0.0018484581698628637 0 -0.0035694347124352239 -0.00065686702779404365 0 -0.0059568240512320814 -0.00082490708613083103 0 -0.0050506664685501367 -0.00069835489038678979 0 -0.0047650703542886008 -0.0018484581698628637 0 -0.0035694347124352239 -0.00065686702779404365 0 -0.0031103763835097589 -0.0012093123214767187 0 -0.0032810725973708402 -0.0015211753615287081 0 -0.0030795750447864213 -0.001274914883653536 0 -0.0064440957309657276 -0.00094890779431477858 0 -0.0067162169686986167 -0.00093100510739865306 0 -0.0064046714120715069 -0.00097144797597590324 0 -0.0050970580101654403 -0.0006763605533609908 0 -0.0050506664685501367 -0.00069835489038678979 0 -0.0037616815073401861 -0.00018296470126124905 0 -0.0046681534848186171 -0.00022292689290986763 0 -0.0035221276211819504 -0.0007069387212789251 0 -0.0050506664685501367 -0.00069835489038678979 0 -0.00213474207735767 -0.00047004288901803605 0 -0.0035694347124352239 -0.00065686702779404365 0 -0.0031103763835097589 -0.0012093123214767187 0 -0.0026910920719981826 -0.0012512194743651613 0 -0.0028803477602043796 -0.00015597191989687639 0 -0.0037616815073401861 -0.00018296470126124905 0 -0.0033337835466410093 -0.00051893337737001009 0 -0.0037616815073401861 -0.00018296470126124905 0 -0.0033337835466410093 -0.00051893337737001009 0 -0.0035221276211819504 -0.0007069387212789251 0 -0.0033337835466410093 -0.00051893337737001009 0 -0.0035080322280888329 -0.00069406056392786147 0 -0.0032940788814806873 -0.00079077623052237786 0 -0.0028483154365764743 -0.00081517751584938268 0 -0.00213474207735767 -0.00047004288901803605 0 -0.00213474207735767 -0.00047004288901803605 0 -0.0017660449324742161 0.00020480920671222814 0 -8.2558412985810891e-05 7.9049111637470517e-05 0 -0.00032533534503985438 0.0001831993313279331 0 0.00013544024971439217 0.00084508671985722157 0 -8.2558412985810891e-05 7.9049111637470517e-05 0 0.00013544024971439217 0.00084508671985722157 0 0.00058819853558870398 0.00074738147158957629 0 -0.00030904044563206224 5.1246484801405337e-05 0 0.00013544024971439217 0.00084508671985722157 0 -0.00041559850744775931 0.000667556857898943 0 -0.0017660449324742161 0.00020480920671222814 0 0.00024582963541400487 0.00095124352987931886 0 -0.00213474207735767 -0.00047004288901803605 0 -0.0011181785383576951 -4.3258191024005836e-05 0 -0.0031103763835097589 -0.0012093123214767187 0 -0.0026910920719981826 -0.0012512194743651613 0 -0.0030599615140419834 -0.00091334422114822242 0 -0.0025865409510975245 -0.0010053018875903479 0 -0.0031103763835097589 -0.0012093123214767187 0 -0.0030599615140419834 -0.00091334422114822242 0 -0.0011181785383576951 -4.3258191024005836e-05 0 -0.00050015703210309242 0.00081125058563276658 0 0.00058819853558870398 0.00074738147158957629 0 0.00048509640966884037 0.0014679406040328934 0 0.0011742853163265044 0.0014121179490745627 0 0.00013544024971439217 0.00084508671985722157 0 0.00058819853558870398 0.00074738147158957629 0 0.00048509640966884037 0.0014679406040328934 0 0.00048509640966884037 0.0014679406040328934 0 0.00074308113758827208 0.0019117199610019725 0 0.0011742853163265044 0.0014121179490745627 0 0.00013544024971439217 0.00084508671985722157 0 -0.00041559850744775931 0.000667556857898943 0 -0.00016660065193323947 0.0013274772618736756 0 0.00013544024971439217 0.00084508671985722157 0 0.00048509640966884037 0.0014679406040328934 0 -0.00016660065193323947 0.0013274772618736756 0 0.00048509640966884037 0.0014679406040328934 0 -0.00016660065193323947 0.0013274772618736756 0 -3.1745446566942349e-05 0.001873719622189039 0 -0.00016660065193323947 0.0013274772618736756 0 -3.1745446566942349e-05 0.001873719622189039 0 -0.00054036669982549369 0.0017418617287302274 0 -3.1745446566942349e-05 0.001873719622189039 0 -0.00035331049510055963 0.0021991726628363931 0 7.8539265950382811e-05 0.0025274823273717609 0 -3.1745446566942349e-05 0.001873719622189039 0 0.00035775594767634811 0.0021167758131431136 0 7.8539265950382811e-05 0.0025274823273717609 0 -3.1745446566942349e-05 0.001873719622189039 0 -0.00054036669982549369 0.0017418617287302274 0 -0.00035331049510055963 0.0021991726628363931 0 0.00048509640966884037 0.0014679406040328934 0 -3.1745446566942349e-05 0.001873719622189039 0 0.00035775594767634811 0.0021167758131431136 0 0.00048509640966884037 0.0014679406040328934 0 0.00074308113758827208 0.0019117199610019725 0 0.00035775594767634811 0.0021167758131431136 0 0.00074308113758827208 0.0019117199610019725 0 0.001075240922376833 0.0020925044911748836 0 0.00073347800994859747 0.0024351369536516638 0 0.00074308113758827208 0.0019117199610019725 0 0.00035775594767634811 0.0021167758131431136 0 0.00073347800994859747 0.0024351369536516638 0 0.0014089303677270603 0.0020168346898943859 0 0.0017605399989969511 0.0020405307478451873 0 0.0011742853163265044 0.0014121179490745627 0 0.001075240922376833 0.0020925044911748836 0 0.0014089303677270603 0.0020168346898943859 0 0.0011742853163265044 0.0014121179490745627 0 0.00074308113758827208 0.0019117199610019725 0 0.001075240922376833 0.0020925044911748836 0 0.0011742853163265044 0.0014121179490745627 0 -0.00020494825138171638 0.0010005680215952714 0 -0.00050015703210309242 0.00081125058563276658 0 0.001075240922376833 0.0020925044911748836 0 0.0014089303677270603 0.0020168346898943859 0 0.0013166597737653547 0.0023094436703066734 0 0.0014089303677270603 0.0020168346898943859 0 0.0014991544831215032 0.0022244587995097886 0 0.0013166597737653547 0.0023094436703066734 0 -0.0013782828752395941 0.0010138849722409926 0 -0.0014458397463068206 0.00079647168986289379 0 -0.0023437171741074493 4.7694352923383092e-05 0 0.0014089303677270603 0.0020168346898943859 0 0.0014991544831215032 0.0022244587995097886 0 0.0016030366282267698 0.0021083440019803918 0 0.0014089303677270603 0.0020168346898943859 0 0.0016030366282267698 0.0021083440019803918 0 0.0017605399989969511 0.0020405307478451873 0 0.0014991544831215032 0.0022244587995097886 0 0.0016030366282267698 0.0021083440019803918 0 0.0017135878964044465 0.002203204214353906 0 0.0016030366282267698 0.0021083440019803918 0 0.0017135878964044465 0.002203204214353906 0 0.0017605399989969511 0.0020405307478451873 0 0.0007827592909575024 0.0015533982893229186 0 -0.00020494825138171638 0.0010005680215952714 0 -0.00020494825138171638 0.0010005680215952714 0 -0.00040658938085007159 0.00084916542441861346 0 -0.0014458397463068206 0.00079647168986289379 0 -0.001652491806917388 -0.00020990951838525067 0 -0.0023437171741074493 4.7694352923383092e-05 0 -0.0013783907531466463 0.0010081049502813516 0 -0.0014458397463068206 0.00079647168986289379 0 -0.00084987726953584858 -0.00067664806908778494 0 -0.0014458397463068206 0.00079647168986289379 0 -0.001652491806917388 -0.00020990951838525067 0 -0.00084987726953584858 -0.00067664806908778494 0 -0.00020494825138171638 0.0010005680215952714 0 -0.0010829807098516853 -0.00078110798835030271 0 -0.00078440018435057667 0.00015209003755422475 0 -0.00084987726953584858 -0.00067664806908778494 0 -0.000579223215930543 -8.793039249330078e-05 0 -0.0023036432892547462 -0.00071995174449270753 0 -0.001652491806917388 -0.00020990951838525067 0 -0.0023437171741074493 4.7694352923383092e-05 0 -0.0023036432892547462 -0.00071995174449270753 0 -0.0030599615140419834 -0.00091334422114822242 0 -0.0023437171741074493 4.7694352923383092e-05 0 -0.0026644017078272741 0.0017170390291005081 0 -0.0019190048553781288 0.0019113705086737339 0 -0.0024369873936981681 0.0021474030655772498 0 -0.0026644017078272741 0.0017170390291005081 0 -0.0024369873936981681 0.0021474030655772498 0 -0.0029694763330754283 0.0018686289675845489 0 -0.0026644017078272741 0.0017170390291005081 0 -0.0030273362451712278 0.0014608982224940854 0 -0.0029694763330754283 0.0018686289675845489 0 -0.0026644017078272741 0.0017170390291005081 0 -0.0030273362451712278 0.0014608982224940854 0 -0.002684988709767246 0.0013744001232572991 0 -0.002684988709767246 0.0013744001232572991 0 -0.0027856677396417479 0.00122670526397221 0 -0.0026934166780984972 0.00078828126355357344 0 -0.0027844883087937661 0.0013468190166874971 0 -0.002684988709767246 0.0013744001232572991 0 -0.0027856677396417479 0.00122670526397221 0 -0.0027856677396417479 0.00122670526397221 0 -0.0026934166780984972 0.00078828126355357344 0 -0.0028729031310669177 0.00099478073697769481 0 -0.0026143043255628228 0.0013527760180004416 0 -0.002293711004566136 0.0013856509608227059 0 -0.0026644017078272741 0.0017170390291005081 0 -0.002684988709767246 0.0013744001232572991 0 -0.0019190048553781288 0.0019113705086737339 0 -0.0026934166780984972 0.00078828126355357344 0 -0.0024987712205663442 0.00088382611680421018 0 -0.0028729031310669177 0.00099478073697769481 0 -0.0024987712205663442 0.00088382611680421018 0 -0.0012318350662406897 0.00036469090191746696 0 -0.0014539845869921755 0.0011458898412011276 0 -0.0024987712205663442 0.00088382611680421018 0 -0.0028729031310669177 0.00099478073697769481 0 -0.0029640379827701588 0.00094294305951723772 0 -0.0024837977623949972 0.00085917670509858414 0 -0.002076098091064107 0.00067624274216502862 0 -0.0028729031310669177 0.00099478073697769481 0 -0.0029743565346107333 0.00088754708935927012 0 -0.0029640379827701588 0.00094294305951723772 0 -0.0030682087640737095 0.00093375609391584374 0 -0.002922719757245697 0.00098318118734791308 0 -0.003177797174035745 0.00068364736592251311 0 -0.0033297613247544786 0.00062479703300791353 0 -0.0028729031310669177 0.00099478073697769481 0 -0.003177797174035745 0.00068364736592251311 0 -0.0028729031310669177 0.00099478073697769481 0 -0.0029743565346107333 0.00088754708935927012 0 -0.0028116255120669321 0.0013690162998905935 0 -0.0027856677396417479 0.00122670526397221 0 -0.0028729031310669177 0.00099478073697769481 0 -0.0028604848784475542 0.00071193020141238075 0 -0.003177797174035745 0.00068364736592251311 0 -0.0029743565346107333 0.00088754708935927012 0 -0.0029743565346107333 0.00088754708935927012 0 -0.0028920297522304198 0.00088264194233908879 0 -0.0029640379827701588 0.00094294305951723772 0 -0.0028604848784475542 0.00071193020141238075 0 -0.0029743565346107333 0.00088754708935927012 0 -0.0028920297522304198 0.00088264194233908879 0 -0.0028803477602043796 -0.00015597191989687639 0 -0.0033337835466410093 -0.00051893337737001009 0 -0.0032940788814806873 -0.00079077623052237786 0 -0.0037614256379048016 -0.00016242262366038913 0 -0.0017660449324742161 0.00020480920671222814 0 -0.0028604848784475542 0.00071193020141238075 0 -0.002764537931989748 0.00090828539345029523 0 -0.0028920297522304198 0.00088264194233908879 0 -0.002764537931989748 0.00090828539345029523 0 -0.0028920297522304198 0.00088264194233908879 0 -0.0029640379827701588 0.00094294305951723772 0 -0.00030904044563206224 5.1246484801405337e-05 0 -0.00041559850744775931 0.000667556857898943 0 -0.0012318350662406897 0.00036469090191746696 0 -0.0017660449324742161 0.00020480920671222814 0 -0.002076098091064107 0.00067624274216502862 0 -0.0012318350662406897 0.00036469090191746696 0 -0.00094234367473657727 0.00084683773087496431 0 -0.0014539845869921755 0.0011458898412011276 0 -0.00041559850744775931 0.000667556857898943 0 -0.0012318350662406897 0.00036469090191746696 0 -0.00094234367473657727 0.00084683773087496431 0 -0.00041559850744775931 0.000667556857898943 0 -0.00016660065193323947 0.0013274772618736756 0 -0.00071986012473247436 0.0012322015200389887 0 -0.00041559850744775931 0.000667556857898943 0 -0.00094234367473657727 0.00084683773087496431 0 -0.00071986012473247436 0.0012322015200389887 0 -0.00094234367473657727 0.00084683773087496431 0 -0.00071986012473247436 0.0012322015200389887 0 -0.0014539845869921755 0.0011458898412011276 0 -0.00071986012473247436 0.0012322015200389887 0 -0.0010765333169426435 0.0016071193161251919 0 -0.0014539845869921755 0.0011458898412011276 0 -0.00071986012473247436 0.0012322015200389887 0 -0.0010765333169426435 0.0016071193161251919 0 -0.00054036669982549369 0.0017418617287302274 0 -0.00016660065193323947 0.0013274772618736756 0 -0.00071986012473247436 0.0012322015200389887 0 -0.00054036669982549369 0.0017418617287302274 0 -0.00054036669982549369 0.0017418617287302274 0 -0.00035331049510055963 0.0021991726628363931 0 -0.0009635543826768681 0.002132145066832695 0 -0.00035331049510055963 0.0021991726628363931 0 -0.0009635543826768681 0.002132145066832695 0 -0.00029541600570448068 0.0025447514055705598 0 -0.0010765333169426435 0.0016071193161251919 0 -0.00054036669982549369 0.0017418617287302274 0 -0.0009635543826768681 0.002132145066832695 0 -0.0011386974170426631 0.0025739743596901342 0 -0.00025549656718276632 0.0034382756805295903 0 -0.0011314052753205758 0.0031719134934039398 0 -0.0009635543826768681 0.002132145066832695 0 -0.001853493435455264 0.0017763689005025664 0 -0.00075380315039183434 0.003136393829554697 0 -0.0014919630532473191 0.0021762013589957351 0 -0.00048292830601397033 0.0032942271579255297 0 -0.0010765333169426435 0.0016071193161251919 0 -0.0009635543826768681 0.002132145066832695 0 -0.001853493435455264 0.0017763689005025664 0 -0.0024987712205663442 0.00088382611680421018 0 -0.001853493435455264 0.0017763689005025664 0 -0.0014539845869921755 0.0011458898412011276 0 -0.0010765333169426435 0.0016071193161251919 0 -0.001853493435455264 0.0017763689005025664 0 -0.0014539845869921755 0.0011458898412011276 0 -0.0019190048553781288 0.0019113705086737339 0 -0.0011386974170426631 0.0025739743596901342 0 -0.0018961307593932377 0.0024009139853048271 0 -0.0026934166780984972 0.00078828126355357344 0 -0.0024987712205663442 0.00088382611680421018 0 -0.001853493435455264 0.0017763689005025664 0 -0.002293711004566136 0.0013856509608227059 0 -0.0014919630532473191 0.0021762013589957351 0 -0.0019190048553781288 0.0019113705086737339 0 -0.0018961307593932377 0.0024009139853048271 0 -0.0024369873936981681 0.0021474030655772498 0 -0.0011386974170426631 0.0025739743596901342 0 -0.0018961307593932377 0.0024009139853048271 0 -0.0017937742166012113 0.0028754530578659261 0 -0.0017937742166012113 0.0028754530578659261 0 -0.0016887042761082563 0.0033868165436338844 0 -0.0011314052753205758 0.0031719134934039398 0 -0.0011386974170426631 0.0025739743596901342 0 -0.0017937742166012113 0.0028754530578659261 0 -0.0011314052753205758 0.0031719134934039398 0 -0.0018961307593932377 0.0024009139853048271 0 -0.0017937742166012113 0.0028754530578659261 0 -0.0023030324587239959 0.0025907183415908837 0 -0.0023030324587239959 0.0025907183415908837 0 -0.0025463119178505667 0.0031823620660232942 0 -0.0030529819266239817 0.0025812823793319403 0 -0.0017937742166012113 0.0028754530578659261 0 -0.0025463119178505667 0.0031823620660232942 0 -0.0016887042761082563 0.0033868165436338844 0 -0.0017937742166012113 0.0028754530578659261 0 -0.0023030324587239959 0.0025907183415908837 0 -0.0025463119178505667 0.0031823620660232942 0 -0.0023030324587239959 0.0025907183415908837 0 -0.0024369873936981681 0.0021474030655772498 0 -0.0030529819266239817 0.0025812823793319403 0 -0.0024369873936981681 0.0021474030655772498 0 -0.0030529819266239817 0.0025812823793319403 0 -0.0029694763330754283 0.0018686289675845489 0 -0.0018961307593932377 0.0024009139853048271 0 -0.0023030324587239959 0.0025907183415908837 0 -0.0024369873936981681 0.0021474030655772498 0 -0.0023414677119478165 0.0041713871557846685 0 -0.0025463119178505667 0.0031823620660232942 0 -0.0016887042761082563 0.0033868165436338844 0 -0.0023414677119478165 0.0041713871557846685 0 -0.0016887042761082563 0.0033868165436338844 0 -0.0010813883236817097 0.0038650856213513448 0 -0.0016887042761082563 0.0033868165436338844 0 -0.0010813883236817097 0.0038650856213513448 0 -0.0011314052753205758 0.0031719134934039398 0 -0.0023414677119478165 0.0041713871557846685 0 -0.0010813883236817097 0.0038650856213513448 0 -0.00094312214523247504 0.0049186973306638354 0 -0.00033152155933222446 0.0044153852321574677 0 0.00037741266980173202 0.0049453003145439036 0 -0.0010813883236817097 0.0038650856213513448 0 -7.6116639905425036e-05 0.004261555205059676 0 -0.00025549656718276632 0.0034382756805295903 0 -0.0010813883236817097 0.0038650856213513448 0 -7.6116639905425036e-05 0.004261555205059676 0 -0.00094312214523247504 0.0049186973306638354 0 -0.0010813883236817097 0.0038650856213513448 0 -0.00025549656718276632 0.0034382756805295903 0 -0.0011314052753205758 0.0031719134934039398 0 -0.0009635543826768681 0.002132145066832695 0 -0.00029541600570448068 0.0025447514055705598 0 -0.00040218658653336253 0.0029434068381686204 0 -0.0009635543826768681 0.002132145066832695 0 -0.00075380315039183434 0.003136393829554697 0 0.00048911902570314262 0.0037590916278309274 0 -0.00084505777317439666 0.0021997289010605475 0 1.4979603081605676e-05 0.0033564855900166898 0 0.00048911902570314262 0.0037590916278309274 0 0.00058375739463925385 0.0044487010226245006 0 0.0013372181860798666 0.0050804791437863367 0 -0.00048292830601397033 0.0032942271579255297 0 0.00043636563454052904 0.0043828307148977112 0 -0.00075380315039183434 0.003136393829554697 0 0.00048911902570314262 0.0037590916278309274 0 0.00058375739463925385 0.0044487010226245006 0 -7.6116639905425036e-05 0.004261555205059676 0 -0.00025549656718276632 0.0034382756805295903 0 0.00058375739463925385 0.0044487010226245006 0 -7.6116639905425036e-05 0.004261555205059676 0 0.00058375739463925385 0.0044487010226245006 0 0.00051236019358947519 0.0047783849100303914 0 0.00058375739463925385 0.0044487010226245006 0 0.00051236019358947519 0.0047783849100303914 0 0.0013372181860798666 0.0050804791437863367 0 0.00051236019358947519 0.0047783849100303914 0 0.0010946254438695827 0.0052492364805002594 0 0.0013372181860798666 0.0050804791437863367 0 0.0010946254438695827 0.0052492364805002594 0 0.0013372181860798666 0.0050804791437863367 0 0.0013362686186803078 0.0051533038390509482 0 0.0010946254438695827 0.0052492364805002594 0 0.0013362686186803078 0.0051533038390509482 0 0.0014633919792798563 0.0050577556613373292 0 0.0010946254438695827 0.0052492364805002594 0 0.0016192411850057247 0.0050428914147583066 0 0.0014633919792798563 0.0050577556613373292 0 0.0010946254438695827 0.0052492364805002594 0 0.0016192411850057247 0.0050428914147583066 0 0.0017328151571777404 0.0050466669245761205 0 0.00099215146039545389 0.0052198218123746375 0 0.00037741266980173202 0.0049453003145439036 0 0.00051236019358947519 0.0047783849100303914 0 0.0010946254438695827 0.0052492364805002594 0 -0.00094312214523247504 0.0049186973306638354 0 -7.6116639905425036e-05 0.004261555205059676 0 0.00051236019358947519 0.0047783849100303914 0 -0.00094312214523247504 0.0049186973306638354 0 0.0016192411850057247 0.0050428914147583066 0 0.0017328151571777404 0.0050466669245761205 0 0.0017421031732818781 0.0049759082837638174 0 0.0017328151571777404 0.0050466669245761205 0 0.0017421031732818781 0.0049759082837638174 0 0.0016749265803237773 0.0049099185690391787 0 0.0016749265803237773 0.0049099185690391787 0 0.0015526765275701464 0.0049012363186095162 0 0.0016449933848205567 0.0049636607485809715 0 0.0017421031732818781 0.0049759082837638174 0 0.0016749265803237773 0.0049099185690391787 0 0.0016449933848205567 0.0049636607485809715 0 0.0016878997457248422 0.0046730118483681504 0 0.0017328151571777404 0.0050466669245761205 0 0.0016749265803237773 0.0049099185690391787 0 0.0016878997457248422 0.0046730118483681504 0 0.0016749265803237773 0.0049099185690391787 0 0.0015311230356087609 0.0047377655891036909 0 0.0013933647525061063 0.003093392571304897 0 0.0011647306438532187 0.0028824570217499696 0 0.0011245616505944087 0.0030756400717312843 0 0.0013933647525061063 0.003093392571304897 0 0.0011647306438532187 0.0028824570217499696 0 0.0012850417906040243 0.0026044865474465747 0 0.0011647306438532187 0.0028824570217499696 0 0.00091513041615223453 0.0029290784241960085 0 0.0010716393216430909 0.0026592092706431186 0 0.0011647306438532187 0.0028824570217499696 0 0.00091513041615223453 0.0029290784241960085 0 0.0011245616505944087 0.0030756400717312843 0 0.00091513041615223453 0.0029290784241960085 0 0.0011245616505944087 0.0030756400717312843 0 0.0010166991842630463 0.0033357772755207345 0 0.0013933647525061063 0.003093392571304897 0 0.0011245616505944087 0.0030756400717312843 0 0.0010166991842630463 0.0033357772755207345 0 0.0012627942900482931 0.0029947902332197042 0 0.0015302374296364801 0.0030238012242732133 0 0.001340845649210561 0.0034351209040819871 0 0.00028400653597040061 0.00034892369011195598 0 0.00023723884041144407 0.00023471226971983028 0 0.00011281545995209904 0.00036863173917230975 0 0.00028400653597040061 0.00034892369011195598 0 0.00016575282078927178 0.00053594239922929857 0 0.00011281545995209904 0.00036863173917230975 0 0.00028312819149727014 0.00074138352809002101 0 0.00028400653597040061 0.00034892369011195598 0 0.00016575282078927178 0.00053594239922929857 0 0.0015391610951542014 0.0020011043600471671 0 0.0012627942900482931 0.0029947902332197042 0 0.0015302374296364801 0.0030238012242732133 0 0.0007827592909575024 0.0015533982893229186 0 0.0014120663133755614 0.0031342748744555369 0 0.0017135878964044465 0.002203204214353906 0 0.0013933647525061063 0.003093392571304897 0 0.0014550787304996122 0.0024810196266258524 0 0.0007827592909575024 0.0015533982893229186 0 0.00092192183863764861 0.0016406243014313315 0 0.00028312819149727014 0.00074138352809002101 0 0.00026087998441637128 0.00082426187679366877 0 0.00016575282078927178 0.00053594239922929857 0 0.00026087998441637128 0.00082426187679366877 0 0.00016575282078927178 0.00053594239922929857 0 -9.8869136355420178e-05 0.00046784178591699818 0 0.0014991544831215032 0.0022244587995097886 0 0.0017135878964044465 0.002203204214353906 0 0.0014550787304996122 0.0024810196266258524 0 0.0013933647525061063 0.003093392571304897 0 0.0014550787304996122 0.0024810196266258524 0 0.0012850417906040243 0.0026044865474465747 0 0.0013166597737653547 0.0023094436703066734 0 0.0014550787304996122 0.0024810196266258524 0 0.0012850417906040243 0.0026044865474465747 0 0.0013166597737653547 0.0023094436703066734 0 0.0012850417906040243 0.0026044865474465747 0 0.001101455840322525 0.0024124059406372502 0 0.0014991544831215032 0.0022244587995097886 0 0.0013166597737653547 0.0023094436703066734 0 0.0014550787304996122 0.0024810196266258524 0 0.0011647306438532187 0.0028824570217499696 0 0.0012850417906040243 0.0026044865474465747 0 0.0010716393216430909 0.0026592092706431186 0 0.00091513041615223453 0.0029290784241960085 0 0.0010716393216430909 0.0026592092706431186 0 0.00073347800994859747 0.0024351369536516638 0 0.0012850417906040243 0.0026044865474465747 0 0.0010716393216430909 0.0026592092706431186 0 0.001101455840322525 0.0024124059406372502 0 0.001075240922376833 0.0020925044911748836 0 0.0013166597737653547 0.0023094436703066734 0 0.001101455840322525 0.0024124059406372502 0 0.0010716393216430909 0.0026592092706431186 0 0.001101455840322525 0.0024124059406372502 0 0.00073347800994859747 0.0024351369536516638 0 0.001075240922376833 0.0020925044911748836 0 0.001101455840322525 0.0024124059406372502 0 0.00073347800994859747 0.0024351369536516638 0 0.00035775594767634811 0.0021167758131431136 0 0.00073347800994859747 0.0024351369536516638 0 7.8539265950382811e-05 0.0025274823273717609 0 0.00073347800994859747 0.0024351369536516638 0 0.00049944338593592148 0.0028102348677619773 0 7.8539265950382811e-05 0.0025274823273717609 0 0.00091513041615223453 0.0029290784241960085 0 0.00073347800994859747 0.0024351369536516638 0 0.00049944338593592148 0.0028102348677619773 0 -0.00035331049510055963 0.0021991726628363931 0 -0.00029541600570448068 0.0025447514055705598 0 7.8539265950382811e-05 0.0025274823273717609 0 0.00049944338593592148 0.0028102348677619773 0 7.8539265950382811e-05 0.0025274823273717609 0 0.00014407633539438363 0.0029267924568718981 0 -0.00029541600570448068 0.0025447514055705598 0 -0.00040218658653336253 0.0029434068381686204 0 0.00014407633539438363 0.0029267924568718981 0 -0.00029541600570448068 0.0025447514055705598 0 7.8539265950382811e-05 0.0025274823273717609 0 0.00014407633539438363 0.0029267924568718981 0 1.4979603081605676e-05 0.0033564855900166898 0 0.00071792921853419428 0.0043942971384893174 0 -0.00040218658653336253 0.0029434068381686204 0 0.00014407633539438363 0.0029267924568718981 0 0.00024282077643059393 0.0032918500594262862 0 -0.00040218658653336253 0.0029434068381686204 0 0.00024282077643059393 0.0032918500594262862 0 0.0001312816850857667 0.0037382449327994271 0 0.00014407633539438363 0.0029267924568718981 0 0.00024282077643059393 0.0032918500594262862 0 0.00061697973209547563 0.0032072662369388842 0 0.00091513041615223453 0.0029290784241960085 0 0.00049944338593592148 0.0028102348677619773 0 0.00061697973209547563 0.0032072662369388842 0 0.00049944338593592148 0.0028102348677619773 0 0.00014407633539438363 0.0029267924568718981 0 0.00061697973209547563 0.0032072662369388842 0 0.00091513041615223453 0.0029290784241960085 0 0.0010166991842630463 0.0033357772755207345 0 0.00061697973209547563 0.0032072662369388842 0 0.00067045562459482934 0.0036113545611407435 0 0.0001312816850857667 0.0037382449327994271 0 0.00080175173027404454 0.0040341023100758898 0 0.0010166991842630463 0.0033357772755207345 0 0.00061697973209547563 0.0032072662369388842 0 0.00067045562459482934 0.0036113545611407435 0 0.00024282077643059393 0.0032918500594262862 0 0.00061697973209547563 0.0032072662369388842 0 0.00067045562459482934 0.0036113545611407435 0 0.00024282077643059393 0.0032918500594262862 0 0.00067045562459482934 0.0036113545611407435 0 0.0001312816850857667 0.0037382449327994271 0 0.00071792921853419428 0.0043942971384893174 0 0.00098315515982375155 0.0047171450289096124 0 0.0013372181860798666 0.0050804791437863367 0 0.0013362686186803078 0.0051533038390509482 0 0.0013191744913982678 0.0051289805552141732 0 0.0001312816850857667 0.0037382449327994271 0 0.00080175173027404454 0.0040341023100758898 0 0.00063548001318698623 0.0043553527537827557 0 0.00067045562459482934 0.0036113545611407435 0 0.00080175173027404454 0.0040341023100758898 0 0.0010944097850884287 0.0038224195721623792 0 0.00080175173027404454 0.0040341023100758898 0 0.0011437896477116589 0.0041409899678449104 0 0.0010465880297758628 0.0044198511984933223 0 0.0011437896477116589 0.0041409899678449104 0 0.0010944097850884287 0.0038224195721623792 0 0.0014651960292828077 0.0038603722551396671 0 0.00080175173027404454 0.0040341023100758898 0 0.0011437896477116589 0.0041409899678449104 0 0.0010944097850884287 0.0038224195721623792 0 0.0012627942900482931 0.0029947902332197042 0 0.0010944097850884287 0.0038224195721623792 0 0.001340845649210561 0.0034351209040819871 0 0.0010166991842630463 0.0033357772755207345 0 0.00067045562459482934 0.0036113545611407435 0 0.0010944097850884287 0.0038224195721623792 0 0.0013933647525061063 0.003093392571304897 0 0.0010166991842630463 0.0033357772755207345 0 0.0010944097850884287 0.0038224195721623792 0 0.0014120663133755614 0.0031342748744555369 0 0.0010955637743660129 0.003737209642245211 0 0.0010944097850884287 0.0038224195721623792 0 0.001340845649210561 0.0034351209040819871 0 0.0014651960292828077 0.0038603722551396671 0 0.00028400653597040061 0.00034892369011195598 0 0.00023723884041144407 0.00023471226971983028 0 0.0003473939372200895 0.00012767051029122372 0 0.00092192183863764861 0.0016406243014313315 0 0.00089974168578813149 0.0020159237949858673 0 0.0015302374296364801 0.0030238012242732133 0 0.001340845649210561 0.0034351209040819871 0 0.0014651960292828077 0.0038603722551396671 0 0.00023723884041144407 0.00023471226971983028 0 0.0003473939372200895 0.00012767051029122372 0 0.0002319440156733622 0.00015413500006156367 0 0.0003473939372200895 0.00012767051029122372 0 0.00024980911511490598 3.4006560475296348e-05 0 0.00039008348894425824 -7.5313550314479671e-05 0 0.0011437896477116589 0.0041409899678449104 0 0.0014651960292828077 0.0038603722551396671 0 0.0013230824212161119 0.0044458598294153679 0 0.00089974168578813149 0.0020159237949858673 0 0.00085559984948299899 0.0020621051926093033 0 0.0003473939372200895 0.00012767051029122372 0 0.00024980911511490598 3.4006560475296348e-05 0 0.0002319440156733622 0.00015413500006156367 0 0.00024980911511490598 3.4006560475296348e-05 0 0.00010769496664807977 0.00019524873973087955 0 0.0002319440156733622 0.00015413500006156367 0 0.00024980911511490598 3.4006560475296348e-05 0 0.00010645860194197814 7.6190697225190899e-05 0 0.00010769496664807977 0.00019524873973087955 0 0.00010645860194197814 7.6190697225190899e-05 0 -8.5677817538885886e-05 3.9858515643118207e-05 0 0.00017390782085444347 -5.5807519017429962e-05 0 0.00010645860194197814 7.6190697225190899e-05 0 -5.6037208759267962e-05 0.00025427861483341089 0 -8.5677817538885886e-05 3.9858515643118207e-05 0 0.00024980911511490598 3.4006560475296348e-05 0 0.00010645860194197814 7.6190697225190899e-05 0 0.00017390782085444347 -5.5807519017429962e-05 0 -5.6037208759267962e-05 0.00025427861483341089 0 0.00010769496664807977 0.00019524873973087955 0 3.9219038871553584e-05 0.0005161236443361676 0 0.00010645860194197814 7.6190697225190899e-05 0 -5.6037208759267962e-05 0.00025427861483341089 0 0.00010769496664807977 0.00019524873973087955 0 0.00010769496664807977 0.00019524873973087955 0 0.00013868477478365279 0.00027111893136210266 0 2.5465362102370689e-05 0.0003816744227529316 0 0.00010769496664807977 0.00019524873973087955 0 0.0002319440156733622 0.00015413500006156367 0 0.00013868477478365279 0.00027111893136210266 0 0.00023723884041144407 0.00023471226971983028 0 0.0002319440156733622 0.00015413500006156367 0 0.00013868477478365279 0.00027111893136210266 0 0.00013868477478365279 0.00027111893136210266 0 0.00011281545995209904 0.00036863173917230975 0 2.5465362102370689e-05 0.0003816744227529316 0 0.00023723884041144407 0.00023471226971983028 0 0.00013868477478365279 0.00027111893136210266 0 0.00011281545995209904 0.00036863173917230975 0 0.00011281545995209904 0.00036863173917230975 0 2.5465362102370689e-05 0.0003816744227529316 0 -9.8869136355420178e-05 0.00046784178591699818 0 0.00010769496664807977 0.00019524873973087955 0 2.5465362102370689e-05 0.0003816744227529316 0 -2.9027744998697249e-05 0.00045681409437271894 0 0.00010287979732588026 0.0002196837270341962 0 -4.0907690559363017e-06 0.0004878760325772993 0 2.5465362102370689e-05 0.0003816744227529316 0 -2.9027744998697249e-05 0.00045681409437271894 0 -9.8869136355420178e-05 0.00046784178591699818 0 -2.9027744998697249e-05 0.00045681409437271894 0 -7.1496509067971176e-05 0.00025479034955817138 0 0.00018179268938865598 0.00020450458392252559 0 -2.9027744998697249e-05 0.00045681409437271894 0 -7.1496509067971176e-05 0.00025479034955817138 0 -9.8869136355420178e-05 0.00046784178591699818 0 -4.0907690559363017e-06 0.0004878760325772993 0 0.00017812129353021359 0.00057253271597831109 0 -0.00078440018435057667 0.00015209003755422475 0 -9.8869136355420178e-05 0.00046784178591699818 0 -0.00034634319636498941 0.00016038111669204033 0 -7.1496509067971176e-05 0.00025479034955817138 0 -9.8869136355420178e-05 0.00046784178591699818 0 -0.00034634319636498941 0.00016038111669204033 0 -0.00020494825138171638 0.0010005680215952714 0 -0.00020192981394371239 0.00030354096362644436 0 0.00016575282078927178 0.00053594239922929857 0 0.00011281545995209904 0.00036863173917230975 0 -9.8869136355420178e-05 0.00046784178591699818 0 -0.00069268956865226213 0.00094432880663228292 0 -0.00038110172054958702 0.00052724856908566294 0 -0.00013979228426282516 0.00098876846863006542 0 3.9219038871553584e-05 0.0005161236443361676 0 -0.00038110172054958702 0.00052724856908566294 0 -0.00013979228426282516 0.00098876846863006542 0 -5.6037208759267962e-05 0.00025427861483341089 0 3.9219038871553584e-05 0.0005161236443361676 0 -0.00038110172054958702 0.00052724856908566294 0 -0.00069268956865226213 0.00094432880663228292 0 -0.00038110172054958702 0.00052724856908566294 0 -0.0011759363626164508 0.00023580721554829101 0 -0.00038110172054958702 0.00052724856908566294 0 -0.0003093719898236425 0.00017956163861052756 0 -0.0011759363626164508 0.00023580721554829101 0 -0.0003093719898236425 0.00017956163861052756 0 -0.00059612108616886601 4.5308914640237159e-05 0 -0.0011759363626164508 0.00023580721554829101 0 -5.6037208759267962e-05 0.00025427861483341089 0 -0.00038110172054958702 0.00052724856908566294 0 -0.0003093719898236425 0.00017956163861052756 0 -5.6037208759267962e-05 0.00025427861483341089 0 -0.0003093719898236425 0.00017956163861052756 0 -8.5677817538885886e-05 3.9858515643118207e-05 0 -0.0003093719898236425 0.00017956163861052756 0 -8.5677817538885886e-05 3.9858515643118207e-05 0 -0.00059612108616886601 4.5308914640237159e-05 0 -8.5677817538885886e-05 3.9858515643118207e-05 0 -0.00059612108616886601 4.5308914640237159e-05 0 -0.00017840957491630673 -4.3154474969042714e-05 0 -0.00059612108616886601 4.5308914640237159e-05 0 -0.00069612741021195669 1.7600800448188428e-05 0 -0.00037331521378883113 -4.1724195410638052e-05 0 -0.00059612108616886601 4.5308914640237159e-05 0 -0.00069612741021195669 1.7600800448188428e-05 0 -0.0010305927453366913 7.1742154056619016e-05 0 -0.00059612108616886601 4.5308914640237159e-05 0 -0.0010305927453366913 7.1742154056619016e-05 0 -0.0011759363626164508 0.00023580721554829101 0 -0.0010305927453366913 7.1742154056619016e-05 0 -0.00065851522766979277 -1.7749577125998716e-05 0 -0.00073931056716292553 -2.1745915305533292e-07 0 -0.00065851522766979277 -1.7749577125998716e-05 0 -0.00073931056716292553 -2.1745915305533292e-07 0 0.00015126350202493091 3.6090993701777589e-07 0 -0.00069612741021195669 1.7600800448188428e-05 0 -0.0010305927453366913 7.1742154056619016e-05 0 -0.00065851522766979277 -1.7749577125998716e-05 0 -0.00069612741021195669 1.7600800448188428e-05 0 -0.00065851522766979277 -1.7749577125998716e-05 0 -0.00057025121501799616 4.5720312916291595e-05 0 -0.0010305927453366913 7.1742154056619016e-05 0 -0.00073931056716292553 -2.1745915305533292e-07 0 -0.001455450400587788 2.0693836121119159e-05 0 -0.00073931056716292553 -2.1745915305533292e-07 0 -0.001455450400587788 2.0693836121119159e-05 0 -0.0016322740965825859 1.7722434619089156e-08 0 -0.001455450400587788 2.0693836121119159e-05 0 -0.0016322740965825859 1.7722434619089156e-08 0 -0.0021278265478383187 -7.8773352512503481e-05 0 -0.0010305927453366913 7.1742154056619016e-05 0 -0.001455450400587788 2.0693836121119159e-05 0 -0.0011759363626164508 0.00023580721554829101 0 -0.001455450400587788 2.0693836121119159e-05 0 -0.0011759363626164508 0.00023580721554829101 0 -0.0018296598156929873 -3.1240770380735698e-05 0 -0.001455450400587788 2.0693836121119159e-05 0 -0.0018296598156929873 -3.1240770380735698e-05 0 -0.0021278265478383187 -7.8773352512503481e-05 0 -0.0021426586397320724 -2.8294660993600051e-05 0 -0.0011759363626164508 0.00023580721554829101 0 -0.0018296598156929873 -3.1240770380735698e-05 0 -0.0013368087757764633 0.00052676992242369402 0 -0.0012698440434454868 0.00019327961704284212 0 -0.0021426586397320724 -2.8294660993600051e-05 0 -0.0018296598156929873 -3.1240770380735698e-05 0 -0.0021930848497935854 -0.00011739629785989013 0 -0.0018296598156929873 -3.1240770380735698e-05 0 -0.0021930848497935854 -0.00011739629785989013 0 -0.0022241000320367718 -0.00012055642642096552 0 -0.0018296598156929873 -3.1240770380735698e-05 0 -0.0022241000320367718 -0.00012055642642096552 0 -0.0021278265478383187 -7.8773352512503481e-05 0 -0.0022241000320367718 -0.00012055642642096552 0 -0.0021278265478383187 -7.8773352512503481e-05 0 -0.0025197208309628242 -0.00016720091275923004 0 -0.0024425905291286698 -0.00016680781665477935 0 -0.0022241000320367718 -0.00012055642642096552 0 -0.0025197208309628242 -0.00016720091275923004 0 -0.0024425905291286698 -0.00016680781665477935 0 -0.0023868244979735587 -0.00012031336287514188 0 -0.0022241000320367718 -0.00012055642642096552 0 -0.0024425905291286698 -0.00016680781665477935 0 -0.0023868244979735587 -0.00012031336287514188 0 -0.0025285218630253289 -0.00021107019210667323 0 -0.0023868244979735587 -0.00012031336287514188 0 -0.0025285218630253289 -0.00021107019210667323 0 -0.002685270145520436 -0.00025156898170224459 0 -0.0021930848497935854 -0.00011739629785989013 0 -0.0023868244979735587 -0.00012031336287514188 0 -0.0022787852228249119 -0.00013245486803839781 0 -0.0021930848497935854 -0.00011739629785989013 0 -0.0023868244979735587 -0.00012031336287514188 0 -0.0022241000320367718 -0.00012055642642096552 0 -0.0016322740965825859 1.7722434619089156e-08 0 -0.0021278265478383187 -7.8773352512503481e-05 0 -0.0025248300499792365 -1.9143341343256332e-07 0 -0.0021278265478383187 -7.8773352512503481e-05 0 -0.0026889883676490208 -0.00010237037935694864 0 -0.0025197208309628242 -0.00016720091275923004 0 -0.0021278265478383187 -7.8773352512503481e-05 0 -0.0025248300499792365 -1.9143341343256332e-07 0 -0.0026889883676490208 -0.00010237037935694864 0 -0.0026889883676490208 -0.00010237037935694864 0 -0.0029642871638762727 -0.00013676780240208451 0 -0.0034175272654785025 -2.3415688537974618e-07 0 -0.0025248300499792365 -1.9143341343256332e-07 0 -0.0026889883676490208 -0.00010237037935694864 0 -0.0034175272654785025 -2.3415688537974618e-07 0 -0.0026889883676490208 -0.00010237037935694864 0 -0.0029642871638762727 -0.00013676780240208451 0 -0.0025197208309628242 -0.00016720091275923004 0 -0.0035782748827995281 -2.6321699141851103e-05 0 -0.0029642871638762727 -0.00013676780240208451 0 -0.0034175272654785025 -2.3415688537974618e-07 0 -0.002621961525333171 -0.00023193233678241431 0 -0.0025285218630253289 -0.00021107019210667323 0 -0.0029533069259161686 -0.00034575711290144186 0 -0.0024425905291286698 -0.00016680781665477935 0 -0.002621961525333171 -0.00023193233678241431 0 -0.0025285218630253289 -0.00021107019210667323 0 -0.0029642871638762727 -0.00013676780240208451 0 -0.0025197208309628242 -0.00016720091275923004 0 -0.0027452217071397464 -0.00026760418906918718 0 -0.0024425905291286698 -0.00016680781665477935 0 -0.002621961525333171 -0.00023193233678241431 0 -0.0025197208309628242 -0.00016720091275923004 0 -0.002621961525333171 -0.00023193233678241431 0 -0.0025197208309628242 -0.00016720091275923004 0 -0.0027452217071397464 -0.00026760418906918718 0 -0.0033413658123460509 -0.00020697357506867619 0 -0.0028382127161857844 -0.00027046519614594536 0 -0.0030690748303800878 -0.00036108276332830983 0 -0.0035555008025753309 -0.00046420904507288112 0 -0.0027452217071397464 -0.00026760418906918718 0 -0.0030971439288900475 1.7795278899264694e-05 0 -0.0029642871638762727 -0.00013676780240208451 0 -0.0027452217071397464 -0.00026760418906918718 0 -0.0030690748303800878 -0.00036108276332830983 0 -0.0027452217071397464 -0.00026760418906918718 0 -0.0029533069259161686 -0.00034575711290144186 0 -0.002621961525333171 -0.00023193233678241431 0 -0.0027452217071397464 -0.00026760418906918718 0 -0.0029533069259161686 -0.00034575711290144186 0 -0.0022507395051738332 -0.00015541463299844675 0 -0.0039051712846475354 -0.00060809887959020965 0 -0.0077048850834539242 -0.00075109642782826688 0 -0.0078915036458460184 -0.00088575154176133138 0 -0.0076964358769650177 -0.00095171170196842474 0 -0.0078915036458460184 -0.00088575154176133138 0 -0.0077679097672316913 -0.0011261801132759321 0 -0.0076964358769650177 -0.00095171170196842474 0 -0.0039051712846475354 -0.00060809887959020965 0 -0.0052580522411445323 -0.00069697635043305039 0 -0.0025285218630253289 -0.00021107019210667323 0 -0.0026763887852034986 -0.00070210147925637244 0 -0.0027750508915271432 -0.00043943861635398787 0 -0.0052580522411445323 -0.00069697635043305039 0 -0.0037568864199533916 -0.00020426095809702026 0 -0.0027750508915271432 -0.00043943861635398787 0 -0.002685270145520436 -0.00025156898170224459 0 -0.0029154137241693802 -0.00015271555297172924 0 -0.0025285218630253289 -0.00021107019210667323 0 -0.0027750508915271432 -0.00043943861635398787 0 -0.002685270145520436 -0.00025156898170224459 0 -0.0075356382980339594 -0.0013082557208658262 0 -0.0075740354449739941 -0.0010869471510988034 0 -0.00734677796145563 -0.0010058155252259252 0 -0.0075356382980339594 -0.0013082557208658262 0 -0.0076351684655733996 -0.0012027756100979109 0 -0.0075740354449739941 -0.0010869471510988034 0 -0.0077679097672316913 -0.0011261801132759321 0 -0.0076351684655733996 -0.0012027756100979109 0 -0.0076490230814502697 -0.0013376546959542514 0 -0.0047073032758592611 -0.0012548652842624831 0 -0.0037568864199533916 -0.00020426095809702026 0 -0.0075356382980339594 -0.0013082557208658262 0 -0.0076351684655733996 -0.0012027756100979109 0 -0.0076490230814502697 -0.0013376546959542514 0 -0.0077679097672316913 -0.0011261801132759321 0 -0.0076351684655733996 -0.0012027756100979109 0 -0.0075740354449739941 -0.0010869471510988034 0 -0.0075740354449739941 -0.0010869471510988034 0 -0.0075516986232474978 -0.00086924640469073812 0 -0.00734677796145563 -0.0010058155252259252 0 -0.0077679097672316913 -0.0011261801132759321 0 -0.0075740354449739941 -0.0010869471510988034 0 -0.0076964358769650177 -0.00095171170196842474 0 -0.0075740354449739941 -0.0010869471510988034 0 -0.0076964358769650177 -0.00095171170196842474 0 -0.0075516986232474978 -0.00086924640469073812 0 -0.0070501398490999375 -0.0011308220180211992 0 -0.0068851483976512754 -0.00095721412018503322 0 -0.0067504961086511939 -0.0014581601773495678 0 -0.0070501398490999375 -0.0011308220180211992 0 -0.0067504961086511939 -0.0014581601773495678 0 -0.0070365566424832188 -0.00176039278483874 0 -0.0059568240512320814 -0.00082490708613083103 0 -0.0067981546819071261 -0.00091700361975692818 0 -0.0052091771110749337 -0.00065247944611308676 0 -0.0068851483976512754 -0.00095721412018503322 0 -0.0060382973609096986 -0.0014094726678370909 0 -0.0068851483976512754 -0.00095721412018503322 0 -0.0067504961086511939 -0.0014581601773495678 0 -0.0060382973609096986 -0.0014094726678370909 0 -0.0047650703542886008 -0.0018484581698628637 0 -0.0060382973609096986 -0.0014094726678370909 0 -0.0065367586765991493 -0.0021166841766650218 0 -0.0017131247505202949 -0.0012844530683074045 0 -0.00033092959009681206 -0.00088076273497807796 0 -0.00084987726953584858 -0.00067664806908778494 0 -0.0067504961086511939 -0.0014581601773495678 0 -0.0060382973609096986 -0.0014094726678370909 0 -0.0065367586765991493 -0.0021166841766650218 0 -0.00033092959009681206 -0.00088076273497807796 0 -0.00022425198439138884 -0.00046038120668021054 0 -0.00048656986399676114 -0.00059716752452111774 0 -0.00033092959009681206 -0.00088076273497807796 0 -0.00084987726953584858 -0.00067664806908778494 0 -0.00048656986399676114 -0.00059716752452111774 0 -0.0047073032758592611 -0.0012548652842624831 0 -0.0076906537249787606 -0.0013305000203845813 0 -0.0078251068980237422 -0.0023643767513683209 0 -0.0065367586765991493 -0.0021166841766650218 0 -0.0070365566424832188 -0.00176039278483874 0 -0.0078251068980237422 -0.0023643767513683209 0 -0.0070501398490999375 -0.0011308220180211992 0 -0.0070365566424832188 -0.00176039278483874 0 0.00028939031012978827 -0.00059508378633100372 0 -0.00033092959009681206 -0.00088076273497807796 0 5.3265915090100386e-06 -0.00051351814513849153 0 -0.0047073032758592611 -0.0012548652842624831 0 -0.0032426221241043498 -0.0015085770632973967 0 -0.0067504961086511939 -0.0014581601773495678 0 -0.0065367586765991493 -0.0021166841766650218 0 -0.0070365566424832188 -0.00176039278483874 0 5.3265915090100386e-06 -0.00051351814513849153 0 6.5804208991340451e-05 -0.00022436401488081285 0 0.00020604060709421154 -0.0004347539869365967 0 5.3265915090100386e-06 -0.00051351814513849153 0 -0.00022425198439138884 -0.00046038120668021054 0 6.5804208991340451e-05 -0.00022436401488081285 0 -0.00033092959009681206 -0.00088076273497807796 0 5.3265915090100386e-06 -0.00051351814513849153 0 -0.00022425198439138884 -0.00046038120668021054 0 -0.00022425198439138884 -0.00046038120668021054 0 6.5804208991340451e-05 -0.00022436401488081285 0 -0.00026357863774581714 -0.00010098077222972226 0 -0.00084987726953584858 -0.00067664806908778494 0 -0.00046879866491632565 -0.00037331949684499846 0 -0.000579223215930543 -8.793039249330078e-05 0 -0.00084987726953584858 -0.00067664806908778494 0 -0.00048656986399676114 -0.00059716752452111774 0 -0.00046879866491632565 -0.00037331949684499846 0 -0.00022425198439138884 -0.00046038120668021054 0 -0.00048656986399676114 -0.00059716752452111774 0 -0.00046879866491632565 -0.00037331949684499846 0 -0.00022425198439138884 -0.00046038120668021054 0 -0.00046879866491632565 -0.00037331949684499846 0 -0.00026357863774581714 -0.00010098077222972226 0 -0.00046879866491632565 -0.00037331949684499846 0 -0.000579223215930543 -8.793039249330078e-05 0 -0.00026357863774581714 -0.00010098077222972226 0 -0.000579223215930543 -8.793039249330078e-05 0 -0.00026357863774581714 -0.00010098077222972226 0 -0.00034634319636498941 0.00016038111669204033 0 -7.1496509067971176e-05 0.00025479034955817138 0 -0.00026357863774581714 -0.00010098077222972226 0 -0.00034634319636498941 0.00016038111669204033 0 -0.00078440018435057667 0.00015209003755422475 0 -0.000579223215930543 -8.793039249330078e-05 0 -0.00034634319636498941 0.00016038111669204033 0 6.5804208991340451e-05 -0.00022436401488081285 0 -1.6296591807996595e-05 4.0276196461381328e-05 0 0.00018179268938865598 0.00020450458392252559 0 6.5804208991340451e-05 -0.00022436401488081285 0 -0.00026357863774581714 -0.00010098077222972226 0 -1.6296591807996595e-05 4.0276196461381328e-05 0 -7.1496509067971176e-05 0.00025479034955817138 0 -0.00026357863774581714 -0.00010098077222972226 0 -1.6296591807996595e-05 4.0276196461381328e-05 0 -7.1496509067971176e-05 0.00025479034955817138 0 -1.6296591807996595e-05 4.0276196461381328e-05 0 0.00018179268938865598 0.00020450458392252559 0 0.00017812129353021359 0.00057253271597831109 0 -0.001585291601736444 0.00026583775780393234 0 -0.00069268956865226213 0.00094432880663228292 0 -0.00013979228426282516 0.00098876846863006542 0 -0.00035131687586217647 0.001450275274982136 0 6.5804208991340451e-05 -0.00022436401488081285 0 0.00018179268938865598 0.00020450458392252559 0 0.00043373211575164881 -0.00034846753679793443 0 -0.0021426586397320724 -2.8294660993600051e-05 0 -0.0021930848497935854 -0.00011739629785989013 0 -0.0022787852228249119 -0.00013245486803839781 0 -0.0013368087757764633 0.00052676992242369402 0 -0.001585291601736444 0.00026583775780393234 0 -0.0021426586397320724 -2.8294660993600051e-05 0 -0.0022787852228249119 -0.00013245486803839781 0 -0.0022896311100525069 -0.00012678238256444329 0 -0.0019623550081949107 -3.7522782021465797e-05 0 -0.0037568864199533916 -0.00020426095809702026 0 -0.0023868244979735587 -0.00012031336287514188 0 -0.002685270145520436 -0.00025156898170224459 0 -0.0029154137241693802 -0.00015271555297172924 0 -0.0023868244979735587 -0.00012031336287514188 0 -0.0022787852228249119 -0.00013245486803839781 0 -0.0022546477672717572 -0.0001056310584929293 0 -0.0022787852228249119 -0.00013245486803839781 0 -0.0022546477672717572 -0.0001056310584929293 0 -0.0022896311100525069 -0.00012678238256444329 0 -0.0037287266250334316 -0.00091134779897405994 0 -0.0027481531089033344 -0.00066571934568903377 0 -0.0030729012458766353 0.00013414513894950336 0 -0.0047073032758592611 -0.0012548652842624831 0 -0.001585291601736444 0.00026583775780393234 0 -0.0037568864199533916 -0.00020426095809702026 0 -0.001585291601736444 0.00026583775780393234 0 0.00028939031012978827 -0.00059508378633100372 0 5.3265915090100386e-06 -0.00051351814513849153 0 0.00020604060709421154 -0.0004347539869365967 0 0.00028939031012978827 -0.00059508378633100372 0 0.00020604060709421154 -0.0004347539869365967 0 0.00043373211575164881 -0.00034846753679793443 0 6.5804208991340451e-05 -0.00022436401488081285 0 0.00020604060709421154 -0.0004347539869365967 0 0.00043373211575164881 -0.00034846753679793443 0 -0.007452080215149667 0.001042672359470609 0 -0.0074241939631848599 0.00098788485126369177 0 -0.0075547788944809865 0.0010635475550252378 0 -0.0073806883574256583 0.0010301009229280063 0 -0.007452080215149667 0.001042672359470609 0 -0.0074067971794635392 0.0010250662310989204 0 -0.0073806883574256583 0.0010301009229280063 0 -0.0073965559783546291 0.0010412999740096562 0 -0.007452080215149667 0.001042672359470609 0 -0.0073965559783546291 0.0010412999740096562 0 -0.007452080215149667 0.001042672359470609 0 -0.0074241939631848599 0.00098788485126369177 0 -0.007452080215149667 0.001042672359470609 0 -0.0074067971794635392 0.0010250662310989204 0 -0.0075547788944809865 0.0010635475550252378 0 -0.0074067971794635392 0.0010250662310989204 0 -0.0075547788944809865 0.0010635475550252378 0 -0.0074454829730047009 0.0010389643653004276 0 -0.0074067971794635392 0.0010250662310989204 0 -0.0072797590910325801 0.00099299296494932058 0 -0.0074454829730047009 0.0010389643653004276 0 -0.0072797590910325801 0.00099299296494932058 0 -0.0074454829730047009 0.0010389643653004276 0 -0.0071698489523486899 0.0010453325477305098 0 -0.0074067971794635392 0.0010250662310989204 0 -0.0072797590910325801 0.00099299296494932058 0 -0.0072410696423135159 0.00099733516685449443 0 -0.0073806883574256583 0.0010301009229280063 0 -0.0074067971794635392 0.0010250662310989204 0 -0.0072410696423135159 0.00099733516685449443 0 -0.0072797590910325801 0.00099299296494932058 0 -0.0072410696423135159 0.00099733516685449443 0 -0.0071078307443109686 0.00095325356352199203 0 -0.0072410696423135159 0.00099733516685449443 0 -0.0073625917545242269 0.0010067161326937064 0 -0.0072046404041479235 0.00085418926431340449 0 -0.0073806883574256583 0.0010301009229280063 0 -0.0072410696423135159 0.00099733516685449443 0 -0.0073625917545242269 0.0010067161326937064 0 -0.0073965559783546291 0.0010412999740096562 0 -0.0073625917545242269 0.0010067161326937064 0 -0.0073562430376975388 0.001030773805652286 0 -0.0073806883574256583 0.0010301009229280063 0 -0.0073965559783546291 0.0010412999740096562 0 -0.0073625917545242269 0.0010067161326937064 0 -0.0073625917545242269 0.0010067161326937064 0 -0.0073562430376975388 0.001030773805652286 0 -0.0073543376338817022 0.0010435776468662222 0 -0.0072646498400081895 0.00072068638954486284 0 -0.0058440571502346829 0.00091891640148633136 0 -0.0073493208736508516 0.0010378975595582754 0 -0.0073307976772355845 0.0010385016791327843 0 -0.0073295792980836152 0.001047207520964339 0 -0.0073562430376975388 0.001030773805652286 0 -0.0073493208736508516 0.0010378975595582754 0 -0.0073295792980836152 0.001047207520964339 0 -0.0073965559783546291 0.0010412999740096562 0 -0.0073562430376975388 0.001030773805652286 0 -0.0073493208736508516 0.0010378975595582754 0 -0.005469643713890358 0.0010639199277926315 0 -0.0079160328911458359 0.00091670126310837213 0 -0.007303054766801125 0.0010445653406026677 0 -0.0073307976772355845 0.0010385016791327843 0 -0.0073397673191074927 0.0010218361306586787 0 -0.007142804697950274 0.0012386477596633512 0 -0.0072465547267889724 0.0010410977691356585 0 -0.007059826045139936 0.0012167973811568467 0 -0.005469643713890358 0.0010639199277926315 0 -0.0035203743348354447 0.0014994651251331796 0 -0.0030742265848251169 0.00057097332597070064 0 -0.0033391688978967123 0.00098224383019293658 0 -0.0028782105815323331 0.00082147786590619563 0 -0.0030742265848251169 0.00057097332597070064 0 -0.0033391688978967123 0.00098224383019293658 0 -0.0039792897959224976 0.00084529003323613168 0 -0.005469643713890358 0.0010639199277926315 0 -0.0056510286641316869 0.00094942778715972008 0 -0.007303054766801125 0.0010445653406026677 0 -0.0073307976772355845 0.0010385016791327843 0 -0.0073295792980836152 0.001047207520964339 0 -0.0089206815839346261 0.00065665164826005215 0 -0.005414058930570253 0.0017266237693032793 0 -0.007142804697950274 0.0012386477596633512 0 -0.0072465547267889724 0.0010410977691356585 0 -0.0073397673191074927 0.0010218361306586787 0 -0.0095210924554625133 0.00075420773586424791 0 -0.0095831413386890246 0.00080865014088552748 0 -0.0095997579351888018 0.00091281152871047527 0 -0.0089206815839346261 0.00065665164826005215 0 -0.0080998203892161461 0.00090316556431968792 0 -0.0073493208736508516 0.0010378975595582754 0 -0.0073307976772355845 0.0010385016791327843 0 -0.0073397673191074927 0.0010218361306586787 0 -0.0072465547267889724 0.0010410977691356585 0 -0.0073397673191074927 0.0010218361306586787 0 -0.0074241939631848599 0.00098788485126369177 0 -0.0073965559783546291 0.0010412999740096562 0 -0.0073493208736508516 0.0010378975595582754 0 -0.0073397673191074927 0.0010218361306586787 0 -0.0073965559783546291 0.0010412999740096562 0 -0.0073397673191074927 0.0010218361306586787 0 -0.0074241939631848599 0.00098788485126369177 0 -0.0090740865320187193 0.00060430326858465554 0 -0.0093677906054448097 0.0010387923514280685 0 -0.0094853219432904784 0.00090946715977633069 0 -0.0095210924554625133 0.00075420773586424791 0 -0.0090740865320187193 0.00060430326858465554 0 -0.0094853219432904784 0.00090946715977633069 0 -0.0090740865320187193 0.00060430326858465554 0 -0.0093677906054448097 0.0010387923514280685 0 -0.0086268272988167926 0.00098639956058507727 0 -0.0094853219432904784 0.00090946715977633069 0 -0.0096223714429347889 0.0011614446520008144 0 -0.0095997579351888018 0.00091281152871047527 0 -0.0093677906054448097 0.0010387923514280685 0 -0.0094853219432904784 0.00090946715977633069 0 -0.0096223714429347889 0.0011614446520008144 0 -0.0095210924554625133 0.00075420773586424791 0 -0.0094853219432904784 0.00090946715977633069 0 -0.0095997579351888018 0.00091281152871047527 0 -0.0096223714429347889 0.0011614446520008144 0 -0.0096292199752040526 0.001350858153836591 0 -0.0097060767687712577 0.0011463130821843914 0 -0.0093677906054448097 0.0010387923514280685 0 -0.0096223714429347889 0.0011614446520008144 0 -0.0096292199752040526 0.001350858153836591 0 -0.0093677906054448097 0.0010387923514280685 0 -0.0096292199752040526 0.001350858153836591 0 -0.0086268272988167926 0.00098639956058507727 0 -0.0096292199752040526 0.001350858153836591 0 -0.010311289076827013 0.0015392764223347557 0 -0.010142804451235034 0.0011993896865975008 0 -0.0096292199752040526 0.001350858153836591 0 -0.0086268272988167926 0.00098639956058507727 0 -0.0078739331524819225 0.001218627031389479 0 -0.010311289076827013 0.0015392764223347557 0 -0.010348842815671281 0.0013340746224420723 0 -0.010142804451235034 0.0011993896865975008 0 -0.0095364584318840366 0.0013652250976438683 0 -0.00909150237900418 0.0013454382189911119 0 -0.0080998203892161461 0.00090316556431968792 0 -0.0078102252856565293 0.00109014373904977 0 -0.0074241939631848599 0.00098788485126369177 0 -0.0075547788944809865 0.0010635475550252378 0 -0.0077485975207879148 0.0011476641346027374 0 -0.0090740865320187193 0.00060430326858465554 0 -0.0086268272988167926 0.00098639956058507727 0 -0.0077485975207879148 0.0011476641346027374 0 -0.0086268272988167926 0.00098639956058507727 0 -0.0077485975207879148 0.0011476641346027374 0 -0.0078739331524819225 0.001218627031389479 0 -0.0074454829730047009 0.0010389643653004276 0 -0.0077485975207879148 0.0011476641346027374 0 -0.0071698489523486899 0.0010453325477305098 0 -0.0077485975207879148 0.0011476641346027374 0 -0.0078739331524819225 0.001218627031389479 0 -0.0071698489523486899 0.0010453325477305098 0 -0.00909150237900418 0.0013454382189911119 0 -0.0089210121912152978 0.0013005723659291182 0 -0.010527439834156486 0.0014072846826006825 0 -0.010311289076827013 0.0015392764223347557 0 -0.010670134375068998 0.0015679573140062505 0 -0.0075547788944809865 0.0010635475550252378 0 -0.0074454829730047009 0.0010389643653004276 0 -0.0077485975207879148 0.0011476641346027374 0 -0.010527439834156486 0.0014072846826006825 0 -0.010694639517186849 0.0012485250532221063 0 -0.010445593546186896 0.0012058643209709675 0 -0.010527439834156486 0.0014072846826006825 0 -0.010311289076827013 0.0015392764223347557 0 -0.010348842815671281 0.0013340746224420723 0 -0.010527439834156486 0.0014072846826006825 0 -0.010348842815671281 0.0013340746224420723 0 -0.010445593546186896 0.0012058643209709675 0 -0.010527439834156486 0.0014072846826006825 0 -0.010701163165709449 0.0014062788594308051 0 -0.010694639517186849 0.0012485250532221063 0 -0.010701163165709449 0.0014062788594308051 0 -0.010694639517186849 0.0012485250532221063 0 -0.010922077450108652 0.0013616828631689019 0 -0.010922077450108652 0.0013616828631689019 0 -0.010670134375068998 0.0015679573140062505 0 -0.010927022613342817 0.0016393501217662758 0 -0.010701163165709449 0.0014062788594308051 0 -0.010922077450108652 0.0013616828631689019 0 -0.010670134375068998 0.0015679573140062505 0 -0.010527439834156486 0.0014072846826006825 0 -0.010701163165709449 0.0014062788594308051 0 -0.010670134375068998 0.0015679573140062505 0 -0.010922077450108652 0.0013616828631689019 0 -0.011141686476839928 0.0013245935375014442 0 -0.011164277566084161 0.0011009878513105651 0 -0.010922077450108652 0.0013616828631689019 0 -0.011141686476839928 0.0013245935375014442 0 -0.011120038553249998 0.0015180298661724751 0 -0.010922077450108652 0.0013616828631689019 0 -0.011120038553249998 0.0015180298661724751 0 -0.010927022613342817 0.0016393501217662758 0 -0.011120038553249998 0.0015180298661724751 0 -0.011298853229836611 0.0014351146529736369 0 -0.011278073453264672 0.0016047977717877253 0 -0.011141686476839928 0.0013245935375014442 0 -0.011120038553249998 0.0015180298661724751 0 -0.011298853229836611 0.0014351146529736369 0 -0.011120038553249998 0.0015180298661724751 0 -0.011164590146941889 0.0017409320360456729 0 -0.011278073453264672 0.0016047977717877253 0 -0.009228578024314836 0.001324742962530948 0 -0.0090664476627409629 0.0012977726870044498 0 -0.011120038553249998 0.0015180298661724751 0 -0.011164590146941889 0.0017409320360456729 0 -0.010927022613342817 0.0016393501217662758 0 -0.0071782900480907097 0.000932603077467067 0 -0.0071514915283990271 0.0010095222670733074 0 -0.0072808250308143202 0.0010277996518440742 0 -0.007382980530101362 0.00096089419462671362 0 -0.0071782900480907097 0.000932603077467067 0 -0.0072808250308143202 0.0010277996518440742 0 -0.0072797590910325801 0.00099299296494932058 0 -0.0071698489523486899 0.0010453325477305098 0 -0.0071078307443109686 0.00095325356352199203 0 -0.0071698489523486899 0.0010453325477305098 0 -0.0071782900480907097 0.000932603077467067 0 -0.0071078307443109686 0.00095325356352199203 0 -0.0089210121912152978 0.0013005723659291182 0 -0.0090664476627409629 0.0012977726870044498 0 -0.0071782900480907097 0.000932603077467067 0 -0.0071078307443109686 0.00095325356352199203 0 -0.0071514915283990271 0.0010095222670733074 0 -0.0072410696423135159 0.00099733516685449443 0 -0.0071078307443109686 0.00095325356352199203 0 -0.0069972488633244199 0.00094541479359957212 0 -0.0071078307443109686 0.00095325356352199203 0 -0.0069972488633244199 0.00094541479359957212 0 -0.0069812269214763554 0.00096581059687678649 0 -0.0069972488633244199 0.00094541479359957212 0 -0.0069812269214763554 0.00096581059687678649 0 -0.0067319277831701064 0.00091870688836136378 0 -0.0071078307443109686 0.00095325356352199203 0 -0.0069812269214763554 0.00096581059687678649 0 -0.0071514915283990271 0.0010095222670733074 0 -0.0069812269214763554 0.00096581059687678649 0 -0.0071514915283990271 0.0010095222670733074 0 -0.0071316687779895815 0.001190818229060177 0 -0.0071514915283990271 0.0010095222670733074 0 -0.0071316687779895815 0.001190818229060177 0 -0.0073032425501712173 0.0012273496402881421 0 -0.0071316687779895815 0.001190818229060177 0 -0.0073032425501712173 0.0012273496402881421 0 -0.0071668053771744983 0.0015314896175866919 0 -0.0069812269214763554 0.00096581059687678649 0 -0.0071316687779895815 0.001190818229060177 0 -0.0069197441950908968 0.0012598190776225201 0 -0.0071316687779895815 0.001190818229060177 0 -0.0069197441950908968 0.0012598190776225201 0 -0.0070496837015375808 0.0017492639251952952 0 -0.0071316687779895815 0.001190818229060177 0 -0.0070496837015375808 0.0017492639251952952 0 -0.0071668053771744983 0.0015314896175866919 0 -0.0069197441950908968 0.0012598190776225201 0 -0.0070496837015375808 0.0017492639251952952 0 -0.0061446361662325045 0.0016613444086235312 0 -0.0069197441950908968 0.0012598190776225201 0 -0.0067319277831701064 0.00091870688836136378 0 -0.0061446361662325045 0.0016613444086235312 0 -0.0069812269214763554 0.00096581059687678649 0 -0.0069197441950908968 0.0012598190776225201 0 -0.0067319277831701064 0.00091870688836136378 0 -0.007382980530101362 0.00096089419462671362 0 -0.007420457301615716 0.0011338225055307107 0 -0.0072808250308143202 0.0010277996518440742 0 -0.007420457301615716 0.0011338225055307107 0 -0.0072808250308143202 0.0010277996518440742 0 -0.0073032425501712173 0.0012273496402881421 0 -0.0071514915283990271 0.0010095222670733074 0 -0.0072808250308143202 0.0010277996518440742 0 -0.0073032425501712173 0.0012273496402881421 0 -0.0077683148055376567 0.001042214687274464 0 -0.0057089577071936012 0.0018340095004675133 0 -0.007420457301615716 0.0011338225055307107 0 -0.0073032425501712173 0.0012273496402881421 0 -0.0074751533881517312 0.0012928092071511029 0 -0.0073032425501712173 0.0012273496402881421 0 -0.0073451965823786618 0.0013861763165348179 0 -0.0074751533881517312 0.0012928092071511029 0 -0.00336589249703624 0.0033231010398715724 0 -0.0034018655215920317 0.0033245009642261722 0 -0.0033912811514197876 0.003309107792482733 0 -0.00336589249703624 0.0033231010398715724 0 -0.0034143250054003535 0.0033388656495937329 0 -0.0034018655215920317 0.0033245009642261722 0 -0.0053097514509788868 0.0024174992104453973 0 -0.0057089577071936012 0.0018340095004675133 0 -0.0073032425501712173 0.0012273496402881421 0 -0.0073451965823786618 0.0013861763165348179 0 -0.0071424314752878658 0.0013045947355344522 0 -0.00336589249703624 0.0033231010398715724 0 -0.0033702099880966686 0.003299939860624386 0 -0.0033912811514197876 0.003309107792482733 0 -0.00336589249703624 0.0033231010398715724 0 -0.0033702099880966686 0.003299939860624386 0 -0.0033478143611188295 0.0032963707795706566 0 -0.00336589249703624 0.0033231010398715724 0 -0.0033184925870491178 0.0033077882567690898 0 -0.0033478143611188295 0.0032963707795706566 0 -0.0053097514509788868 0.0024174992104453973 0 -0.0052771037145123451 0.0024193952564241184 0 -0.0034202911437363911 0.0033375107476948732 0 -0.0034211010003804519 0.0033131476189958609 0 -0.0034805476757117618 0.003339053533410147 0 -0.0070496837015375808 0.0017492639251952952 0 -0.0055672371319393779 0.0026962003262722581 0 -0.0061446361662325045 0.0016613444086235312 0 -0.0051750439510346935 0.0024679490475458862 0 -0.0045140922453695406 0.0029986140222661968 0 -0.0034202911437363911 0.0033375107476948732 0 -0.0034143250054003535 0.0033388656495937329 0 -0.0034018655215920317 0.0033245009642261722 0 -0.0034202911437363911 0.0033375107476948732 0 -0.0034018655215920317 0.0033245009642261722 0 -0.0034211010003804519 0.0033131476189958609 0 -0.0051750439510346935 0.0024679490475458862 0 -0.0057089577071936012 0.0018340095004675133 0 -0.0034018655215920317 0.0033245009642261722 0 -0.0033912811514197876 0.003309107792482733 0 -0.0034211010003804519 0.0033131476189958609 0 -0.0033912811514197876 0.003309107792482733 0 -0.0034010742983127608 0.0032984707582319498 0 -0.0034211010003804519 0.0033131476189958609 0 -0.0033702099880966686 0.003299939860624386 0 -0.0033912811514197876 0.003309107792482733 0 -0.0033840925900040933 0.0032873514383722343 0 -0.0033912811514197876 0.003309107792482733 0 -0.0034010742983127608 0.0032984707582319498 0 -0.0033840925900040933 0.0032873514383722343 0 -0.0034010742983127608 0.0032984707582319498 0 -0.0034211010003804519 0.0033131476189958609 0 -0.0034099728065377787 0.0032726799743473243 0 -0.0034211010003804519 0.0033131476189958609 0 -0.0034703465807811862 0.0032606384437332643 0 -0.0034099728065377787 0.0032726799743473243 0 -0.0034211010003804519 0.0033131476189958609 0 -0.0034805476757117618 0.003339053533410147 0 -0.0034703465807811862 0.0032606384437332643 0 -0.0055672371319393779 0.0026962003262722581 0 -0.0039725682040359896 0.0022940512945835677 0 -0.003702766340111303 0.0031754987136846818 0 -0.0045140922453695406 0.0029986140222661968 0 -0.0037799919569030086 0.0031861541059959681 0 -0.0034805476757117618 0.003339053533410147 0 -0.003702766340111303 0.0031754987136846818 0 -0.0034703465807811862 0.0032606384437332643 0 -0.0055672371319393779 0.0026962003262722581 0 -0.0047235912419839278 0.0014870697370146697 0 -0.0039725682040359896 0.0022940512945835677 0 -0.0055672371319393779 0.0026962003262722581 0 -0.0061446361662325045 0.0016613444086235312 0 -0.0047235912419839278 0.0014870697370146697 0 -0.0061446361662325045 0.0016613444086235312 0 -0.0047235912419839278 0.0014870697370146697 0 -0.0053497409795410754 0.00044921933583229713 0 -0.0067319277831701064 0.00091870688836136378 0 -0.0061446361662325045 0.0016613444086235312 0 -0.0053497409795410754 0.00044921933583229713 0 -0.0047235912419839278 0.0014870697370146697 0 -0.0041999543161103268 0.00013397934518011038 0 -0.0053497409795410754 0.00044921933583229713 0 -0.0058440571502346829 0.00091891640148633136 0 -0.0062637304236958392 0.00065792717205540681 0 -0.0073625917545242269 0.0010067161326937064 0 -0.0074114822213593081 0.0008970780674152916 0 -0.0072046404041479235 0.00085418926431340449 0 -0.0072410696423135159 0.00099733516685449443 0 -0.0069972488633244199 0.00094541479359957212 0 -0.0072046404041479235 0.00085418926431340449 0 -0.0069972488633244199 0.00094541479359957212 0 -0.0067319277831701064 0.00091870688836136378 0 -0.0072046404041479235 0.00085418926431340449 0 -0.0067145178030505112 0.00087616281476926659 0 -0.0062637304236958392 0.00065792717205540681 0 -0.003280445946149727 0.0014797026707903153 0 -0.0039792897959224976 0.00084529003323613168 0 -0.0039935208509284652 0.0025788044924566415 0 -0.0031313948358508521 0.0011627927513166963 0 -0.0035203743348354447 0.0014994651251331796 0 -0.003280445946149727 0.0014797026707903153 0 -0.0033391688978967123 0.00098224383019293658 0 -0.0028782105815323331 0.00082147786590619563 0 -0.003280445946149727 0.0014797026707903153 0 -0.0033391688978967123 0.00098224383019293658 0 -0.0039792897959224976 0.00084529003323613168 0 -0.0049062960303449289 0.0011350882196863056 0 -0.0039792897959224976 0.00084529003323613168 0 -0.0039935208509284652 0.0025788044924566415 0 -0.0073562430376975388 0.001030773805652286 0 -0.0073543376338817022 0.0010435776468662222 0 -0.0073295792980836152 0.001047207520964339 0 -0.0058440571502346829 0.00091891640148633136 0 -0.0056510286641316869 0.00094942778715972008 0 -0.0047235912419839278 0.0014870697370146697 0 -0.0041999543161103268 0.00013397934518011038 0 -0.0033622962761977191 0.0015850179472072848 0 -0.0058440571502346829 0.00091891640148633136 0 -0.0034375025201181905 0.0021321567217354193 0 -0.003280445946149727 0.0014797026707903153 0 -0.0039935208509284652 0.0025788044924566415 0 -0.0028257348717695202 0.0027101940057336084 0 -0.0039935208509284652 0.0025788044924566415 0 -0.0030709426228458865 0.0040195425086134709 0 -0.0028257348717695202 0.0027101940057336084 0 -0.0034375025201181905 0.0021321567217354193 0 -0.0035026647050432117 0.0031802157184502651 0 -0.0047235912419839278 0.0014870697370146697 0 -0.0033622962761977191 0.0015850179472072848 0 -0.0039725682040359896 0.0022940512945835677 0 -0.0033622962761977191 0.0015850179472072848 0 -0.0039725682040359896 0.0022940512945835677 0 -0.0029316194368107307 0.0027569069355930184 0 -0.0039725682040359896 0.0022940512945835677 0 -0.003702766340111303 0.0031754987136846818 0 -0.0029316194368107307 0.0027569069355930184 0 -0.003702766340111303 0.0031754987136846818 0 -0.0029316194368107307 0.0027569069355930184 0 -0.0033040414478090977 0.0032791925423540894 0 -0.0030709426228458865 0.0040195425086134709 0 -0.00198839756037144 0.0033417903137200238 0 -0.0014775504042429529 0.0044291448655551825 0 -0.0035026647050432117 0.0031802157184502651 0 0.000594074656764647 0.0045292768005873365 0 -0.0030709426228458865 0.0040195425086134709 0 -0.0014775504042429529 0.0044291448655551825 0 -0.0021552104399452207 0.0054430703591766038 0 -0.0030709426228458865 0.0040195425086134709 0 -0.00198839756037144 0.0033417903137200238 0 -0.0028257348717695202 0.0027101940057336084 0 -0.00198839756037144 0.0033417903137200238 0 -0.0014775504042429529 0.0044291448655551825 0 -0.00078431000809287812 0.0034079291731037237 0 -0.00198839756037144 0.0033417903137200238 0 -0.00078431000809287812 0.0034079291731037237 0 -0.001804690461806793 0.0021102336813492457 0 0.00070227254641186268 0.0049406532711829673 0 0.00078015596443287648 0.0049532344942845984 0 0.00076862697261627746 0.0048277619662998169 0 -0.00055754587886976646 0.0048934022128461147 0 -1.9158900650767679e-06 0.0039750841689295902 0 0.00078015596443287648 0.0049532344942845984 0 0.00084100640543212108 0.0049216704314372934 0 0.00076862697261627746 0.0048277619662998169 0 0.00078015596443287648 0.0049532344942845984 0 0.00084100640543212108 0.0049216704314372934 0 0.00083360173308618985 0.0049945225114082911 0 0.00084100640543212108 0.0049216704314372934 0 0.00083360173308618985 0.0049945225114082911 0 0.00089411464340936485 0.0049926414627871245 0 0.00072016526217615702 0.0048777351030502578 0 -1.9158900650767679e-06 0.0039750841689295902 0 0.00088717892010034365 0.0046812346489236642 0 0.0010464984459017286 0.0050133080756339307 0 0.0008883307695481149 0.0048165887661409355 0 0.00097688247986888127 0.004495877739699357 0 0.0010687848149505479 0.0050526903645054695 0 0.00080836077666881644 0.0048700601396820236 0 0.00099451896064952044 0.0049452179125010105 0 0.0010687848149505479 0.0050526903645054695 0 0.00047025663045593822 0.004683418731103361 0 0.0008883307695481149 0.0048165887661409355 0 0.00089411464340936485 0.0049926414627871245 0 0.00072016526217615702 0.0048777351030502578 0 0.0008247286135665443 0.004943710901193013 0 0.00047025663045593822 0.004683418731103361 0 0.00097688247986888127 0.004495877739699357 0 0.00041263951916978471 0.0042400202387744106 0 0.00047025663045593822 0.004683418731103361 0 0.0008883307695481149 0.0048165887661409355 0 0.00097688247986888127 0.004495877739699357 0 0.00088717892010034365 0.0046812346489236642 0 0.00059347195502306024 0.0039249529832174413 0 0.00080836077666881644 0.0048700601396820236 0 0.00048524899351380126 0.0045625002089650004 0 0.00083597601286242 0.0046857682939989431 0 0.00097688247986888127 0.004495877739699357 0 0.00049400120877448608 0.0039405983501710979 0 0.0006962762362468139 0.0034769431751109081 0 0.00097688247986888127 0.004495877739699357 0 0.00041263951916978471 0.0042400202387744106 0 0.00049400120877448608 0.0039405983501710979 0 -0.00011424287688817054 0.0042538240685730437 0 9.1065257939611466e-05 0.0039520508034864409 0 -0.00019969373125367824 0.0034213606651517518 0 -3.5905243076900489e-05 0.0041829518442668828 0 0.00041263951916978471 0.0042400202387744106 0 9.1065257939611466e-05 0.0039520508034864409 0 0.00047025663045593822 0.004683418731103361 0 -3.5905243076900489e-05 0.0041829518442668828 0 0.00041263951916978471 0.0042400202387744106 0 0.00041263951916978471 0.0042400202387744106 0 0.00049400120877448608 0.0039405983501710979 0 9.1065257939611466e-05 0.0039520508034864409 0 0.00049400120877448608 0.0039405983501710979 0 9.1065257939611466e-05 0.0039520508034864409 0 0.00020854551948425564 0.0034865342692433797 0 -1.9158900650767679e-06 0.0039750841689295902 0 4.3468901197170796e-06 0.0040075427692721705 0 9.1065257939611466e-05 0.0039520508034864409 0 0.00020854551948425564 0.0034865342692433797 0 -0.00019969373125367824 0.0034213606651517518 0 0.00049400120877448608 0.0039405983501710979 0 0.00020854551948425564 0.0034865342692433797 0 0.0006962762362468139 0.0034769431751109081 0 0.00020854551948425564 0.0034865342692433797 0 8.1038657579823539e-05 0.0030127733064413379 0 0.0006962762362468139 0.0034769431751109081 0 0.00020854551948425564 0.0034865342692433797 0 -0.00019969373125367824 0.0034213606651517518 0 8.1038657579823539e-05 0.0030127733064413379 0 -0.00019969373125367824 0.0034213606651517518 0 8.1038657579823539e-05 0.0030127733064413379 0 -0.0004364776735715797 0.002602494889199532 0 0.00048524899351380126 0.0045625002089650004 0 0.00083597601286242 0.0046857682939989431 0 0.00080427186240224441 0.0045143892961794522 0 0.00048524899351380126 0.0045625002089650004 0 0.00067623015459071436 0.004267204690848782 0 0.00080427186240224441 0.0045143892961794522 0 0.00067623015459071436 0.004267204690848782 0 0.00075438963292266757 0.0038119420685567579 0 0.0002781095131740676 0.0038045595634532215 0 0.00048524899351380126 0.0045625002089650004 0 0.00067623015459071436 0.004267204690848782 0 0.00018819687823223689 0.0040493545085070201 0 0.00067623015459071436 0.004267204690848782 0 0.00018819687823223689 0.0040493545085070201 0 0.0002781095131740676 0.0038045595634532215 0 0.00059347195502306024 0.0039249529832174413 0 -8.4384554458702662e-05 0.0035397714777933116 0 8.1038657579823539e-05 0.0030127733064413379 0 0.0006962762362468139 0.0034769431751109081 0 0.00029124966281714252 0.0022431368475689926 0 0.00048524899351380126 0.0045625002089650004 0 0.00018819687823223689 0.0040493545085070201 0 6.6660625443800295e-05 0.0040018498853139819 0 8.1038657579823539e-05 0.0030127733064413379 0 0.00029124966281714252 0.0022431368475689926 0 -0.0004364776735715797 0.002602494889199532 0 6.6997244861967056e-05 0.0036769359726313571 0 -8.4384554458702662e-05 0.0035397714777933116 0 0.00029124966281714252 0.0022431368475689926 0 -0.0004364776735715797 0.002602494889199532 0 -0.00058466759567007043 0.0017717582859097568 0 -0.0004364776735715797 0.002602494889199532 0 -0.0011760959483688067 0.0023528520943184349 0 -0.0010363715400372822 0.0031950975758369073 0 -0.0004364776735715797 0.002602494889199532 0 -0.0011760959483688067 0.0023528520943184349 0 -0.00058466759567007043 0.0017717582859097568 0 -0.0035203743348354447 0.0014994651251331796 0 -0.0013342770093478407 0.0026433413237682713 0 -0.0011760959483688067 0.0023528520943184349 0 -0.0019824597971913878 0.0020644118051168958 0 -0.0010363715400372822 0.0031950975758369073 0 -0.003280445946149727 0.0014797026707903153 0 -0.0028424667692790117 0.00080265098482353351 0 -0.001804690461806793 0.0021102336813492457 0 -0.0011760959483688067 0.0023528520943184349 0 -0.0019824597971913878 0.0020644118051168958 0 -0.0015343079571638685 0.0018873483762759449 0 -0.00198839756037144 0.0033417903137200238 0 -0.0028257348717695202 0.0027101940057336084 0 -0.001804690461806793 0.0021102336813492457 0 -0.003280445946149727 0.0014797026707903153 0 -0.0028257348717695202 0.0027101940057336084 0 -0.001804690461806793 0.0021102336813492457 0 -1.9158900650767679e-06 0.0039750841689295902 0 -0.0013342770093478407 0.0026433413237682713 0 -0.00011424287688817054 0.0042538240685730437 0 -0.00019969373125367824 0.0034213606651517518 0 -0.0010363715400372822 0.0031950975758369073 0 -0.00019969373125367824 0.0034213606651517518 0 -0.0004364776735715797 0.002602494889199532 0 -0.0010363715400372822 0.0031950975758369073 0 0.0016749265803237773 0.0049099185690391787 0 0.0015311230356087609 0.0047377655891036909 0 0.0015526765275701464 0.0049012363186095162 0 0.0015311230356087609 0.0047377655891036909 0 0.0015526765275701464 0.0049012363186095162 0 0.0014268590993530925 0.0047989551879836917 0 0.0015526765275701464 0.0049012363186095162 0 0.0016449933848205567 0.0049636607485809715 0 0.0014920695797700782 0.0049680880588426962 0 0.0015526765275701464 0.0049012363186095162 0 0.00142536703159874 0.0048879757396687812 0 0.0014920695797700782 0.0049680880588426962 0 0.0015526765275701464 0.0049012363186095162 0 0.00142536703159874 0.0048879757396687812 0 0.0014268590993530925 0.0047989551879836917 0 0.00142536703159874 0.0048879757396687812 0 0.0013394477821967873 0.0049548584659716687 0 0.0013039433258758483 0.0048010193968016394 0 0.00142536703159874 0.0048879757396687812 0 0.0013394477821967873 0.0049548584659716687 0 0.0014920695797700782 0.0049680880588426962 0 0.0013039433258758483 0.0048010193968016394 0 0.0014268590993530925 0.0047989551879836917 0 0.0013469959555769268 0.0046743287517182703 0 0.00142536703159874 0.0048879757396687812 0 0.0013039433258758483 0.0048010193968016394 0 0.0014268590993530925 0.0047989551879836917 0 0.0015311230356087609 0.0047377655891036909 0 0.0014268590993530925 0.0047989551879836917 0 0.0013469959555769268 0.0046743287517182703 0 0.0013039433258758483 0.0048010193968016394 0 0.0013469959555769268 0.0046743287517182703 0 0.0012393955398631016 0.0046431337368857874 0 0.0013039433258758483 0.0048010193968016394 0 0.001151332921933297 0.0047311357006245697 0 0.0012393955398631016 0.0046431337368857874 0 0.001151332921933297 0.0047311357006245697 0 0.0011186187820124405 0.0045772038714873278 0 0.0012393955398631016 0.0046431337368857874 0 0.001151332921933297 0.0047311357006245697 0 0.00098544000925427483 0.0046270171889630065 0 0.0011186187820124405 0.0045772038714873278 0 0.001151332921933297 0.0047311357006245697 0 0.0011968293430935474 0.00487711938055103 0 0.0010264359451329704 0.0048068801807327642 0 0.0013039433258758483 0.0048010193968016394 0 0.001151332921933297 0.0047311357006245697 0 0.0011968293430935474 0.00487711938055103 0 0.0013394477821967873 0.0049548584659716687 0 0.0013039433258758483 0.0048010193968016394 0 0.0011968293430935474 0.00487711938055103 0 0.0013394477821967873 0.0049548584659716687 0 0.0011968293430935474 0.00487711938055103 0 0.0012428021423501205 0.0049863492871269335 0 0.0011968293430935474 0.00487711938055103 0 0.0010884979923450407 0.0049144186905658027 0 0.0011486052255849928 0.0049836450509851077 0 0.0011968293430935474 0.00487711938055103 0 0.0011486052255849928 0.0049836450509851077 0 0.0012428021423501205 0.0049863492871269335 0 0.0010884979923450407 0.0049144186905658027 0 0.00099451896064952044 0.0049452179125010105 0 0.0010264359451329704 0.0048068801807327642 0 0.00080836077666881644 0.0048700601396820236 0 0.00099451896064952044 0.0049452179125010105 0 0.0010264359451329704 0.0048068801807327642 0 0.0011968293430935474 0.00487711938055103 0 0.0010884979923450407 0.0049144186905658027 0 0.0010264359451329704 0.0048068801807327642 0 0.0010884979923450407 0.0049144186905658027 0 0.0010809586039968223 0.0049916716733517299 0 0.0011486052255849928 0.0049836450509851077 0 0.0010884979923450407 0.0049144186905658027 0 0.00099451896064952044 0.0049452179125010105 0 0.0010809586039968223 0.0049916716733517299 0 0.00080836077666881644 0.0048700601396820236 0 0.0010264359451329704 0.0048068801807327642 0 0.00083597601286242 0.0046857682939989431 0 0.001151332921933297 0.0047311357006245697 0 0.0010264359451329704 0.0048068801807327642 0 0.00098544000925427483 0.0046270171889630065 0 0.0010264359451329704 0.0048068801807327642 0 0.00083597601286242 0.0046857682939989431 0 0.00098544000925427483 0.0046270171889630065 0 0.00083597601286242 0.0046857682939989431 0 0.00080427186240224441 0.0045143892961794522 0 0.00098544000925427483 0.0046270171889630065 0 0.00080427186240224441 0.0045143892961794522 0 0.00098544000925427483 0.0046270171889630065 0 0.00098561586193961085 0.0043904192170805649 0 0.00098544000925427483 0.0046270171889630065 0 0.00098561586193961085 0.0043904192170805649 0 0.0011186187820124405 0.0045772038714873278 0 0.00067623015459071436 0.004267204690848782 0 0.00080427186240224441 0.0045143892961794522 0 0.00098561586193961085 0.0043904192170805649 0 0.00098561586193961085 0.0043904192170805649 0 0.0011605766863636458 0.0042396577344684843 0 0.00075438963292266757 0.0038119420685567579 0 0.00067623015459071436 0.004267204690848782 0 0.00098561586193961085 0.0043904192170805649 0 0.00075438963292266757 0.0038119420685567579 0 0.00064486502260023733 0.0041969345340829405 0 -0.00047435124084386967 0.0035987645828948161 0 0.00098561586193961085 0.0043904192170805649 0 0.0011605766863636458 0.0042396577344684843 0 0.0012110734481628495 0.0044711870789489955 0 0.00011360146520740982 0.0041568818734852454 0 0.0014365155783702317 0.0042069799056867032 0 0.0002262627896553262 0.0033079696059319015 0 0.0011605766863636458 0.0042396577344684843 0 0.0012110734481628495 0.0044711870789489955 0 0.0013021364077703251 0.0045279354914410617 0 0.00064486502260023733 0.0041969345340829405 0 0.0012325935209752676 0.0044958004464182065 0 0.00098561586193961085 0.0043904192170805649 0 0.0012110734481628495 0.0044711870789489955 0 0.0011186187820124405 0.0045772038714873278 0 0.0012110734481628495 0.0044711870789489955 0 0.0011186187820124405 0.0045772038714873278 0 0.0012393955398631016 0.0046431337368857874 0 0.0012110734481628495 0.0044711870789489955 0 0.0012393955398631016 0.0046431337368857874 0 0.001276579114767254 0.0045755814084709667 0 0.0015311230356087609 0.0047377655891036909 0 0.0013021364077703251 0.0045279354914410617 0 0.0014365155783702317 0.0042069799056867032 0 0.0013469959555769268 0.0046743287517182703 0 0.0012393955398631016 0.0046431337368857874 0 0.001276579114767254 0.0045755814084709667 0 0.0013469959555769268 0.0046743287517182703 0 0.001276579114767254 0.0045755814084709667 0 0.0013021364077703251 0.0045279354914410617 0 0.0015311230356087609 0.0047377655891036909 0 0.0013469959555769268 0.0046743287517182703 0 0.0013021364077703251 0.0045279354914410617 0 0.0012110734481628495 0.0044711870789489955 0 0.001276579114767254 0.0045755814084709667 0 0.0013021364077703251 0.0045279354914410617 0 -0.00095064996088875195 0.0038389175149681361 0 -0.0019034976021279379 0.0031269193723859304 0 0.00011360146520740982 0.0041568818734852454 0 0.0013021364077703251 0.0045279354914410617 0 0.0014365155783702317 0.0042069799056867032 0 -0.00033152155933222446 0.0044153852321574677 0 -0.00095064996088875195 0.0038389175149681361 0 -0.0023414677119478165 0.0041713871557846685 0 -0.0025463119178505667 0.0031823620660232942 0 -0.0033226506032408773 0.0034749130983436774 0 -0.0025463119178505667 0.0031823620660232942 0 -0.0033226506032408773 0.0034749130983436774 0 -0.0031016130779067627 0.0030262846037594042 0 0.0016878997457248422 0.0046730118483681504 0 0.0015311230356087609 0.0047377655891036909 0 0.0014365155783702317 0.0042069799056867032 0 -0.0025463119178505667 0.0031823620660232942 0 -0.0030529819266239817 0.0025812823793319403 0 -0.0031016130779067627 0.0030262846037594042 0 -0.0030529819266239817 0.0025812823793319403 0 -0.0031016130779067627 0.0030262846037594042 0 -0.0034505614541403442 0.0028978179416481726 0 -0.0033226506032408773 0.0034749130983436774 0 -0.0034505614541403442 0.0028978179416481726 0 -0.0039727124886019139 0.002942185806761438 0 -0.0033226506032408773 0.0034749130983436774 0 -0.0031016130779067627 0.0030262846037594042 0 -0.0034505614541403442 0.0028978179416481726 0 -0.0030529819266239817 0.0025812823793319403 0 -0.0034505614541403442 0.0028978179416481726 0 -0.003756814272184376 0.0025059215123601681 0 -0.0030529819266239817 0.0025812823793319403 0 -0.0038272102798657336 0.0023992396534667864 0 -0.0035481213824008393 0.0019749683983467871 0 -0.0031400227386490474 0.0025762560958495482 0 -0.0036668791238178827 0.0024467592795635413 0 -0.0038272102798657336 0.0023992396534667864 0 -0.0043957289100658489 0.002234186865492498 0 -0.0040338114521483361 0.0020004826135601615 0 -0.003756814272184376 0.0025059215123601681 0 -0.0039727124886019139 0.002942185806761438 0 -0.0041986017027557483 0.0025604809262067029 0 -0.0036668791238178827 0.0024467592795635413 0 -0.0048753728312603386 0.002467497326109873 0 -0.0034505614541403442 0.0028978179416481726 0 -0.003756814272184376 0.0025059215123601681 0 -0.0039727124886019139 0.002942185806761438 0 0.00011360146520740982 0.0041568818734852454 0 0.0002262627896553262 0.0033079696059319015 0 -0.0014495058128470544 0.0035068104437333673 0 0.0002262627896553262 0.0033079696059319015 0 -0.0014495058128470544 0.0035068104437333673 0 -0.0014619067971917367 0.0022125342199754419 0 -0.0019034976021279379 0.0031269193723859304 0 -0.0028632342375840697 0.0023645298560967241 0 -0.0041986017027557483 0.0025604809262067029 0 -0.0043618718128931181 0.0023921558529722206 0 -0.0045238439068049658 0.0025622583412142153 0 -0.003756814272184376 0.0025059215123601681 0 -0.0041986017027557483 0.0025604809262067029 0 -0.0043618718128931181 0.0023921558529722206 0 -0.0039727124886019139 0.002942185806761438 0 -0.0041986017027557483 0.0025604809262067029 0 -0.0045238439068049658 0.0025622583412142153 0 -0.0059202861798790555 0.00244288375757637 0 -0.0057996887680549503 0.001802464714975624 0 -0.0061378561496056418 0.0020588308867724938 0 -0.0048753728312603386 0.002467497326109873 0 -0.0049437497493637619 0.0016778284028532758 0 -0.0043957289100658489 0.002234186865492498 0 -0.0042406737251792729 0.0016933221698452589 0 -0.0040338114521483361 0.0020004826135601615 0 -0.0042406737251792729 0.0016933221698452589 0 -0.0039070629913463949 0.0016151309665899281 0 -0.0041039570010320409 0.0013199170178206847 0 -0.0042406737251792729 0.0016933221698452589 0 -0.0039070629913463949 0.0016151309665899281 0 -0.0040338114521483361 0.0020004826135601615 0 -0.0038272102798657336 0.0023992396534667864 0 -0.0040338114521483361 0.0020004826135601615 0 -0.0035481213824008393 0.0019749683983467871 0 -0.0039070629913463949 0.0016151309665899281 0 -0.0040338114521483361 0.0020004826135601615 0 -0.0035481213824008393 0.0019749683983467871 0 -0.0039070629913463949 0.0016151309665899281 0 -0.0035493094202270281 0.0015637366500972942 0 -0.0038638105349212306 0.0013783148893197967 0 -0.0039070629913463949 0.0016151309665899281 0 -0.0035481213824008393 0.0019749683983467871 0 -0.0035493094202270281 0.0015637366500972942 0 -0.0030273362451712278 0.0014608982224940854 0 -0.0035493094202270281 0.0015637366500972942 0 -0.0029694763330754283 0.0018686289675845489 0 -0.0030529819266239817 0.0025812823793319403 0 -0.0035481213824008393 0.0019749683983467871 0 -0.0029694763330754283 0.0018686289675845489 0 -0.0035481213824008393 0.0019749683983467871 0 -0.0035493094202270281 0.0015637366500972942 0 -0.0029694763330754283 0.0018686289675845489 0 -0.0062101558707459096 0.0013745550448475289 0 -0.001180632137558018 0.0030762006638137239 0 -0.0039591149764159859 0.0019161906737563544 0 -0.0050526073112954579 0.0017946341752204289 0 -0.0032098149366575003 0.0027067432880351085 0 -0.0011655595662739735 0.0028655844703577094 0 -0.0021850983827091542 0.0018971900597833408 0 -0.00012016361275629473 0.0031134837334420326 0 -0.0011655595662739735 0.0028655844703577094 0 -0.0021850983827091542 0.0018971900597833408 0 -0.0019303115010416215 0.002945842217161751 0 -0.0039591149764159859 0.0019161906737563544 0 -0.0043463638802095552 0.0014558553021875884 0 -0.0050526073112954579 0.0017946341752204289 0 -0.0039591149764159859 0.0019161906737563544 0 -0.0039335306279832446 0.0013131729996237657 0 -0.0043463638802095552 0.0014558553021875884 0 -0.0096253631251295695 0.00082396909240297017 0 -0.0096064161056030831 0.00081412488116926196 0 -0.0095997579351888018 0.00091281152871047527 0 -0.0062101558707459096 0.0013745550448475289 0 -0.010645210666011103 0.00043069650261986993 0 -0.0095210924554625133 0.00075420773586424791 0 -0.0095831413386890246 0.00080865014088552748 0 -0.0095984417903276584 0.00079489737159902448 0 -0.0095831413386890246 0.00080865014088552748 0 -0.0096064161056030831 0.00081412488116926196 0 -0.0095997579351888018 0.00091281152871047527 0 -0.0095831413386890246 0.00080865014088552748 0 -0.0096064161056030831 0.00081412488116926196 0 -0.0095984417903276584 0.00079489737159902448 0 -0.0096253631251295695 0.00082396909240297017 0 -0.0096064161056030831 0.00081412488116926196 0 -0.0095984417903276584 0.00079489737159902448 0 -0.0021850983827091542 0.0018971900597833408 0 -0.0029698930068958029 0.0031092808545224908 0 -0.0019303115010416215 0.002945842217161751 0 -0.0062101558707459096 0.0013745550448475289 0 -0.005414058930570253 0.0017266237693032793 0 -0.0014978200974780785 0.0012984916201479618 0 -0.0011664810260418842 0.0017663150557515037 0 -0.0014757357377263123 0.0016600190340505777 0 -0.0072465547267889724 0.0010410977691356585 0 -0.0070084789432352827 0.0011421816531446039 0 -0.007059826045139936 0.0012167973811568467 0 -0.005414058930570253 0.0017266237693032793 0 -0.0045762074064530167 0.0014672848896437329 0 -0.0014978200974780785 0.0012984916201479618 0 -0.0017509960847344314 0.0017019369872804202 0 -0.0014757357377263123 0.0016600190340505777 0 -0.005469643713890358 0.0010639199277926315 0 -0.0045762074064530167 0.0014672848896437329 0 -0.0017509960847344314 0.0017019369872804202 0 -0.0014757357377263123 0.0016600190340505777 0 -0.0015343079571638685 0.0018873483762759449 0 -0.0019824597971913878 0.0020644118051168958 0 -0.0017509960847344314 0.0017019369872804202 0 -0.0015343079571638685 0.0018873483762759449 0 -0.0041738409203942676 0.0013889929347960471 0 -0.0042849307147454548 0.0012446494991726915 0 -0.0044327405009548437 0.0014727667363890844 0 -0.0035203743348354447 0.0014994651251331796 0 -0.0045762074064530167 0.0014672848896437329 0 -0.0011760959483688067 0.0023528520943184349 0 -0.0011664810260418842 0.0017663150557515037 0 -0.0015343079571638685 0.0018873483762759449 0 -0.0011664810260418842 0.0017663150557515037 0 -0.0014757357377263123 0.0016600190340505777 0 -0.0015343079571638685 0.0018873483762759449 0 -0.0029698930068958029 0.0031092808545224908 0 -0.0019303115010416215 0.002945842217161751 0 -0.0014140935645501123 0.0038831098508138361 0 -0.005414058930570253 0.0017266237693032793 0 -0.00051403126369872548 0.0030745097994173904 0 -0.0011760959483688067 0.0023528520943184349 0 -0.0011664810260418842 0.0017663150557515037 0 -0.00058466759567007043 0.0017717582859097568 0 -0.0014978200974780785 0.0012984916201479618 0 -0.0011664810260418842 0.0017663150557515037 0 -0.00058466759567007043 0.0017717582859097568 0 -0.0011655595662739735 0.0028655844703577094 0 -0.00084401061507641945 0.0035949176071130074 0 -0.0014140935645501123 0.0038831098508138361 0 -0.0011655595662739735 0.0028655844703577094 0 -0.00084401061507641945 0.0035949176071130074 0 -0.00061400838945183708 0.0032591783006399211 0 -0.0011655595662739735 0.0028655844703577094 0 -0.0019303115010416215 0.002945842217161751 0 -0.0014140935645501123 0.0038831098508138361 0 -8.4384554458702662e-05 0.0035397714777933116 0 -0.00014238905594093267 0.0037680939884637823 0 -8.4384554458702662e-05 0.0035397714777933116 0 -0.00051403126369872548 0.0030745097994173904 0 0.0001063851257171274 0.004648520224632878 0 -0.00084401061507641945 0.0035949176071130074 0 -0.00030351796697430776 0.0034828025977266656 0 0.0001063851257171274 0.004648520224632878 0 -0.00084401061507641945 0.0035949176071130074 0 -0.0014140935645501123 0.0038831098508138361 0 0.00018819687823223689 0.0040493545085070201 0 -9.4221718469513018e-06 0.003976149758948706 0 -0.00030351796697430776 0.0034828025977266656 0 0.00018819687823223689 0.0040493545085070201 0 -0.00030351796697430776 0.0034828025977266656 0 0.0002781095131740676 0.0038045595634532215 0 -0.00012016361275629473 0.0031134837334420326 0 -0.00030351796697430776 0.0034828025977266656 0 0.0002781095131740676 0.0038045595634532215 0 -0.00012016361275629473 0.0031134837334420326 0 -0.00061400838945183708 0.0032591783006399211 0 -0.00030351796697430776 0.0034828025977266656 0 -0.0011655595662739735 0.0028655844703577094 0 -0.00012016361275629473 0.0031134837334420326 0 -0.00061400838945183708 0.0032591783006399211 0 -0.00084401061507641945 0.0035949176071130074 0 -0.00061400838945183708 0.0032591783006399211 0 -0.00030351796697430776 0.0034828025977266656 0 -0.0032098149366575003 0.0027067432880351085 0 -0.0014495058128470544 0.0035068104437333673 0 -0.002321960399574728 0.0024644043229013206 0 -0.00012016361275629473 0.0031134837334420326 0 0.00075438963292266757 0.0038119420685567579 0 0.0002781095131740676 0.0038045595634532215 0 -0.0014495058128470544 0.0035068104437333673 0 -0.0014619067971917367 0.0022125342199754419 0 -0.002321960399574728 0.0024644043229013206 0 -0.001180632137558018 0.0030762006638137239 0 -0.00047435124084386967 0.0035987645828948161 0 -0.0045238439068049658 0.0025622583412142153 0 -0.0050547469948294902 0.0022228886081992923 0 -0.0047097902569704572 0.0023095333348988356 0 -0.0028632342375840697 0.0023645298560967241 0 -0.0049647111175632561 0.0019626858469889599 0 -0.0014619067971917367 0.0022125342199754419 0 -0.002321960399574728 0.0024644043229013206 0 -0.0029875394138085872 0.0019566809330166415 0 -0.0043618718128931181 0.0023921558529722206 0 -0.0045238439068049658 0.0025622583412142153 0 -0.0047097902569704572 0.0023095333348988356 0 -0.0048753728312603386 0.002467497326109873 0 -0.0056841284412452418 0.0022770179119442416 0 -0.0014619067971917367 0.0022125342199754419 0 -0.0029875394138085872 0.0019566809330166415 0 -0.0033895038414670092 0.0010038400791819839 0 -0.0039591149764159859 0.0019161906737563544 0 -0.0032098149366575003 0.0027067432880351085 0 -0.0029875394138085872 0.0019566809330166415 0 -0.0032098149366575003 0.0027067432880351085 0 -0.002321960399574728 0.0024644043229013206 0 -0.0029875394138085872 0.0019566809330166415 0 -0.0029875394138085872 0.0019566809330166415 0 -0.0035671315876040326 0.0015481068084153152 0 -0.0033895038414670092 0.0010038400791819839 0 -0.0039591149764159859 0.0019161906737563544 0 -0.0029875394138085872 0.0019566809330166415 0 -0.0035671315876040326 0.0015481068084153152 0 -0.0039591149764159859 0.0019161906737563544 0 -0.0039335306279832446 0.0013131729996237657 0 -0.0035671315876040326 0.0015481068084153152 0 -0.0039335306279832446 0.0013131729996237657 0 -0.0033895038414670092 0.0010038400791819839 0 -0.0042248193969503557 0.00049862335173709975 0 -0.0067446906660581915 0.0022571308810284724 0 -0.0064813697335706025 0.002060518367665326 0 -0.0069610267678559832 0.0020182439751456269 0 -0.0039335306279832446 0.0013131729996237657 0 -0.0035671315876040326 0.0015481068084153152 0 -0.0033895038414670092 0.0010038400791819839 0 -0.0049647111175632561 0.0019626858469889599 0 -0.0079779971533121361 0.0011553362661932609 0 -0.0049647111175632561 0.0019626858469889599 0 -0.0056841284412452418 0.0022770179119442416 0 -0.0067446906660581915 0.0022571308810284724 0 -0.0064813697335706025 0.002060518367665326 0 -0.0063320965418897533 0.0023515471361292241 0 -0.0059202861798790555 0.00244288375757637 0 -0.0063320965418897533 0.0023515471361292241 0 -0.0061378561496056418 0.0020588308867724938 0 -0.0064813697335706025 0.002060518367665326 0 -0.0063320965418897533 0.0023515471361292241 0 -0.0061378561496056418 0.0020588308867724938 0 -0.0064813697335706025 0.002060518367665326 0 -0.0061378561496056418 0.0020588308867724938 0 -0.0063137514412069454 0.0015941720719247611 0 -0.0057996887680549503 0.001802464714975624 0 -0.0061378561496056418 0.0020588308867724938 0 -0.0063137514412069454 0.0015941720719247611 0 -0.0077262270948539333 0.0014512743960374518 0 -0.0083824750338344217 0.0014517475863618176 0 -0.0093932050556321065 0.0013181399824520655 0 -0.0094036129159396579 0.0011453052567026592 0 -0.0091596212058716181 0.0011277578562278641 0 -0.0083824750338344217 0.0014517475863618176 0 -0.0091609571746171167 0.0011524779476245891 0 -0.0064813697335706025 0.002060518367665326 0 -0.0063137514412069454 0.0015941720719247611 0 -0.0069610267678559832 0.0020182439751456269 0 -0.008812296440885237 0.0012588598684572249 0 -0.0090283785589093217 0.0014094144953610769 0 -0.0088984079280168618 0.001167605954553714 0 -0.0094854028016691395 0.0012147232363429069 0 -0.0093932050556321065 0.0013181399824520655 0 -0.0094036129159396579 0.0011453052567026592 0 -0.0094854028016691395 0.0012147232363429069 0 -0.0094138938042971718 0.0013558965560198 0 -0.0096229685748616782 0.0011659624588569867 0 -0.0094854028016691395 0.0012147232363429069 0 -0.0095596681894648712 0.0011128989924347351 0 -0.0094036129159396579 0.0011453052567026592 0 -0.0079779971533121361 0.0011553362661932609 0 -0.010098096583045535 0.00098006762861602256 0 -0.0067446906660581915 0.0022571308810284724 0 -0.0069610267678559832 0.0020182439751456269 0 -0.0070114381066519243 0.0020951507747624808 0 -0.0094854028016691395 0.0012147232363429069 0 -0.0093932050556321065 0.0013181399824520655 0 -0.0094138938042971718 0.0013558965560198 0 -0.0097924549768193848 0.0010266442999208977 0 -0.0096722995871351171 0.00095816399806737391 0 -0.0096285029775585781 0.001038693367809717 0 -0.0083824750338344217 0.0014517475863618176 0 -0.0079779971533121361 0.0011553362661932609 0 -0.0096700435782375027 0.00094733698038831037 0 -0.009639739346690589 0.00095905581058206328 0 -0.0096722995871351171 0.00095816399806737391 0 -0.0062101558707459096 0.0013745550448475289 0 -0.0079779971533121361 0.0011553362661932609 0 -0.0043463638802095552 0.0014558553021875884 0 -0.0050526073112954579 0.0017946341752204289 0 -0.0042248193969503557 0.00049862335173709975 0 -0.0079779971533121361 0.0011553362661932609 0 -0.009936990130848599 0.0012753097530932387 0 -0.0039335306279832446 0.0013131729996237657 0 -0.0043463638802095552 0.0014558553021875884 0 -0.0042248193969503557 0.00049862335173709975 0 -0.0096700435782375027 0.00094733698038831037 0 -0.0095997579351888018 0.00091281152871047527 0 -0.0096722995871351171 0.00095816399806737391 0 -0.0097924549768193848 0.0010266442999208977 0 -0.0096285029775585781 0.001038693367809717 0 -0.0096229685748616782 0.0011659624588569867 0 -0.0096223714429347889 0.0011614446520008144 0 -0.0095997579351888018 0.00091281152871047527 0 -0.0096285029775585781 0.001038693367809717 0 -0.0095997579351888018 0.00091281152871047527 0 -0.0096722995871351171 0.00095816399806737391 0 -0.0096285029775585781 0.001038693367809717 0 -0.0096229685748616782 0.0011659624588569867 0 -0.0096540214991313739 0.0011086147163486733 0 -0.0095596681894648712 0.0011128989924347351 0 -0.0096223714429347889 0.0011614446520008144 0 -0.0096229685748616782 0.0011659624588569867 0 -0.0096540214991313739 0.0011086147163486733 0 -0.0096223714429347889 0.0011614446520008144 0 -0.0096285029775585781 0.001038693367809717 0 -0.0096229685748616782 0.0011659624588569867 0 -0.0094854028016691395 0.0012147232363429069 0 -0.0096229685748616782 0.0011659624588569867 0 -0.0095596681894648712 0.0011128989924347351 0 -0.0096540214991313739 0.0011086147163486733 0 -0.0095596681894648712 0.0011128989924347351 0 -0.0095040096563724329 0.0010035334300406813 0 -0.0096540214991313739 0.0011086147163486733 0 -0.0096546024903885839 0.00086498155345738194 0 -0.0095040096563724329 0.0010035334300406813 0 -0.0096546024903885839 0.00086498155345738194 0 -0.0095040096563724329 0.0010035334300406813 0 -0.0094698148452223643 0.00078076118084530318 0 -0.0095040096563724329 0.0010035334300406813 0 -0.0092858385838632002 0.00095818846867129959 0 -0.0094698148452223643 0.00078076118084530318 0 -0.0095040096563724329 0.0010035334300406813 0 -0.0094036129159396579 0.0011453052567026592 0 -0.0093392585179580476 0.0010588661601265215 0 -0.0095040096563724329 0.0010035334300406813 0 -0.0093392585179580476 0.0010588661601265215 0 -0.0092858385838632002 0.00095818846867129959 0 -0.0095596681894648712 0.0011128989924347351 0 -0.0095040096563724329 0.0010035334300406813 0 -0.0094036129159396579 0.0011453052567026592 0 -0.0094036129159396579 0.0011453052567026592 0 -0.0091596212058716181 0.0011277578562278641 0 -0.0093392585179580476 0.0010588661601265215 0 -0.0091596212058716181 0.0011277578562278641 0 -0.0093392585179580476 0.0010588661601265215 0 -0.0092858385838632002 0.00095818846867129959 0 -0.008812296440885237 0.0012588598684572249 0 -0.0088984079280168618 0.001167605954553714 0 -0.0087223401150314187 0.0010803647916211778 0 -0.0091596212058716181 0.0011277578562278641 0 -0.0090579940195450528 0.00085565274326199886 0 -0.0087602229670967445 0.00081707098730587197 0 -0.0088984079280168618 0.001167605954553714 0 -0.0087223401150314187 0.0010803647916211778 0 -0.0087602229670967445 0.00081707098730587197 0 -0.0091609571746171167 0.0011524779476245891 0 -0.0087233928818132994 0.00080435754641956228 0 -0.0091596212058716181 0.0011277578562278641 0 -0.0090579940195450528 0.00085565274326199886 0 -0.0092858385838632002 0.00095818846867129959 0 -0.0090579940195450528 0.00085565274326199886 0 -0.0092858385838632002 0.00095818846867129959 0 -0.0091989872519269555 0.00070462000940723019 0 -0.0092858385838632002 0.00095818846867129959 0 -0.0091989872519269555 0.00070462000940723019 0 -0.0094698148452223643 0.00078076118084530318 0 -0.0090579940195450528 0.00085565274326199886 0 -0.0091989872519269555 0.00070462000940723019 0 -0.0088717053153747217 0.00061858030644291095 0 -0.0091989872519269555 0.00070462000940723019 0 -0.0088717053153747217 0.00061858030644291095 0 -0.0089994154769892868 0.00041267773562526753 0 -0.0087602229670967445 0.00081707098730587197 0 -0.0088717053153747217 0.00061858030644291095 0 -0.0086195044383496223 0.00064385678122732984 0 -0.0090579940195450528 0.00085565274326199886 0 -0.0087602229670967445 0.00081707098730587197 0 -0.0088717053153747217 0.00061858030644291095 0 -0.0088717053153747217 0.00061858030644291095 0 -0.0089994154769892868 0.00041267773562526753 0 -0.0086227153335376675 0.00039091400094791928 0 -0.0091989872519269555 0.00070462000940723019 0 -0.0089994154769892868 0.00041267773562526753 0 -0.0094010821801018499 0.0004704186515959461 0 -0.0089994154769892868 0.00041267773562526753 0 -0.0094010821801018499 0.0004704186515959461 0 -0.0091802251158202668 0.000210154264589871 0 -0.0094010821801018499 0.0004704186515959461 0 -0.0096706045993565325 0.00058585559660553617 0 -0.0097478095549595536 0.00028520151338212068 0 -0.0094010821801018499 0.0004704186515959461 0 -0.0097478095549595536 0.00028520151338212068 0 -0.0094720477424264354 0.00020145080245512513 0 -0.0096706045993565325 0.00058585559660553617 0 -0.0097478095549595536 0.00028520151338212068 0 -0.010015803055114375 0.00039031647684450879 0 -0.0096706045993565325 0.00058585559660553617 0 -0.010015803055114375 0.00039031647684450879 0 -0.009849793439074472 0.00064272038738112755 0 -0.0096546024903885839 0.00086498155345738194 0 -0.0096706045993565325 0.00058585559660553617 0 -0.0094698148452223643 0.00078076118084530318 0 -0.0096546024903885839 0.00086498155345738194 0 -0.0096706045993565325 0.00058585559660553617 0 -0.009849793439074472 0.00064272038738112755 0 -0.0091989872519269555 0.00070462000940723019 0 -0.0094010821801018499 0.0004704186515959461 0 -0.0094698148452223643 0.00078076118084530318 0 -0.0094010821801018499 0.0004704186515959461 0 -0.0096706045993565325 0.00058585559660553617 0 -0.0094698148452223643 0.00078076118084530318 0 -0.0030920047906307989 0.00099879089998460664 0 -0.0034370488092471379 0.0012925784099769237 0 -0.0036253174786467011 0.00092490775246548021 0 -0.0034370488092471379 0.0012925784099769237 0 -0.0040286413927825906 0.0012278091180039036 0 -0.0036253174786467011 0.00092490775246548021 0 -0.0030273362451712278 0.0014608982224940854 0 -0.0035493094202270281 0.0015637366500972942 0 -0.0034370488092471379 0.0012925784099769237 0 -0.0035493094202270281 0.0015637366500972942 0 -0.0034370488092471379 0.0012925784099769237 0 -0.0038638105349212306 0.0013783148893197967 0 -0.0034370488092471379 0.0012925784099769237 0 -0.0038638105349212306 0.0013783148893197967 0 -0.0040286413927825906 0.0012278091180039036 0 -0.0040286413927825906 0.0012278091180039036 0 -0.0044997310188308213 0.0012063158447757226 0 -0.0050181370183211881 0.0019266732177558518 0 -0.0038638105349212306 0.0013783148893197967 0 -0.0040286413927825906 0.0012278091180039036 0 -0.0041039570010320409 0.0013199170178206847 0 -0.0036094269464143763 0.0011949924297801672 0 -0.005832782565695146 0.0014297035881288499 0 -0.0044997310188308213 0.0012063158447757226 0 -0.0050181370183211881 0.0019266732177558518 0 -0.0047804921788138508 0.0010382146689677668 0 -0.005832782565695146 0.0014297035881288499 0 -0.0061374740742167824 0.00097206109384014093 0 -0.0039070629913463949 0.0016151309665899281 0 -0.0038638105349212306 0.0013783148893197967 0 -0.0041039570010320409 0.0013199170178206847 0 -0.008812296440885237 0.0012588598684572249 0 -0.0087223401150314187 0.0010803647916211778 0 -0.0084864219174393251 0.0010734478039733451 0 -0.0077262270948539333 0.0014512743960374518 0 -0.005832782565695146 0.0014297035881288499 0 -0.0057996887680549503 0.001802464714975624 0 -0.0063137514412069454 0.0015941720719247611 0 -0.0056758610270265658 0.0011717338815864918 0 -0.0049437497493637619 0.0016778284028532758 0 -0.005832782565695146 0.0014297035881288499 0 -0.0087223401150314187 0.0010803647916211778 0 -0.0087602229670967445 0.00081707098730587197 0 -0.0085751188238757641 0.0008973431927863059 0 -0.0084864219174393251 0.0010734478039733451 0 -0.0085751188238757641 0.0008973431927863059 0 -0.0083983500933795894 0.00074080920150656636 0 -0.0087223401150314187 0.0010803647916211778 0 -0.0084864219174393251 0.0010734478039733451 0 -0.0085751188238757641 0.0008973431927863059 0 -0.0087602229670967445 0.00081707098730587197 0 -0.0085751188238757641 0.0008973431927863059 0 -0.0085734163798036264 0.00076919217068036289 0 -0.0074529059117484512 0.00053484741999699386 0 -0.0061374740742167824 0.00097206109384014093 0 -0.0086195044383496223 0.00064385678122732984 0 -0.0086227153335376675 0.00039091400094791928 0 -0.0083983500933795894 0.00074080920150656636 0 -0.0087602229670967445 0.00081707098730587197 0 -0.0085734163798036264 0.00076919217068036289 0 -0.0086195044383496223 0.00064385678122732984 0 -0.0085751188238757641 0.0008973431927863059 0 -0.0085734163798036264 0.00076919217068036289 0 -0.0083983500933795894 0.00074080920150656636 0 -0.0085734163798036264 0.00076919217068036289 0 -0.0086195044383496223 0.00064385678122732984 0 -0.0083983500933795894 0.00074080920150656636 0 -0.0060982662308046894 0.00067036516930195822 0 -0.0049738060782813856 0.00085224883223806969 0 -0.0053641966317111173 0.00024620571599082776 0 -0.0088717053153747217 0.00061858030644291095 0 -0.0086195044383496223 0.00064385678122732984 0 -0.0086227153335376675 0.00039091400094791928 0 -0.0060982662308046894 0.00067036516930195822 0 -0.0049738060782813856 0.00085224883223806969 0 -0.0051408903584315201 0.0016521541282536584 0 -0.0049738060782813856 0.00085224883223806969 0 -0.0042242640289793841 0.00080167706361013202 0 -0.0046162627685451549 0.00031536800268223026 0 -0.0049738060782813856 0.00085224883223806969 0 -0.0046162627685451549 0.00031536800268223026 0 -0.0053641966317111173 0.00024620571599082776 0 -0.0049738060782813856 0.00085224883223806969 0 -0.004540709333888243 0.001021219316161533 0 -0.0042242640289793841 0.00080167706361013202 0 -0.0049738060782813856 0.00085224883223806969 0 -0.0047804921788138508 0.0010382146689677668 0 -0.004540709333888243 0.001021219316161533 0 -0.0051151501877288782 0.00090920702799718864 0 -0.0061374740742167824 0.00097206109384014093 0 -0.0044997310188308213 0.0012063158447757226 0 -0.0047804921788138508 0.0010382146689677668 0 -0.004540709333888243 0.001021219316161533 0 -0.0040286413927825906 0.0012278091180039036 0 -0.0044997310188308213 0.0012063158447757226 0 -0.004540709333888243 0.001021219316161533 0 -0.0040286413927825906 0.0012278091180039036 0 -0.004540709333888243 0.001021219316161533 0 -0.0042242640289793841 0.00080167706361013202 0 -0.0040286413927825906 0.0012278091180039036 0 -0.0042242640289793841 0.00080167706361013202 0 -0.0036253174786467011 0.00092490775246548021 0 -0.0042242640289793841 0.00080167706361013202 0 -0.0039631236492185433 0.00033895101832240884 0 -0.0036253174786467011 0.00092490775246548021 0 -0.0042242640289793841 0.00080167706361013202 0 -0.0046162627685451549 0.00031536800268223026 0 -0.0039631236492185433 0.00033895101832240884 0 -0.0032515687743518594 0.00050181671504216045 0 -0.0039631236492185433 0.00033895101832240884 0 -0.0036253174786467011 0.00092490775246548021 0 -0.0043902527498029236 0.00018195262418811231 0 -0.0034149340526686773 0.00049486047764986233 0 -0.0056607099150237528 -0.00028989195124075036 0 -0.0057015104844333805 -0.00088945076614666962 0 -0.0033178637688292059 -0.00046069886579032317 0 -0.004305530432145553 -0.00024650947657432358 0 -0.0044156114284419276 -0.0010308963788160286 0 -0.0033178637688292059 -0.00046069886579032317 0 -0.0044156114284419276 -0.0010308963788160286 0 -0.0036159126364765175 -0.0017181496971290953 0 -0.0033178637688292059 -0.00046069886579032317 0 -0.0039631236492185433 0.00033895101832240884 0 -0.004305530432145553 -0.00024650947657432358 0 -0.0033178637688292059 -0.00046069886579032317 0 -0.0030645355501740653 0.00059660186143720368 0 -0.0039631236492185433 0.00033895101832240884 0 -0.0046162627685451549 0.00031536800268223026 0 -0.004305530432145553 -0.00024650947657432358 0 -0.0051013621549996693 -0.00037026338436118976 0 -0.0046162627685451549 0.00031536800268223026 0 -0.0039631236492185433 0.00033895101832240884 0 -0.004305530432145553 -0.00024650947657432358 0 -0.004305530432145553 -0.00024650947657432358 0 -0.0044156114284419276 -0.0010308963788160286 0 -0.0051013621549996693 -0.00037026338436118976 0 -0.0051013621549996693 -0.00037026338436118976 0 -0.0060818626496297237 -0.000257274041242765 0 -0.0056468722353285638 -0.0013283229719485983 0 -0.0044156114284419276 -0.0010308963788160286 0 -0.0051013621549996693 -0.00037026338436118976 0 -0.0056468722353285638 -0.0013283229719485983 0 -0.0051013621549996693 -0.00037026338436118976 0 -0.0053641966317111173 0.00024620571599082776 0 -0.0060818626496297237 -0.000257274041242765 0 -0.0046162627685451549 0.00031536800268223026 0 -0.0051013621549996693 -0.00037026338436118976 0 -0.0053641966317111173 0.00024620571599082776 0 -0.0060982662308046894 0.00067036516930195822 0 -0.0060818626496297237 -0.000257274041242765 0 -0.0072052912841766405 -6.6484446019068896e-05 0 -0.0060982662308046894 0.00067036516930195822 0 -0.0053641966317111173 0.00024620571599082776 0 -0.0060818626496297237 -0.000257274041242765 0 -0.0060818626496297237 -0.000257274041242765 0 -0.0056468722353285638 -0.0013283229719485983 0 -0.0070658583643670708 -0.0011111701471609773 0 -0.0065888563545273594 -0.0021588992147506003 0 -0.0055557062859192584 -0.002427936285218949 0 -0.0056468722353285638 -0.0013283229719485983 0 -0.0065888563545273594 -0.0021588992147506003 0 -0.0056468722353285638 -0.0013283229719485983 0 -0.0070658583643670708 -0.0011111701471609773 0 -0.0065888563545273594 -0.0021588992147506003 0 -0.0055557062859192584 -0.002427936285218949 0 -0.0064147492846834894 -0.0031620347180005386 0 -0.0055557062859192584 -0.002427936285218949 0 -0.0047194834937295859 -0.0029093189733413283 0 -0.0053577651312966676 -0.0031472745445313985 0 -0.0055557062859192584 -0.002427936285218949 0 -0.0046597666743649199 -0.002173576101398636 0 -0.0047194834937295859 -0.0029093189733413283 0 -0.0044156114284419276 -0.0010308963788160286 0 -0.0056468722353285638 -0.0013283229719485983 0 -0.0046597666743649199 -0.002173576101398636 0 -0.0055557062859192584 -0.002427936285218949 0 -0.0056468722353285638 -0.0013283229719485983 0 -0.0046597666743649199 -0.002173576101398636 0 -0.0044156114284419276 -0.0010308963788160286 0 -0.0046597666743649199 -0.002173576101398636 0 -0.0036159126364765175 -0.0017181496971290953 0 -0.0046597666743649199 -0.002173576101398636 0 -0.0040019300256471657 -0.0030603735793156769 0 -0.0047194834937295859 -0.0029093189733413283 0 -0.0057015104844333805 -0.00088945076614666962 0 -0.0057879771599931946 -0.0017271646031310102 0 -0.0078010270620434714 -0.0001317697942393993 0 -0.0077873532001370869 -0.00011822993632424897 0 -0.0078067861313079476 -0.00013336078484095968 0 -0.0046597666743649199 -0.002173576101398636 0 -0.0036159126364765175 -0.0017181496971290953 0 -0.0040019300256471657 -0.0030603735793156769 0 -0.0097932184388325513 -0.00010458941793228321 0 -0.010021020338857633 -0.0002732529321854196 0 -0.0097978386999618885 -0.00058886003389413454 0 -0.0097932184388325513 -0.00010458941793228321 0 -0.0092271907761007476 -0.00012734856729691886 0 -0.0097978386999618885 -0.00058886003389413454 0 -0.0097932184388325513 -0.00010458941793228321 0 -0.010021020338857633 -0.0002732529321854196 0 -0.010022269449220382 6.5311553243904585e-05 0 -0.010022269449220382 6.5311553243904585e-05 0 -0.0097478095549595536 0.00028520151338212068 0 -0.010015803055114375 0.00039031647684450879 0 -0.0097932184388325513 -0.00010458941793228321 0 -0.010022269449220382 6.5311553243904585e-05 0 -0.0097478095549595536 0.00028520151338212068 0 -0.0097932184388325513 -0.00010458941793228321 0 -0.0094720477424264354 0.00020145080245512513 0 -0.0092271907761007476 -0.00012734856729691886 0 -0.0097932184388325513 -0.00010458941793228321 0 -0.0097478095549595536 0.00028520151338212068 0 -0.0094720477424264354 0.00020145080245512513 0 -0.0089994154769892868 0.00041267773562526753 0 -0.0091802251158202668 0.000210154264589871 0 -0.0087729614015397746 1.0968315405245074e-05 0 -0.0094010821801018499 0.0004704186515959461 0 -0.0094720477424264354 0.00020145080245512513 0 -0.0091802251158202668 0.000210154264589871 0 -0.0091802251158202668 0.000210154264589871 0 -0.0087729614015397746 1.0968315405245074e-05 0 -0.0092271907761007476 -0.00012734856729691886 0 -0.0094720477424264354 0.00020145080245512513 0 -0.0091802251158202668 0.000210154264589871 0 -0.0092271907761007476 -0.00012734856729691886 0 -0.0074529059117484512 0.00053484741999699386 0 -0.0080192216038409026 -9.2315108158897433e-05 0 -0.0089994154769892868 0.00041267773562526753 0 -0.0086227153335376675 0.00039091400094791928 0 -0.0087729614015397746 1.0968315405245074e-05 0 -0.0060818626496297237 -0.000257274041242765 0 -0.0072052912841766405 -6.6484446019068896e-05 0 -0.0070658583643670708 -0.0011111701471609773 0 -0.0072052912841766405 -6.6484446019068896e-05 0 -0.0088041166613524683 -0.00096935546528916644 0 -0.0070658583643670708 -0.0011111701471609773 0 -0.0080192216038409026 -9.2315108158897433e-05 0 -0.0087830532647406243 -0.00097774382498312554 0 -0.0087729614015397746 1.0968315405245074e-05 0 -0.0092271907761007476 -0.00012734856729691886 0 -0.0088041166613524683 -0.00096935546528916644 0 -0.0092271907761007476 -0.00012734856729691886 0 -0.0088041166613524683 -0.00096935546528916644 0 -0.0097978386999618885 -0.00058886003389413454 0 -0.0088041166613524683 -0.00096935546528916644 0 -0.0078761640137535432 -0.002274983535894629 0 -0.0097978386999618885 -0.00058886003389413454 0 -0.010090851836821573 -0.00043942189942461617 0 -0.01049585690039207 -0.00036761182699995008 0 -0.0097978386999618885 -0.00058886003389413454 0 -0.0091559571590805171 -0.0012963027220561087 0 -0.0098008907880618289 -0.00063436175753201829 0 -0.0088041166613524683 -0.00096935546528916644 0 -0.0077173851737014198 -0.0015603757383363434 0 -0.0078761640137535432 -0.002274983535894629 0 -0.0088041166613524683 -0.00096935546528916644 0 -0.0070658583643670708 -0.0011111701471609773 0 -0.0077173851737014198 -0.0015603757383363434 0 -0.0065888563545273594 -0.0021588992147506003 0 -0.0070658583643670708 -0.0011111701471609773 0 -0.0073018249666390121 -0.0017683356141713401 0 -0.0070658583643670708 -0.0011111701471609773 0 -0.0077173851737014198 -0.0015603757383363434 0 -0.0073018249666390121 -0.0017683356141713401 0 -0.0077173851737014198 -0.0015603757383363434 0 -0.0073018249666390121 -0.0017683356141713401 0 -0.0078761640137535432 -0.002274983535894629 0 -0.0065888563545273594 -0.0021588992147506003 0 -0.0073018249666390121 -0.0017683356141713401 0 -0.0078761640137535432 -0.002274983535894629 0 -0.0065888563545273594 -0.0021588992147506003 0 -0.0078761640137535432 -0.002274983535894629 0 -0.0064147492846834894 -0.0031620347180005386 0 -0.01049585690039207 -0.00036761182699995008 0 -0.01044251724151157 -0.00041534575951451683 0 -0.010209139959132635 -0.00052775929443415331 0 -0.0091559571590805171 -0.0012963027220561087 0 -0.0084369090805783351 -0.001793532794798209 0 -0.01044251724151157 -0.00041534575951451683 0 -0.010398803432579814 -0.00033368530354989211 0 -0.010478824412520007 -0.00030058235817138836 0 -0.01049585690039207 -0.00036761182699995008 0 -0.01044251724151157 -0.00041534575951451683 0 -0.010398803432579814 -0.00033368530354989211 0 -0.010090851836821573 -0.00043942189942461617 0 -0.01049585690039207 -0.00036761182699995008 0 -0.010276026527620096 -0.00037658548624401855 0 -0.010276026527620096 -0.00037658548624401855 0 -0.010398803432579814 -0.00033368530354989211 0 -0.010194267810071603 -0.00038644519894086516 0 -0.010090851836821573 -0.00043942189942461617 0 -0.010276026527620096 -0.00037658548624401855 0 -0.010194267810071603 -0.00038644519894086516 0 -0.01049585690039207 -0.00036761182699995008 0 -0.010276026527620096 -0.00037658548624401855 0 -0.010398803432579814 -0.00033368530354989211 0 -0.010398803432579814 -0.00033368530354989211 0 -0.010194267810071603 -0.00038644519894086516 0 -0.010357574830282457 -0.00031538670000608708 0 -0.010194267810071603 -0.00038644519894086516 0 -0.010237904179899835 -0.00037806364260267516 0 -0.010357574830282457 -0.00031538670000608708 0 -0.010194267810071603 -0.00038644519894086516 0 -0.010031285691390404 -0.0004268442521907138 0 -0.010237904179899835 -0.00037806364260267516 0 -0.010021020338857633 -0.0002732529321854196 0 -0.010031285691390404 -0.0004268442521907138 0 -0.0097978386999618885 -0.00058886003389413454 0 -0.010090851836821573 -0.00043942189942461617 0 -0.010031285691390404 -0.0004268442521907138 0 -0.0097978386999618885 -0.00058886003389413454 0 -0.010090851836821573 -0.00043942189942461617 0 -0.010194267810071603 -0.00038644519894086516 0 -0.010031285691390404 -0.0004268442521907138 0 -0.010021020338857633 -0.0002732529321854196 0 -0.010031285691390404 -0.0004268442521907138 0 -0.010196948266379124 -0.00035572280577340226 0 -0.010237904179899835 -0.00037806364260267516 0 -0.010196948266379124 -0.00035572280577340226 0 -0.010316352812142875 -0.00039916503361439961 0 -0.010031285691390404 -0.0004268442521907138 0 -0.010237904179899835 -0.00037806364260267516 0 -0.010196948266379124 -0.00035572280577340226 0 -0.010330694740433912 -0.00039182442685141314 0 -0.010196948266379124 -0.00035572280577340226 0 -0.010316352812142875 -0.00039916503361439961 0 -0.010330694740433912 -0.00039182442685141314 0 -0.010427468688355059 -0.00030345033923854684 0 -0.010196948266379124 -0.00035572280577340226 0 -0.010330694740433912 -0.00039182442685141314 0 -0.010427468688355059 -0.00030345033923854684 0 -0.010410486728900544 -0.00050550730595265794 0 -0.010427468688355059 -0.00030345033923854684 0 -0.010827861630178223 -0.00049895090344581898 0 -0.010410486728900544 -0.00050550730595265794 0 -0.010427468688355059 -0.00030345033923854684 0 -0.010843315269490344 -0.00010522023708755083 0 -0.010438089787748569 8.7240866883903242e-05 0 -0.010427468688355059 -0.00030345033923854684 0 -0.010211259065809278 -0.00011800785693869094 0 -0.010438089787748569 8.7240866883903242e-05 0 -0.010021020338857633 -0.0002732529321854196 0 -0.010196948266379124 -0.00035572280577340226 0 -0.010211259065809278 -0.00011800785693869094 0 -0.010427468688355059 -0.00030345033923854684 0 -0.010196948266379124 -0.00035572280577340226 0 -0.010211259065809278 -0.00011800785693869094 0 -0.01136054154841532 -0.0002507983756305521 0 -0.011543846373891479 -0.00014191388652094804 0 -0.011884831458795342 -5.5526540220174621e-05 0 -0.011543008744215733 -0.00013964718455517931 0 -0.011760883871212064 -7.0310490490860353e-05 0 -0.010427468688355059 -0.00030345033923854684 0 -0.010827861630178223 -0.00049895090344581898 0 -0.010843315269490344 -0.00010522023708755083 0 -0.010827861630178223 -0.00049895090344581898 0 -0.010843315269490344 -0.00010522023708755083 0 -0.011543008744215733 -0.00013964718455517931 0 -0.010843315269490344 -0.00010522023708755083 0 -0.011543008744215733 -0.00013964718455517931 0 -0.011157736007951405 0.00040160194250055863 0 -0.010843315269490344 -0.00010522023708755083 0 -0.011157736007951405 0.00040160194250055863 0 -0.010438089787748569 8.7240866883903242e-05 0 -0.010823522816107963 0.00027192423073565199 0 -0.010464618819319411 0.00011030027600110702 0 -0.010513038169409735 0.00017585947905873503 0 -0.010322359609376748 0.00030701301501379139 0 -0.010527401491558034 0.00044543593715128804 0 -0.010513038169409735 0.00017585947905873503 0 -0.010322359609376748 0.00030701301501379139 0 -0.010438089787748569 8.7240866883903242e-05 0 -0.010823522816107963 0.00027192423073565199 0 -0.011219824408256633 0.00038482794565883712 0 -0.010513038169409735 0.00017585947905873503 0 -0.010527401491558034 0.00044543593715128804 0 -0.010777493179580532 0.00026580092989139431 0 -0.010021020338857633 -0.0002732529321854196 0 -0.010022269449220382 6.5311553243904585e-05 0 -0.010211259065809278 -0.00011800785693869094 0 -0.010022269449220382 6.5311553243904585e-05 0 -0.010211259065809278 -0.00011800785693869094 0 -0.010213255863077936 0.00015984066660941636 0 -0.010211259065809278 -0.00011800785693869094 0 -0.010438089787748569 8.7240866883903242e-05 0 -0.010213255863077936 0.00015984066660941636 0 -0.010322359609376748 0.00030701301501379139 0 -0.010213255863077936 0.00015984066660941636 0 -0.010015803055114375 0.00039031647684450879 0 -0.010322359609376748 0.00030701301501379139 0 -0.010438089787748569 8.7240866883903242e-05 0 -0.010213255863077936 0.00015984066660941636 0 -0.010022269449220382 6.5311553243904585e-05 0 -0.010213255863077936 0.00015984066660941636 0 -0.010015803055114375 0.00039031647684450879 0 -0.010015803055114375 0.00039031647684450879 0 -0.009849793439074472 0.00064272038738112755 0 -0.010139507309547151 0.00061498701563757413 0 -0.0096546024903885839 0.00086498155345738194 0 -0.009849793439074472 0.00064272038738112755 0 -0.0098099933959072457 0.00087297829256311095 0 -0.009849793439074472 0.00064272038738112755 0 -0.010139507309547151 0.00061498701563757413 0 -0.0098099933959072457 0.00087297829256311095 0 -0.010322359609376748 0.00030701301501379139 0 -0.010015803055114375 0.00039031647684450879 0 -0.010139507309547151 0.00061498701563757413 0 -0.010322359609376748 0.00030701301501379139 0 -0.010139507309547151 0.00061498701563757413 0 -0.010527401491558034 0.00044543593715128804 0 -0.010527401491558034 0.00044543593715128804 0 -0.010403432357506695 0.00074528335095787269 0 -0.010717225586033633 0.00072379638927161458 0 -0.010139507309547151 0.00061498701563757413 0 -0.010403432357506695 0.00074528335095787269 0 -0.0099940820458368981 0.00095154777864275429 0 -0.010139507309547151 0.00061498701563757413 0 -0.010527401491558034 0.00044543593715128804 0 -0.010403432357506695 0.00074528335095787269 0 -0.010403432357506695 0.00074528335095787269 0 -0.010299882544064333 0.0010158796618841576 0 -0.0099940820458368981 0.00095154777864275429 0 -0.010403432357506695 0.00074528335095787269 0 -0.010299882544064333 0.0010158796618841576 0 -0.01060075782475604 0.00099740119908651071 0 -0.010403432357506695 0.00074528335095787269 0 -0.01060075782475604 0.00099740119908651071 0 -0.010717225586033633 0.00072379638927161458 0 -0.010445593546186896 0.0012058643209709675 0 -0.010299882544064333 0.0010158796618841576 0 -0.01060075782475604 0.00099740119908651071 0 -0.010348842815671281 0.0013340746224420723 0 -0.010445593546186896 0.0012058643209709675 0 -0.010142804451235034 0.0011993896865975008 0 -0.010445593546186896 0.0012058643209709675 0 -0.010299882544064333 0.0010158796618841576 0 -0.010142804451235034 0.0011993896865975008 0 -0.010299882544064333 0.0010158796618841576 0 -0.010142804451235034 0.0011993896865975008 0 -0.0099940820458368981 0.00095154777864275429 0 -0.0096292199752040526 0.001350858153836591 0 -0.010142804451235034 0.0011993896865975008 0 -0.0099940820458368981 0.00095154777864275429 0 -0.0096292199752040526 0.001350858153836591 0 -0.0097060767687712577 0.0011463130821843914 0 -0.0099940820458368981 0.00095154777864275429 0 -0.0096223714429347889 0.0011614446520008144 0 -0.0096540214991313739 0.0011086147163486733 0 -0.0097060767687712577 0.0011463130821843914 0 -0.0096540214991313739 0.0011086147163486733 0 -0.0097060767687712577 0.0011463130821843914 0 -0.0098099933959072457 0.00087297829256311095 0 -0.0096540214991313739 0.0011086147163486733 0 -0.0096546024903885839 0.00086498155345738194 0 -0.0098099933959072457 0.00087297829256311095 0 -0.010139507309547151 0.00061498701563757413 0 -0.0098099933959072457 0.00087297829256311095 0 -0.0099940820458368981 0.00095154777864275429 0 -0.0097060767687712577 0.0011463130821843914 0 -0.0098099933959072457 0.00087297829256311095 0 -0.0099940820458368981 0.00095154777864275429 0 -0.011355503773131969 0.0011103541407446378 0 -0.011125650615334888 0.0008242203702712006 0 -0.011369841506077963 0.00079376868752859355 0 -0.011355503773131969 0.0011103541407446378 0 -0.010902148516044251 0.0010452193302648164 0 -0.011125650615334888 0.0008242203702712006 0 -0.011355503773131969 0.0011103541407446378 0 -0.011369841506077963 0.00079376868752859355 0 -0.011538404232607474 0.0009482936995362473 0 -0.011141686476839928 0.0013245935375014442 0 -0.011164277566084161 0.0011009878513105651 0 -0.011478277044285095 0.0011282963602993847 0 -0.010922077450108652 0.0013616828631689019 0 -0.011164277566084161 0.0011009878513105651 0 -0.010902148516044251 0.0010452193302648164 0 -0.011253813659688873 0.0011023290268596371 0 -0.010918098387987768 0.0010468853731244135 0 -0.010694639517186849 0.0012485250532221063 0 -0.010922077450108652 0.0013616828631689019 0 -0.010902148516044251 0.0010452193302648164 0 -0.010694639517186849 0.0012485250532221063 0 -0.010445593546186896 0.0012058643209709675 0 -0.01060075782475604 0.00099740119908651071 0 -0.010694639517186849 0.0012485250532221063 0 -0.01060075782475604 0.00099740119908651071 0 -0.010902148516044251 0.0010452193302648164 0 -0.01060075782475604 0.00099740119908651071 0 -0.010902148516044251 0.0010452193302648164 0 -0.010717225586033633 0.00072379638927161458 0 -0.010902148516044251 0.0010452193302648164 0 -0.010948285955958568 0.00070839296731537718 0 -0.011125650615334888 0.0008242203702712006 0 -0.010902148516044251 0.0010452193302648164 0 -0.010948285955958568 0.00070839296731537718 0 -0.010717225586033633 0.00072379638927161458 0 -0.010948285955958568 0.00070839296731537718 0 -0.011141472763127196 0.0005859212180284449 0 -0.011125650615334888 0.0008242203702712006 0 -0.010948285955958568 0.00070839296731537718 0 -0.010717225586033633 0.00072379638927161458 0 -0.010876652805808358 0.00048439565682608846 0 -0.010527401491558034 0.00044543593715128804 0 -0.010876652805808358 0.00048439565682608846 0 -0.010777493179580532 0.00026580092989139431 0 -0.010527401491558034 0.00044543593715128804 0 -0.010717225586033633 0.00072379638927161458 0 -0.010876652805808358 0.00048439565682608846 0 -0.010876652805808358 0.00048439565682608846 0 -0.01112822364855626 0.00038639173977827188 0 -0.011141472763127196 0.0005859212180284449 0 -0.010876652805808358 0.00048439565682608846 0 -0.01112822364855626 0.00038639173977827188 0 -0.010777493179580532 0.00026580092989139431 0 -0.010948285955958568 0.00070839296731537718 0 -0.010876652805808358 0.00048439565682608846 0 -0.011141472763127196 0.0005859212180284449 0 -0.011432613531642219 0.00047313262778154975 0 -0.011233993095219842 0.00053743139287627838 0 -0.011157076907564409 0.00044831577896900586 0 -0.011331715774447856 0.00053474016219261797 0 -0.011141472763127196 0.0005859212180284449 0 -0.011432613531642219 0.00047313262778154975 0 -0.011291039339110059 0.0004848309083998612 0 -0.011331715774447856 0.00053474016219261797 0 -0.011141472763127196 0.0005859212180284449 0 -0.011295711225344788 0.00066219110081826272 0 -0.011125650615334888 0.0008242203702712006 0 -0.011295711225344788 0.00066219110081826272 0 -0.011369841506077963 0.00079376868752859355 0 -0.011141472763127196 0.0005859212180284449 0 -0.011125650615334888 0.0008242203702712006 0 -0.011295711225344788 0.00066219110081826272 0 -0.011369841506077963 0.00079376868752859355 0 -0.01143171599661799 0.00062565071058095297 0 -0.011580732668182134 0.00076571805144166319 0 -0.011295711225344788 0.00066219110081826272 0 -0.011369841506077963 0.00079376868752859355 0 -0.01143171599661799 0.00062565071058095297 0 -0.011331715774447856 0.00053474016219261797 0 -0.011295711225344788 0.00066219110081826272 0 -0.01143171599661799 0.00062565071058095297 0 -0.011331715774447856 0.00053474016219261797 0 -0.01143171599661799 0.00062565071058095297 0 -0.011454759928119611 0.0005075395679775723 0 -0.01143171599661799 0.00062565071058095297 0 -0.011454759928119611 0.0005075395679775723 0 -0.011566030527245351 0.00057666417087099504 0 -0.011331715774447856 0.00053474016219261797 0 -0.011454759928119611 0.0005075395679775723 0 -0.011414675038815323 0.00043548750208156754 0 -0.011454759928119611 0.0005075395679775723 0 -0.011414675038815323 0.00043548750208156754 0 -0.011548152114439696 0.00040983855500319037 0 -0.011454759928119611 0.0005075395679775723 0 -0.011548152114439696 0.00040983855500319037 0 -0.011566030527245351 0.00057666417087099504 0 -0.011308675947251825 0.00051578885572158765 0 -0.011414675038815323 0.00043548750208156754 0 -0.01136855795611344 0.00031907984156990149 0 -0.011432613531642219 0.00047313262778154975 0 -0.011672039643474776 0.00024672887915334462 0 -0.011308675947251825 0.00051578885572158765 0 -0.011331715774447856 0.00053474016219261797 0 -0.011414675038815323 0.00043548750208156754 0 -0.011414675038815323 0.00043548750208156754 0 -0.01136855795611344 0.00031907984156990149 0 -0.011488436717476369 0.00030754261240043451 0 -0.011414675038815323 0.00043548750208156754 0 -0.011488436717476369 0.00030754261240043451 0 -0.011548152114439696 0.00040983855500319037 0 -0.011488436717476369 0.00030754261240043451 0 -0.011548152114439696 0.00040983855500319037 0 -0.011602977046650543 0.00019898126491540381 0 -0.01195518808599773 0.00059787141955848207 0 -0.011925331652832152 0.00011924338092900263 0 -0.011622267280484377 0.00048204351306010447 0 -0.011432613531642219 0.00047313262778154975 0 -0.011219824408256633 0.00038482794565883712 0 -0.011925331652832152 0.00011924338092900263 0 -0.011622267280484377 0.00048204351306010447 0 -0.011675558215716472 0.00014108709395753525 0 -0.011543008744215733 -0.00013964718455517931 0 -0.011157736007951405 0.00040160194250055863 0 -0.011675558215716472 0.00014108709395753525 0 -0.011157736007951405 0.00040160194250055863 0 -0.011622267280484377 0.00048204351306010447 0 -0.011675558215716472 0.00014108709395753525 0 -0.011543008744215733 -0.00013964718455517931 0 -0.011675558215716472 0.00014108709395753525 0 -0.011717034690029476 -9.8110669830602288e-05 0 -0.011925331652832152 0.00011924338092900263 0 -0.011717034690029476 -9.8110669830602288e-05 0 -0.011798212681840942 -0.00013530748052133313 0 -0.011925331652832152 0.00011924338092900263 0 -0.011675558215716472 0.00014108709395753525 0 -0.011717034690029476 -9.8110669830602288e-05 0 -0.011717034690029476 -9.8110669830602288e-05 0 -0.011798212681840942 -0.00013530748052133313 0 -0.011775609542440366 -9.6432467105736388e-05 0 -0.011543008744215733 -0.00013964718455517931 0 -0.011717034690029476 -9.8110669830602288e-05 0 -0.011760883871212064 -7.0310490490860353e-05 0 -0.011717034690029476 -9.8110669830602288e-05 0 -0.011775609542440366 -9.6432467105736388e-05 0 -0.011760883871212064 -7.0310490490860353e-05 0 -0.011488436717476369 0.00030754261240043451 0 -0.011507534713231325 0.00018182613444278574 0 -0.011602977046650543 0.00019898126491540381 0 -0.01136855795611344 0.00031907984156990149 0 -0.011470700312617032 0.00010326308188704939 0 -0.011507534713231325 0.00018182613444278574 0 -0.011672039643474776 0.00024672887915334462 0 -0.011638787207686433 -2.6053917991368137e-06 0 -0.01136855795611344 0.00031907984156990149 0 -0.011488436717476369 0.00030754261240043451 0 -0.011507534713231325 0.00018182613444278574 0 -0.011470700312617032 0.00010326308188704939 0 -0.011507534713231325 0.00018182613444278574 0 -0.011550437651567732 5.656909650359634e-05 0 -0.011643729717940343 3.5942752299833379e-05 0 -0.011581847282343813 5.586255688357654e-05 0 -0.011602977046650543 0.00019898126491540381 0 -0.011583776996965191 6.3811545345977553e-05 0 -0.011600812695941614 0.00018623851672118933 0 -0.011507534713231325 0.00018182613444278574 0 -0.011550437651567732 5.656909650359634e-05 0 -0.011602977046650543 0.00019898126491540381 0 -0.011643729717940343 3.5942752299833379e-05 0 -0.011581847282343813 5.586255688357654e-05 0 -0.011613184586700499 1.2162107924176157e-05 0 -0.011470700312617032 0.00010326308188704939 0 -0.011550437651567732 5.656909650359634e-05 0 -0.011705308278106299 3.1530538706579562e-06 0 -0.011581847282343813 5.586255688357654e-05 0 -0.011597451559580267 -1.5104634409280412e-05 0 -0.01157358407454767 -2.65961945872236e-05 0 -0.011583776996965191 6.3811545345977553e-05 0 -0.011580295090315012 -4.3047381863513679e-05 0 -0.011550437651567732 5.656909650359634e-05 0 -0.011705308278106299 3.1530538706579562e-06 0 -0.011738899743766674 -1.9132778010729348e-06 0 -0.011581847282343813 5.586255688357654e-05 0 -0.011597451559580267 -1.5104634409280412e-05 0 -0.011613184586700499 1.2162107924176157e-05 0 -0.011597451559580267 -1.5104634409280412e-05 0 -0.011589079120184184 -3.6140257958878138e-05 0 -0.01157358407454767 -2.65961945872236e-05 0 -0.011643729717940343 3.5942752299833379e-05 0 -0.011613184586700499 1.2162107924176157e-05 0 -0.011630884808767922 -2.5137094195395868e-05 0 -0.011643729717940343 3.5942752299833379e-05 0 -0.011630884808767922 -2.5137094195395868e-05 0 -0.011673490764690658 -1.9517852684164975e-05 0 -0.011597451559580267 -1.5104634409280412e-05 0 -0.011613184586700499 1.2162107924176157e-05 0 -0.011630884808767922 -2.5137094195395868e-05 0 -0.011630884808767922 -2.5137094195395868e-05 0 -0.011665309542254776 -6.2620500647648237e-05 0 -0.011606254017770471 -5.1590730371610196e-05 0 -0.011630884808767922 -2.5137094195395868e-05 0 -0.011665309542254776 -6.2620500647648237e-05 0 -0.011673490764690658 -1.9517852684164975e-05 0 -0.011597451559580267 -1.5104634409280412e-05 0 -0.011589079120184184 -3.6140257958878138e-05 0 -0.011606254017770471 -5.1590730371610196e-05 0 -0.011597451559580267 -1.5104634409280412e-05 0 -0.011630884808767922 -2.5137094195395868e-05 0 -0.011606254017770471 -5.1590730371610196e-05 0 -0.011606254017770471 -5.1590730371610196e-05 0 -0.011591778149484085 -8.1213024053131757e-05 0 -0.011582229340378083 -5.3290722318203303e-05 0 -0.011589079120184184 -3.6140257958878138e-05 0 -0.011606254017770471 -5.1590730371610196e-05 0 -0.011582229340378083 -5.3290722318203303e-05 0 -0.012382029618363814 6.1452502760266043e-05 0 -0.012564410212119442 2.0521437223681392e-05 0 -0.011606254017770471 -5.1590730371610196e-05 0 -0.011591778149484085 -8.1213024053131757e-05 0 -0.011647708720713662 -9.8561549363545954e-05 0 -0.013182037939759821 0.00019777875799811292 0 -0.013486589997945024 0.00013033305962071822 0 -0.013300220698422545 -6.6480643793538635e-05 0 -0.011665309542254776 -6.2620500647648237e-05 0 -0.011606254017770471 -5.1590730371610196e-05 0 -0.011647708720713662 -9.8561549363545954e-05 0 -0.012262162057219217 2.101514772360295e-05 0 -0.012201802759771934 2.8316637022595614e-05 0 -0.012458975546503806 -0.00011624201654154705 0 -0.012175199401231096 6.5173014291749866e-05 0 -0.012524537025212688 -3.4079630464051994e-05 0 -0.012001961370639606 0.00011745567519463007 0 -0.012201802759771934 2.8316637022595614e-05 0 -0.012031878428398033 3.4194932514975955e-05 0 -0.012175199401231096 6.5173014291749866e-05 0 -0.012171921888986668 5.0965720243089301e-05 0 -0.012382029618363814 6.1452502760266043e-05 0 -0.012175199401231096 6.5173014291749866e-05 0 -0.011591778149484085 -8.1213024053131757e-05 0 -0.011557770200686117 -7.1470823601394432e-05 0 -0.011582229340378083 -5.3290722318203303e-05 0 -0.013182037939759821 0.00019777875799811292 0 -0.012776890035599937 0.00028321483563584665 0 -0.012951525492971979 -7.1906199769878969e-05 0 -0.012175199401231096 6.5173014291749866e-05 0 -0.011580295090315012 -4.3047381863513679e-05 0 -0.011557770200686117 -7.1470823601394432e-05 0 -0.011582229340378083 -5.3290722318203303e-05 0 -0.01157358407454767 -2.65961945872236e-05 0 -0.012001961370639606 0.00011745567519463007 0 -0.011917885565381835 2.6784675944180578e-05 0 -0.011738899743766674 -1.9132778010729348e-06 0 -0.011589079120184184 -3.6140257958878138e-05 0 -0.011582229340378083 -5.3290722318203303e-05 0 -0.01157358407454767 -2.65961945872236e-05 0 -0.011917885565381835 2.6784675944180578e-05 0 -0.011738899743766674 -1.9132778010729348e-06 0 -0.011856313362683646 -6.8822666641181089e-06 0 -0.011917885565381835 2.6784675944180578e-05 0 -0.011955996855123175 1.0428631077258141e-05 0 -0.011856313362683646 -6.8822666641181089e-06 0 -0.011917885565381835 2.6784675944180578e-05 0 -0.011955996855123175 1.0428631077258141e-05 0 -0.012031878428398033 3.4194932514975955e-05 0 -0.012001961370639606 0.00011745567519463007 0 -0.011917885565381835 2.6784675944180578e-05 0 -0.012031878428398033 3.4194932514975955e-05 0 -0.012201802759771934 2.8316637022595614e-05 0 -0.012031878428398033 3.4194932514975955e-05 0 -0.012070072295274143 2.2440514123231504e-05 0 -0.011955996855123175 1.0428631077258141e-05 0 -0.012031878428398033 3.4194932514975955e-05 0 -0.012070072295274143 2.2440514123231504e-05 0 -0.011955996855123175 1.0428631077258141e-05 0 -0.011976365995109591 1.1285027534053499e-05 0 -0.012070072295274143 2.2440514123231504e-05 0 -0.011955996855123175 1.0428631077258141e-05 0 -0.011890152035334493 -1.6570583318593622e-05 0 -0.011976365995109591 1.1285027534053499e-05 0 -0.011890152035334493 -1.6570583318593622e-05 0 -0.011856313362683646 -6.8822666641181089e-06 0 -0.011818076266357355 -3.179508785855177e-05 0 -0.011955996855123175 1.0428631077258141e-05 0 -0.011890152035334493 -1.6570583318593622e-05 0 -0.011856313362683646 -6.8822666641181089e-06 0 -0.011890152035334493 -1.6570583318593622e-05 0 -0.011818076266357355 -3.179508785855177e-05 0 -0.011821946904418741 -5.6700422361182618e-05 0 -0.011890152035334493 -1.6570583318593622e-05 0 -0.011881520333581622 -1.5514431136293808e-05 0 -0.011821946904418741 -5.6700422361182618e-05 0 -0.011890152035334493 -1.6570583318593622e-05 0 -0.011881520333581622 -1.5514431136293808e-05 0 -0.011976365995109591 1.1285027534053499e-05 0 -0.011705308278106299 3.1530538706579562e-06 0 -0.011738899743766674 -1.9132778010729348e-06 0 -0.011782763018943628 -1.5492399933576074e-05 0 -0.011738899743766674 -1.9132778010729348e-06 0 -0.011782763018943628 -1.5492399933576074e-05 0 -0.011856313362683646 -6.8822666641181089e-06 0 -0.011782763018943628 -1.5492399933576074e-05 0 -0.011856313362683646 -6.8822666641181089e-06 0 -0.011818076266357355 -3.179508785855177e-05 0 -0.011818076266357355 -3.179508785855177e-05 0 -0.011772213345312468 -2.7311912339577536e-05 0 -0.011771160288199358 -6.4719081896624344e-05 0 -0.011782763018943628 -1.5492399933576074e-05 0 -0.011818076266357355 -3.179508785855177e-05 0 -0.011772213345312468 -2.7311912339577536e-05 0 -0.011705308278106299 3.1530538706579562e-06 0 -0.011772213345312468 -2.7311912339577536e-05 0 -0.011771160288199358 -6.4719081896624344e-05 0 -0.011705308278106299 3.1530538706579562e-06 0 -0.011782763018943628 -1.5492399933576074e-05 0 -0.011772213345312468 -2.7311912339577536e-05 0 -0.011638787207686433 -2.6053917991368137e-06 0 -0.011694188266135776 1.7358649151952606e-05 0 -0.011798212681840942 -0.00013530748052133313 0 -0.011771160288199358 -6.4719081896624344e-05 0 -0.011775609542440366 -9.6432467105736388e-05 0 -0.011798212681840942 -0.00013530748052133313 0 -0.011705308278106299 3.1530538706579562e-06 0 -0.011771160288199358 -6.4719081896624344e-05 0 -0.011771160288199358 -6.4719081896624344e-05 0 -0.011775609542440366 -9.6432467105736388e-05 0 -0.011821946904418741 -5.6700422361182618e-05 0 -0.011818076266357355 -3.179508785855177e-05 0 -0.011771160288199358 -6.4719081896624344e-05 0 -0.011821946904418741 -5.6700422361182618e-05 0 -0.011775609542440366 -9.6432467105736388e-05 0 -0.011760883871212064 -7.0310490490860353e-05 0 -0.011821946904418741 -5.6700422361182618e-05 0 -0.011881520333581622 -1.5514431136293808e-05 0 -0.011760883871212064 -7.0310490490860353e-05 0 -0.011821946904418741 -5.6700422361182618e-05 0 -0.011881520333581622 -1.5514431136293808e-05 0 -0.011760883871212064 -7.0310490490860353e-05 0 -0.011947742567351174 4.4921593587186971e-05 0 -0.011884831458795342 -5.5526540220174621e-05 0 -0.011760883871212064 -7.0310490490860353e-05 0 -0.011947742567351174 4.4921593587186971e-05 0 -0.011884831458795342 -5.5526540220174621e-05 0 -0.011947742567351174 4.4921593587186971e-05 0 -0.011928233830511862 0.00011817879884283394 0 -0.01136054154841532 -0.0002507983756305521 0 -0.011170008169747262 -0.00018601662164464923 0 -0.011947742567351174 4.4921593587186971e-05 0 -0.011928233830511862 0.00011817879884283394 0 -0.01195129182382478 9.8734998246464108e-05 0 -0.011947742567351174 4.4921593587186971e-05 0 -0.012004230049024373 5.0116458154173256e-05 0 -0.012051778861643334 2.9283626051398474e-05 0 -0.011947742567351174 4.4921593587186971e-05 0 -0.012004230049024373 5.0116458154173256e-05 0 -0.01195129182382478 9.8734998246464108e-05 0 -0.011947742567351174 4.4921593587186971e-05 0 -0.011976365995109591 1.1285027534053499e-05 0 -0.012051778861643334 2.9283626051398474e-05 0 -0.011881520333581622 -1.5514431136293808e-05 0 -0.011947742567351174 4.4921593587186971e-05 0 -0.011976365995109591 1.1285027534053499e-05 0 -0.011170008169747262 -0.00018601662164464923 0 -0.011011132744027286 -4.1902464941496415e-05 0 -0.010316352812142875 -0.00039916503361439961 0 -0.010353601249060321 -0.00028578467342891493 0 -0.010396146471299375 -0.00034185824769879057 0 -0.010330694740433912 -0.00039182442685141314 0 -0.010316352812142875 -0.00039916503361439961 0 -0.010410486728900544 -0.00050550730595265794 0 -0.010316352812142875 -0.00039916503361439961 0 -0.010410486728900544 -0.00050550730595265794 0 -0.010353601249060321 -0.00028578467342891493 0 -0.011928233830511862 0.00011817879884283394 0 -0.01195129182382478 9.8734998246464108e-05 0 -0.01167320234690666 0.0002495197846735267 0 -0.01195129182382478 9.8734998246464108e-05 0 -0.01167320234690666 0.0002495197846735267 0 -0.011828338469820308 3.1984771382123688e-05 0 -0.011550429194457729 -3.8685998503332127e-05 0 -0.011828338469820308 3.1984771382123688e-05 0 -0.011836709476752029 -0.00017045346405487015 0 -0.01167320234690666 0.0002495197846735267 0 -0.011550429194457729 -3.8685998503332127e-05 0 -0.011828338469820308 3.1984771382123688e-05 0 -0.011828338469820308 3.1984771382123688e-05 0 -0.011836709476752029 -0.00017045346405487015 0 -0.012044764940162028 -1.0277219061176432e-05 0 -0.01195129182382478 9.8734998246464108e-05 0 -0.011828338469820308 3.1984771382123688e-05 0 -0.012044764940162028 -1.0277219061176432e-05 0 -0.012047119587550096 -0.00017128782628493235 0 -0.011836709476752029 -0.00017045346405487015 0 -0.012044764940162028 -1.0277219061176432e-05 0 -0.011836709476752029 -0.00017045346405487015 0 -0.011885534108421632 -0.00036819807803588892 0 -0.011986735416062896 -0.00027395042083679907 0 -0.012047119587550096 -0.00017128782628493235 0 -0.011836709476752029 -0.00017045346405487015 0 -0.011986735416062896 -0.00027395042083679907 0 -0.011836709476752029 -0.00017045346405487015 0 -0.01169350555238409 -0.00029861067954522867 0 -0.011458268976177745 -0.00022845797246643656 0 -0.011550429194457729 -3.8685998503332127e-05 0 -0.011836709476752029 -0.00017045346405487015 0 -0.011458268976177745 -0.00022845797246643656 0 -0.011836709476752029 -0.00017045346405487015 0 -0.01169350555238409 -0.00029861067954522867 0 -0.011885534108421632 -0.00036819807803588892 0 -0.01169350555238409 -0.00029861067954522867 0 -0.011458268976177745 -0.00022845797246643656 0 -0.011566368470239615 -0.00038023162763924231 0 -0.0121442134561307 -1.6439554868717961e-06 0 -0.012070072295274143 2.2440514123231504e-05 0 -0.012051778861643334 2.9283626051398474e-05 0 -0.012201802759771934 2.8316637022595614e-05 0 -0.0121442134561307 -1.6439554868717961e-06 0 -0.012070072295274143 2.2440514123231504e-05 0 -0.011976365995109591 1.1285027534053499e-05 0 -0.012070072295274143 2.2440514123231504e-05 0 -0.012051778861643334 2.9283626051398474e-05 0 -0.0121442134561307 -1.6439554868717961e-06 0 -0.012051778861643334 2.9283626051398474e-05 0 -0.012044764940162028 -1.0277219061176432e-05 0 -0.012004230049024373 5.0116458154173256e-05 0 -0.01195129182382478 9.8734998246464108e-05 0 -0.012044764940162028 -1.0277219061176432e-05 0 -0.012004230049024373 5.0116458154173256e-05 0 -0.012051778861643334 2.9283626051398474e-05 0 -0.012044764940162028 -1.0277219061176432e-05 0 -0.0121442134561307 -1.6439554868717961e-06 0 -0.012044764940162028 -1.0277219061176432e-05 0 -0.012152339376864872 -8.1048488449156854e-05 0 -0.012047119587550096 -0.00017128782628493235 0 -0.012044764940162028 -1.0277219061176432e-05 0 -0.012152339376864872 -8.1048488449156854e-05 0 -0.012047119587550096 -0.00017128782628493235 0 -0.012152339376864872 -8.1048488449156854e-05 0 -0.012228244782698841 -0.00023348278381398618 0 -0.012152339376864872 -8.1048488449156854e-05 0 -0.012248759890276482 -5.0985169977920052e-05 0 -0.012228244782698841 -0.00023348278381398618 0 -0.012201802759771934 2.8316637022595614e-05 0 -0.012248759890276482 -5.0985169977920052e-05 0 -0.012458975546503806 -0.00011624201654154705 0 -0.0121442134561307 -1.6439554868717961e-06 0 -0.012152339376864872 -8.1048488449156854e-05 0 -0.012248759890276482 -5.0985169977920052e-05 0 -0.012201802759771934 2.8316637022595614e-05 0 -0.0121442134561307 -1.6439554868717961e-06 0 -0.012248759890276482 -5.0985169977920052e-05 0 -0.012458975546503806 -0.00011624201654154705 0 -0.012228244782698841 -0.00023348278381398618 0 -0.012357473905187445 -0.00035600902522636945 0 -0.012248759890276482 -5.0985169977920052e-05 0 -0.012458975546503806 -0.00011624201654154705 0 -0.012228244782698841 -0.00023348278381398618 0 -0.012047119587550096 -0.00017128782628493235 0 -0.012228244782698841 -0.00023348278381398618 0 -0.012099788287506373 -0.00032475287302500568 0 -0.012228244782698841 -0.00023348278381398618 0 -0.012099788287506373 -0.00032475287302500568 0 -0.012163558232776877 -0.00046720914268499062 0 -0.012228244782698841 -0.00023348278381398618 0 -0.012357473905187445 -0.00035600902522636945 0 -0.012163558232776877 -0.00046720914268499062 0 -0.012357473905187445 -0.00035600902522636945 0 -0.012340267436961766 -0.0004847793197995496 0 -0.012163558232776877 -0.00046720914268499062 0 -0.012357473905187445 -0.00035600902522636945 0 -0.012340267436961766 -0.0004847793197995496 0 -0.012576989538807063 -0.00046553022883784524 0 -0.012458975546503806 -0.00011624201654154705 0 -0.012357473905187445 -0.00035600902522636945 0 -0.012534442325106913 -0.00031954215229665654 0 -0.012357473905187445 -0.00035600902522636945 0 -0.012534442325106913 -0.00031954215229665654 0 -0.012576989538807063 -0.00046553022883784524 0 -0.012458975546503806 -0.00011624201654154705 0 -0.012534442325106913 -0.00031954215229665654 0 -0.012770703370441706 -0.00032385937814143192 0 -0.012534442325106913 -0.00031954215229665654 0 -0.012576989538807063 -0.00046553022883784524 0 -0.012770703370441706 -0.00032385937814143192 0 -0.011770410329039173 -0.00042412505145994971 0 -0.011938128030965342 -0.00047170283365063377 0 -0.011919795510126306 -0.00056227420322192201 0 -0.011770410329039173 -0.00042412505145994971 0 -0.011686561698745228 -0.00051178490606293382 0 -0.011566368470239615 -0.00038023162763924231 0 -0.011770410329039173 -0.00042412505145994971 0 -0.011919795510126306 -0.00056227420322192201 0 -0.011686561698745228 -0.00051178490606293382 0 -0.01169350555238409 -0.00029861067954522867 0 -0.011770410329039173 -0.00042412505145994971 0 -0.011885534108421632 -0.00036819807803588892 0 -0.01169350555238409 -0.00029861067954522867 0 -0.011770410329039173 -0.00042412505145994971 0 -0.011566368470239615 -0.00038023162763924231 0 -0.011885534108421632 -0.00036819807803588892 0 -0.011938128030965342 -0.00047170283365063377 0 -0.012033895434308578 -0.00041957335941625437 0 -0.011938128030965342 -0.00047170283365063377 0 -0.012033895434308578 -0.00041957335941625437 0 -0.012048922788500178 -0.00054397315633800646 0 -0.011770410329039173 -0.00042412505145994971 0 -0.011885534108421632 -0.00036819807803588892 0 -0.011938128030965342 -0.00047170283365063377 0 -0.012033895434308578 -0.00041957335941625437 0 -0.011986735416062896 -0.00027395042083679907 0 -0.012099788287506373 -0.00032475287302500568 0 -0.011885534108421632 -0.00036819807803588892 0 -0.012033895434308578 -0.00041957335941625437 0 -0.011986735416062896 -0.00027395042083679907 0 -0.012047119587550096 -0.00017128782628493235 0 -0.011986735416062896 -0.00027395042083679907 0 -0.012099788287506373 -0.00032475287302500568 0 -0.012033895434308578 -0.00041957335941625437 0 -0.012099788287506373 -0.00032475287302500568 0 -0.012163558232776877 -0.00046720914268499062 0 -0.012340267436961766 -0.0004847793197995496 0 -0.012163558232776877 -0.00046720914268499062 0 -0.012226887490654204 -0.0005612626414480148 0 -0.012163558232776877 -0.00046720914268499062 0 -0.012134270111219673 -0.00060565294153892531 0 -0.012226887490654204 -0.0005612626414480148 0 -0.012033895434308578 -0.00041957335941625437 0 -0.012163558232776877 -0.00046720914268499062 0 -0.012048922788500178 -0.00054397315633800646 0 -0.012163558232776877 -0.00046720914268499062 0 -0.012134270111219673 -0.00060565294153892531 0 -0.012048922788500178 -0.00054397315633800646 0 -0.012048922788500178 -0.00054397315633800646 0 -0.012077030806064103 -0.00064242869730056083 0 -0.011919795510126306 -0.00056227420322192201 0 -0.011938128030965342 -0.00047170283365063377 0 -0.012048922788500178 -0.00054397315633800646 0 -0.011919795510126306 -0.00056227420322192201 0 -0.012134270111219673 -0.00060565294153892531 0 -0.012048922788500178 -0.00054397315633800646 0 -0.012077030806064103 -0.00064242869730056083 0 -0.012134270111219673 -0.00060565294153892531 0 -0.012156849961923229 -0.00069696861187777161 0 -0.012077030806064103 -0.00064242869730056083 0 -0.012156849961923229 -0.00069696861187777161 0 -0.012077030806064103 -0.00064242869730056083 0 -0.012125296300450126 -0.00070764165753688991 0 -0.012071684906648335 -0.00073805187318623099 0 -0.011992031302131927 -0.00065488094053483788 0 -0.011818632261759015 -0.00062634421350492655 0 -0.012077030806064103 -0.00064242869730056083 0 -0.012125296300450126 -0.00070764165753688991 0 -0.011992031302131927 -0.00065488094053483788 0 -0.012125296300450126 -0.00070764165753688991 0 -0.012071684906648335 -0.00073805187318623099 0 -0.012263015890094785 -0.0007718775035486467 0 -0.012156849961923229 -0.00069696861187777161 0 -0.012125296300450126 -0.00070764165753688991 0 -0.012263015890094785 -0.0007718775035486467 0 -0.012125296300450126 -0.00070764165753688991 0 -0.012071684906648335 -0.00073805187318623099 0 -0.011992031302131927 -0.00065488094053483788 0 -0.011919795510126306 -0.00056227420322192201 0 -0.011686561698745228 -0.00051178490606293382 0 -0.011818632261759015 -0.00062634421350492655 0 -0.011992031302131927 -0.00065488094053483788 0 -0.011919795510126306 -0.00056227420322192201 0 -0.011818632261759015 -0.00062634421350492655 0 -0.012077030806064103 -0.00064242869730056083 0 -0.011992031302131927 -0.00065488094053483788 0 -0.011919795510126306 -0.00056227420322192201 0 -0.012263015890094785 -0.0007718775035486467 0 -0.0121647049863163 -0.00065448380256456393 0 -0.012151942154938056 -0.00061505536799035432 0 -0.012856803017265125 -0.00079072721491098654 0 -0.013310499489028817 -0.00080332110518862795 0 -0.012468195984866771 -0.00072023942357416241 0 -0.012749507260070689 -0.00076139867155151323 0 -0.012541206920009923 -0.00072388376934010685 0 -0.012263015890094785 -0.0007718775035486467 0 -0.012151942154938056 -0.00061505536799035432 0 -0.012468195984866771 -0.00072023942357416241 0 -0.012156849961923229 -0.00069696861187777161 0 -0.012263015890094785 -0.0007718775035486467 0 -0.0121647049863163 -0.00065448380256456393 0 -0.012134270111219673 -0.00060565294153892531 0 -0.012156849961923229 -0.00069696861187777161 0 -0.0121647049863163 -0.00065448380256456393 0 -0.0121647049863163 -0.00065448380256456393 0 -0.012244541750560162 -0.00061625762524146227 0 -0.012151942154938056 -0.00061505536799035432 0 -0.012134270111219673 -0.00060565294153892531 0 -0.0121647049863163 -0.00065448380256456393 0 -0.012226887490654204 -0.0005612626414480148 0 -0.0121647049863163 -0.00065448380256456393 0 -0.012226887490654204 -0.0005612626414480148 0 -0.012244541750560162 -0.00061625762524146227 0 -0.012226887490654204 -0.0005612626414480148 0 -0.012244541750560162 -0.00061625762524146227 0 -0.012421892012223937 -0.00058252244634282948 0 -0.012244541750560162 -0.00061625762524146227 0 -0.012151942154938056 -0.00061505536799035432 0 -0.012377809250632815 -0.00067888184887917842 0 -0.012749507260070689 -0.00076139867155151323 0 -0.012990949443830099 -0.00092561308588992271 0 -0.012151942154938056 -0.00061505536799035432 0 -0.012377809250632815 -0.00067888184887917842 0 -0.01232748493977298 -0.00085945779593649325 0 -0.013310499489028817 -0.00080332110518862795 0 -0.013641146537863913 -0.0011018757592266835 0 -0.013768920158036912 -0.0011040066752793713 0 -0.013310499489028817 -0.00080332110518862795 0 -0.013308164722833742 -0.0010091824983061847 0 -0.013641146537863913 -0.0011018757592266835 0 -0.013310499489028817 -0.00080332110518862795 0 -0.013308164722833742 -0.0010091824983061847 0 -0.013009595932908862 -0.00093176538827932079 0 -0.013308164722833742 -0.0010091824983061847 0 -0.013009595932908862 -0.00093176538827932079 0 -0.013108389073253721 -0.0010990907601007857 0 -0.012856803017265125 -0.00079072721491098654 0 -0.013310499489028817 -0.00080332110518862795 0 -0.013009595932908862 -0.00093176538827932079 0 -0.012576989538807063 -0.00046553022883784524 0 -0.01271620301031715 -0.00063719668874907636 0 -0.013017488954596566 -0.00055355561392921948 0 -0.012576989538807063 -0.00046553022883784524 0 -0.012421892012223937 -0.00058252244634282948 0 -0.01271620301031715 -0.00063719668874907636 0 -0.012340267436961766 -0.0004847793197995496 0 -0.012576989538807063 -0.00046553022883784524 0 -0.012421892012223937 -0.00058252244634282948 0 -0.012340267436961766 -0.0004847793197995496 0 -0.012226887490654204 -0.0005612626414480148 0 -0.012421892012223937 -0.00058252244634282948 0 -0.012421892012223937 -0.00058252244634282948 0 -0.012566522374814679 -0.00070368792010565935 0 -0.01271620301031715 -0.00063719668874907636 0 -0.012244541750560162 -0.00061625762524146227 0 -0.012421892012223937 -0.00058252244634282948 0 -0.012377809250632815 -0.00067888184887917842 0 -0.012421892012223937 -0.00058252244634282948 0 -0.012377809250632815 -0.00067888184887917842 0 -0.012566522374814679 -0.00070368792010565935 0 -0.012377809250632815 -0.00067888184887917842 0 -0.012566522374814679 -0.00070368792010565935 0 -0.012551170401622916 -0.00080580075243756957 0 -0.012418796488399324 -0.00070828333880743565 0 -0.012503695023333362 -0.00075973984837418302 0 -0.012566522374814679 -0.00070368792010565935 0 -0.01271620301031715 -0.00063719668874907636 0 -0.012785142088380079 -0.00080282733180501282 0 -0.01271620301031715 -0.00063719668874907636 0 -0.012952884000227576 -0.00071568442294560396 0 -0.012785142088380079 -0.00080282733180501282 0 -0.01271620301031715 -0.00063719668874907636 0 -0.013017488954596566 -0.00055355561392921948 0 -0.012952884000227576 -0.00071568442294560396 0 -0.013017488954596566 -0.00055355561392921948 0 -0.013329625819566428 -0.00079301217662894948 0 -0.012952884000227576 -0.00071568442294560396 0 -0.012576989538807063 -0.00046553022883784524 0 -0.013017488954596566 -0.00055355561392921948 0 -0.012770703370441706 -0.00032385937814143192 0 -0.013017488954596566 -0.00055355561392921948 0 -0.013317891946898848 -0.00045898397918373317 0 -0.013110143034609691 -0.00030540131775088367 0 -0.013017488954596566 -0.00055355561392921948 0 -0.012770703370441706 -0.00032385937814143192 0 -0.013110143034609691 -0.00030540131775088367 0 -0.013017488954596566 -0.00055355561392921948 0 -0.013334588574073741 -0.00061206878435736672 0 -0.013317891946898848 -0.00045898397918373317 0 -0.013017488954596566 -0.00055355561392921948 0 -0.013334588574073741 -0.00061206878435736672 0 -0.013329625819566428 -0.00079301217662894948 0 -0.013352068992655217 -0.00059523294144436518 0 -0.01364232031351904 -0.00044625672278454854 0 -0.013334588574073741 -0.00061206878435736672 0 -0.013522599423210378 -0.00053568483468557817 0 -0.013317891946898848 -0.00045898397918373317 0 -0.013334588574073741 -0.00061206878435736672 0 -0.013761119815909205 -0.00034423059773131686 0 -0.013795805855379819 -0.00056007451536276996 0 -0.013522599423210378 -0.00053568483468557817 0 -0.013415373813720325 -0.0002821170436480109 0 -0.013602615012985549 -0.00026156604643623325 0 -0.013522599423210378 -0.00053568483468557817 0 -0.013317891946898848 -0.00045898397918373317 0 -0.013415373813720325 -0.0002821170436480109 0 -0.013317891946898848 -0.00045898397918373317 0 -0.013415373813720325 -0.0002821170436480109 0 -0.013110143034609691 -0.00030540131775088367 0 -0.013415373813720325 -0.0002821170436480109 0 -0.013300220698422545 -6.6480643793538635e-05 0 -0.013110143034609691 -0.00030540131775088367 0 -0.013415373813720325 -0.0002821170436480109 0 -0.013554544489197918 -8.8439483492368942e-05 0 -0.013300220698422545 -6.6480643793538635e-05 0 -0.013415373813720325 -0.0002821170436480109 0 -0.013554544489197918 -8.8439483492368942e-05 0 -0.013602615012985549 -0.00026156604643623325 0 -0.013486589997945024 0.00013033305962071822 0 -0.013554544489197918 -8.8439483492368942e-05 0 -0.013300220698422545 -6.6480643793538635e-05 0 -0.013182037939759821 0.00019777875799811292 0 -0.013300220698422545 -6.6480643793538635e-05 0 -0.012951525492971979 -7.1906199769878969e-05 0 -0.013300220698422545 -6.6480643793538635e-05 0 -0.012951525492971979 -7.1906199769878969e-05 0 -0.013110143034609691 -0.00030540131775088367 0 -0.012776890035599937 0.00028321483563584665 0 -0.012458975546503806 -0.00011624201654154705 0 -0.012951525492971979 -7.1906199769878969e-05 0 -0.012458975546503806 -0.00011624201654154705 0 -0.012951525492971979 -7.1906199769878969e-05 0 -0.012770703370441706 -0.00032385937814143192 0 -0.012951525492971979 -7.1906199769878969e-05 0 -0.012770703370441706 -0.00032385937814143192 0 -0.013110143034609691 -0.00030540131775088367 0 -0.0096644074688482535 -4.6201249405370678e-05 0 -0.0092427027900819515 -0.00031042561327298705 0 -0.011331193534370147 -0.00016878834745682781 0 -0.011540118205054998 -0.00013777336068608085 0 -0.011532581698712737 5.1714662808623185e-06 0 -0.011331193534370147 -0.00016878834745682781 0 -0.011540118205054998 -0.00013777336068608085 0 -0.011462553044872122 -0.00024952023284584355 0 -0.011540118205054998 -0.00013777336068608085 0 -0.011621989577435456 -0.00016074832772140822 0 -0.011462553044872122 -0.00024952023284584355 0 -0.010846592003459003 -0.00037179569635720553 0 -0.010581187956594984 -0.00065335121040998331 0 -0.0092863928147618527 -0.0008829842989404417 0 -0.0093438989598506762 -0.00084804150425870706 0 -0.0093902576374298042 -0.00091787406092398867 0 -0.0092863928147618527 -0.0008829842989404417 0 -0.0093438989598506762 -0.00084804150425870706 0 -0.00930457532494669 -0.00079903127169853071 0 -0.011540118205054998 -0.00013777336068608085 0 -0.011602064082229436 -0.00016077480631784485 0 -0.011532581698712737 5.1714662808623185e-06 0 -0.0092863928147618527 -0.0008829842989404417 0 -0.00930457532494669 -0.00079903127169853071 0 -0.0092353110161210138 -0.00076915652875578124 0 -0.010846592003459003 -0.00037179569635720553 0 -0.0092427027900819515 -0.00031042561327298705 0 -0.011331936184255906 -0.00039106094751399954 0 -0.010846592003459003 -0.00037179569635720553 0 -0.00930457532494669 -0.00079903127169853071 0 -0.0092818785463176581 -0.00072704413040486045 0 -0.0092353110161210138 -0.00076915652875578124 0 -0.0088428924205550784 -0.00089606408366886905 0 -0.008210463014358349 -0.00099156175259049986 0 -0.0093438989598506762 -0.00084804150425870706 0 -0.00930457532494669 -0.00079903127169853071 0 -0.0093947484326474644 -0.00079165888806762106 0 -0.00930457532494669 -0.00079903127169853071 0 -0.0092962258233901703 -0.00071235256076932938 0 -0.0093947484326474644 -0.00079165888806762106 0 -0.0072719778161695709 -0.0018971768663062301 0 -0.0094157061294563062 -0.0010023817406722962 0 -0.00930457532494669 -0.00079903127169853071 0 -0.0092769718522341203 -0.00072915186977197811 0 -0.0092962258233901703 -0.00071235256076932938 0 -0.0078834082445682404 -0.00025368402678674525 0 -0.0078448906042197768 -0.00028408526531481195 0 -0.0078723966590431693 -0.00021756772878820028 0 -0.008210463014358349 -0.00099156175259049986 0 -0.0092427027900819515 -0.00031042561327298705 0 -0.0076519347953015807 -0.001896903271526624 0 -0.0078784290451165608 -0.0017011595151844197 0 -0.007511644388171243 -0.0013612693047159042 0 -0.008210463014358349 -0.00099156175259049986 0 -0.0072909636144532402 -0.001467057821256608 0 -0.008210463014358349 -0.00099156175259049986 0 -0.0072719778161695709 -0.0018971768663062301 0 -0.0078293899682421106 -5.1880432620196873e-05 0 -0.0077919252554445994 -8.9653018683051461e-05 0 -0.0078109483719733599 -0.00010354374217325986 0 -0.0078448906042197768 -0.00028408526531481195 0 -0.007829171535110457 -0.00017764282428401948 0 -0.0078002291563208466 -0.0001453536771353186 0 -0.007829171535110457 -0.00017764282428401948 0 -0.0078067861313079476 -0.00013336078484095968 0 -0.007850599860071238 -0.00019880357437561874 0 -0.0077919252554445994 -8.9653018683051461e-05 0 -0.0078109483719733599 -0.00010354374217325986 0 -0.0078002291563208466 -0.0001453536771353186 0 -0.0078138895906103827 -0.00012239896069088705 0 -0.0078109483719733599 -0.00010354374217325986 0 -0.0078002291563208466 -0.0001453536771353186 0 -0.0092427027900819515 -0.00031042561327298705 0 -0.007449335417408524 -5.5253199718121199e-06 0 -0.0078448906042197768 -0.00028408526531481195 0 -0.007829171535110457 -0.00017764282428401948 0 -0.0078723966590431693 -0.00021756772878820028 0 -0.0078010270620434714 -0.0001317697942393993 0 -0.0078002291563208466 -0.0001453536771353186 0 -0.0078067861313079476 -0.00013336078484095968 0 -0.007829171535110457 -0.00017764282428401948 0 -0.0078002291563208466 -0.0001453536771353186 0 -0.0078067861313079476 -0.00013336078484095968 0 -0.0040019300256471657 -0.0030603735793156769 0 -0.004736083691409528 -0.0034675810326828633 0 -0.0043944990038891438 -0.0042721261902906957 0 -0.0047194834937295859 -0.0029093189733413283 0 -0.004736083691409528 -0.0034675810326828633 0 -0.0053577651312966676 -0.0031472745445313985 0 -0.0040019300256471657 -0.0030603735793156769 0 -0.0047194834937295859 -0.0029093189733413283 0 -0.004736083691409528 -0.0034675810326828633 0 -0.0057879771599931946 -0.0017271646031310102 0 -0.0072909636144532402 -0.001467057821256608 0 -0.004736083691409528 -0.0034675810326828633 0 -0.0043944990038891438 -0.0042721261902906957 0 -0.0052514716207789159 -0.0038950898519445583 0 -0.0045990127002512029 -0.0044513065081708061 0 -0.0043944990038891438 -0.0042721261902906957 0 -0.0052514716207789159 -0.0038950898519445583 0 -0.0074312168618161437 -0.00058580965622757322 0 -0.0072909636144532402 -0.001467057821256608 0 -0.0072719778161695709 -0.0018971768663062301 0 -0.0072909636144532402 -0.001467057821256608 0 -0.0072719778161695709 -0.0018971768663062301 0 -0.0069783485017824781 -0.0026132255596825636 0 -0.0098214627251039209 -0.0008329750385380224 0 -0.010126482137662714 -0.00096822157537080678 0 -0.0099526316339859783 -0.0010489574804314272 0 -0.004736083691409528 -0.0034675810326828633 0 -0.0052514716207789159 -0.0038950898519445583 0 -0.0053577651312966676 -0.0031472745445313985 0 -0.0055557062859192584 -0.002427936285218949 0 -0.0053577651312966676 -0.0031472745445313985 0 -0.0064147492846834894 -0.0031620347180005386 0 -0.0052761887015178076 -0.0040328871700261483 0 -0.0053577651312966676 -0.0031472745445313985 0 -0.0064147492846834894 -0.0031620347180005386 0 -0.0069783485017824781 -0.0026132255596825636 0 -0.0053624087814450388 -0.0037262554789944981 0 -0.0098214627251039209 -0.0008329750385380224 0 -0.010209139959132635 -0.00052775929443415331 0 -0.010141206721707539 -0.0007768692709999586 0 -0.0069783485017824781 -0.0026132255596825636 0 -0.0084369090805783351 -0.001793532794798209 0 -0.010209139959132635 -0.00052775929443415331 0 -0.010141206721707539 -0.0007768692709999586 0 -0.010391032310756474 -0.00077732234811726916 0 -0.010141206721707539 -0.0007768692709999586 0 -0.010126482137662714 -0.00096822157537080678 0 -0.010391032310756474 -0.00077732234811726916 0 -0.0098214627251039209 -0.0008329750385380224 0 -0.010141206721707539 -0.0007768692709999586 0 -0.010126482137662714 -0.00096822157537080678 0 -0.010126482137662714 -0.00096822157537080678 0 -0.010067694045510445 -0.0011834403165654494 0 -0.010322824308680969 -0.0012072056583534111 0 -0.010126482137662714 -0.00096822157537080678 0 -0.010067694045510445 -0.0011834403165654494 0 -0.0099526316339859783 -0.0010489574804314272 0 -0.008260042417330412 -0.0018598332197029166 0 -0.0077140064752787025 -0.0023317567089536609 0 -0.0078176245974049697 -0.0014395544981209995 0 -0.0069783485017824781 -0.0026132255596825636 0 -0.0094157061294563062 -0.0010023817406722962 0 -0.0098214627251039209 -0.0008329750385380224 0 -0.0099526316339859783 -0.0010489574804314272 0 -0.0097968654466798009 -0.0012081500863577205 0 -0.010067694045510445 -0.0011834403165654494 0 -0.0099526316339859783 -0.0010489574804314272 0 -0.0097968654466798009 -0.0012081500863577205 0 -0.0094157061294563062 -0.0010023817406722962 0 -0.010581187956594984 -0.00065335121040998331 0 -0.0094157061294563062 -0.0010023817406722962 0 -0.010401770242886929 -0.0011890557879060005 0 -0.010067694045510445 -0.0011834403165654494 0 -0.0097968654466798009 -0.0012081500863577205 0 -0.010036712118177958 -0.0014115948705610585 0 -0.01033192465834519 -0.00056673367033081617 0 -0.010297662555311584 -0.00094356728500918398 0 -0.010646812949908898 -0.00084998998270130943 0 -0.010297662555311584 -0.00094356728500918398 0 -0.010646812949908898 -0.00084998998270130943 0 -0.010662008852041225 -0.001081965804905758 0 -0.0093438989598506762 -0.00084804150425870706 0 -0.0093947484326474644 -0.00079165888806762106 0 -0.0093902576374298042 -0.00091787406092398867 0 -0.010067694045510445 -0.0011834403165654494 0 -0.010036712118177958 -0.0014115948705610585 0 -0.010322824308680969 -0.0012072056583534111 0 -0.010036712118177958 -0.0014115948705610585 0 -0.010322824308680969 -0.0012072056583534111 0 -0.010265299137411536 -0.001611150167649809 0 -0.010401770242886929 -0.0011890557879060005 0 -0.010961473174460813 -0.00087555037421789897 0 -0.01040167469981554 -0.00073427388502190344 0 -0.010961473174460813 -0.00087555037421789897 0 -0.010614688708658553 -0.00030001326342558019 0 -0.010599405686172811 -0.00019784022772302565 0 -0.010574322721040547 -0.00034476196321916254 0 -0.010654783945114703 -0.00024576963156533585 0 -0.010614688708658553 -0.00030001326342558019 0 -0.010599405686172811 -0.00019784022772302565 0 -0.010654783945114703 -0.00024576963156533585 0 -0.010614688708658553 -0.00030001326342558019 0 -0.010636944373730731 -0.00033254230637842866 0 -0.010618183275731476 -0.00022743553785963488 0 -0.010753126010897833 -0.00024062680287885465 0 -0.010762081395485469 -0.00038569595184590486 0 -0.010753126010897833 -0.00024062680287885465 0 -0.010875866723117231 -0.00033058673677949604 0 -0.010762081395485469 -0.00038569595184590486 0 -0.010618183275731476 -0.00022743553785963488 0 -0.010753126010897833 -0.00024062680287885465 0 -0.010666720382430269 -0.00017301109145228082 0 -0.010753126010897833 -0.00024062680287885465 0 -0.010666720382430269 -0.00017301109145228082 0 -0.01075169955496392 -0.00014499443864534199 0 -0.010666720382430269 -0.00017301109145228082 0 -0.010648539317924666 -0.00015118670484634986 0 -0.01075169955496392 -0.00014499443864534199 0 -0.010648539317924666 -0.00015118670484634986 0 -0.010659790804291937 -0.00013888848634358345 0 -0.01075169955496392 -0.00014499443864534199 0 -0.010666720382430269 -0.00017301109145228082 0 -0.010648539317924666 -0.00015118670484634986 0 -0.010614961720794791 -0.00016185405348217657 0 -0.01040167469981554 -0.00073427388502190344 0 -0.010498431549078233 -0.00046578379497320933 0 -0.010654783945114703 -0.00024576963156533585 0 -0.010599405686172811 -0.00019784022772302565 0 -0.010614961720794791 -0.00016185405348217657 0 -0.010596393728379843 -0.00023249024764186602 0 -0.010625487466048085 -0.00017197800022989381 0 -0.010618183275731476 -0.00022743553785963488 0 -0.010666720382430269 -0.00017301109145228082 0 -0.010614961720794791 -0.00016185405348217657 0 -0.010126482137662714 -0.00096822157537080678 0 -0.010322824308680969 -0.0012072056583534111 0 -0.010391032310756474 -0.00077732234811726916 0 -0.010599405686172811 -0.00019784022772302565 0 -0.010614961720794791 -0.00016185405348217657 0 -0.010608748057658742 -0.00016881257595386092 0 -0.010614961720794791 -0.00016185405348217657 0 -0.010608748057658742 -0.00016881257595386092 0 -0.010584189719596484 -0.00016822132054291537 0 -0.01044251724151157 -0.00041534575951451683 0 -0.010608748057658742 -0.00016881257595386092 0 -0.010478824412520007 -0.00030058235817138836 0 -0.01044251724151157 -0.00041534575951451683 0 -0.010209139959132635 -0.00052775929443415331 0 -0.010391032310756474 -0.00077732234811726916 0 -0.010455923920492152 -0.00041377375579128154 0 -0.010498431549078233 -0.00046578379497320933 0 -0.010608748057658742 -0.00016881257595386092 0 -0.010478824412520007 -0.00030058235817138836 0 -0.01048354435009944 -0.00026202577480814975 0 -0.010398803432579814 -0.00033368530354989211 0 -0.01048354435009944 -0.00026202577480814975 0 -0.010357574830282457 -0.00031538670000608708 0 -0.010398803432579814 -0.00033368530354989211 0 -0.010478824412520007 -0.00030058235817138836 0 -0.01048354435009944 -0.00026202577480814975 0 -0.01048354435009944 -0.00026202577480814975 0 -0.010518304093999238 -0.00022251929154347671 0 -0.010584189719596484 -0.00016822132054291537 0 -0.01048354435009944 -0.00026202577480814975 0 -0.010518304093999238 -0.00022251929154347671 0 -0.010357574830282457 -0.00031538670000608708 0 -0.010518304093999238 -0.00022251929154347671 0 -0.010584189719596484 -0.00016822132054291537 0 -0.010659790804291937 -0.00013888848634358345 0 -0.010608748057658742 -0.00016881257595386092 0 -0.01048354435009944 -0.00026202577480814975 0 -0.010584189719596484 -0.00016822132054291537 0 -0.010648539317924666 -0.00015118670484634986 0 -0.010614961720794791 -0.00016185405348217657 0 -0.010584189719596484 -0.00016822132054291537 0 -0.010648539317924666 -0.00015118670484634986 0 -0.010584189719596484 -0.00016822132054291537 0 -0.010659790804291937 -0.00013888848634358345 0 -0.010518304093999238 -0.00022251929154347671 0 -0.010659790804291937 -0.00013888848634358345 0 -0.010612732350191062 -0.00020899536626911168 0 -0.010659790804291937 -0.00013888848634358345 0 -0.010612732350191062 -0.00020899536626911168 0 -0.010900276105653001 -2.1925704957392433e-05 0 -0.010237904179899835 -0.00037806364260267516 0 -0.010416005654899594 -0.00029910892632729912 0 -0.010357574830282457 -0.00031538670000608708 0 -0.010518304093999238 -0.00022251929154347671 0 -0.010416005654899594 -0.00029910892632729912 0 -0.010612732350191062 -0.00020899536626911168 0 -0.010518304093999238 -0.00022251929154347671 0 -0.010416005654899594 -0.00029910892632729912 0 -0.010357574830282457 -0.00031538670000608708 0 -0.010237904179899835 -0.00037806364260267516 0 -0.010316352812142875 -0.00039916503361439961 0 -0.010396146471299375 -0.00034185824769879057 0 -0.010237904179899835 -0.00037806364260267516 0 -0.010416005654899594 -0.00029910892632729912 0 -0.010396146471299375 -0.00034185824769879057 0 -0.010416005654899594 -0.00029910892632729912 0 -0.010396146471299375 -0.00034185824769879057 0 -0.010612732350191062 -0.00020899536626911168 0 -0.010353601249060321 -0.00028578467342891493 0 -0.010396146471299375 -0.00034185824769879057 0 -0.010612732350191062 -0.00020899536626911168 0 -0.011011132744027286 -4.1902464941496415e-05 0 -0.010894290795950494 -4.0294918089438536e-05 0 -0.010353601249060321 -0.00028578467342891493 0 -0.010612732350191062 -0.00020899536626911168 0 -0.010900276105653001 -2.1925704957392433e-05 0 -0.011550429194457729 -3.8685998503332127e-05 0 -0.010900276105653001 -2.1925704957392433e-05 0 -0.011458268976177745 -0.00022845797246643656 0 -0.01167320234690666 0.0002495197846735267 0 -0.011550429194457729 -3.8685998503332127e-05 0 -0.010900276105653001 -2.1925704957392433e-05 0 -0.010900276105653001 -2.1925704957392433e-05 0 -0.01075169955496392 -0.00014499443864534199 0 -0.010908737503081292 -0.00021579641151841755 0 -0.010659790804291937 -0.00013888848634358345 0 -0.010900276105653001 -2.1925704957392433e-05 0 -0.01075169955496392 -0.00014499443864534199 0 -0.010900276105653001 -2.1925704957392433e-05 0 -0.010908737503081292 -0.00021579641151841755 0 -0.011136281288803444 -0.00023276806188377534 0 -0.010753126010897833 -0.00024062680287885465 0 -0.01075169955496392 -0.00014499443864534199 0 -0.010908737503081292 -0.00021579641151841755 0 -0.010908737503081292 -0.00021579641151841755 0 -0.010875866723117231 -0.00033058673677949604 0 -0.011057481351722027 -0.00033556088813178442 0 -0.010753126010897833 -0.00024062680287885465 0 -0.010908737503081292 -0.00021579641151841755 0 -0.010875866723117231 -0.00033058673677949604 0 -0.010908737503081292 -0.00021579641151841755 0 -0.011057481351722027 -0.00033556088813178442 0 -0.011136281288803444 -0.00023276806188377534 0 -0.011458268976177745 -0.00022845797246643656 0 -0.011136281288803444 -0.00023276806188377534 0 -0.011312273338051668 -0.00035398205285536876 0 -0.010900276105653001 -2.1925704957392433e-05 0 -0.011458268976177745 -0.00022845797246643656 0 -0.011136281288803444 -0.00023276806188377534 0 -0.011057481351722027 -0.00033556088813178442 0 -0.011136281288803444 -0.00023276806188377534 0 -0.011312273338051668 -0.00035398205285536876 0 -0.011458268976177745 -0.00022845797246643656 0 -0.011566368470239615 -0.00038023162763924231 0 -0.011312273338051668 -0.00035398205285536876 0 -0.011439995370150334 -0.00048699842427970478 0 -0.011176787483252012 -0.00049077659793849598 0 -0.011329081975929188 -0.00059952492740809849 0 -0.011439995370150334 -0.00048699842427970478 0 -0.011557199959490779 -0.00060737128017290148 0 -0.011329081975929188 -0.00059952492740809849 0 -0.011439995370150334 -0.00048699842427970478 0 -0.011686561698745228 -0.00051178490606293382 0 -0.011557199959490779 -0.00060737128017290148 0 -0.011439995370150334 -0.00048699842427970478 0 -0.011686561698745228 -0.00051178490606293382 0 -0.011566368470239615 -0.00038023162763924231 0 -0.011439995370150334 -0.00048699842427970478 0 -0.011566368470239615 -0.00038023162763924231 0 -0.011312273338051668 -0.00035398205285536876 0 -0.011439995370150334 -0.00048699842427970478 0 -0.011312273338051668 -0.00035398205285536876 0 -0.011176787483252012 -0.00049077659793849598 0 -0.011057481351722027 -0.00033556088813178442 0 -0.010954751757885888 -0.00043712376010578857 0 -0.011176787483252012 -0.00049077659793849598 0 -0.011057481351722027 -0.00033556088813178442 0 -0.011312273338051668 -0.00035398205285536876 0 -0.011176787483252012 -0.00049077659793849598 0 -0.010875866723117231 -0.00033058673677949604 0 -0.011057481351722027 -0.00033556088813178442 0 -0.010954751757885888 -0.00043712376010578857 0 -0.011020805201624255 -0.000563047753610597 0 -0.010924632231210736 -0.00062302242295005062 0 -0.011134569310727526 -0.00062948338349121786 0 -0.010954751757885888 -0.00043712376010578857 0 -0.011020805201624255 -0.000563047753610597 0 -0.011176787483252012 -0.00049077659793849598 0 -0.010954751757885888 -0.00043712376010578857 0 -0.011020805201624255 -0.000563047753610597 0 -0.010853798831794182 -0.00053939155189300521 0 -0.011020805201624255 -0.000563047753610597 0 -0.010924632231210736 -0.00062302242295005062 0 -0.010853798831794182 -0.00053939155189300521 0 -0.011020805201624255 -0.000563047753610597 0 -0.011176787483252012 -0.00049077659793849598 0 -0.011134569310727526 -0.00062948338349121786 0 -0.011176787483252012 -0.00049077659793849598 0 -0.011134569310727526 -0.00062948338349121786 0 -0.011329081975929188 -0.00059952492740809849 0 -0.01124400355828444 -0.00067174295860299746 0 -0.011067552010355404 -0.00078347506254536586 0 -0.011394497209258621 -0.0006751697262756286 0 -0.011276887321425252 -0.00070109073015826536 0 -0.011333432309723826 -0.00076802690717014065 0 -0.010729825837834217 -0.00055022623610408985 0 -0.01124400355828444 -0.00067174295860299746 0 -0.011134569310727526 -0.00062948338349121786 0 -0.011329081975929188 -0.00059952492740809849 0 -0.01124400355828444 -0.00067174295860299746 0 -0.011394497209258621 -0.0006751697262756286 0 -0.011329081975929188 -0.00059952492740809849 0 -0.01124400355828444 -0.00067174295860299746 0 -0.011134569310727526 -0.00062948338349121786 0 -0.011067552010355404 -0.00078347506254536586 0 -0.010924632231210736 -0.00062302242295005062 0 -0.011134569310727526 -0.00062948338349121786 0 -0.011067552010355404 -0.00078347506254536586 0 -0.012791806270211387 -0.00082693520446961485 0 -0.01284554433702286 -0.00086061949927696154 0 -0.012755790653090723 -0.00081753686324313193 0 -0.012791806270211387 -0.00082693520446961485 0 -0.012753192402146339 -0.00082112683764813221 0 -0.012755790653090723 -0.00081753686324313193 0 -0.01284554433702286 -0.00086061949927696154 0 -0.012760910922150601 -0.00081591044454977426 0 -0.012634812079816399 -0.00079215703807041632 0 -0.012791806270211387 -0.00082693520446961485 0 -0.01284554433702286 -0.00086061949927696154 0 -0.012793667594576138 -0.00081966111605281564 0 -0.012791806270211387 -0.00082693520446961485 0 -0.012793667594576138 -0.00081966111605281564 0 -0.012778143928380642 -0.00081008692422886717 0 -0.01284554433702286 -0.00086061949927696154 0 -0.012793667594576138 -0.00081966111605281564 0 -0.012760910922150601 -0.00081591044454977426 0 -0.012793667594576138 -0.00081966111605281564 0 -0.012747187411296676 -0.00079936166533231166 0 -0.012760910922150601 -0.00081591044454977426 0 -0.012071684906648335 -0.00073805187318623099 0 -0.011276887321425252 -0.00070109073015826536 0 -0.011333432309723826 -0.00076802690717014065 0 -0.012026698917748498 -0.00078586233724815282 0 -0.011111275492849326 -0.00070096619505466526 0 -0.012210057532076369 -0.00077337408697967917 0 -0.012125211079723669 -0.00081398859122343336 0 -0.012747187411296676 -0.00079936166533231166 0 -0.012760910922150601 -0.00081591044454977426 0 -0.012634812079816399 -0.00079215703807041632 0 -0.012263015890094785 -0.0007718775035486467 0 -0.01284554433702286 -0.00086061949927696154 0 -0.012634812079816399 -0.00079215703807041632 0 -0.012071684906648335 -0.00073805187318623099 0 -0.012263015890094785 -0.0007718775035486467 0 -0.011333432309723826 -0.00076802690717014065 0 -0.012071684906648335 -0.00073805187318623099 0 -0.011067552010355404 -0.00078347506254536586 0 -0.011611167977090343 -0.00068910120442565524 0 -0.011067552010355404 -0.00078347506254536586 0 -0.011394497209258621 -0.0006751697262756286 0 -0.011611167977090343 -0.00068910120442565524 0 -0.011394497209258621 -0.0006751697262756286 0 -0.011611167977090343 -0.00068910120442565524 0 -0.011557199959490779 -0.00060737128017290148 0 -0.011394497209258621 -0.0006751697262756286 0 -0.011557199959490779 -0.00060737128017290148 0 -0.011329081975929188 -0.00059952492740809849 0 -0.011686561698745228 -0.00051178490606293382 0 -0.011557199959490779 -0.00060737128017290148 0 -0.011818632261759015 -0.00062634421350492655 0 -0.011611167977090343 -0.00068910120442565524 0 -0.011557199959490779 -0.00060737128017290148 0 -0.011818632261759015 -0.00062634421350492655 0 -0.012071684906648335 -0.00073805187318623099 0 -0.011611167977090343 -0.00068910120442565524 0 -0.011818632261759015 -0.00062634421350492655 0 -0.012634812079816399 -0.00079215703807041632 0 -0.012468195984866771 -0.00072023942357416241 0 -0.012646903758029498 -0.00074357199319360532 0 -0.012263015890094785 -0.0007718775035486467 0 -0.012634812079816399 -0.00079215703807041632 0 -0.012468195984866771 -0.00072023942357416241 0 -0.012468195984866771 -0.00072023942357416241 0 -0.012646903758029498 -0.00074357199319360532 0 -0.012665926007211479 -0.00074324876549381456 0 -0.012747187411296676 -0.00079936166533231166 0 -0.012634812079816399 -0.00079215703807041632 0 -0.012730485522907186 -0.00077057933619477804 0 -0.012634812079816399 -0.00079215703807041632 0 -0.012646903758029498 -0.00074357199319360532 0 -0.012730485522907186 -0.00077057933619477804 0 -0.012646903758029498 -0.00074357199319360532 0 -0.012730485522907186 -0.00077057933619477804 0 -0.012714925263164794 -0.00076144462852673577 0 -0.012730485522907186 -0.00077057933619477804 0 -0.012759009041182393 -0.00078578746859100717 0 -0.012714925263164794 -0.00076144462852673577 0 -0.012646903758029498 -0.00074357199319360532 0 -0.012714925263164794 -0.00076144462852673577 0 -0.012737570557983911 -0.00076844081544345431 0 -0.012759009041182393 -0.00078578746859100717 0 -0.012714925263164794 -0.00076144462852673577 0 -0.012737570557983911 -0.00076844081544345431 0 -0.012759009041182393 -0.00078578746859100717 0 -0.012737570557983911 -0.00076844081544345431 0 -0.012846839911618765 -0.00084547539469406155 0 -0.012856803017265125 -0.00079072721491098654 0 -0.012737570557983911 -0.00076844081544345431 0 -0.012846839911618765 -0.00084547539469406155 0 -0.012856803017265125 -0.00079072721491098654 0 -0.012468195984866771 -0.00072023942357416241 0 -0.012665926007211479 -0.00074324876549381456 0 -0.012856803017265125 -0.00079072721491098654 0 -0.012665926007211479 -0.00074324876549381456 0 -0.012737570557983911 -0.00076844081544345431 0 -0.012646903758029498 -0.00074357199319360532 0 -0.012665926007211479 -0.00074324876549381456 0 -0.012737570557983911 -0.00076844081544345431 0 -0.013009595932908862 -0.00093176538827932079 0 -0.012846839911618765 -0.00084547539469406155 0 -0.012932680112657932 -0.00095792055705933639 0 -0.012856803017265125 -0.00079072721491098654 0 -0.013009595932908862 -0.00093176538827932079 0 -0.012846839911618765 -0.00084547539469406155 0 -0.012759009041182393 -0.00078578746859100717 0 -0.012846839911618765 -0.00084547539469406155 0 -0.012811527864254563 -0.00084538517503005039 0 -0.012811527864254563 -0.00084538517503005039 0 -0.012932680112657932 -0.00095792055705933639 0 -0.012792158376468672 -0.00090084752690879402 0 -0.012846839911618765 -0.00084547539469406155 0 -0.012811527864254563 -0.00084538517503005039 0 -0.012932680112657932 -0.00095792055705933639 0 -0.012932680112657932 -0.00095792055705933639 0 -0.012883059149542764 -0.0010015505374176691 0 -0.0131251804053649 -0.0011965579266513581 0 -0.013009595932908862 -0.00093176538827932079 0 -0.012932680112657932 -0.00095792055705933639 0 -0.013108389073253721 -0.0010990907601007857 0 -0.012792158376468672 -0.00090084752690879402 0 -0.012720432414252136 -0.00088012915237465185 0 -0.012682275648895396 -0.0010126637895794008 0 -0.012932680112657932 -0.00095792055705933639 0 -0.012883059149542764 -0.0010015505374176691 0 -0.012792158376468672 -0.00090084752690879402 0 -0.012883059149542764 -0.0010015505374176691 0 -0.012792158376468672 -0.00090084752690879402 0 -0.012682275648895396 -0.0010126637895794008 0 -0.012811527864254563 -0.00084538517503005039 0 -0.012792158376468672 -0.00090084752690879402 0 -0.012769966092220017 -0.00080556336835447791 0 -0.012792158376468672 -0.00090084752690879402 0 -0.012720432414252136 -0.00088012915237465185 0 -0.012769966092220017 -0.00080556336835447791 0 -0.012720432414252136 -0.00088012915237465185 0 -0.012769966092220017 -0.00080556336835447791 0 -0.012753192402146339 -0.00082112683764813221 0 -0.012759009041182393 -0.00078578746859100717 0 -0.012811527864254563 -0.00084538517503005039 0 -0.012769966092220017 -0.00080556336835447791 0 -0.012730485522907186 -0.00077057933619477804 0 -0.012759009041182393 -0.00078578746859100717 0 -0.012769966092220017 -0.00080556336835447791 0 -0.012769966092220017 -0.00080556336835447791 0 -0.012778143928380642 -0.00081008692422886717 0 -0.01276271185053162 -0.00079435738545701568 0 -0.012730485522907186 -0.00077057933619477804 0 -0.012769966092220017 -0.00080556336835447791 0 -0.01276271185053162 -0.00079435738545701568 0 -0.012793667594576138 -0.00081966111605281564 0 -0.012778143928380642 -0.00081008692422886717 0 -0.01276271185053162 -0.00079435738545701568 0 -0.012747187411296676 -0.00079936166533231166 0 -0.012730485522907186 -0.00077057933619477804 0 -0.01276271185053162 -0.00079435738545701568 0 -0.012793667594576138 -0.00081966111605281564 0 -0.012747187411296676 -0.00079936166533231166 0 -0.01276271185053162 -0.00079435738545701568 0 -0.012769966092220017 -0.00080556336835447791 0 -0.012778143928380642 -0.00081008692422886717 0 -0.012753192402146339 -0.00082112683764813221 0 -0.012791806270211387 -0.00082693520446961485 0 -0.012778143928380642 -0.00081008692422886717 0 -0.012753192402146339 -0.00082112683764813221 0 -0.012753192402146339 -0.00082112683764813221 0 -0.012632442362744176 -0.00087579546524618279 0 -0.012616898687383875 -0.0006953999391799367 0 -0.012666626891181454 -0.00083676869225094244 0 -0.012365131323213315 -0.0008050286716286062 0 -0.012720432414252136 -0.00088012915237465185 0 -0.012753192402146339 -0.00082112683764813221 0 -0.012632442362744176 -0.00087579546524618279 0 -0.012720432414252136 -0.00088012915237465185 0 -0.012632442362744176 -0.00087579546524618279 0 -0.012654334825778853 -0.00092840550059255535 0 -0.012654334825778853 -0.00092840550059255535 0 -0.012597758321026701 -0.00094761036678197642 0 -0.012682275648895396 -0.0010126637895794008 0 -0.01344370417978953 -0.0013041913731880444 0 -0.013177303403053842 -0.0012369638457860955 0 -0.014116813292951927 -0.0015933426916832705 0 -0.014055757385238692 -0.0014713619363042152 0 -0.013687179495776079 -0.0014833421789438258 0 -0.012632442362744176 -0.00087579546524618279 0 -0.012654334825778853 -0.00092840550059255535 0 -0.012597758321026701 -0.00094761036678197642 0 -0.012720432414252136 -0.00088012915237465185 0 -0.012654334825778853 -0.00092840550059255535 0 -0.012682275648895396 -0.0010126637895794008 0 -0.012597758321026701 -0.00094761036678197642 0 -0.012550685254412794 -0.00087787948173044192 0 -0.012475527264247102 -0.00091652125508457304 0 -0.014097667554804596 -0.0013583514655469066 0 -0.014226966879457643 -0.0015001441089539124 0 -0.014116813292951927 -0.0015933426916832705 0 -0.014411735482062451 -0.0015435407021486976 0 -0.014055757385238692 -0.0014713619363042152 0 -0.01344370417978953 -0.0013041913731880444 0 -0.012985006436165378 -0.0010817880000356145 0 -0.012632442362744176 -0.00087579546524618279 0 -0.012597758321026701 -0.00094761036678197642 0 -0.012550685254412794 -0.00087787948173044192 0 -0.012632442362744176 -0.00087579546524618279 0 -0.012563230343202971 -0.00080349058355484325 0 -0.012612694434865752 -0.00073849586633986371 0 -0.012632442362744176 -0.00087579546524618279 0 -0.012550685254412794 -0.00087787948173044192 0 -0.012563230343202971 -0.00080349058355484325 0 -0.012550685254412794 -0.00087787948173044192 0 -0.012563230343202971 -0.00080349058355484325 0 -0.012483654316032147 -0.00078611555221344163 0 -0.012563230343202971 -0.00080349058355484325 0 -0.01253548947466457 -0.00072862283701843043 0 -0.012483654316032147 -0.00078611555221344163 0 -0.011951312773394106 -0.0007874198614335981 0 -0.011937287208309092 -0.00065628932142936262 0 -0.011726382204892472 -0.0005798487359766853 0 -0.012365131323213315 -0.0008050286716286062 0 -0.011650201039745378 -0.00074430468487042686 0 -0.01253548947466457 -0.00072862283701843043 0 -0.012612694434865752 -0.00073849586633986371 0 -0.012525709785783016 -0.00066223392064899034 0 -0.012563230343202971 -0.00080349058355484325 0 -0.01253548947466457 -0.00072862283701843043 0 -0.012612694434865752 -0.00073849586633986371 0 -0.010924632231210736 -0.00062302242295005062 0 -0.011067552010355404 -0.00078347506254536586 0 -0.010603636443132738 -0.00056016718359884433 0 -0.011111275492849326 -0.00070096619505466526 0 -0.011089588159084528 -0.00050752581723556025 0 -0.012125211079723669 -0.00081398859122343336 0 -0.011510122342927817 -0.00057052412260487166 0 -0.01284554433702286 -0.00086061949927696154 0 -0.012755790653090723 -0.00081753686324313193 0 -0.012682777135903926 -0.00074032337670074176 0 -0.011276887321425252 -0.00070109073015826536 0 -0.010729825837834217 -0.00055022623610408985 0 -0.010726128069733148 -0.0005115809045427238 0 -0.012753192402146339 -0.00082112683764813221 0 -0.012755790653090723 -0.00081753686324313193 0 -0.012697656083117535 -0.00080042776112654714 0 -0.012809414457684102 -0.00084122888788892283 0 -0.012365131323213315 -0.0008050286716286062 0 -0.012755790653090723 -0.00081753686324313193 0 -0.012697656083117535 -0.00080042776112654714 0 -0.012682777135903926 -0.00074032337670074176 0 -0.012365131323213315 -0.0008050286716286062 0 -0.011510122342927817 -0.00057052412260487166 0 -0.010603636443132738 -0.00056016718359884433 0 -0.010853798831794182 -0.00053939155189300521 0 -0.010762081395485469 -0.00038569595184590486 0 -0.010618183275731476 -0.00022743553785963488 0 -0.010603636443132738 -0.00056016718359884433 0 -0.010762081395485469 -0.00038569595184590486 0 -0.010924632231210736 -0.00062302242295005062 0 -0.010603636443132738 -0.00056016718359884433 0 -0.010853798831794182 -0.00053939155189300521 0 -0.011510122342927817 -0.00057052412260487166 0 -0.011089588159084528 -0.00050752581723556025 0 -0.010954751757885888 -0.00043712376010578857 0 -0.010853798831794182 -0.00053939155189300521 0 -0.010762081395485469 -0.00038569595184590486 0 -0.010875866723117231 -0.00033058673677949604 0 -0.010954751757885888 -0.00043712376010578857 0 -0.010762081395485469 -0.00038569595184590486 0 -0.010654783945114703 -0.00024576963156533585 0 -0.010681717308820506 -0.00039146042536387351 0 -0.010636944373730731 -0.00033254230637842866 0 -0.010596393728379843 -0.00023249024764186602 0 -0.011089588159084528 -0.00050752581723556025 0 -0.010614688708658553 -0.00030001326342558019 0 -0.010588915808254756 -0.00035909457844939983 0 -0.010574322721040547 -0.00034476196321916254 0 -0.010614688708658553 -0.00030001326342558019 0 -0.010636944373730731 -0.00033254230637842866 0 -0.010588915808254756 -0.00035909457844939983 0 -0.011185202399057025 -0.0006802452308115655 0 -0.010961473174460813 -0.00087555037421789897 0 -0.011298233739263438 -0.00057856561197792674 0 -0.011413344699499277 -0.00060392255684592344 0 -0.011435597863830849 -0.00062439035992177322 0 -0.01253548947466457 -0.00072862283701843043 0 -0.012525709785783016 -0.00066223392064899034 0 -0.012491430058006001 -0.00065090321656615345 0 -0.011650201039745378 -0.00074430468487042686 0 -0.01138768211694044 -0.00068933970147046632 0 -0.011471736733006528 -0.00070105259148505242 0 -0.011397559536391154 -0.00063162965222868814 0 -0.01131090379238649 -0.00064133636578014581 0 -0.011185202399057025 -0.0006802452308115655 0 -0.01138768211694044 -0.00068933970147046632 0 -0.011650201039745378 -0.00074430468487042686 0 -0.011185202399057025 -0.0006802452308115655 0 -0.010681717308820506 -0.00039146042536387351 0 -0.010636944373730731 -0.00033254230637842866 0 -0.010588915808254756 -0.00035909457844939983 0 -0.011089588159084528 -0.00050752581723556025 0 -0.011185202399057025 -0.0006802452308115655 0 -0.011510122342927817 -0.00057052412260487166 0 -0.011650201039745378 -0.00074430468487042686 0 -0.011296727213176729 -0.00056242871689696954 0 -0.011298233739263438 -0.00057856561197792674 0 -0.011413344699499277 -0.00060392255684592344 0 -0.011872659170321962 -0.00057395436814768931 0 -0.0117439899556025 -0.00052467451358804529 0 -0.011744290142054069 -0.00067859252655107043 0 -0.01138768211694044 -0.00068933970147046632 0 -0.011275443495901904 -0.00081607255073987031 0 -0.010646812949908898 -0.00084998998270130943 0 -0.010955035490235888 -0.0011909426005620636 0 -0.010962770814097664 -0.0011336828939110906 0 -0.01138768211694044 -0.00068933970147046632 0 -0.010961473174460813 -0.00087555037421789897 0 -0.01120478593660861 -0.00087384676885329696 0 -0.011006938782248597 -0.00089714875595169519 0 -0.011032877257952942 -0.00071439316556308312 0 -0.010646812949908898 -0.00084998998270130943 0 -0.010955035490235888 -0.0011909426005620636 0 -0.010662008852041225 -0.001081965804905758 0 -0.011579263629398482 -0.00046308820517015458 0 -0.0117439899556025 -0.00052467451358804529 0 -0.011562475605878997 -0.00070127602272916395 0 -0.0117439899556025 -0.00052467451358804529 0 -0.011744290142054069 -0.00067859252655107043 0 -0.011562475605878997 -0.00070127602272916395 0 -0.010581187956594984 -0.00065335121040998331 0 -0.011275443495901904 -0.00081607255073987031 0 -0.010581187956594984 -0.00065335121040998331 0 -0.011602509765561268 -0.00058592887118373224 0 -0.011744290142054069 -0.00067859252655107043 0 -0.011730774797234816 -0.0008260768478582359 0 -0.011562475605878997 -0.00070127602272916395 0 -0.01253548947466457 -0.00072862283701843043 0 -0.012491430058006001 -0.00065090321656615345 0 -0.012483654316032147 -0.00078611555221344163 0 -0.011744290142054069 -0.00067859252655107043 0 -0.011849843281759639 -0.00078804175455417951 0 -0.011730774797234816 -0.0008260768478582359 0 -0.011872659170321962 -0.00057395436814768931 0 -0.011744290142054069 -0.00067859252655107043 0 -0.011849843281759639 -0.00078804175455417951 0 -0.01138768211694044 -0.00068933970147046632 0 -0.01216776546445238 -0.00074974502653535932 0 -0.011828724769319749 -0.0010047664873206932 0 -0.011669771271692574 -0.00095971616206236103 0 -0.011730774797234816 -0.0008260768478582359 0 -0.011849843281759639 -0.00078804175455417951 0 -0.011828724769319749 -0.0010047664873206932 0 -0.011730774797234816 -0.0008260768478582359 0 -0.01216776546445238 -0.00074974502653535932 0 -0.012985006436165378 -0.0010817880000356145 0 -0.012550685254412794 -0.00087787948173044192 0 -0.012483654316032147 -0.00078611555221344163 0 -0.012475527264247102 -0.00091652125508457304 0 -0.014116813292951927 -0.0015933426916832705 0 -0.014388615309991913 -0.0016655935584986262 0 -0.014411735482062451 -0.0015435407021486976 0 -0.012985006436165378 -0.0010817880000356145 0 -0.01213077083687163 -0.00076684252085171018 0 -0.012985006436165378 -0.0010817880000356145 0 -0.014097667554804596 -0.0013583514655469066 0 -0.014097667554804596 -0.0013583514655469066 0 -0.013394881317062624 -0.00092269668055835888 0 -0.013344765003401754 -0.00087339120037872886 0 -0.01329342081310822 -0.0012480263958765361 0 -0.012916385372001691 -0.0011905065179192904 0 -0.013394881317062624 -0.00092269668055835888 0 -0.013197713399164106 -0.00056141308539836175 0 -0.012050312164814291 -0.001034921717628337 0 -0.011940148150735665 -0.00084769099023940177 0 -0.011661424571120649 -0.00096813923818512713 0 -0.013344765003401754 -0.00087339120037872886 0 -0.012916385372001691 -0.0011905065179192904 0 -0.012724352471214702 -0.00069412554519436879 0 -0.012050312164814291 -0.001034921717628337 0 -0.011940148150735665 -0.00084769099023940177 0 -0.011974541426088526 -0.00085681825973756443 0 -0.013394881317062624 -0.00092269668055835888 0 -0.01213077083687163 -0.00076684252085171018 0 -0.011940148150735665 -0.00084769099023940177 0 -0.011973768478020685 -0.00085707687257584493 0 -0.011818650082239415 -0.00048254982616150491 0 -0.01213077083687163 -0.00076684252085171018 0 -0.011602509765561268 -0.00058592887118373224 0 -0.011669771271692574 -0.00095971616206236103 0 -0.011730774797234816 -0.0008260768478582359 0 -0.011562475605878997 -0.00070127602272916395 0 -0.011940148150735665 -0.00084769099023940177 0 -0.011796070757596788 -0.00073654863703169363 0 -0.011818650082239415 -0.00048254982616150491 0 -0.012102058655969585 -0.00076558161937073438 0 -0.01213077083687163 -0.00076684252085171018 0 -0.011796070757596788 -0.00073654863703169363 0 -0.01156576465765412 -0.00077890567140823921 0 -0.011640455561677298 -0.00062286006553141735 0 -0.011796070757596788 -0.00073654863703169363 0 -0.011661424571120649 -0.00096813923818512713 0 -0.01156576465765412 -0.00077890567140823921 0 -0.011940148150735665 -0.00084769099023940177 0 -0.011796070757596788 -0.00073654863703169363 0 -0.011661424571120649 -0.00096813923818512713 0 -0.013058526332987217 -0.00060175923329945549 0 -0.013197713399164106 -0.00056141308539836175 0 -0.014816359238275349 -0.00023007107035748212 0 -0.014753150222371161 -0.00023424840814328731 0 -0.014784695790579366 -0.00018132561622625755 0 -0.011307891779043669 -0.00090278100709417937 0 -0.011661424571120649 -0.00096813923818512713 0 -0.01156576465765412 -0.00077890567140823921 0 -0.011307891779043669 -0.00090278100709417937 0 -0.01156576465765412 -0.00077890567140823921 0 -0.011435453478947304 -0.00066194568498230183 0 -0.01156576465765412 -0.00077890567140823921 0 -0.011435453478947304 -0.00066194568498230183 0 -0.011640455561677298 -0.00062286006553141735 0 -0.011278727740657784 -0.00051844799138666645 0 -0.011435453478947304 -0.00066194568498230183 0 -0.011520290304539252 -0.00044157950800148939 0 -0.011435453478947304 -0.00066194568498230183 0 -0.011640455561677298 -0.00062286006553141735 0 -0.011520290304539252 -0.00044157950800148939 0 -0.011796070757596788 -0.00073654863703169363 0 -0.011640455561677298 -0.00062286006553141735 0 -0.011793642034502439 -0.00051354856094842352 0 -0.011796609774642941 -0.00067559826612169143 0 -0.011602509765561268 -0.00058592887118373224 0 -0.011640455561677298 -0.00062286006553141735 0 -0.011793642034502439 -0.00051354856094842352 0 -0.011520290304539252 -0.00044157950800148939 0 -0.011621989577435456 -0.00016074832772140822 0 -0.011793642034502439 -0.00051354856094842352 0 -0.011520290304539252 -0.00044157950800148939 0 -0.010995016210052192 -0.00041607967421643135 0 -0.011106987740047288 -0.00045449350807528165 0 -0.01109191491885273 -0.00065404802164853437 0 -0.010846592003459003 -0.00037179569635720553 0 -0.011602509765561268 -0.00058592887118373224 0 -0.011621989577435456 -0.00016074832772140822 0 -0.011462553044872122 -0.00024952023284584355 0 -0.011520290304539252 -0.00044157950800148939 0 -0.011340623664527578 -0.00034609392037444702 0 -0.011331193534370147 -0.00016878834745682781 0 -0.011462553044872122 -0.00024952023284584355 0 -0.011340623664527578 -0.00034609392037444702 0 -0.011462553044872122 -0.00024952023284584355 0 -0.011520290304539252 -0.00044157950800148939 0 -0.014876918099746252 -6.1409623536830588e-05 0 -0.014819196301132062 -8.5197133927588032e-05 0 -0.014818081880280434 -2.9068335894811674e-05 0 -0.014819196301132062 -8.5197133927588032e-05 0 -0.014775751278073122 -9.3545303298033823e-05 0 -0.014818081880280434 -2.9068335894811674e-05 0 -0.01484385253189599 -0.00010334179199406125 0 -0.014876918099746252 -6.1409623536830588e-05 0 -0.014819196301132062 -8.5197133927588032e-05 0 -0.014745513028199386 -6.3734175726190066e-05 0 -0.014775751278073122 -9.3545303298033823e-05 0 -0.014818081880280434 -2.9068335894811674e-05 0 -0.01485833371731924 -2.3351382978316063e-05 0 -0.01489352443454508 -8.420204593996815e-06 0 -0.014775751278073122 -9.3545303298033823e-05 0 -0.014753497938295442 -0.00014224894911620624 0 -0.014733884971382442 -0.00011017433655794855 0 -0.014775751278073122 -9.3545303298033823e-05 0 -0.014802331493860435 -0.00012512157873792736 0 -0.014753497938295442 -0.00014224894911620624 0 -0.014745513028199386 -6.3734175726190066e-05 0 -0.014775751278073122 -9.3545303298033823e-05 0 -0.014733884971382442 -0.00011017433655794855 0 -0.014819196301132062 -8.5197133927588032e-05 0 -0.014775751278073122 -9.3545303298033823e-05 0 -0.014802331493860435 -0.00012512157873792736 0 -0.01484385253189599 -0.00010334179199406125 0 -0.014819196301132062 -8.5197133927588032e-05 0 -0.014802331493860435 -0.00012512157873792736 0 -0.014839904854276359 -0.00013882417897853055 0 -0.01484385253189599 -0.00010334179199406125 0 -0.014802331493860435 -0.00012512157873792736 0 -0.014839904854276359 -0.00013882417897853055 0 -0.014802331493860435 -0.00012512157873792736 0 -0.014784695790579366 -0.00018132561622625755 0 -0.014753150222371161 -0.00023424840814328731 0 -0.014784695790579366 -0.00018132561622625755 0 -0.014725209181544394 -0.00018811391254494326 0 -0.014784695790579366 -0.00018132561622625755 0 -0.014753497938295442 -0.00014224894911620624 0 -0.014725209181544394 -0.00018811391254494326 0 -0.014802331493860435 -0.00012512157873792736 0 -0.014784695790579366 -0.00018132561622625755 0 -0.014753497938295442 -0.00014224894911620624 0 -0.014714095180987369 -0.00014588309204447436 0 -0.014725209181544394 -0.00018811391254494326 0 -0.014669616804014964 -0.00018497721702620548 0 -0.014753497938295442 -0.00014224894911620624 0 -0.014714095180987369 -0.00014588309204447436 0 -0.014725209181544394 -0.00018811391254494326 0 -0.014714095180987369 -0.00014588309204447436 0 -0.014669616804014964 -0.00018497721702620548 0 -0.014687520789775376 -0.00010292617480477905 0 -0.014681686495583237 -0.00023373737810418915 0 -0.014725209181544394 -0.00018811391254494326 0 -0.014669616804014964 -0.00018497721702620548 0 -0.014681686495583237 -0.00023373737810418915 0 -0.014753150222371161 -0.00023424840814328731 0 -0.014725209181544394 -0.00018811391254494326 0 -0.01403528859646218 -0.0010210063212784989 0 -0.014091009243359013 -0.0010293148051059029 0 -0.01405446635355426 -0.00091495265888263348 0 -0.013394881317062624 -0.00092269668055835888 0 -0.014564141887257017 -0.00071476464171130476 0 -0.014097667554804596 -0.0013583514655469066 0 -0.014564141887257017 -0.00071476464171130476 0 -0.014781045384625859 -0.0015557727063570505 0 -0.01483646971907516 -0.0011715004814299038 0 -0.014528997678952592 -0.0013125367267575426 0 -0.01483646971907516 -0.0011715004814299038 0 -0.014556728702982915 -0.0010443636983560594 0 -0.014528997678952592 -0.0013125367267575426 0 -0.01483646971907516 -0.0011715004814299038 0 -0.014670932215128501 -0.0007321426133040321 0 -0.014556728702982915 -0.0010443636983560594 0 -0.014564141887257017 -0.00071476464171130476 0 -0.01489009562878313 -5.8083059386075497e-05 0 -0.014732210012630651 -0.00070433525571406402 0 -0.014607048912370423 -0.00036880915199061253 0 -0.014803407715584688 -0.00022321442180732196 0 -0.014564141887257017 -0.00071476464171130476 0 -0.014737358748408615 -0.00055260286010438845 0 -0.014984676596469248 -3.9618077703031122e-05 0 -0.014998537084167195 -2.8384329795138963e-05 0 -0.014991284221679387 -1.6943770090144587e-05 0 -0.014737358748408615 -0.00055260286010438845 0 -0.01489009562878313 -5.8083059386075497e-05 0 -0.014745513028199386 -6.3734175726190066e-05 0 -0.014687520789775376 -0.00010292617480477905 0 -0.014733884971382442 -0.00011017433655794855 0 -0.014714095180987369 -0.00014588309204447436 0 -0.014687520789775376 -0.00010292617480477905 0 -0.014733884971382442 -0.00011017433655794855 0 -0.014753497938295442 -0.00014224894911620624 0 -0.014714095180987369 -0.00014588309204447436 0 -0.014733884971382442 -0.00011017433655794855 0 -0.014984141324508359 2.0270877594818211e-05 0 -0.014994226044002705 1.7185769157262044e-05 0 -0.014983709463084175 7.7352807881931977e-06 0 -0.01485833371731924 -2.3351382978316063e-05 0 -0.01489009562878313 -5.8083059386075497e-05 0 -0.014984141324508359 2.0270877594818211e-05 0 -0.014994386305417599 2.5852950011321169e-05 0 -0.014994226044002705 1.7185769157262044e-05 0 -0.01489009562878313 -5.8083059386075497e-05 0 -0.014995241309855151 1.450137789239051e-05 0 -0.014991284221679387 -1.6943770090144587e-05 0 -0.014982567524301708 -1.0995000680818131e-05 0 -0.014990830018683787 -3.0107618850705589e-06 0 -0.014984676596469248 -3.9618077703031122e-05 0 -0.014991284221679387 -1.6943770090144587e-05 0 -0.014982567524301708 -1.0995000680818131e-05 0 -0.014998739131448745 -1.0260829577175344e-05 0 -0.014991284221679387 -1.6943770090144587e-05 0 -0.014990830018683787 -3.0107618850705589e-06 0 -0.014998537084167195 -2.8384329795138963e-05 0 -0.014998739131448745 -1.0260829577175344e-05 0 -0.014991284221679387 -1.6943770090144587e-05 0 -0.014528613071809249 -0.00032085176008573077 0 -0.014237874733831311 -0.00061937892713154175 0 -0.014343764101691149 -0.00020899113300817455 0 -0.014237874733831311 -0.00061937892713154175 0 -0.013844594240494081 -0.00056627956822194827 0 -0.014343764101691149 -0.00020899113300817455 0 -0.014237874733831311 -0.00061937892713154175 0 -0.013777471834052923 -0.00088644345596234893 0 -0.013844594240494081 -0.00056627956822194827 0 -0.014737358748408615 -0.00055260286010438845 0 -0.014763531364630879 -0.00013820882151446706 0 -0.014672583138421472 -0.00076917585614669692 0 -0.014528613071809249 -0.00032085176008573077 0 -0.014237874733831311 -0.00061937892713154175 0 -0.014670932215128501 -0.0007321426133040321 0 -0.014556728702982915 -0.0010443636983560594 0 -0.014225347381134302 -0.001064408212594145 0 -0.014737358748408615 -0.00055260286010438845 0 -0.014212932639887444 -0.0011057574528823373 0 -0.014672583138421472 -0.00076917585614669692 0 -0.014237874733831311 -0.00061937892713154175 0 -0.014225347381134302 -0.001064408212594145 0 -0.014556728702982915 -0.0010443636983560594 0 -0.014306222913132952 -0.0012634137034554104 0 -0.014225347381134302 -0.001064408212594145 0 -0.014556728702982915 -0.0010443636983560594 0 -0.014528997678952592 -0.0013125367267575426 0 -0.014306222913132952 -0.0012634137034554104 0 -0.014781045384625859 -0.0015557727063570505 0 -0.014528997678952592 -0.0013125367267575426 0 -0.014194295518130833 -0.0014875998833982723 0 -0.014306222913132952 -0.0012634137034554104 0 -0.014152457438866636 -0.0012562469329137889 0 -0.014225347381134302 -0.001064408212594145 0 -0.014528997678952592 -0.0013125367267575426 0 -0.014306222913132952 -0.0012634137034554104 0 -0.014194295518130833 -0.0014875998833982723 0 -0.014226966879457643 -0.0015001441089539124 0 -0.01345385717332704 -0.0013217432702115708 0 -0.014194295518130833 -0.0014875998833982723 0 -0.013876975135908992 -0.0012220232821869967 0 -0.013462676559452984 -0.0013117559835401562 0 -0.014055757385238692 -0.0014713619363042152 0 -0.013462676559452984 -0.0013117559835401562 0 -0.013687179495776079 -0.0014833421789438258 0 -0.014306222913132952 -0.0012634137034554104 0 -0.014194295518130833 -0.0014875998833982723 0 -0.014152457438866636 -0.0012562469329137889 0 -0.014194295518130833 -0.0014875998833982723 0 -0.014152457438866636 -0.0012562469329137889 0 -0.013876975135908992 -0.0012220232821869967 0 -0.014152457438866636 -0.0012562469329137889 0 -0.013876975135908992 -0.0012220232821869967 0 -0.014225347381134302 -0.001064408212594145 0 -0.014237874733831311 -0.00061937892713154175 0 -0.014225347381134302 -0.001064408212594145 0 -0.013777471834052923 -0.00088644345596234893 0 -0.013876975135908992 -0.0012220232821869967 0 -0.014225347381134302 -0.001064408212594145 0 -0.013777471834052923 -0.00088644345596234893 0 -0.013876975135908992 -0.0012220232821869967 0 -0.013777471834052923 -0.00088644345596234893 0 -0.013601503392877436 -0.00110749552031366 0 -0.013777471834052923 -0.00088644345596234893 0 -0.013601503392877436 -0.00110749552031366 0 -0.013351721142603459 -0.0010183320212909278 0 -0.013777471834052923 -0.00088644345596234893 0 -0.013351721142603459 -0.0010183320212909278 0 -0.013377672533995653 -0.00063302810875475032 0 -0.013601503392877436 -0.00110749552031366 0 -0.013331033274106167 -0.0011431699181038927 0 -0.013351721142603459 -0.0010183320212909278 0 -0.013177303403053842 -0.0012369638457860955 0 -0.01314532403091781 -0.0012120947895356356 0 -0.012883059149542764 -0.0010015505374176691 0 -0.012682275648895396 -0.0010126637895794008 0 -0.0131251804053649 -0.0011965579266513581 0 -0.013876975135908992 -0.0012220232821869967 0 -0.013601503392877436 -0.00110749552031366 0 -0.013462676559452984 -0.0013117559835401562 0 -0.013462676559452984 -0.0013117559835401562 0 -0.013687179495776079 -0.0014833421789438258 0 -0.0131251804053649 -0.0011965579266513581 0 -0.013601503392877436 -0.00110749552031366 0 -0.013462676559452984 -0.0013117559835401562 0 -0.013331033274106167 -0.0011431699181038927 0 -0.012932680112657932 -0.00095792055705933639 0 -0.013108389073253721 -0.0010990907601007857 0 -0.0131251804053649 -0.0011965579266513581 0 -0.013108389073253721 -0.0010990907601007857 0 -0.0131251804053649 -0.0011965579266513581 0 -0.013171166163319628 -0.0011477466091114224 0 -0.013462676559452984 -0.0013117559835401562 0 -0.0131251804053649 -0.0011965579266513581 0 -0.013331033274106167 -0.0011431699181038927 0 -0.0131251804053649 -0.0011965579266513581 0 -0.013331033274106167 -0.0011431699181038927 0 -0.013171166163319628 -0.0011477466091114224 0 -0.013351721142603459 -0.0010183320212909278 0 -0.013377672533995653 -0.00063302810875475032 0 -0.013123995580551122 -0.0011307401674930152 0 -0.013171166163319628 -0.0011477466091114224 0 -0.013351721142603459 -0.0010183320212909278 0 -0.013123995580551122 -0.0011307401674930152 0 -0.013331033274106167 -0.0011431699181038927 0 -0.013171166163319628 -0.0011477466091114224 0 -0.013351721142603459 -0.0010183320212909278 0 -0.01398272160924101 -0.00059811921219578995 0 -0.013716611637033508 -0.00098735083113527509 0 -0.013777471834052923 -0.00088644345596234893 0 -0.013377672533995653 -0.00063302810875475032 0 -0.013844594240494081 -0.00056627956822194827 0 -0.013844594240494081 -0.00056627956822194827 0 -0.013894559186516244 -0.00021329182344894876 0 -0.014343764101691149 -0.00020899113300817455 0 -0.013377672533995653 -0.00063302810875475032 0 -0.013844594240494081 -0.00056627956822194827 0 -0.013894559186516244 -0.00021329182344894876 0 -0.01398272160924101 -0.00059811921219578995 0 -0.014303367562309363 -0.00025145031842379635 0 -0.014581260130302455 -0.00054409301477329787 0 -0.014735682083358464 -0.00024750904554200211 0 -0.014600797843001724 -0.00020975789772721467 0 -0.014581260130302455 -0.00054409301477329787 0 -0.014600797843001724 -0.00020975789772721467 0 -0.014311162124033579 -0.00045501103533554911 0 -0.014735682083358464 -0.00024750904554200211 0 -0.01470660813542198 -0.00012191390818970636 0 -0.014561119195960853 -4.1455594470383451e-05 0 -0.014735682083358464 -0.00024750904554200211 0 -0.014600797843001724 -0.00020975789772721467 0 -0.01470660813542198 -0.00012191390818970636 0 -0.01470660813542198 -0.00012191390818970636 0 -0.014733581379604859 -8.6240462710723159e-05 0 -0.014561119195960853 -4.1455594470383451e-05 0 -0.01470660813542198 -0.00012191390818970636 0 -0.014733581379604859 -8.6240462710723159e-05 0 -0.014722736788545637 -8.9764697440024749e-05 0 -0.014600797843001724 -0.00020975789772721467 0 -0.01470660813542198 -0.00012191390818970636 0 -0.014722736788545637 -8.9764697440024749e-05 0 -0.014600797843001724 -0.00020975789772721467 0 -0.014722736788545637 -8.9764697440024749e-05 0 -0.014545535472241822 -0.00010589750366600241 0 -0.014722736788545637 -8.9764697440024749e-05 0 -0.014763518087966112 -2.8605617619245641e-05 0 -0.014545535472241822 -0.00010589750366600241 0 -0.014722736788545637 -8.9764697440024749e-05 0 -0.014763518087966112 -2.8605617619245641e-05 0 -0.014859327376662493 -3.6733753379354821e-05 0 -0.014763518087966112 -2.8605617619245641e-05 0 -0.014999274960713738 3.062731658804522e-07 0 -0.014859327376662493 -3.6733753379354821e-05 0 -0.014859327376662493 -3.6733753379354821e-05 0 -0.014754681404595058 -8.253551658167e-05 0 -0.014999905244547465 -2.4049685043575549e-07 0 -0.014999274960713738 3.062731658804522e-07 0 -0.014859327376662493 -3.6733753379354821e-05 0 -0.014999905244547465 -2.4049685043575549e-07 0 -0.014733581379604859 -8.6240462710723159e-05 0 -0.014722736788545637 -8.9764697440024749e-05 0 -0.014859327376662493 -3.6733753379354821e-05 0 -0.014733581379604859 -8.6240462710723159e-05 0 -0.014859327376662493 -3.6733753379354821e-05 0 -0.014754681404595058 -8.253551658167e-05 0 -0.014996119304694392 -2.0882513938333227e-07 0 -0.014999997423076344 5.8393016592125988e-10 0 -0.014999993580704158 -1.4920790416992514e-09 0 -0.014871190275854073 -2.3002256469551262e-05 0 -0.014999935516245923 1.5964363511544101e-08 0 -0.014996119304694392 -2.0882513938333227e-07 0 -0.014999993580704158 -1.4920790416992514e-09 0 -0.014995314818831122 -4.39922221953118e-07 0 -0.014990026501911096 4.3966329132431339e-08 0 -0.014993470001812264 3.9295279621565206e-07 0 -0.014995314818831122 -4.39922221953118e-07 0 -0.014996119304694392 -2.0882513938333227e-07 0 -0.014990026501911096 4.3966329132431339e-08 0 -0.014995314818831122 -4.39922221953118e-07 0 -0.014733581379604859 -8.6240462710723159e-05 0 -0.014754681404595058 -8.253551658167e-05 0 -0.014561119195960853 -4.1455594470383451e-05 0 -0.014871190275854073 -2.3002256469551262e-05 0 -0.014762011484846646 -2.3077075927534513e-05 0 -0.014754681404595058 -8.253551658167e-05 0 -0.014525520121048026 -4.013128113029767e-05 0 -0.014561119195960853 -4.1455594470383451e-05 0 -0.013894559186516244 -0.00021329182344894876 0 -0.014561119195960853 -4.1455594470383451e-05 0 -0.014343764101691149 -0.00020899113300817455 0 -0.014303367562309363 -0.00025145031842379635 0 -0.014515144686583279 -7.4557773075652279e-05 0 -0.014525520121048026 -4.013128113029767e-05 0 -0.014561119195960853 -4.1455594470383451e-05 0 -0.014343764101691149 -0.00020899113300817455 0 -0.014528613071809249 -0.00032085176008573077 0 -0.014525520121048026 -4.013128113029767e-05 0 -0.014343764101691149 -0.00020899113300817455 0 -0.014982567524301708 -1.0995000680818131e-05 0 -0.014990026501911096 4.3966329132431339e-08 0 -0.014990830018683787 -3.0107618850705589e-06 0 -0.014990026501911096 4.3966329132431339e-08 0 -0.014990830018683787 -3.0107618850705589e-06 0 -0.014993470001812264 3.9295279621565206e-07 0 -0.014763531364630879 -0.00013820882151446706 0 -0.014762011484846646 -2.3077075927534513e-05 0 -0.014998739131448745 -1.0260829577175344e-05 0 -0.014990830018683787 -3.0107618850705589e-06 0 -0.014994231955675104 3.4053711485682418e-06 0 -0.014990830018683787 -3.0107618850705589e-06 0 -0.014994231955675104 3.4053711485682418e-06 0 -0.014993470001812264 3.9295279621565206e-07 0 -0.014995241309855151 1.450137789239051e-05 0 -0.014994311453721852 -7.7970798713519005e-07 0 -0.014994226044002705 1.7185769157262044e-05 0 -0.014994231955675104 3.4053711485682418e-06 0 -0.014983709463084175 7.7352807881931977e-06 0 -0.014994231955675104 3.4053711485682418e-06 0 -0.014993185721874124 -7.5780692983008499e-07 0 -0.014983709463084175 7.7352807881931977e-06 0 -0.014993185721874124 -7.5780692983008499e-07 0 -0.014984008457281888 -6.2852318948979035e-06 0 -0.014983709463084175 7.7352807881931977e-06 0 -0.014993185721874124 -7.5780692983008499e-07 0 -0.014993470001812264 3.9295279621565206e-07 0 -0.014995314818831122 -4.39922221953118e-07 0 -0.014994231955675104 3.4053711485682418e-06 0 -0.014993185721874124 -7.5780692983008499e-07 0 -0.014993470001812264 3.9295279621565206e-07 0 -0.014993185721874124 -7.5780692983008499e-07 0 -0.014995314818831122 -4.39922221953118e-07 0 -0.01499552987109818 -2.3432026708527733e-06 0 -0.014999993580704158 -1.4920790416992514e-09 0 -0.014999991890913332 -2.4206610800763976e-09 0 -0.01499552987109818 -2.3432026708527733e-06 0 -0.014999993580704158 -1.4920790416992514e-09 0 -0.014995314818831122 -4.39922221953118e-07 0 -0.01499552987109818 -2.3432026708527733e-06 0 -0.014999991890913332 -2.4206610800763976e-09 0 -0.01499552987109818 -2.3432026708527733e-06 0 -0.014984008457281888 -6.2852318948979035e-06 0 -0.014993185721874124 -7.5780692983008499e-07 0 -0.01499552987109818 -2.3432026708527733e-06 0 -0.014984008457281888 -6.2852318948979035e-06 0 -0.014999991890913332 -2.4206610800763976e-09 0 -0.014984008457281888 -6.2852318948979035e-06 0 -0.014999965351800823 -1.3471024791340238e-08 0 -0.014984008457281888 -6.2852318948979035e-06 0 -0.014999965351800823 -1.3471024791340238e-08 0 -0.014967948723864847 -7.3482614933882464e-06 0 -0.014984008457281888 -6.2852318948979035e-06 0 -0.014967948723864847 -7.3482614933882464e-06 0 -0.014968083211331142 -1.8834014931642692e-06 0 -0.014924739398842988 -4.751785179092034e-06 0 -0.014967948723864847 -7.3482614933882464e-06 0 -0.014968083211331142 -1.8834014931642692e-06 0 -0.014984008457281888 -6.2852318948979035e-06 0 -0.014968083211331142 -1.8834014931642692e-06 0 -0.014983709463084175 7.7352807881931977e-06 0 -0.014968083211331142 -1.8834014931642692e-06 0 -0.014983709463084175 7.7352807881931977e-06 0 -0.014967864749185296 1.6741226544388417e-05 0 -0.014984141324508359 2.0270877594818211e-05 0 -0.014983709463084175 7.7352807881931977e-06 0 -0.014967864749185296 1.6741226544388417e-05 0 -0.014917203124555554 -4.4998644800761472e-06 0 -0.01489352443454508 -8.420204593996815e-06 0 -0.014924739398842988 -4.751785179092034e-06 0 -0.014968083211331142 -1.8834014931642692e-06 0 -0.014967864749185296 1.6741226544388417e-05 0 -0.014924739398842988 -4.751785179092034e-06 0 -0.014876918099746252 -6.1409623536830588e-05 0 -0.014818081880280434 -2.9068335894811674e-05 0 -0.013526258327962988 -0.0011283892130225558 0 -0.013542291493010384 -0.00098257471552252594 0 -0.013286527519215345 -0.00097375052897217033 0 -0.013526258327962988 -0.0011283892130225558 0 -0.013674600939411799 -0.0011318159262831483 0 -0.013542291493010384 -0.00098257471552252594 0 -0.013526258327962988 -0.0011283892130225558 0 -0.013286527519215345 -0.00097375052897217033 0 -0.013114152853204161 -0.001161659616159393 0 -0.014185961709106437 -0.0013745737370776476 0 -0.014344128292252113 -0.0017124740595726524 0 -0.014325131710800342 -0.0014173065549217723 0 -0.013526258327962988 -0.0011283892130225558 0 -0.013818520872353635 -0.0012618031856063965 0 -0.013114152853204161 -0.001161659616159393 0 -0.014185961709106437 -0.0013745737370776476 0 -0.013818520872353635 -0.0012618031856063965 0 -0.014344128292252113 -0.0017124740595726524 0 -0.01375734435557042 -0.00124661078088324 0 -0.013770601657264027 -0.0014601629830555735 0 -0.014185961709106437 -0.0013745737370776476 0 -0.014280089062283828 -0.0012720928515922193 0 -0.014159395187260419 -0.0012029279641028918 0 -0.014185961709106437 -0.0013745737370776476 0 -0.014280089062283828 -0.0012720928515922193 0 -0.014325131710800342 -0.0014173065549217723 0 -0.014185961709106437 -0.0013745737370776476 0 -0.013818520872353635 -0.0012618031856063965 0 -0.014159395187260419 -0.0012029279641028918 0 -0.013526258327962988 -0.0011283892130225558 0 -0.013818520872353635 -0.0012618031856063965 0 -0.013674600939411799 -0.0011318159262831483 0 -0.013818520872353635 -0.0012618031856063965 0 -0.013674600939411799 -0.0011318159262831483 0 -0.013791912164163448 -0.0011203875736916647 0 -0.013674600939411799 -0.0011318159262831483 0 -0.013734446927130132 -0.0010854677301411827 0 -0.013791912164163448 -0.0011203875736916647 0 -0.013674600939411799 -0.0011318159262831483 0 -0.013734446927130132 -0.0010854677301411827 0 -0.013707598701831946 -0.00096426891470167259 0 -0.013734446927130132 -0.0010854677301411827 0 -0.013844993535215268 -0.0010562819961246375 0 -0.013851359600868208 -0.00092055579476823504 0 -0.013734446927130132 -0.0010854677301411827 0 -0.013707598701831946 -0.00096426891470167259 0 -0.013851359600868208 -0.00092055579476823504 0 -0.013674600939411799 -0.0011318159262831483 0 -0.013707598701831946 -0.00096426891470167259 0 -0.013542291493010384 -0.00098257471552252594 0 -0.013707598701831946 -0.00096426891470167259 0 -0.013542291493010384 -0.00098257471552252594 0 -0.013700899153683378 -0.00078480735447103715 0 -0.013542291493010384 -0.00098257471552252594 0 -0.013700899153683378 -0.00078480735447103715 0 -0.013329625819566428 -0.00079301217662894948 0 -0.013707598701831946 -0.00096426891470167259 0 -0.013700899153683378 -0.00078480735447103715 0 -0.013851359600868208 -0.00092055579476823504 0 -0.013334588574073741 -0.00061206878435736672 0 -0.013700899153683378 -0.00078480735447103715 0 -0.013795805855379819 -0.00056007451536276996 0 -0.013334588574073741 -0.00061206878435736672 0 -0.013700899153683378 -0.00078480735447103715 0 -0.013329625819566428 -0.00079301217662894948 0 -0.013542291493010384 -0.00098257471552252594 0 -0.013329625819566428 -0.00079301217662894948 0 -0.013286527519215345 -0.00097375052897217033 0 -0.013286527519215345 -0.00097375052897217033 0 -0.012978950515551211 -0.00095623983737180536 0 -0.013114152853204161 -0.001161659616159393 0 -0.013286527519215345 -0.00097375052897217033 0 -0.013071078705296777 -0.00085815251146184298 0 -0.012978950515551211 -0.00095623983737180536 0 -0.013329625819566428 -0.00079301217662894948 0 -0.013286527519215345 -0.00097375052897217033 0 -0.013071078705296777 -0.00085815251146184298 0 -0.013329625819566428 -0.00079301217662894948 0 -0.013071078705296777 -0.00085815251146184298 0 -0.012952884000227576 -0.00071568442294560396 0 -0.013071078705296777 -0.00085815251146184298 0 -0.012952884000227576 -0.00071568442294560396 0 -0.012785142088380079 -0.00080282733180501282 0 -0.013722077276300608 -0.00094482155772274113 0 -0.013768920158036912 -0.0011040066752793713 0 -0.013798912453696322 -0.0010376794865562763 0 -0.013421479598546591 -0.0012507609351659838 0 -0.012990949443830099 -0.00092561308588992271 0 -0.012566522374814679 -0.00070368792010565935 0 -0.012785142088380079 -0.00080282733180501282 0 -0.012551170401622916 -0.00080580075243756957 0 -0.012472337223145757 -0.00088252234130743702 0 -0.012558986477822815 -0.0011192929346157726 0 -0.01232748493977298 -0.00085945779593649325 0 -0.012377809250632815 -0.00067888184887917842 0 -0.012472337223145757 -0.00088252234130743702 0 -0.01232748493977298 -0.00085945779593649325 0 -0.012785142088380079 -0.00080282733180501282 0 -0.012551170401622916 -0.00080580075243756957 0 -0.012692154031119705 -0.00095912960970390463 0 -0.012503695023333362 -0.00075973984837418302 0 -0.013421479598546591 -0.0012507609351659838 0 -0.013722077276300608 -0.00094482155772274113 0 -0.013851523209535576 -0.00094490710036595506 0 -0.013802548256129277 -0.00082985604033884068 0 -0.012692154031119705 -0.00095912960970390463 0 -0.012978950515551211 -0.00095623983737180536 0 -0.013114152853204161 -0.001161659616159393 0 -0.012785142088380079 -0.00080282733180501282 0 -0.012692154031119705 -0.00095912960970390463 0 -0.012978950515551211 -0.00095623983737180536 0 -0.013421479598546591 -0.0012507609351659838 0 -0.013770601657264027 -0.0014601629830555735 0 -0.013071078705296777 -0.00085815251146184298 0 -0.012785142088380079 -0.00080282733180501282 0 -0.012978950515551211 -0.00095623983737180536 0 -0.013668710915108183 -0.0010674808787058112 0 -0.013716611637033508 -0.00098735083113527509 0 -0.013229822540949985 -0.0011081025588092199 0 -0.013641146537863913 -0.0011018757592266835 0 -0.013123995580551122 -0.0011307401674930152 0 -0.013108389073253721 -0.0010990907601007857 0 -0.013171166163319628 -0.0011477466091114224 0 -0.013229822540949985 -0.0011081025588092199 0 -0.013171166163319628 -0.0011477466091114224 0 -0.013229822540949985 -0.0011081025588092199 0 -0.013123995580551122 -0.0011307401674930152 0 -0.013308164722833742 -0.0010091824983061847 0 -0.013108389073253721 -0.0010990907601007857 0 -0.013229822540949985 -0.0011081025588092199 0 -0.013308164722833742 -0.0010091824983061847 0 -0.013229822540949985 -0.0011081025588092199 0 -0.013641146537863913 -0.0011018757592266835 0 -0.013641146537863913 -0.0011018757592266835 0 -0.013798912453696322 -0.0010376794865562763 0 -0.01427382197031052 -0.00090388586158210156 0 -0.013641146537863913 -0.0011018757592266835 0 -0.013768920158036912 -0.0011040066752793713 0 -0.013798912453696322 -0.0010376794865562763 0 -0.013798912453696322 -0.0010376794865562763 0 -0.013851523209535576 -0.00094490710036595506 0 -0.01427382197031052 -0.00090388586158210156 0 -0.01387755466090849 -0.00093252371790841131 0 -0.013907101919484121 -0.00073456812132453029 0 -0.013722077276300608 -0.00094482155772274113 0 -0.013798912453696322 -0.0010376794865562763 0 -0.013851523209535576 -0.00094490710036595506 0 -0.013851523209535576 -0.00094490710036595506 0 -0.01427382197031052 -0.00090388586158210156 0 -0.014207731135568944 -0.00067075432649049953 0 -0.014581260130302455 -0.00054409301477329787 0 -0.014207731135568944 -0.00067075432649049953 0 -0.014311162124033579 -0.00045501103533554911 0 -0.014581260130302455 -0.00054409301477329787 0 -0.01427382197031052 -0.00090388586158210156 0 -0.014207731135568944 -0.00067075432649049953 0 -0.013851523209535576 -0.00094490710036595506 0 -0.014207731135568944 -0.00067075432649049953 0 -0.014005341565409817 -0.00058751193705784818 0 -0.014207731135568944 -0.00067075432649049953 0 -0.014311162124033579 -0.00045501103533554911 0 -0.014005341565409817 -0.00058751193705784818 0 -0.014236364405409299 -0.00035010086375016167 0 -0.014311162124033579 -0.00045501103533554911 0 -0.014005341565409817 -0.00058751193705784818 0 -0.014236364405409299 -0.00035010086375016167 0 -0.014005341565409817 -0.00058751193705784818 0 -0.014089367667692395 -0.00035859442790379107 0 -0.014236364405409299 -0.00035010086375016167 0 -0.014311162124033579 -0.00045501103533554911 0 -0.0144204227992837 -0.00022779424202714439 0 -0.014568779114880658 -0.0019449580121411621 0 -0.014490506440403998 -0.0016280599832723143 0 -0.014344128292252113 -0.0017124740595726524 0 -0.013421479598546591 -0.0012507609351659838 0 -0.014168910275823827 -0.0012529158291788751 0 -0.013722077276300608 -0.00094482155772274113 0 -0.013709632645845321 -0.00081166061176777247 0 -0.013802548256129277 -0.00082985604033884068 0 -0.013709632645845321 -0.00081166061176777247 0 -0.013776903692885676 -0.000736031610027685 0 -0.013732720711526474 -0.00072351077346119973 0 -0.013907101919484121 -0.00073456812132453029 0 -0.013886677232849439 -0.0005271272609366441 0 -0.013709632645845321 -0.00081166061176777247 0 -0.013802548256129277 -0.00082985604033884068 0 -0.013776903692885676 -0.000736031610027685 0 -0.014168910275823827 -0.0012529158291788751 0 -0.014209679746235986 -0.0010036033023364994 0 -0.014490506440403998 -0.0016280599832723143 0 -0.014325131710800342 -0.0014173065549217723 0 -0.014375050438301349 -0.0011186948666499583 0 -0.013709632645845321 -0.00081166061176777247 0 -0.013732720711526474 -0.00072351077346119973 0 -0.013687266153044705 -0.00070383857306303922 0 -0.014490506440403998 -0.0016280599832723143 0 -0.014344128292252113 -0.0017124740595726524 0 -0.014325131710800342 -0.0014173065549217723 0 -0.014280089062283828 -0.0012720928515922193 0 -0.014325131710800342 -0.0014173065549217723 0 -0.014375050438301349 -0.0011186948666499583 0 -0.014280089062283828 -0.0012720928515922193 0 -0.014375050438301349 -0.0011186948666499583 0 -0.014315873747393057 -0.0011877139376230009 0 -0.013732720711526474 -0.00072351077346119973 0 -0.013687266153044705 -0.00070383857306303922 0 -0.013755624496944461 -0.00064447020250307308 0 -0.014513883487839071 -0.0012100171443125102 0 -0.01446905555528091 -0.0010750276189648352 0 -0.014970686756159958 -0.00090122571070264004 0 -0.01442796772765902 -0.0011480550027278948 0 -0.014315873747393057 -0.0011877139376230009 0 -0.014370457652982499 -0.0011305306229180986 0 -0.014209679746235986 -0.0010036033023364994 0 -0.014240507679990145 -0.0010316306125094192 0 -0.014209679746235986 -0.0010036033023364994 0 -0.014290647249331098 -0.0010893406733428767 0 -0.01442796772765902 -0.0011480550027278948 0 -0.01446905555528091 -0.0010750276189648352 0 -0.014370457652982499 -0.0011305306229180986 0 -0.014209679746235986 -0.0010036033023364994 0 -0.014412936672148335 -0.00043901801625213706 0 -0.013886677232849439 -0.0005271272609366441 0 -0.014412936672148335 -0.00043901801625213706 0 -0.014089367667692395 -0.00035859442790379107 0 -0.014083597063776758 -0.00015497972281362419 0 -0.014236957565195506 -0.00022007180565667054 0 -0.013776903692885676 -0.000736031610027685 0 -0.013732720711526474 -0.00072351077346119973 0 -0.013755624496944461 -0.00064447020250307308 0 -0.014083597063776758 -0.00015497972281362419 0 -0.014236957565195506 -0.00022007180565667054 0 -0.014305577108016151 -2.7883641371258289e-05 0 -0.014412936672148335 -0.00043901801625213706 0 -0.014692560389019723 2.6497524188210979e-05 0 -0.014970686756159958 -0.00090122571070264004 0 -0.014644944209561658 -0.00079242444509572006 0 -0.014935101177798896 -0.00044065947657560286 0 -0.014412936672148335 -0.00043901801625213706 0 -0.01501343759689765 -0.00023679960189772491 0 -0.01446905555528091 -0.0010750276189648352 0 -0.014970686756159958 -0.00090122571070264004 0 -0.014644944209561658 -0.00079242444509572006 0 -0.014600797843001724 -0.00020975789772721467 0 -0.0144204227992837 -0.00022779424202714439 0 -0.014545535472241822 -0.00010589750366600241 0 -0.014600797843001724 -0.00020975789772721467 0 -0.014311162124033579 -0.00045501103533554911 0 -0.0144204227992837 -0.00022779424202714439 0 -0.014236364405409299 -0.00035010086375016167 0 -0.0144204227992837 -0.00022779424202714439 0 -0.014236957565195506 -0.00022007180565667054 0 -0.014236364405409299 -0.00035010086375016167 0 -0.014089367667692395 -0.00035859442790379107 0 -0.014236957565195506 -0.00022007180565667054 0 -0.0144204227992837 -0.00022779424202714439 0 -0.014236957565195506 -0.00022007180565667054 0 -0.014545535472241822 -0.00010589750366600241 0 -0.014236957565195506 -0.00022007180565667054 0 -0.014545535472241822 -0.00010589750366600241 0 -0.014305577108016151 -2.7883641371258289e-05 0 -0.014763518087966112 -2.8605617619245641e-05 0 -0.014545535472241822 -0.00010589750366600241 0 -0.014593862236777 4.6117752824921426e-05 0 -0.014545535472241822 -0.00010589750366600241 0 -0.014305577108016151 -2.7883641371258289e-05 0 -0.014593862236777 4.6117752824921426e-05 0 -0.014998048272433104 -1.0351160896379012e-05 0 -0.014999041881117494 -3.5872644030641518e-06 0 -0.015000446663358253 -2.7644926312111107e-06 0 -0.014692560389019723 2.6497524188210979e-05 0 -0.014782007183297374 -5.626777215017676e-06 0 -0.014999041881117494 -3.5872644030641518e-06 0 -0.015000000654641917 -2.9615036700192731e-09 0 -0.014999997977898957 -8.1859011139120058e-10 0 -0.014999041881117494 -3.5872644030641518e-06 0 -0.015000000654641917 -2.9615036700192731e-09 0 -0.015000446663358253 -2.7644926312111107e-06 0 -0.015000001035337917 8.0676113269147829e-10 0 -0.015000000654641917 -2.9615036700192731e-09 0 -0.015000446663358253 -2.7644926312111107e-06 0 -0.014999897450139419 7.078439727244776e-09 0 -0.014782007183297374 -5.626777215017676e-06 0 -0.014763518087966112 -2.8605617619245641e-05 0 -0.014999274960713738 3.062731658804522e-07 0 -0.014593862236777 4.6117752824921426e-05 0 -0.014644944209561658 -0.00079242444509572006 0 -0.014935101177798896 -0.00044065947657560286 0 -0.014527295380143303 -0.00062581139899659975 0 -0.014935101177798896 -0.00044065947657560286 0 -0.014820429864944286 -0.00025738026869733015 0 -0.014527295380143303 -0.00062581139899659975 0 -0.014988143440760257 -2.1916056687830752e-05 0 -0.014998048272433104 -1.0351160896379012e-05 0 -0.014992261067513014 -7.5792706637239408e-06 0 -0.014998048272433104 -1.0351160896379012e-05 0 -0.014999041881117494 -3.5872644030641518e-06 0 -0.014992261067513014 -7.5792706637239408e-06 0 -0.014999041881117494 -3.5872644030641518e-06 0 -0.014992261067513014 -7.5792706637239408e-06 0 -0.014999997977898957 -8.1859011139120058e-10 0 -0.01501343759689765 -0.00023679960189772491 0 -0.014999936931673421 1.2543219927802309e-08 0 -0.014935101177798896 -0.00044065947657560286 0 -0.014820429864944286 -0.00025738026869733015 0 -0.015000660864632847 -1.6732927323172467e-07 0 -0.014992261067513014 -7.5792706637239408e-06 0 -0.014999997977898957 -8.1859011139120058e-10 0 -0.01499998800561925 -4.3048338673731994e-09 0 -0.014820429864944286 -0.00025738026869733015 0 -0.015000660864632847 -1.6732927323172467e-07 0 -0.014998689965973396 1.3530386597765926e-07 0 -0.014820429864944286 -0.00025738026869733015 0 -0.014998689965973396 1.3530386597765926e-07 0 -0.014570097659188763 -0.00036917549394752591 0 -0.014999837326759876 -4.4425957505867935e-08 0 -0.014522432771044392 -0.00020890275139748811 0 -0.014998689965973396 1.3530386597765926e-07 0 -0.014017962468331443 -0.00037487888163542036 0 -0.014570097659188763 -0.00036917549394752591 0 -0.015000000251087948 4.9463486447473795e-09 0 -0.015002734206934577 -9.213195004528116e-06 0 -0.015000010147768087 -1.5581100066276263e-08 0 -0.014017962468331443 -0.00037487888163542036 0 -0.014166319436151041 -0.00067403735800305542 0 -0.014570097659188763 -0.00036917549394752591 0 -0.014017962468331443 -0.00037487888163542036 0 -0.014166319436151041 -0.00067403735800305542 0 -0.013872074255962237 -0.00089381387869926431 0 -0.014820429864944286 -0.00025738026869733015 0 -0.014570097659188763 -0.00036917549394752591 0 -0.014527295380143303 -0.00062581139899659975 0 -0.014166319436151041 -0.00067403735800305542 0 -0.014570097659188763 -0.00036917549394752591 0 -0.014527295380143303 -0.00062581139899659975 0 -0.014644944209561658 -0.00079242444509572006 0 -0.014527295380143303 -0.00062581139899659975 0 -0.014334058260153945 -0.00093809274315014967 0 -0.014527295380143303 -0.00062581139899659975 0 -0.014334058260153945 -0.00093809274315014967 0 -0.014055485945554337 -0.00091834869709878975 0 -0.01446905555528091 -0.0010750276189648352 0 -0.014644944209561658 -0.00079242444509572006 0 -0.014334058260153945 -0.00093809274315014967 0 -0.014334058260153945 -0.00093809274315014967 0 -0.014055485945554337 -0.00091834869709878975 0 -0.014077158867158206 -0.0010758773760769292 0 -0.014166319436151041 -0.00067403735800305542 0 -0.014527295380143303 -0.00062581139899659975 0 -0.014055485945554337 -0.00091834869709878975 0 -0.014055485945554337 -0.00091834869709878975 0 -0.013791912164163448 -0.0011203875736916647 0 -0.013872074255962237 -0.00089381387869926431 0 -0.014166319436151041 -0.00067403735800305542 0 -0.014055485945554337 -0.00091834869709878975 0 -0.013872074255962237 -0.00089381387869926431 0 -0.013818520872353635 -0.0012618031856063965 0 -0.014077158867158206 -0.0010758773760769292 0 -0.013791912164163448 -0.0011203875736916647 0 -0.014055485945554337 -0.00091834869709878975 0 -0.014077158867158206 -0.0010758773760769292 0 -0.013791912164163448 -0.0011203875736916647 0 -0.014159395187260419 -0.0012029279641028918 0 -0.01426046198932244 -0.0011065602008656615 0 -0.014077158867158206 -0.0010758773760769292 0 -0.013818520872353635 -0.0012618031856063965 0 -0.014159395187260419 -0.0012029279641028918 0 -0.014077158867158206 -0.0010758773760769292 0 -0.014280089062283828 -0.0012720928515922193 0 -0.014159395187260419 -0.0012029279641028918 0 -0.014315873747393057 -0.0011877139376230009 0 -0.014315873747393057 -0.0011877139376230009 0 -0.01426046198932244 -0.0011065602008656615 0 -0.014370457652982499 -0.0011305306229180986 0 -0.014159395187260419 -0.0012029279641028918 0 -0.014315873747393057 -0.0011877139376230009 0 -0.01426046198932244 -0.0011065602008656615 0 -0.01446905555528091 -0.0010750276189648352 0 -0.014334058260153945 -0.00093809274315014967 0 -0.01426046198932244 -0.0011065602008656615 0 -0.01446905555528091 -0.0010750276189648352 0 -0.01426046198932244 -0.0011065602008656615 0 -0.014370457652982499 -0.0011305306229180986 0 -0.014334058260153945 -0.00093809274315014967 0 -0.01426046198932244 -0.0011065602008656615 0 -0.014077158867158206 -0.0010758773760769292 0 -0.013734446927130132 -0.0010854677301411827 0 -0.013733608054976343 -0.0010697780020017191 0 -0.013844993535215268 -0.0010562819961246375 0 -0.013733608054976343 -0.0010697780020017191 0 -0.013791912164163448 -0.0011203875736916647 0 -0.013872074255962237 -0.00089381387869926431 0 -0.013734446927130132 -0.0010854677301411827 0 -0.013733608054976343 -0.0010697780020017191 0 -0.013791912164163448 -0.0011203875736916647 0 -0.013733608054976343 -0.0010697780020017191 0 -0.013872074255962237 -0.00089381387869926431 0 -0.013701719372207048 -0.00086021864518199035 0 -0.014373134277746932 -0.00044001623003879324 0 -0.014420103798952 -0.00059450741570993477 0 -0.013733608054976343 -0.0010697780020017191 0 -0.013701719372207048 -0.00086021864518199035 0 -0.013795413321023844 -0.0011154900539670893 0 -0.015015920425241953 -3.7907990416045544e-05 0 -0.01501461616481899 -3.2570160474985556e-05 0 -0.015032851864142941 -9.0173865252146142e-05 0 -0.015015920425241953 -3.7907990416045544e-05 0 -0.015006986286333944 -1.4829969774407416e-05 0 -0.01501461616481899 -3.2570160474985556e-05 0 -0.015002734206934577 -9.213195004528116e-06 0 -0.015015920425241953 -3.7907990416045544e-05 0 -0.015006986286333944 -1.4829969774407416e-05 0 -0.014017962468331443 -0.00037487888163542036 0 -0.013872074255962237 -0.00089381387869926431 0 -0.013701719372207048 -0.00086021864518199035 0 -0.014522432771044392 -0.00020890275139748811 0 -0.014373134277746932 -0.00044001623003879324 0 -0.015002734206934577 -9.213195004528116e-06 0 -0.015000010147768087 -1.5581100066276263e-08 0 -0.015006986286333944 -1.4829969774407416e-05 0 -0.015000010147768087 -1.5581100066276263e-08 0 -0.015006986286333944 -1.4829969774407416e-05 0 -0.015000021450385547 -1.8744534255310719e-08 0 -0.015006986286333944 -1.4829969774407416e-05 0 -0.015000021450385547 -1.8744534255310719e-08 0 -0.01501461616481899 -3.2570160474985556e-05 0 -0.015000021450385547 -1.8744534255310719e-08 0 -0.015000024221951102 -2.9152497584537366e-08 0 -0.01501461616481899 -3.2570160474985556e-05 0 -0.015000024221951102 -2.9152497584537366e-08 0 -0.015015248134460991 -5.3162703439600938e-05 0 -0.01501461616481899 -3.2570160474985556e-05 0 -0.015015248134460991 -5.3162703439600938e-05 0 -0.01501461616481899 -3.2570160474985556e-05 0 -0.015032851864142941 -9.0173865252146142e-05 0 -0.014999996018896468 -1.355570719704367e-08 0 -0.014993267789557936 -8.3932450609594121e-05 0 -0.014969327489378284 -5.3375137940226552e-05 0 -0.015015248134460991 -5.3162703439600938e-05 0 -0.014999996018896468 -1.355570719704367e-08 0 -0.014993267789557936 -8.3932450609594121e-05 0 -0.015000024221951102 -2.9152497584537366e-08 0 -0.015015248134460991 -5.3162703439600938e-05 0 -0.014999996018896468 -1.355570719704367e-08 0 -0.015015248134460991 -5.3162703439600938e-05 0 -0.014993267789557936 -8.3932450609594121e-05 0 -0.015039484620150005 -0.00016950512406406536 0 -0.014993267789557936 -8.3932450609594121e-05 0 -0.014957574531161406 -0.00017554995981206291 0 -0.014969327489378284 -5.3375137940226552e-05 0 -0.014993267789557936 -8.3932450609594121e-05 0 -0.014957574531161406 -0.00017554995981206291 0 -0.015039484620150005 -0.00016950512406406536 0 -0.015015248134460991 -5.3162703439600938e-05 0 -0.015032851864142941 -9.0173865252146142e-05 0 -0.015039484620150005 -0.00016950512406406536 0 -0.014420103798952 -0.00059450741570993477 0 -0.014560981220588456 -0.00063684708082758308 0 -0.013795413321023844 -0.0011154900539670893 0 -0.014084326756886123 -0.0011102989232391316 0 -0.013844993535215268 -0.0010562819961246375 0 -0.013733608054976343 -0.0010697780020017191 0 -0.013795413321023844 -0.0011154900539670893 0 -0.013844993535215268 -0.0010562819961246375 0 -0.013844993535215268 -0.0010562819961246375 0 -0.013851359600868208 -0.00092055579476823504 0 -0.014095539293612559 -0.00087435100874897387 0 -0.014084326756886123 -0.0011102989232391316 0 -0.013844993535215268 -0.0010562819961246375 0 -0.014095539293612559 -0.00087435100874897387 0 -0.014560981220588456 -0.00063684708082758308 0 -0.014694115254996297 -0.00061295179330545185 0 -0.014084326756886123 -0.0011102989232391316 0 -0.014095539293612559 -0.00087435100874897387 0 -0.014417939432106182 -0.00092360099847295764 0 -0.014957574531161406 -0.00017554995981206291 0 -0.015039484620150005 -0.00016950512406406536 0 -0.014990020693715743 -0.0003102890373712813 0 -0.014417939432106182 -0.00092360099847295764 0 -0.014395532445523877 -0.00059677611298423463 0 -0.01476695261139054 -0.00053214071880800418 0 -0.014095539293612559 -0.00087435100874897387 0 -0.014417939432106182 -0.00092360099847295764 0 -0.014395532445523877 -0.00059677611298423463 0 -0.014095539293612559 -0.00087435100874897387 0 -0.014395532445523877 -0.00059677611298423463 0 -0.014063679705142549 -0.00060940653295253741 0 -0.014395532445523877 -0.00059677611298423463 0 -0.014612818792099712 -0.00043807182764051862 0 -0.014367230685892548 -0.0003900565269613474 0 -0.014063679705142549 -0.00060940653295253741 0 -0.014172088098129696 -0.00035815663147623235 0 -0.014367230685892548 -0.0003900565269613474 0 -0.014395532445523877 -0.00059677611298423463 0 -0.014063679705142549 -0.00060940653295253741 0 -0.014367230685892548 -0.0003900565269613474 0 -0.013700899153683378 -0.00078480735447103715 0 -0.013795805855379819 -0.00056007451536276996 0 -0.014063679705142549 -0.00060940653295253741 0 -0.013700899153683378 -0.00078480735447103715 0 -0.013851359600868208 -0.00092055579476823504 0 -0.014063679705142549 -0.00060940653295253741 0 -0.013795805855379819 -0.00056007451536276996 0 -0.014063679705142549 -0.00060940653295253741 0 -0.013989018037124148 -0.00042077597136512269 0 -0.013851359600868208 -0.00092055579476823504 0 -0.014095539293612559 -0.00087435100874897387 0 -0.014063679705142549 -0.00060940653295253741 0 -0.014720978347233397 -0.000446996758771333 0 -0.014748416567170918 -0.00041815522336485523 0 -0.014765450561171428 -0.0004208368704690206 0 -0.014734517058256343 -0.00046356213160754137 0 -0.014742014346818585 -0.00041803429209759569 0 -0.014668083886307592 -0.00037558685663983672 0 -0.014652608104870134 -0.00044858328350118977 0 -0.014742014346818585 -0.00041803429209759569 0 -0.014668083886307592 -0.00037558685663983672 0 -0.014652608104870134 -0.00044858328350118977 0 -0.014574135938228424 -0.00043297477091882084 0 -0.014652608104870134 -0.00044858328350118977 0 -0.014724665304209203 -0.00047862933764889002 0 -0.014613965778518818 -0.0005601553682703939 0 -0.014652608104870134 -0.00044858328350118977 0 -0.014724665304209203 -0.00047862933764889002 0 -0.014742014346818585 -0.00041803429209759569 0 -0.014765450561171428 -0.0004208368704690206 0 -0.014612818792099712 -0.00043807182764051862 0 -0.014734517058256343 -0.00046356213160754137 0 -0.014395532445523877 -0.00059677611298423463 0 -0.014612818792099712 -0.00043807182764051862 0 -0.01476695261139054 -0.00053214071880800418 0 -0.014612818792099712 -0.00043807182764051862 0 -0.014734517058256343 -0.00046356213160754137 0 -0.01476695261139054 -0.00053214071880800418 0 -0.014734517058256343 -0.00046356213160754137 0 -0.01476695261139054 -0.00053214071880800418 0 -0.014742014346818585 -0.00041803429209759569 0 -0.01476695261139054 -0.00053214071880800418 0 -0.014820026784881988 -0.00028123179002151398 0 -0.014742014346818585 -0.00041803429209759569 0 -0.014694115254996297 -0.00061295179330545185 0 -0.014759180995508679 -0.00054723613186320058 0 -0.014957574531161406 -0.00017554995981206291 0 -0.014990020693715743 -0.0003102890373712813 0 -0.014820026784881988 -0.00028123179002151398 0 -0.014990020693715743 -0.0003102890373712813 0 -0.01476695261139054 -0.00053214071880800418 0 -0.014820026784881988 -0.00028123179002151398 0 -0.014820026784881988 -0.00028123179002151398 0 -0.014773746032963195 -0.00026943967758164455 0 -0.014742014346818585 -0.00041803429209759569 0 -0.014773746032963195 -0.00026943967758164455 0 -0.014742014346818585 -0.00041803429209759569 0 -0.014709585906565089 -0.0003080611739503919 0 -0.014668083886307592 -0.00037558685663983672 0 -0.014742014346818585 -0.00041803429209759569 0 -0.014709585906565089 -0.0003080611739503919 0 -0.014773746032963195 -0.00026943967758164455 0 -0.014709585906565089 -0.0003080611739503919 0 -0.014751770170010151 -0.00020962181371411684 0 -0.014841561121527307 -0.00016015637042397118 0 -0.014751770170010151 -0.00020962181371411684 0 -0.014841997813611936 -0.00011730787859175409 0 -0.014773746032963195 -0.00026943967758164455 0 -0.014841561121527307 -0.00016015637042397118 0 -0.014751770170010151 -0.00020962181371411684 0 -0.014820026784881988 -0.00028123179002151398 0 -0.014773746032963195 -0.00026943967758164455 0 -0.014841561121527307 -0.00016015637042397118 0 -0.014841561121527307 -0.00016015637042397118 0 -0.014904939325265194 -0.00012672336571895225 0 -0.014913393627988164 -7.4636433527746113e-05 0 -0.014841561121527307 -0.00016015637042397118 0 -0.014913393627988164 -7.4636433527746113e-05 0 -0.014841997813611936 -0.00011730787859175409 0 -0.014957574531161406 -0.00017554995981206291 0 -0.014820026784881988 -0.00028123179002151398 0 -0.014904939325265194 -0.00012672336571895225 0 -0.014820026784881988 -0.00028123179002151398 0 -0.014841561121527307 -0.00016015637042397118 0 -0.014904939325265194 -0.00012672336571895225 0 -0.014957574531161406 -0.00017554995981206291 0 -0.014904939325265194 -0.00012672336571895225 0 -0.014969327489378284 -5.3375137940226552e-05 0 -0.014904939325265194 -0.00012672336571895225 0 -0.014961991955185716 -3.7210185479060541e-05 0 -0.014913393627988164 -7.4636433527746113e-05 0 -0.014904939325265194 -0.00012672336571895225 0 -0.014969327489378284 -5.3375137940226552e-05 0 -0.014961991955185716 -3.7210185479060541e-05 0 -0.014961991955185716 -3.7210185479060541e-05 0 -0.01499994997284934 -3.1851275713427294e-08 0 -0.014999910902105486 -2.2877587113258829e-08 0 -0.014999996018896468 -1.355570719704367e-08 0 -0.014969327489378284 -5.3375137940226552e-05 0 -0.01499994997284934 -3.1851275713427294e-08 0 -0.014969327489378284 -5.3375137940226552e-05 0 -0.014961991955185716 -3.7210185479060541e-05 0 -0.01499994997284934 -3.1851275713427294e-08 0 -0.014920193757983495 -4.9626962202211295e-05 0 -0.014913393627988164 -7.4636433527746113e-05 0 -0.014841997813611936 -0.00011730787859175409 0 -0.014961991955185716 -3.7210185479060541e-05 0 -0.014913393627988164 -7.4636433527746113e-05 0 -0.014999910902105486 -2.2877587113258829e-08 0 -0.014920193757983495 -4.9626962202211295e-05 0 -0.014913393627988164 -7.4636433527746113e-05 0 -0.014999910902105486 -2.2877587113258829e-08 0 -0.014920193757983495 -4.9626962202211295e-05 0 -0.014999910902105486 -2.2877587113258829e-08 0 -0.014999896451488916 -2.89151585095225e-08 0 -0.014999896451488916 -2.89151585095225e-08 0 -0.014908492897635966 -4.3243927169982289e-05 0 -0.014908723841147272 -2.8684939688652962e-05 0 -0.014920193757983495 -4.9626962202211295e-05 0 -0.014999896451488916 -2.89151585095225e-08 0 -0.014908492897635966 -4.3243927169982289e-05 0 -0.014920193757983495 -4.9626962202211295e-05 0 -0.01487143449590464 -7.3407632667425526e-05 0 -0.014841997813611936 -0.00011730787859175409 0 -0.014920193757983495 -4.9626962202211295e-05 0 -0.014908492897635966 -4.3243927169982289e-05 0 -0.01487143449590464 -7.3407632667425526e-05 0 -0.014908492897635966 -4.3243927169982289e-05 0 -0.01487143449590464 -7.3407632667425526e-05 0 -0.01486485902652001 -6.0107310131830223e-05 0 -0.014832986500541023 -7.1816718989467238e-05 0 -0.014816383640708251 -0.00010303726503902597 0 -0.014791308557324939 -9.2105340665743187e-05 0 -0.014832986500541023 -7.1816718989467238e-05 0 -0.014828372229186012 -4.9950298176898565e-05 0 -0.014791308557324939 -9.2105340665743187e-05 0 -0.014832986500541023 -7.1816718989467238e-05 0 -0.01486485902652001 -6.0107310131830223e-05 0 -0.014856873101412897 -5.2477592084437711e-05 0 -0.01487143449590464 -7.3407632667425526e-05 0 -0.01486485902652001 -6.0107310131830223e-05 0 -0.014816383640708251 -0.00010303726503902597 0 -0.014832986500541023 -7.1816718989467238e-05 0 -0.01486485902652001 -6.0107310131830223e-05 0 -0.014816383640708251 -0.00010303726503902597 0 -0.014908492897635966 -4.3243927169982289e-05 0 -0.01486485902652001 -6.0107310131830223e-05 0 -0.014908723841147272 -2.8684939688652962e-05 0 -0.014856873101412897 -5.2477592084437711e-05 0 -0.014908723841147272 -2.8684939688652962e-05 0 -0.014828372229186012 -4.9950298176898565e-05 0 -0.01486485902652001 -6.0107310131830223e-05 0 -0.014856873101412897 -5.2477592084437711e-05 0 -0.014908723841147272 -2.8684939688652962e-05 0 -0.014832986500541023 -7.1816718989467238e-05 0 -0.014856873101412897 -5.2477592084437711e-05 0 -0.014828372229186012 -4.9950298176898565e-05 0 -0.014908723841147272 -2.8684939688652962e-05 0 -0.014999719872168343 -6.9661873692980189e-09 0 -0.014829483536746589 -4.5781459353577393e-05 0 -0.014999896451488916 -2.89151585095225e-08 0 -0.014908723841147272 -2.8684939688652962e-05 0 -0.014999719872168343 -6.9661873692980189e-09 0 -0.014943133125944415 -7.3019518409189278e-06 0 -0.014885140829373823 -2.0892090541969564e-05 0 -0.014999959537807535 -3.950761123726276e-08 0 -0.014885140829373823 -2.0892090541969564e-05 0 -0.014999998944032557 -2.0042660969569558e-10 0 -0.014999702731525792 -1.1828755423790337e-08 0 -0.014999999389503145 3.5715350240459787e-11 0 -0.014999702731525792 -1.1828755423790337e-08 0 -0.014999768788427023 4.7702083098907094e-08 0 -0.014998983284995725 8.6662553507536103e-09 0 -0.014999998944032557 -2.0042660969569558e-10 0 -0.014999702731525792 -1.1828755423790337e-08 0 -0.014998983284995725 8.6662553507536103e-09 0 -0.014943133125944415 -7.3019518409189278e-06 0 -0.014999965443380413 -3.8194140093500549e-09 0 -0.014999999389503145 3.5715350240459787e-11 0 -0.014999768788427023 4.7702083098907094e-08 0 -0.0150000000527879 -3.993857349867286e-11 0 -0.014999702731525792 -1.1828755423790337e-08 0 -0.014999999389503145 3.5715350240459787e-11 0 -0.014999768788427023 4.7702083098907094e-08 0 -0.014885318901361003 -2.567276724285061e-05 0 -0.014847616878184408 1.9121467346095751e-05 0 -0.01493377950483803 -1.1819952376031697e-06 0 -0.014820411886845807 -4.6042075196631505e-05 0 -0.014704637988195761 -0.00013389138770549929 0 -0.014791308557324939 -9.2105340665743187e-05 0 -0.014885318901361003 -2.567276724285061e-05 0 -0.014811680440168697 -8.0187429604047801e-06 0 -0.014847616878184408 1.9121467346095751e-05 0 -0.014885140829373823 -2.0892090541969564e-05 0 -0.014746376275454751 -5.349644743301031e-05 0 -0.014811680440168697 -8.0187429604047801e-06 0 -0.014798286447410158 3.8796158554310888e-05 0 -0.014847616878184408 1.9121467346095751e-05 0 -0.014908723841147272 -2.8684939688652962e-05 0 -0.014829483536746589 -4.5781459353577393e-05 0 -0.014828372229186012 -4.9950298176898565e-05 0 -0.014885140829373823 -2.0892090541969564e-05 0 -0.014879544493219541 -2.0228833910283658e-05 0 -0.014820411886845807 -4.6042075196631505e-05 0 -0.014828372229186012 -4.9950298176898565e-05 0 -0.014791308557324939 -9.2105340665743187e-05 0 -0.014704637988195761 -0.00013389138770549929 0 -0.014791308557324939 -9.2105340665743187e-05 0 -0.014746854088567228 -0.00014404877821162294 0 -0.014704637988195761 -0.00013389138770549929 0 -0.014683751890858533 -0.00017837461017498684 0 -0.014746854088567228 -0.00014404877821162294 0 -0.014847616878184408 1.9121467346095751e-05 0 -0.014789761920037465 4.8331024564700665e-05 0 -0.014874964981319636 6.3920138429116122e-05 0 -0.014798286447410158 3.8796158554310888e-05 0 -0.014847616878184408 1.9121467346095751e-05 0 -0.014789761920037465 4.8331024564700665e-05 0 -0.014664950901279552 7.8306555776807286e-05 0 -0.014692300683443023 1.4055703523078058e-05 0 -0.014789761920037465 4.8331024564700665e-05 0 -0.014874964981319636 6.3920138429116122e-05 0 -0.01468111127259192 9.5227364162627338e-06 0 -0.014798286447410158 3.8796158554310888e-05 0 -0.014789761920037465 4.8331024564700665e-05 0 -0.014738736311508535 4.6858220691276625e-05 0 -0.014704637988195761 -0.00013389138770549929 0 -0.014683751890858533 -0.00017837461017498684 0 -0.014630035201033904 -0.00021523673236545357 0 -0.014789761920037465 4.8331024564700665e-05 0 -0.014738736311508535 4.6858220691276625e-05 0 -0.01468111127259192 9.5227364162627338e-06 0 -0.014746376275454751 -5.349644743301031e-05 0 -0.014680266942165525 -8.6043728832367399e-05 0 -0.014630035201033904 -0.00021523673236545357 0 -0.014658058146170003 -0.00020163448112023034 0 -0.014641462840570831 -0.00021360740144151191 0 -0.014683751890858533 -0.00017837461017498684 0 -0.014630035201033904 -0.00021523673236545357 0 -0.014658058146170003 -0.00020163448112023034 0 -0.014683751890858533 -0.00017837461017498684 0 -0.014658058146170003 -0.00020163448112023034 0 -0.014660541620795711 -0.00021277957160191279 0 -0.014683751890858533 -0.00017837461017498684 0 -0.014718693705184508 -0.00018529153477794201 0 -0.014660541620795711 -0.00021277957160191279 0 -0.014683751890858533 -0.00017837461017498684 0 -0.014718693705184508 -0.00018529153477794201 0 -0.014746854088567228 -0.00014404877821162294 0 -0.014718693705184508 -0.00018529153477794201 0 -0.014779539029329866 -0.00015155397140204557 0 -0.014746854088567228 -0.00014404877821162294 0 -0.014718693705184508 -0.00018529153477794201 0 -0.014685699476465666 -0.00022745469055025203 0 -0.014660541620795711 -0.00021277957160191279 0 -0.014751770170010151 -0.00020962181371411684 0 -0.014841997813611936 -0.00011730787859175409 0 -0.014779539029329866 -0.00015155397140204557 0 -0.014718693705184508 -0.00018529153477794201 0 -0.014751770170010151 -0.00020962181371411684 0 -0.014779539029329866 -0.00015155397140204557 0 -0.014718693705184508 -0.00018529153477794201 0 -0.014751770170010151 -0.00020962181371411684 0 -0.014685699476465666 -0.00022745469055025203 0 -0.01487143449590464 -7.3407632667425526e-05 0 -0.014841997813611936 -0.00011730787859175409 0 -0.014816383640708251 -0.00010303726503902597 0 -0.014841997813611936 -0.00011730787859175409 0 -0.014779539029329866 -0.00015155397140204557 0 -0.014816383640708251 -0.00010303726503902597 0 -0.014816383640708251 -0.00010303726503902597 0 -0.014791308557324939 -9.2105340665743187e-05 0 -0.014746854088567228 -0.00014404877821162294 0 -0.014779539029329866 -0.00015155397140204557 0 -0.014816383640708251 -0.00010303726503902597 0 -0.014746854088567228 -0.00014404877821162294 0 -0.014825745746322288 1.6680902720734304e-05 0 -0.014916588793852659 -3.0883310524146675e-05 0 -0.014914349270893532 1.1061992815685261e-05 0 -0.014825745746322288 1.6680902720734304e-05 0 -0.014867242088720247 4.6809782828431769e-05 0 -0.014914349270893532 1.1061992815685261e-05 0 -0.014999921928133016 3.5155155809348742e-08 0 -0.014916588793852659 -3.0883310524146675e-05 0 -0.014999846313935628 -3.8409790045444969e-08 0 -0.014916588793852659 -3.0883310524146675e-05 0 -0.014999846313935628 -3.8409790045444969e-08 0 -0.014914349270893532 1.1061992815685261e-05 0 -0.014999921928133016 3.5155155809348742e-08 0 -0.014916588793852659 -3.0883310524146675e-05 0 -0.01497993287537927 -7.4710154261001582e-06 0 -0.01488707555709036 -2.7745327003315532e-05 0 -0.014744692288187422 1.962559808783967e-05 0 -0.014825745746322288 1.6680902720734304e-05 0 -0.014916588793852659 -3.0883310524146675e-05 0 -0.014697000738107126 2.3185335287288221e-05 0 -0.014916588793852659 -3.0883310524146675e-05 0 -0.0145094340888689 1.236274924928338e-05 0 -0.014697000738107126 2.3185335287288221e-05 0 -0.014916588793852659 -3.0883310524146675e-05 0 -0.01497993287537927 -7.4710154261001582e-06 0 -0.014972126985142368 4.9238884216788899e-06 0 -0.01497993287537927 -7.4710154261001582e-06 0 -0.01493377950483803 -1.1819952376031697e-06 0 -0.014972126985142368 4.9238884216788899e-06 0 -0.014999921928133016 3.5155155809348742e-08 0 -0.01497993287537927 -7.4710154261001582e-06 0 -0.014999837118484079 -1.3350117948713859e-07 0 -0.01497993287537927 -7.4710154261001582e-06 0 -0.014999837118484079 -1.3350117948713859e-07 0 -0.01493377950483803 -1.1819952376031697e-06 0 -0.014885318901361003 -2.567276724285061e-05 0 -0.014999837118484079 -1.3350117948713859e-07 0 -0.01493377950483803 -1.1819952376031697e-06 0 -0.014664950901279552 7.8306555776807286e-05 0 -0.014744692288187422 1.962559808783967e-05 0 -0.01493377950483803 -1.1819952376031697e-06 0 -0.014874964981319636 6.3920138429116122e-05 0 -0.014972126985142368 4.9238884216788899e-06 0 -0.014847616878184408 1.9121467346095751e-05 0 -0.01493377950483803 -1.1819952376031697e-06 0 -0.014874964981319636 6.3920138429116122e-05 0 -0.014444436497691849 0.00012232848225686462 0 -0.014458078528287168 0.0001141019982631286 0 -0.014401569557719991 3.0849880639223201e-05 0 -0.014458078528287168 0.0001141019982631286 0 -0.014509999378627524 0.00015412462180144942 0 -0.014361500791241289 4.6847699835917631e-05 0 -0.014458078528287168 0.0001141019982631286 0 -0.014361500791241289 4.6847699835917631e-05 0 -0.014401569557719991 3.0849880639223201e-05 0 -0.014458078528287168 0.0001141019982631286 0 -0.014555711873576705 7.8231657921698462e-05 0 -0.014509999378627524 0.00015412462180144942 0 -0.014444436497691849 0.00012232848225686462 0 -0.014458078528287168 0.0001141019982631286 0 -0.0145094340888689 1.236274924928338e-05 0 -0.014458078528287168 0.0001141019982631286 0 -0.0145094340888689 1.236274924928338e-05 0 -0.014555711873576705 7.8231657921698462e-05 0 -0.0145094340888689 1.236274924928338e-05 0 -0.014697000738107126 2.3185335287288221e-05 0 -0.014555711873576705 7.8231657921698462e-05 0 -0.014697000738107126 2.3185335287288221e-05 0 -0.014673623356213314 6.7603406590791671e-05 0 -0.014555711873576705 7.8231657921698462e-05 0 -0.014825745746322288 1.6680902720734304e-05 0 -0.014697000738107126 2.3185335287288221e-05 0 -0.014673623356213314 6.7603406590791671e-05 0 -0.014673623356213314 6.7603406590791671e-05 0 -0.014555711873576705 7.8231657921698462e-05 0 -0.014509999378627524 0.00015412462180144942 0 -0.014467435012742629 0.0001773534987995983 0 -0.014552101123109082 0.00017835536178903314 0 -0.014509999378627524 0.00015412462180144942 0 -0.014170647195084119 1.1835400858188556e-05 0 -0.014361500791241289 4.6847699835917631e-05 0 -0.014673623356213314 6.7603406590791671e-05 0 -0.014509999378627524 0.00015412462180144942 0 -0.014727386677990409 0.00051794993485270119 0 -0.01474534344074283 0.00013202138148628875 0 -0.014552101123109082 0.00017835536178903314 0 -0.014673623356213314 6.7603406590791671e-05 0 -0.014833975518685313 8.9146584269163544e-05 0 -0.014832953710309769 0.00011058815093073222 0 -0.014833975518685313 8.9146584269163544e-05 0 -0.014807281766050199 5.181840714411936e-05 0 -0.014867242088720247 4.6809782828431769e-05 0 -0.014673623356213314 6.7603406590791671e-05 0 -0.014833975518685313 8.9146584269163544e-05 0 -0.014807281766050199 5.181840714411936e-05 0 -0.014825745746322288 1.6680902720734304e-05 0 -0.014807281766050199 5.181840714411936e-05 0 -0.014867242088720247 4.6809782828431769e-05 0 -0.014825745746322288 1.6680902720734304e-05 0 -0.014673623356213314 6.7603406590791671e-05 0 -0.014807281766050199 5.181840714411936e-05 0 -0.014430703450877637 1.0300558129159847e-05 0 -0.014374933047887048 1.0079970321997396e-05 0 -0.014385268421205983 -0.00014336073125720112 0 -0.014108165549220472 -0.00012207535047674059 0 -0.014122469613341624 -0.00014581876908546963 0 -0.014138189216999379 -0.00013857674360818732 0 -0.014272384694814753 -6.5008545169137967e-05 0 -0.014066968094784815 -0.00015381560249101781 0 -0.014430703450877637 1.0300558129159847e-05 0 -0.014374933047887048 1.0079970321997396e-05 0 -0.014476105374786956 0.00016586355866795701 0 -0.014867350044493605 5.856424313921667e-05 0 -0.014832953710309769 0.00011058815093073222 0 -0.014854861585284393 8.6880126661693647e-05 0 -0.014833975518685313 8.9146584269163544e-05 0 -0.014832953710309769 0.00011058815093073222 0 -0.014854861585284393 8.6880126661693647e-05 0 -0.014272384694814753 -6.5008545169137967e-05 0 -0.014552101123109082 0.00017835536178903314 0 -0.01463875226068489 5.3429840773139694e-05 0 -0.014552101123109082 0.00017835536178903314 0 -0.014170647195084119 1.1835400858188556e-05 0 -0.014245975122096287 -4.4930808009014852e-05 0 -0.014361500791241289 4.6847699835917631e-05 0 -0.014108165549220472 -0.00012207535047674059 0 -0.014170647195084119 1.1835400858188556e-05 0 -0.014245975122096287 -4.4930808009014852e-05 0 -0.014108165549220472 -0.00012207535047674059 0 -0.014245975122096287 -4.4930808009014852e-05 0 -0.014161144803613352 -0.00012698084380438087 0 -0.014245975122096287 -4.4930808009014852e-05 0 -0.014161144803613352 -0.00012698084380438087 0 -0.014225074907787892 -9.5417373155142702e-05 0 -0.014108165549220472 -0.00012207535047674059 0 -0.014161144803613352 -0.00012698084380438087 0 -0.014122469613341624 -0.00014581876908546963 0 -0.014161144803613352 -0.00012698084380438087 0 -0.014122469613341624 -0.00014581876908546963 0 -0.014114853274974776 -0.00015852642721135815 0 -0.014161144803613352 -0.00012698084380438087 0 -0.014157037561877514 -0.00014153646141174488 0 -0.014114853274974776 -0.00015852642721135815 0 -0.014161144803613352 -0.00012698084380438087 0 -0.014157037561877514 -0.00014153646141174488 0 -0.014225074907787892 -9.5417373155142702e-05 0 -0.014157037561877514 -0.00014153646141174488 0 -0.014247658131035946 -0.00012973346733266683 0 -0.014225074907787892 -9.5417373155142702e-05 0 -0.014247658131035946 -0.00012973346733266683 0 -0.014375566809179632 -8.9590306420035803e-05 0 -0.014352535993534313 -0.00018456457098648446 0 -0.014247658131035946 -0.00012973346733266683 0 -0.014313732546731548 -4.4366752267271596e-05 0 -0.014375566809179632 -8.9590306420035803e-05 0 -0.014247658131035946 -0.00012973346733266683 0 -0.014225074907787892 -9.5417373155142702e-05 0 -0.014313732546731548 -4.4366752267271596e-05 0 -0.014245975122096287 -4.4930808009014852e-05 0 -0.014225074907787892 -9.5417373155142702e-05 0 -0.014313732546731548 -4.4366752267271596e-05 0 -0.014245975122096287 -4.4930808009014852e-05 0 -0.014313732546731548 -4.4366752267271596e-05 0 -0.014361500791241289 4.6847699835917631e-05 0 -0.014313732546731548 -4.4366752267271596e-05 0 -0.014361500791241289 4.6847699835917631e-05 0 -0.014401569557719991 3.0849880639223201e-05 0 -0.014313732546731548 -4.4366752267271596e-05 0 -0.014401569557719991 3.0849880639223201e-05 0 -0.014375566809179632 -8.9590306420035803e-05 0 -0.014401569557719991 3.0849880639223201e-05 0 -0.014375566809179632 -8.9590306420035803e-05 0 -0.014475086015201491 -4.9188913054947008e-05 0 -0.014444436497691849 0.00012232848225686462 0 -0.014401569557719991 3.0849880639223201e-05 0 -0.014475086015201491 -4.9188913054947008e-05 0 -0.014375566809179632 -8.9590306420035803e-05 0 -0.014441472238605372 -0.0001573717801080037 0 -0.014475086015201491 -4.9188913054947008e-05 0 -0.014375566809179632 -8.9590306420035803e-05 0 -0.014441472238605372 -0.0001573717801080037 0 -0.014352535993534313 -0.00018456457098648446 0 -0.014441472238605372 -0.0001573717801080037 0 -0.014425316588370332 -0.0002349005748893141 0 -0.014352535993534313 -0.00018456457098648446 0 -0.014425316588370332 -0.0002349005748893141 0 -0.014352535993534313 -0.00018456457098648446 0 -0.014360037243040653 -0.00027955333057067634 0 -0.014352535993534313 -0.00018456457098648446 0 -0.014360037243040653 -0.00027955333057067634 0 -0.01422565736731005 -0.00022885084598981385 0 -0.014425316588370332 -0.0002349005748893141 0 -0.014360037243040653 -0.00027955333057067634 0 -0.014446445022703312 -0.00032971102472424907 0 -0.014360037243040653 -0.00027955333057067634 0 -0.014321162892978691 -0.00043730893695478391 0 -0.01422565736731005 -0.00022885084598981385 0 -0.014360037243040653 -0.00027955333057067634 0 -0.014321162892978691 -0.00043730893695478391 0 -0.014446445022703312 -0.00032971102472424907 0 -0.014321162892978691 -0.00043730893695478391 0 -0.014446445022703312 -0.00032971102472424907 0 -0.014473033456312208 -0.00049501209618501619 0 -0.014321162892978691 -0.00043730893695478391 0 -0.01422565736731005 -0.00022885084598981385 0 -0.013948628759174901 -0.00024891480096336235 0 -0.013868606433003866 -0.00027327134588385927 0 -0.013925063369884503 -0.00025212870433454848 0 -0.013408000811149534 -0.00012856715896894454 0 -0.013948628759174901 -0.00024891480096336235 0 -0.013664987280451426 -5.7162151060032463e-05 0 -0.01422565736731005 -0.00022885084598981385 0 -0.014071260242492426 -0.0001788530498406323 0 -0.013948628759174901 -0.00024891480096336235 0 -0.014247658131035946 -0.00012973346733266683 0 -0.014352535993534313 -0.00018456457098648446 0 -0.01422565736731005 -0.00022885084598981385 0 -0.014247658131035946 -0.00012973346733266683 0 -0.01422565736731005 -0.00022885084598981385 0 -0.014071260242492426 -0.0001788530498406323 0 -0.014157037561877514 -0.00014153646141174488 0 -0.014247658131035946 -0.00012973346733266683 0 -0.014071260242492426 -0.0001788530498406323 0 -0.014071260242492426 -0.0001788530498406323 0 -0.013948628759174901 -0.00024891480096336235 0 -0.01385722005498859 -0.00017927682065276384 0 -0.014071260242492426 -0.0001788530498406323 0 -0.014114853274974776 -0.00015852642721135815 0 -0.014138189216999379 -0.00013857674360818732 0 -0.014041227303067807 -0.00017591310475148446 0 -0.014066968094784815 -0.00015381560249101781 0 -0.014157037561877514 -0.00014153646141174488 0 -0.014071260242492426 -0.0001788530498406323 0 -0.014114853274974776 -0.00015852642721135815 0 -0.013948628759174901 -0.00024891480096336235 0 -0.013822518920833551 -0.00011421311966036403 0 -0.013664987280451426 -5.7162151060032463e-05 0 -0.013948628759174901 -0.00024891480096336235 0 -0.013822518920833551 -0.00011421311966036403 0 -0.013884386410263662 -0.00017586561148554635 0 -0.013884386410263662 -0.00017586561148554635 0 -0.013931276322605879 -0.00013282638042420058 0 -0.01385722005498859 -0.00017927682065276384 0 -0.013884386410263662 -0.00017586561148554635 0 -0.013931276322605879 -0.00013282638042420058 0 -0.013869932599532769 -5.4330261243141652e-05 0 -0.013822518920833551 -0.00011421311966036403 0 -0.013884386410263662 -0.00017586561148554635 0 -0.013869932599532769 -5.4330261243141652e-05 0 -0.013931276322605879 -0.00013282638042420058 0 -0.013869932599532769 -5.4330261243141652e-05 0 -0.013985775558441335 2.6845836003033884e-05 0 -0.013948628759174901 -0.00024891480096336235 0 -0.013884386410263662 -0.00017586561148554635 0 -0.01385722005498859 -0.00017927682065276384 0 -0.013931276322605879 -0.00013282638042420058 0 -0.013896245487635598 -0.00027056109744383989 0 -0.013992976499151233 -0.00027073870444543777 0 -0.013912513095969171 -0.00017451939570647482 0 -0.014066968094784815 -0.00015381560249101781 0 -0.014122469613341624 -0.00014581876908546963 0 -0.014114853274974776 -0.00015852642721135815 0 -0.014138189216999379 -0.00013857674360818732 0 -0.014374933047887048 1.0079970321997396e-05 0 -0.014385268421205983 -0.00014336073125720112 0 -0.014274933191662544 -0.00014373593735367529 0 -0.014066968094784815 -0.00015381560249101781 0 -0.014344637422537759 -0.00010328200778072941 0 -0.014615366003760694 -0.0002920842883247327 0 -0.014673833289778749 -0.00027173612684220749 0 -0.01462772048808271 -0.00024056002160087586 0 -0.014615366003760694 -0.0002920842883247327 0 -0.01462772048808271 -0.00024056002160087586 0 -0.014582165592866321 -0.00025711100756577865 0 -0.014615366003760694 -0.0002920842883247327 0 -0.014582165592866321 -0.00025711100756577865 0 -0.014554321145760519 -0.0003278437236869466 0 -0.014668083886307592 -0.00037558685663983672 0 -0.014709585906565089 -0.0003080611739503919 0 -0.014647378051244744 -0.00032092060604365573 0 -0.014615366003760694 -0.0002920842883247327 0 -0.014647378051244744 -0.00032092060604365573 0 -0.014593701734810786 -0.00035915639537644422 0 -0.014709585906565089 -0.0003080611739503919 0 -0.014647378051244744 -0.00032092060604365573 0 -0.014673833289778749 -0.00027173612684220749 0 -0.014615366003760694 -0.0002920842883247327 0 -0.014647378051244744 -0.00032092060604365573 0 -0.014673833289778749 -0.00027173612684220749 0 -0.014751770170010151 -0.00020962181371411684 0 -0.014673833289778749 -0.00027173612684220749 0 -0.014685699476465666 -0.00022745469055025203 0 -0.014709585906565089 -0.0003080611739503919 0 -0.014751770170010151 -0.00020962181371411684 0 -0.014673833289778749 -0.00027173612684220749 0 -0.014673833289778749 -0.00027173612684220749 0 -0.014685699476465666 -0.00022745469055025203 0 -0.01462772048808271 -0.00024056002160087586 0 -0.014685699476465666 -0.00022745469055025203 0 -0.01462772048808271 -0.00024056002160087586 0 -0.014660541620795711 -0.00021277957160191279 0 -0.014658058146170003 -0.00020163448112023034 0 -0.014660541620795711 -0.00021277957160191279 0 -0.014641462840570831 -0.00021360740144151191 0 -0.014630035201033904 -0.00021523673236545357 0 -0.014617535661472567 -0.00022174879206024993 0 -0.014581865280269266 -0.00020167860066295314 0 -0.014630035201033904 -0.00021523673236545357 0 -0.014641462840570831 -0.00021360740144151191 0 -0.014617535661472567 -0.00022174879206024993 0 -0.014660541620795711 -0.00021277957160191279 0 -0.014641462840570831 -0.00021360740144151191 0 -0.014617535661472567 -0.00022174879206024993 0 -0.014680266942165525 -8.6043728832367399e-05 0 -0.014605020412613495 -0.00018903283743714548 0 -0.014738736311508535 4.6858220691276625e-05 0 -0.01468111127259192 9.5227364162627338e-06 0 -0.014581865280269266 -0.00020167860066295314 0 -0.01462772048808271 -0.00024056002160087586 0 -0.014660541620795711 -0.00021277957160191279 0 -0.014617535661472567 -0.00022174879206024993 0 -0.014617535661472567 -0.00022174879206024993 0 -0.014598712624290418 -0.000230494260210842 0 -0.014581865280269266 -0.00020167860066295314 0 -0.01462772048808271 -0.00024056002160087586 0 -0.014617535661472567 -0.00022174879206024993 0 -0.014598712624290418 -0.000230494260210842 0 -0.01468111127259192 9.5227364162627338e-06 0 -0.014560681110287535 -0.00010197974305191356 0 -0.014475086015201491 -4.9188913054947008e-05 0 -0.01468111127259192 9.5227364162627338e-06 0 -0.014560681110287535 -0.00010197974305191356 0 -0.014581865280269266 -0.00020167860066295314 0 -0.014444436497691849 0.00012232848225686462 0 -0.01468111127259192 9.5227364162627338e-06 0 -0.014475086015201491 -4.9188913054947008e-05 0 -0.014560681110287535 -0.00010197974305191356 0 -0.014475086015201491 -4.9188913054947008e-05 0 -0.014508047617318689 -0.00015127419656993255 0 -0.014441472238605372 -0.0001573717801080037 0 -0.014475086015201491 -4.9188913054947008e-05 0 -0.014508047617318689 -0.00015127419656993255 0 -0.014508047617318689 -0.00015127419656993255 0 -0.014508742248762708 -0.00022448430846299571 0 -0.014581865280269266 -0.00020167860066295314 0 -0.014560681110287535 -0.00010197974305191356 0 -0.014508047617318689 -0.00015127419656993255 0 -0.014581865280269266 -0.00020167860066295314 0 -0.014441472238605372 -0.0001573717801080037 0 -0.014508047617318689 -0.00015127419656993255 0 -0.014508742248762708 -0.00022448430846299571 0 -0.014441472238605372 -0.0001573717801080037 0 -0.014425316588370332 -0.0002349005748893141 0 -0.014508742248762708 -0.00022448430846299571 0 -0.014598712624290418 -0.000230494260210842 0 -0.014581865280269266 -0.00020167860066295314 0 -0.014582165592866321 -0.00025711100756577865 0 -0.01462772048808271 -0.00024056002160087586 0 -0.014598712624290418 -0.000230494260210842 0 -0.014582165592866321 -0.00025711100756577865 0 -0.014581865280269266 -0.00020167860066295314 0 -0.014582165592866321 -0.00025711100756577865 0 -0.014532552871685218 -0.00028351123019291564 0 -0.014508742248762708 -0.00022448430846299571 0 -0.014581865280269266 -0.00020167860066295314 0 -0.014532552871685218 -0.00028351123019291564 0 -0.014582165592866321 -0.00025711100756577865 0 -0.014532552871685218 -0.00028351123019291564 0 -0.014554321145760519 -0.0003278437236869466 0 -0.014532552871685218 -0.00028351123019291564 0 -0.014504910873452917 -0.00036493089755476496 0 -0.014554321145760519 -0.0003278437236869466 0 -0.014508742248762708 -0.00022448430846299571 0 -0.014532552871685218 -0.00028351123019291564 0 -0.014423012247760896 -0.00043078367626665147 0 -0.014532552871685218 -0.00028351123019291564 0 -0.014504910873452917 -0.00036493089755476496 0 -0.014423012247760896 -0.00043078367626665147 0 -0.014508742248762708 -0.00022448430846299571 0 -0.014446445022703312 -0.00032971102472424907 0 -0.014540948445412946 -0.00037487659701265698 0 -0.014496960212360511 -0.00024453528537705157 0 -0.014496033114965928 -0.00040124137877823305 0 -0.014425316588370332 -0.0002349005748893141 0 -0.014508742248762708 -0.00022448430846299571 0 -0.014446445022703312 -0.00032971102472424907 0 -0.014446445022703312 -0.00032971102472424907 0 -0.014540948445412946 -0.00037487659701265698 0 -0.014473033456312208 -0.00049501209618501619 0 -0.014504910873452917 -0.00036493089755476496 0 -0.014423012247760896 -0.00043078367626665147 0 -0.014501507272889957 -0.0004213271788661196 0 -0.014423012247760896 -0.00043078367626665147 0 -0.014501507272889957 -0.0004213271788661196 0 -0.014420268168797655 -0.00051287236187087196 0 -0.014501507272889957 -0.0004213271788661196 0 -0.014477841096409105 -0.00051463994439011234 0 -0.014420268168797655 -0.00051287236187087196 0 -0.014501507272889957 -0.0004213271788661196 0 -0.014574135938228424 -0.00043297477091882084 0 -0.014477841096409105 -0.00051463994439011234 0 -0.014504910873452917 -0.00036493089755476496 0 -0.014501507272889957 -0.0004213271788661196 0 -0.014554321145760519 -0.0003278437236869466 0 -0.014501507272889957 -0.0004213271788661196 0 -0.014593701734810786 -0.00035915639537644422 0 -0.014574135938228424 -0.00043297477091882084 0 -0.014501507272889957 -0.0004213271788661196 0 -0.014554321145760519 -0.0003278437236869466 0 -0.014593701734810786 -0.00035915639537644422 0 -0.014615366003760694 -0.0002920842883247327 0 -0.014554321145760519 -0.0003278437236869466 0 -0.014593701734810786 -0.00035915639537644422 0 -0.014668083886307592 -0.00037558685663983672 0 -0.014593701734810786 -0.00035915639537644422 0 -0.014574135938228424 -0.00043297477091882084 0 -0.014668083886307592 -0.00037558685663983672 0 -0.014647378051244744 -0.00032092060604365573 0 -0.014593701734810786 -0.00035915639537644422 0 -0.014652608104870134 -0.00044858328350118977 0 -0.014574135938228424 -0.00043297477091882084 0 -0.014553865441178652 -0.00051332542982346298 0 -0.014574135938228424 -0.00043297477091882084 0 -0.014553865441178652 -0.00051332542982346298 0 -0.014477841096409105 -0.00051463994439011234 0 -0.014553865441178652 -0.00051332542982346298 0 -0.014446055284317603 -0.00062481463545165658 0 -0.014477841096409105 -0.00051463994439011234 0 -0.014446055284317603 -0.00062481463545165658 0 -0.014318211693672324 -0.00076733066534912149 0 -0.014548876286869818 -0.00070423069226701034 0 -0.014446055284317603 -0.00062481463545165658 0 -0.014345466373392348 -0.00068932526346836287 0 -0.014318211693672324 -0.00076733066534912149 0 -0.014446055284317603 -0.00062481463545165658 0 -0.014345466373392348 -0.00068932526346836287 0 -0.014392019384237304 -0.00059469003129959967 0 -0.014345466373392348 -0.00068932526346836287 0 -0.014392019384237304 -0.00059469003129959967 0 -0.014323014161722738 -0.00060552719718453857 0 -0.014345466373392348 -0.00068932526346836287 0 -0.014323014161722738 -0.00060552719718453857 0 -0.014287090946343063 -0.00067713050455218081 0 -0.014446055284317603 -0.00062481463545165658 0 -0.014392019384237304 -0.00059469003129959967 0 -0.014477841096409105 -0.00051463994439011234 0 -0.014392019384237304 -0.00059469003129959967 0 -0.014420268168797655 -0.00051287236187087196 0 -0.014323014161722738 -0.00060552719718453857 0 -0.014392019384237304 -0.00059469003129959967 0 -0.014477841096409105 -0.00051463994439011234 0 -0.014420268168797655 -0.00051287236187087196 0 -0.014496033114965928 -0.00040124137877823305 0 -0.014360950751976019 -0.00060359797742712956 0 -0.014423012247760896 -0.00043078367626665147 0 -0.014420268168797655 -0.00051287236187087196 0 -0.014323014161722738 -0.00060552719718453857 0 -0.014540948445412946 -0.00037487659701265698 0 -0.014473033456312208 -0.00049501209618501619 0 -0.014573103019027553 -0.0005216152995190605 0 -0.013093308815008002 7.1281891687030255e-05 0 -0.013049419621152936 0.00029112733179259109 0 -0.013239417895110333 0.00027775056343501544 0 -0.013760463551862766 -0.00020279314164777578 0 -0.013839655225241098 -0.00020149914058764884 0 -0.013093308815008002 7.1281891687030255e-05 0 -0.013049419621152936 0.00029112733179259109 0 -0.01286480608095601 0.00024710129422237439 0 -0.014473033456312208 -0.00049501209618501619 0 -0.014573103019027553 -0.0005216152995190605 0 -0.014585493971459288 -0.00055920966982046252 0 -0.014360950751976019 -0.00060359797742712956 0 -0.013839655225241098 -0.00020149914058764884 0 -0.013049419621152936 0.00029112733179259109 0 -0.01286480608095601 0.00024710129422237439 0 -0.012958264309706289 0.00039321841349494708 0 -0.01286480608095601 0.00024710129422237439 0 -0.012958264309706289 0.00039321841349494708 0 -0.012819976105652003 0.00042386511198986394 0 -0.012958264309706289 0.00039321841349494708 0 -0.012915399995874864 0.00049981080249385029 0 -0.012819976105652003 0.00042386511198986394 0 -0.012958264309706289 0.00039321841349494708 0 -0.013101971252334718 0.00045102189610080496 0 -0.01300326217035315 0.00051059836117821496 0 -0.013049419621152936 0.00029112733179259109 0 -0.012958264309706289 0.00039321841349494708 0 -0.013101971252334718 0.00045102189610080496 0 -0.013049419621152936 0.00029112733179259109 0 -0.013101971252334718 0.00045102189610080496 0 -0.013239417895110333 0.00027775056343501544 0 -0.013101971252334718 0.00045102189610080496 0 -0.013067687350408405 0.00058541621798128337 0 -0.013163130495343157 0.00061429821469266099 0 -0.013101971252334718 0.00045102189610080496 0 -0.013067687350408405 0.00058541621798128337 0 -0.01300326217035315 0.00051059836117821496 0 -0.013067687350408405 0.00058541621798128337 0 -0.01300326217035315 0.00051059836117821496 0 -0.012957920700633932 0.00059776328978449801 0 -0.012915399995874864 0.00049981080249385029 0 -0.012868186595876413 0.00057052323973957116 0 -0.012819976105652003 0.00042386511198986394 0 -0.012958264309706289 0.00039321841349494708 0 -0.012915399995874864 0.00049981080249385029 0 -0.01300326217035315 0.00051059836117821496 0 -0.012915399995874864 0.00049981080249385029 0 -0.01300326217035315 0.00051059836117821496 0 -0.012957920700633932 0.00059776328978449801 0 -0.012915399995874864 0.00049981080249385029 0 -0.012957920700633932 0.00059776328978449801 0 -0.012868186595876413 0.00057052323973957116 0 -0.014130673770208914 -0.0008728387745803478 0 -0.014246051551787622 -0.00087536513898041704 0 -0.014030518835365987 -0.00052264580145177742 0 -0.012868186595876413 0.00057052323973957116 0 -0.012819976105652003 0.00042386511198986394 0 -0.012763256305312356 0.00064633112600181954 0 -0.013523341835890186 -0.00020429626387566144 0 -0.013419406182574483 1.6855816470052809e-05 0 -0.014090855031688325 -0.00087862651676900777 0 -0.013903137457892954 -0.00095903903518469247 0 -0.014130673770208914 -0.0008728387745803478 0 -0.013636067119960854 -0.00063465341996897593 0 -0.014030518835365987 -0.00052264580145177742 0 -0.014130673770208914 -0.0008728387745803478 0 -0.013636067119960854 -0.00063465341996897593 0 -0.013193636900821737 -0.00093177796492808183 0 -0.014130673770208914 -0.0008728387745803478 0 -0.014318211693672324 -0.00076733066534912149 0 -0.014554455250413668 -0.00092760772741125493 0 -0.014345466373392348 -0.00068932526346836287 0 -0.014318211693672324 -0.00076733066534912149 0 -0.014246051551787622 -0.00087536513898041704 0 -0.014345466373392348 -0.00068932526346836287 0 -0.014287090946343063 -0.00067713050455218081 0 -0.014246051551787622 -0.00087536513898041704 0 -0.013839655225241098 -0.00020149914058764884 0 -0.013523341835890186 -0.00020429626387566144 0 -0.014130673770208914 -0.0008728387745803478 0 -0.014318211693672324 -0.00076733066534912149 0 -0.014246051551787622 -0.00087536513898041704 0 -0.013915674900741443 0.0002413647707261176 0 -0.013849569679603057 9.2472725923298759e-05 0 -0.013985775558441335 2.6845836003033884e-05 0 -0.013915674900741443 0.0002413647707261176 0 -0.013849569679603057 9.2472725923298759e-05 0 -0.013686417368424171 0.00021993915274987758 0 -0.013869932599532769 -5.4330261243141652e-05 0 -0.013849569679603057 9.2472725923298759e-05 0 -0.013985775558441335 2.6845836003033884e-05 0 -0.013869932599532769 -5.4330261243141652e-05 0 -0.013849569679603057 9.2472725923298759e-05 0 -0.01374858395002926 2.7505587091345874e-05 0 -0.013822518920833551 -0.00011421311966036403 0 -0.013869932599532769 -5.4330261243141652e-05 0 -0.01374858395002926 2.7505587091345874e-05 0 -0.013822518920833551 -0.00011421311966036403 0 -0.01374858395002926 2.7505587091345874e-05 0 -0.013664987280451426 -5.7162151060032463e-05 0 -0.01374858395002926 2.7505587091345874e-05 0 -0.013686417368424171 0.00021993915274987758 0 -0.013479247241732425 0.000129249406321135 0 -0.013849569679603057 9.2472725923298759e-05 0 -0.01374858395002926 2.7505587091345874e-05 0 -0.013686417368424171 0.00021993915274987758 0 -0.013686417368424171 0.00021993915274987758 0 -0.013479247241732425 0.000129249406321135 0 -0.01345252237844446 0.000346350351382608 0 -0.013479247241732425 0.000129249406321135 0 -0.013239417895110333 0.00027775056343501544 0 -0.01345252237844446 0.000346350351382608 0 -0.01374858395002926 2.7505587091345874e-05 0 -0.013479247241732425 0.000129249406321135 0 -0.013664987280451426 -5.7162151060032463e-05 0 -0.013408000811149534 -0.00012856715896894454 0 -0.013479247241732425 0.000129249406321135 0 -0.013664987280451426 -5.7162151060032463e-05 0 -0.013868606433003866 -0.00027327134588385927 0 -0.013760463551862766 -0.00020279314164777578 0 -0.013408000811149534 -0.00012856715896894454 0 -0.013093308815008002 7.1281891687030255e-05 0 -0.013479247241732425 0.000129249406321135 0 -0.013093308815008002 7.1281891687030255e-05 0 -0.013479247241732425 0.000129249406321135 0 -0.013239417895110333 0.00027775056343501544 0 -0.013239417895110333 0.00027775056343501544 0 -0.013270211211277983 0.00049273675155813356 0 -0.01345252237844446 0.000346350351382608 0 -0.013101971252334718 0.00045102189610080496 0 -0.013239417895110333 0.00027775056343501544 0 -0.013270211211277983 0.00049273675155813356 0 -0.013270211211277983 0.00049273675155813356 0 -0.013163130495343157 0.00061429821469266099 0 -0.013231285355893697 0.00070941360092530376 0 -0.013101971252334718 0.00045102189610080496 0 -0.013270211211277983 0.00049273675155813356 0 -0.013163130495343157 0.00061429821469266099 0 -0.013431227483478109 0.00052943772021244037 0 -0.013556880260125579 0.00067608993979657189 0 -0.013231285355893697 0.00070941360092530376 0 -0.013270211211277983 0.00049273675155813356 0 -0.013431227483478109 0.00052943772021244037 0 -0.013231285355893697 0.00070941360092530376 0 -0.013270211211277983 0.00049273675155813356 0 -0.013431227483478109 0.00052943772021244037 0 -0.01345252237844446 0.000346350351382608 0 -0.013431227483478109 0.00052943772021244037 0 -0.01345252237844446 0.000346350351382608 0 -0.013669677345236069 0.0004520633566359668 0 -0.013686417368424171 0.00021993915274987758 0 -0.01345252237844446 0.000346350351382608 0 -0.013669677345236069 0.0004520633566359668 0 -0.013669677345236069 0.0004520633566359668 0 -0.013763799359260538 0.00073772275852423508 0 -0.013556880260125579 0.00067608993979657189 0 -0.013431227483478109 0.00052943772021244037 0 -0.013669677345236069 0.0004520633566359668 0 -0.013556880260125579 0.00067608993979657189 0 -0.013669677345236069 0.0004520633566359668 0 -0.013763799359260538 0.00073772275852423508 0 -0.013924303379405169 0.00044788298965469926 0 -0.013915674900741443 0.0002413647707261176 0 -0.013669677345236069 0.0004520633566359668 0 -0.013924303379405169 0.00044788298965469926 0 -0.013915674900741443 0.0002413647707261176 0 -0.013686417368424171 0.00021993915274987758 0 -0.013669677345236069 0.0004520633566359668 0 -0.0098143105117105365 0.0015645613324825601 0 -0.010227146846912574 0.0018435477915318577 0 -0.0094243416307383324 0.0018720667213058587 0 -0.01193362164605111 0.0014347570461752455 0 -0.011628150784291087 0.0013594003776547542 0 -0.0098143105117105365 0.0015645613324825601 0 -0.010227146846912574 0.0018435477915318577 0 -0.01009347929411626 0.0012486381511070076 0 -0.013763799359260538 0.00073772275852423508 0 -0.013668159280731935 0.0010203118063113602 0 -0.013829357122266191 0.00083589000169362879 0 -0.013763799359260538 0.00073772275852423508 0 -0.013556880260125579 0.00067608993979657189 0 -0.013668159280731935 0.0010203118063113602 0 -0.013556880260125579 0.00067608993979657189 0 -0.013668159280731935 0.0010203118063113602 0 -0.013231285355893697 0.00070941360092530376 0 -0.010227146846912574 0.0018435477915318577 0 -0.011082738613607241 0.0017241332733365911 0 -0.010678267076238784 0.0012581394145655092 0 -0.01193362164605111 0.0014347570461752455 0 -0.012042491452995754 0.0015013988727757015 0 -0.013668159280731935 0.0010203118063113602 0 -0.013036489477858348 0.0013238333014818767 0 -0.013231285355893697 0.00070941360092530376 0 -0.013036489477858348 0.0013238333014818767 0 -0.013231285355893697 0.00070941360092530376 0 -0.012111366273500226 0.0010956369428570699 0 -0.013163130495343157 0.00061429821469266099 0 -0.013231285355893697 0.00070941360092530376 0 -0.013101032959972374 0.00071516627015824846 0 -0.013179479518687968 0.00072053399838413544 0 -0.012659980920200965 0.00089952202511858564 0 -0.012042491452995754 0.0015013988727757015 0 -0.011997272449571637 0.0014333799616261425 0 -0.011082738613607241 0.0017241332733365911 0 -0.011531467882214878 0.0013062531808650298 0 -0.011996480719299513 0.0014046885830699214 0 -0.013036489477858348 0.0013238333014818767 0 -0.012111366273500226 0.0010956369428570699 0 -0.011996480719299513 0.0014046885830699214 0 -0.011531467882214878 0.0013062531808650298 0 -0.011221287207353747 0.0010782379294812237 0 -0.011764055914876309 0.0010747801477202184 0 -0.011082738613607241 0.0017241332733365911 0 -0.011531467882214878 0.0013062531808650298 0 -0.011221287207353747 0.0010782379294812237 0 -0.011382109188428698 0.00078787549141099528 0 -0.011764055914876309 0.0010747801477202184 0 -0.01169269998089013 0.00072652428451413088 0 -0.011221287207353747 0.0010782379294812237 0 -0.011382109188428698 0.00078787549141099528 0 -0.011764055914876309 0.0010747801477202184 0 -0.011382109188428698 0.00078787549141099528 0 -0.01169269998089013 0.00072652428451413088 0 -0.011416525117671859 0.00050965906802693975 0 -0.011382109188428698 0.00078787549141099528 0 -0.011081953652268328 0.00049644088691733039 0 -0.011416525117671859 0.00050965906802693975 0 -0.011221287207353747 0.0010782379294812237 0 -0.011382109188428698 0.00078787549141099528 0 -0.010932390273285603 0.0008072983989533309 0 -0.011382109188428698 0.00078787549141099528 0 -0.010932390273285603 0.0008072983989533309 0 -0.011081953652268328 0.00049644088691733039 0 -0.010932390273285603 0.0008072983989533309 0 -0.010648677886202631 0.00050596814798145573 0 -0.011081953652268328 0.00049644088691733039 0 -0.010932390273285603 0.0008072983989533309 0 -0.010520768471297135 0.00089673533909356254 0 -0.010648677886202631 0.00050596814798145573 0 -0.010932390273285603 0.0008072983989533309 0 -0.010678267076238784 0.0012581394145655092 0 -0.010520768471297135 0.00089673533909356254 0 -0.011082738613607241 0.0017241332733365911 0 -0.011221287207353747 0.0010782379294812237 0 -0.010678267076238784 0.0012581394145655092 0 -0.011221287207353747 0.0010782379294812237 0 -0.010932390273285603 0.0008072983989533309 0 -0.010678267076238784 0.0012581394145655092 0 -0.010227146846912574 0.0018435477915318577 0 -0.010678267076238784 0.0012581394145655092 0 -0.01009347929411626 0.0012486381511070076 0 -0.010678267076238784 0.0012581394145655092 0 -0.010520768471297135 0.00089673533909356254 0 -0.01009347929411626 0.0012486381511070076 0 -0.010520768471297135 0.00089673533909356254 0 -0.010178956687677168 0.00053921040531913008 0 -0.010648677886202631 0.00050596814798145573 0 -0.010520768471297135 0.00089673533909356254 0 -0.010123008607875827 0.00084341137849056752 0 -0.010178956687677168 0.00053921040531913008 0 -0.010520768471297135 0.00089673533909356254 0 -0.010123008607875827 0.00084341137849056752 0 -0.01009347929411626 0.0012486381511070076 0 -0.010123008607875827 0.00084341137849056752 0 -0.0097589175362725617 0.00091313861674834356 0 -0.01009347929411626 0.0012486381511070076 0 -0.010123008607875827 0.00084341137849056752 0 -0.0097589175362725617 0.00091313861674834356 0 -0.0098454322768399879 0.00049290902821671762 0 -0.010123008607875827 0.00084341137849056752 0 -0.0098454322768399879 0.00049290902821671762 0 -0.010178956687677168 0.00053921040531913008 0 -0.0097589175362725617 0.00091313861674834356 0 -0.0095102841512764245 0.00056968266748223567 0 -0.0098454322768399879 0.00049290902821671762 0 -0.0097589175362725617 0.00091313861674834356 0 -0.01009347929411626 0.0012486381511070076 0 -0.0095276470559851247 0.001285534374027139 0 -0.0098143105117105365 0.0015645613324825601 0 -0.01009347929411626 0.0012486381511070076 0 -0.0095276470559851247 0.001285534374027139 0 -0.012699149212111993 0.00084161728775662985 0 -0.012763256305312356 0.00064633112600181954 0 -0.012890025808903107 0.00078081879314650059 0 -0.012977512824606264 0.00061797962554513387 0 -0.01244565915632642 0.0011347037476515359 0 -0.012644392076687577 0.0012246875447669647 0 -0.012145687304940927 0.0013923341999984875 0 -0.012429267361050792 0.0011636555638015766 0 -0.013566641323579758 0.00012560666082022542 0 -0.013510999001768826 -0.00011315565283003832 0 -0.014030518835365987 -0.00052264580145177742 0 -0.012977512824606264 0.00061797962554513387 0 -0.013419406182574483 1.6855816470052809e-05 0 -0.013566641323579758 0.00012560666082022542 0 -0.013425237679256852 4.4319375301126345e-05 0 -0.013510999001768826 -0.00011315565283003832 0 -0.013425237679256852 4.4319375301126345e-05 0 -0.013384745699263073 0.00013852516087687759 0 -0.013265634450286749 2.6326649255051724e-05 0 -0.013566641323579758 0.00012560666082022542 0 -0.013425237679256852 4.4319375301126345e-05 0 -0.013384745699263073 0.00013852516087687759 0 -0.013425237679256852 4.4319375301126345e-05 0 -0.013510999001768826 -0.00011315565283003832 0 -0.013265634450286749 2.6326649255051724e-05 0 -0.013636067119960854 -0.00063465341996897593 0 -0.014030518835365987 -0.00052264580145177742 0 -0.013377548517317183 -0.00030943357182856114 0 -0.013510999001768826 -0.00011315565283003832 0 -0.014030518835365987 -0.00052264580145177742 0 -0.013377548517317183 -0.00030943357182856114 0 -0.012868186595876413 0.00057052323973957116 0 -0.012763256305312356 0.00064633112600181954 0 -0.012892411708357799 0.00067301140849221472 0 -0.012763256305312356 0.00064633112600181954 0 -0.012892411708357799 0.00067301140849221472 0 -0.012890025808903107 0.00078081879314650059 0 -0.012957920700633932 0.00059776328978449801 0 -0.012892411708357799 0.00067301140849221472 0 -0.013101032959972374 0.00071516627015824846 0 -0.012957920700633932 0.00059776328978449801 0 -0.012868186595876413 0.00057052323973957116 0 -0.012892411708357799 0.00067301140849221472 0 -0.012892411708357799 0.00067301140849221472 0 -0.013101032959972374 0.00071516627015824846 0 -0.012890025808903107 0.00078081879314650059 0 -0.013067687350408405 0.00058541621798128337 0 -0.012957920700633932 0.00059776328978449801 0 -0.013101032959972374 0.00071516627015824846 0 -0.013067687350408405 0.00058541621798128337 0 -0.013163130495343157 0.00061429821469266099 0 -0.013101032959972374 0.00071516627015824846 0 -0.012111366273500226 0.0010956369428570699 0 -0.011996480719299513 0.0014046885830699214 0 -0.012145687304940927 0.0013923341999984875 0 -0.012659980920200965 0.00089952202511858564 0 -0.01244565915632642 0.0011347037476515359 0 -0.011996480719299513 0.0014046885830699214 0 -0.012145687304940927 0.0013923341999984875 0 -0.011985607169506205 0.0012340239056283667 0 -0.012145687304940927 0.0013923341999984875 0 -0.012114202656652513 0.00113081623853583 0 -0.011985607169506205 0.0012340239056283667 0 -0.012145687304940927 0.0013923341999984875 0 -0.012114202656652513 0.00113081623853583 0 -0.012344186679078609 0.0010800464740773512 0 -0.012114202656652513 0.00113081623853583 0 -0.012241592326164509 0.00097602811475054401 0 -0.012344186679078609 0.0010800464740773512 0 -0.011531467882214878 0.0013062531808650298 0 -0.011996480719299513 0.0014046885830699214 0 -0.011764055914876309 0.0010747801477202184 0 -0.012114202656652513 0.00113081623853583 0 -0.011985607169506205 0.0012340239056283667 0 -0.011764055914876309 0.0010747801477202184 0 -0.012114202656652513 0.00113081623853583 0 -0.011764055914876309 0.0010747801477202184 0 -0.012051940194551662 0.00087446692903747787 0 -0.011996480719299513 0.0014046885830699214 0 -0.011985607169506205 0.0012340239056283667 0 -0.011764055914876309 0.0010747801477202184 0 -0.01169269998089013 0.00072652428451413088 0 -0.012051940194551662 0.00087446692903747787 0 -0.012049930048983058 0.00049781234830327352 0 -0.011764055914876309 0.0010747801477202184 0 -0.01169269998089013 0.00072652428451413088 0 -0.012051940194551662 0.00087446692903747787 0 -0.012051940194551662 0.00087446692903747787 0 -0.012391830397058439 0.0007961864511616902 0 -0.012049930048983058 0.00049781234830327352 0 -0.012241592326164509 0.00097602811475054401 0 -0.012051940194551662 0.00087446692903747787 0 -0.012391830397058439 0.0007961864511616902 0 -0.012114202656652513 0.00113081623853583 0 -0.012241592326164509 0.00097602811475054401 0 -0.012051940194551662 0.00087446692903747787 0 -0.012241592326164509 0.00097602811475054401 0 -0.012391830397058439 0.0007961864511616902 0 -0.012344186679078609 0.0010800464740773512 0 -0.012391830397058439 0.0007961864511616902 0 -0.012344186679078609 0.0010800464740773512 0 -0.012561437189749544 0.00097990899997105348 0 -0.012391830397058439 0.0007961864511616902 0 -0.012561437189749544 0.00097990899997105348 0 -0.012563291642414088 0.00079894801205538139 0 -0.012145687304940927 0.0013923341999984875 0 -0.012344186679078609 0.0010800464740773512 0 -0.012429267361050792 0.0011636555638015766 0 -0.012344186679078609 0.0010800464740773512 0 -0.012429267361050792 0.0011636555638015766 0 -0.012561437189749544 0.00097990899997105348 0 -0.012977512824606264 0.00061797962554513387 0 -0.012899098701849672 0.00065898151170345207 0 -0.012644392076687577 0.0012246875447669647 0 -0.012561437189749544 0.00097990899997105348 0 -0.012702935815025386 0.00083775378913203164 0 -0.013485759724588063 0.00011629379871665205 0 -0.013384745699263073 0.00013852516087687759 0 -0.01308081185414252 0.00048518167615304756 0 -0.012977512824606264 0.00061797962554513387 0 -0.01329542695137045 0.0004365797368166501 0 -0.012644392076687577 0.0012246875447669647 0 -0.012429267361050792 0.0011636555638015766 0 -0.012561437189749544 0.00097990899997105348 0 -0.012561437189749544 0.00097990899997105348 0 -0.012563291642414088 0.00079894801205538139 0 -0.012702935815025386 0.00083775378913203164 0 -0.01308081185414252 0.00048518167615304756 0 -0.012826425662301745 0.00044181573231502115 0 -0.012696438993933103 0.0006114348449312143 0 -0.01308081185414252 0.00048518167615304756 0 -0.012826425662301745 0.00044181573231502115 0 -0.013078520406455255 0.0002346561028015264 0 -0.012826425662301745 0.00044181573231502115 0 -0.012678544303925779 0.00034419144111712908 0 -0.012562675236128163 0.00055859125579871825 0 -0.012826425662301745 0.00044181573231502115 0 -0.012678544303925779 0.00034419144111712908 0 -0.012861704918976473 0.00022860678087484164 0 -0.012678544303925779 0.00034419144111712908 0 -0.012861704918976473 0.00022860678087484164 0 -0.012712665277768043 9.8047502834811988e-05 0 -0.012861704918976473 0.00022860678087484164 0 -0.012712665277768043 9.8047502834811988e-05 0 -0.01304415920540568 -3.0769205976975937e-05 0 -0.013384745699263073 0.00013852516087687759 0 -0.01308081185414252 0.00048518167615304756 0 -0.013078520406455255 0.0002346561028015264 0 -0.012826425662301745 0.00044181573231502115 0 -0.012861704918976473 0.00022860678087484164 0 -0.013078520406455255 0.0002346561028015264 0 -0.012861704918976473 0.00022860678087484164 0 -0.013078520406455255 0.0002346561028015264 0 -0.01304415920540568 -3.0769205976975937e-05 0 -0.013384745699263073 0.00013852516087687759 0 -0.013078520406455255 0.0002346561028015264 0 -0.013265634450286749 2.6326649255051724e-05 0 -0.01304415920540568 -3.0769205976975937e-05 0 -0.012944775690493343 -0.0004043213486817803 0 -0.013377548517317183 -0.00030943357182856114 0 -0.013265634450286749 2.6326649255051724e-05 0 -0.01304415920540568 -3.0769205976975937e-05 0 -0.013377548517317183 -0.00030943357182856114 0 -0.013510999001768826 -0.00011315565283003832 0 -0.013265634450286749 2.6326649255051724e-05 0 -0.013377548517317183 -0.00030943357182856114 0 -0.013078520406455255 0.0002346561028015264 0 -0.013265634450286749 2.6326649255051724e-05 0 -0.01304415920540568 -3.0769205976975937e-05 0 -0.012712665277768043 9.8047502834811988e-05 0 -0.01304415920540568 -3.0769205976975937e-05 0 -0.012944775690493343 -0.0004043213486817803 0 -0.012712665277768043 9.8047502834811988e-05 0 -0.012944775690493343 -0.0004043213486817803 0 -0.012451544045101839 -0.0001128432703365357 0 -0.012944775690493343 -0.0004043213486817803 0 -0.013285564759283764 -0.00055903020894381838 0 -0.013377548517317183 -0.00030943357182856114 0 -0.012944775690493343 -0.0004043213486817803 0 -0.013285564759283764 -0.00055903020894381838 0 -0.013193636900821737 -0.00093177796492808183 0 -0.013636067119960854 -0.00063465341996897593 0 -0.013285564759283764 -0.00055903020894381838 0 -0.013377548517317183 -0.00030943357182856114 0 -0.012275167334968156 -0.00020937634714741148 0 -0.012039825935175628 -0.0002540489976714217 0 -0.01212009352003963 -0.00041564838496062465 0 -0.012204364397542846 -0.0001734705416395584 0 -0.013559126433481512 -0.00053558120592485468 0 -0.012275167334968156 -0.00020937634714741148 0 -0.012327193674609755 -0.00044377327822387678 0 -0.01212009352003963 -0.00041564838496062465 0 -0.012944775690493343 -0.0004043213486817803 0 -0.012451544045101839 -0.0001128432703365357 0 -0.012529609272186012 -0.00081808431353475627 0 -0.012275167334968156 -0.00020937634714741148 0 -0.012126887497237875 -0.0001037560812142869 0 -0.012039825935175628 -0.0002540489976714217 0 -0.012275167334968156 -0.00020937634714741148 0 -0.012126887497237875 -0.0001037560812142869 0 -0.012224588242374127 1.2859310214493584e-05 0 -0.012204364397542846 -0.0001734705416395584 0 -0.012342228948118815 0.00020254980233113575 0 -0.012712665277768043 9.8047502834811988e-05 0 -0.012451544045101839 -0.0001128432703365357 0 -0.01241509731706864 0.00039938209126618769 0 -0.012678544303925779 0.00034419144111712908 0 -0.012712665277768043 9.8047502834811988e-05 0 -0.01241509731706864 0.00039938209126618769 0 -0.012678544303925779 0.00034419144111712908 0 -0.01241509731706864 0.00039938209126618769 0 -0.012562675236128163 0.00055859125579871825 0 -0.012126887497237875 -0.0001037560812142869 0 -0.012224588242374127 1.2859310214493584e-05 0 -0.012039140076049578 6.6514917579106792e-05 0 -0.012039140076049578 6.6514917579106792e-05 0 -0.011865076867606126 4.5170812594898246e-05 0 -0.011982992846433322 -0.00010107758531496718 0 -0.011865076867606126 4.5170812594898246e-05 0 -0.011982992846433322 -0.00010107758531496718 0 -0.011830042034769657 -8.8910984619928085e-05 0 -0.012126887497237875 -0.0001037560812142869 0 -0.012039140076049578 6.6514917579106792e-05 0 -0.011982992846433322 -0.00010107758531496718 0 -0.011643729717940343 3.5942752299833379e-05 0 -0.011723775465994441 1.8256790039054745e-05 0 -0.011734097480343649 0.00013264662048876959 0 -0.011865076867606126 4.5170812594898246e-05 0 -0.011723775465994441 1.8256790039054745e-05 0 -0.011830042034769657 -8.8910984619928085e-05 0 -0.011865076867606126 4.5170812594898246e-05 0 -0.011723775465994441 1.8256790039054745e-05 0 -0.011734097480343649 0.00013264662048876959 0 -0.011723775465994441 1.8256790039054745e-05 0 -0.011830042034769657 -8.8910984619928085e-05 0 -0.011726073914066808 -0.00017670024924750026 0 -0.011723775465994441 1.8256790039054745e-05 0 -0.011673490764690658 -1.9517852684164975e-05 0 -0.011706967880548216 -4.6970754112763032e-05 0 -0.011643729717940343 3.5942752299833379e-05 0 -0.011723775465994441 1.8256790039054745e-05 0 -0.011673490764690658 -1.9517852684164975e-05 0 -0.011741816053153054 3.1270367900262179e-05 0 -0.011620324534512928 -0.0001562017006455799 0 -0.011665309542254776 -6.2620500647648237e-05 0 -0.011706967880548216 -4.6970754112763032e-05 0 -0.011711796714123623 -0.00010925338251516866 0 -0.011665309542254776 -6.2620500647648237e-05 0 -0.011673490764690658 -1.9517852684164975e-05 0 -0.011706967880548216 -4.6970754112763032e-05 0 -0.011830042034769657 -8.8910984619928085e-05 0 -0.011726073914066808 -0.00017670024924750026 0 -0.011851458766339593 -0.00025108907504767003 0 -0.011726073914066808 -0.00017670024924750026 0 -0.011851458766339593 -0.00025108907504767003 0 -0.011729365990811204 -0.00035885069276425809 0 -0.011851458766339593 -0.00025108907504767003 0 -0.011729365990811204 -0.00035885069276425809 0 -0.011921353880059526 -0.00038623140469159958 0 -0.01273993912636931 -5.3053769411460212e-05 0 -0.013045402830868639 -9.844590015086812e-05 0 -0.011620324534512928 -0.0001562017006455799 0 -0.01273993912636931 -5.3053769411460212e-05 0 -0.011665309542254776 -6.2620500647648237e-05 0 -0.011647708720713662 -9.8561549363545954e-05 0 -0.011711796714123623 -0.00010925338251516866 0 -0.012564410212119442 2.0521437223681392e-05 0 -0.01273993912636931 -5.3053769411460212e-05 0 -0.012126887497237875 -0.0001037560812142869 0 -0.011982992846433322 -0.00010107758531496718 0 -0.012039825935175628 -0.0002540489976714217 0 -0.011982992846433322 -0.00010107758531496718 0 -0.011851458766339593 -0.00025108907504767003 0 -0.012039825935175628 -0.0002540489976714217 0 -0.011982992846433322 -0.00010107758531496718 0 -0.011830042034769657 -8.8910984619928085e-05 0 -0.011851458766339593 -0.00025108907504767003 0 -0.011851458766339593 -0.00025108907504767003 0 -0.012039825935175628 -0.0002540489976714217 0 -0.011921353880059526 -0.00038623140469159958 0 -0.012039825935175628 -0.0002540489976714217 0 -0.011921353880059526 -0.00038623140469159958 0 -0.01212009352003963 -0.00041564838496062465 0 -0.014161826511658574 0.00019818508017211512 0 -0.014329289897546818 -0.00015275767605866107 0 -0.014474525270308399 0.00012895202114464416 0 -0.013045402830868639 -9.844590015086812e-05 0 -0.013281610170313806 -0.00010427772188156317 0 -0.014161826511658574 0.00019818508017211512 0 -0.014329289897546818 -0.00015275767605866107 0 -0.013988876158622965 5.6924769115564469e-05 0 -0.014329289897546818 -0.00015275767605866107 0 -0.013988876158622965 5.6924769115564469e-05 0 -0.013921614818233532 -0.00015840458934348903 0 -0.014329289897546818 -0.00015275767605866107 0 -0.014474525270308399 0.00012895202114464416 0 -0.014577886813051107 -8.9132460766230102e-05 0 -0.01273993912636931 -5.3053769411460212e-05 0 -0.013760024963495921 -2.4925165901786831e-05 0 -0.013554544489197918 -8.8439483492368942e-05 0 -0.013751640228052607 8.657776762407316e-05 0 -0.013741188741324937 -0.0001306301208420734 0 -0.013486589997945024 0.00013033305962071822 0 -0.013554544489197918 -8.8439483492368942e-05 0 -0.013751640228052607 8.657776762407316e-05 0 -0.013774872285059633 0.00026275236688691743 0 -0.013758101482392855 -9.338470498537699e-06 0 -0.013988876158622965 5.6924769115564469e-05 0 -0.013774872285059633 0.00026275236688691743 0 -0.014161826511658574 0.00019818508017211512 0 -0.013988876158622965 5.6924769115564469e-05 0 -0.014329289897546818 -0.00015275767605866107 0 -0.013921614818233532 -0.00015840458934348903 0 -0.013896955222124214 -0.00039559259367825066 0 -0.013758101482392855 -9.338470498537699e-06 0 -0.013921614818233532 -0.00015840458934348903 0 -0.013739112528187847 -0.00032039754414605074 0 -0.013758101482392855 -9.338470498537699e-06 0 -0.013988876158622965 5.6924769115564469e-05 0 -0.013921614818233532 -0.00015840458934348903 0 -0.013760024963495921 -2.4925165901786831e-05 0 -0.013738484354692953 -0.00031000645689215929 0 -0.013741188741324937 -0.0001306301208420734 0 -0.013602615012985549 -0.00026156604643623325 0 -0.013739112528187847 -0.00032039754414605074 0 -0.013554544489197918 -8.8439483492368942e-05 0 -0.013741188741324937 -0.0001306301208420734 0 -0.013602615012985549 -0.00026156604643623325 0 -0.013522599423210378 -0.00053568483468557817 0 -0.013602615012985549 -0.00026156604643623325 0 -0.013739112528187847 -0.00032039754414605074 0 -0.01364232031351904 -0.00044625672278454854 0 -0.013994680354665256 -0.00030447160596348122 0 -0.013522599423210378 -0.00053568483468557817 0 -0.013739112528187847 -0.00032039754414605074 0 -0.013896955222124214 -0.00039559259367825066 0 -0.013921614818233532 -0.00015840458934348903 0 -0.013739112528187847 -0.00032039754414605074 0 -0.013896955222124214 -0.00039559259367825066 0 -0.014090579429563542 -0.00022206611009614396 0 -0.014172088098129696 -0.00035815663147623235 0 -0.013989018037124148 -0.00042077597136512269 0 -0.014063679705142549 -0.00060940653295253741 0 -0.014172088098129696 -0.00035815663147623235 0 -0.013989018037124148 -0.00042077597136512269 0 -0.013761119815909205 -0.00034423059773131686 0 -0.013795805855379819 -0.00056007451536276996 0 -0.013989018037124148 -0.00042077597136512269 0 -0.013761119815909205 -0.00034423059773131686 0 -0.014090579429563542 -0.00022206611009614396 0 -0.013989018037124148 -0.00042077597136512269 0 -0.014329289897546818 -0.00015275767605866107 0 -0.014367230685892548 -0.0003900565269613474 0 -0.014580373276752443 -0.00028916300749687931 0 -0.014329289897546818 -0.00015275767605866107 0 -0.014090579429563542 -0.00022206611009614396 0 -0.014172088098129696 -0.00035815663147623235 0 -0.014309062033404084 -0.00016571099766688949 0 -0.013994680354665256 -0.00030447160596348122 0 -0.014329289897546818 -0.00015275767605866107 0 -0.014172088098129696 -0.00035815663147623235 0 -0.014367230685892548 -0.0003900565269613474 0 -0.014612818792099712 -0.00043807182764051862 0 -0.014367230685892548 -0.0003900565269613474 0 -0.014580373276752443 -0.00028916300749687931 0 -0.014329289897546818 -0.00015275767605866107 0 -0.014580373276752443 -0.00028916300749687931 0 -0.014577886813051107 -8.9132460766230102e-05 0 -0.014580373276752443 -0.00028916300749687931 0 -0.014745803200581321 -0.00020059822785249346 0 -0.014577886813051107 -8.9132460766230102e-05 0 -0.014765450561171428 -0.0004208368704690206 0 -0.014580373276752443 -0.00028916300749687931 0 -0.014745803200581321 -0.00020059822785249346 0 -0.014765450561171428 -0.0004208368704690206 0 -0.014612818792099712 -0.00043807182764051862 0 -0.014580373276752443 -0.00028916300749687931 0 -0.014720978347233397 -0.000446996758771333 0 -0.014918949030153847 -0.00042738644588670866 0 -0.014724665304209203 -0.00047862933764889002 0 -0.014755856005466412 -0.00067089474951755599 0 -0.014613965778518818 -0.0005601553682703939 0 -0.014553865441178652 -0.00051332542982346298 0 -0.014446055284317603 -0.00062481463545165658 0 -0.014613965778518818 -0.0005601553682703939 0 -0.014652608104870134 -0.00044858328350118977 0 -0.014553865441178652 -0.00051332542982346298 0 -0.014613965778518818 -0.0005601553682703939 0 -0.014446055284317603 -0.00062481463545165658 0 -0.014613965778518818 -0.0005601553682703939 0 -0.014548876286869818 -0.00070423069226701034 0 -0.014755856005466412 -0.00067089474951755599 0 -0.014613965778518818 -0.0005601553682703939 0 -0.014548876286869818 -0.00070423069226701034 0 -0.014755856005466412 -0.00067089474951755599 0 -0.014554455250413668 -0.00092760772741125493 0 -0.014780620571582912 -0.00094524385491435504 0 -0.014755856005466412 -0.00067089474951755599 0 -0.014548876286869818 -0.00070423069226701034 0 -0.014554455250413668 -0.00092760772741125493 0 -0.014318211693672324 -0.00076733066534912149 0 -0.014548876286869818 -0.00070423069226701034 0 -0.014554455250413668 -0.00092760772741125493 0 -0.013636067119960854 -0.00063465341996897593 0 -0.013285564759283764 -0.00055903020894381838 0 -0.013193636900821737 -0.00093177796492808183 0 -0.012944775690493343 -0.0004043213486817803 0 -0.013193636900821737 -0.00093177796492808183 0 -0.012529609272186012 -0.00081808431353475627 0 -0.013903137457892954 -0.00095903903518469247 0 -0.013559126433481512 -0.00053558120592485468 0 -0.014714557950493623 7.3136717181213965e-05 0 -0.014474525270308399 0.00012895202114464416 0 -0.014577886813051107 -8.9132460766230102e-05 0 -0.013559126433481512 -0.00053558120592485468 0 -0.013281610170313806 -0.00010427772188156317 0 -0.014745803200581321 -0.00020059822785249346 0 -0.014714557950493623 7.3136717181213965e-05 0 -0.014577886813051107 -8.9132460766230102e-05 0 -0.014918949030153847 -0.00042738644588670866 0 -0.013559126433481512 -0.00053558120592485468 0 -0.011926724283212425 0.00029768914576122683 0 -0.012396258403017543 0.00026723838149254973 0 -0.012110668215415543 0.00019173836100884903 0 -0.012235162344428029 0.00056878562878818388 0 -0.011839882802365751 0.00067881834875868445 0 -0.011769414997667826 0.00012527320943261873 0 -0.012110668215415543 0.00019173836100884903 0 -0.011777635085567506 0.00019868594430503026 0 -0.011769414997667826 0.00012527320943261873 0 -0.011674831398844286 4.5362693866854432e-05 0 -0.011500741046992318 -5.8562384110641751e-05 0 -0.011769414997667826 0.00012527320943261873 0 -0.011500741046992318 -5.8562384110641751e-05 0 -0.012110668215415543 0.00019173836100884903 0 -0.011769414997667826 0.00012527320943261873 0 -0.01186947157689972 0.00010427115691899411 0 -0.011674831398844286 4.5362693866854432e-05 0 -0.011769414997667826 0.00012527320943261873 0 -0.01186947157689972 0.00010427115691899411 0 -0.011777635085567506 0.00019868594430503026 0 -0.01186947157689972 0.00010427115691899411 0 -0.011674831398844286 4.5362693866854432e-05 0 -0.012060017093497544 5.21912866449805e-05 0 -0.011674831398844286 4.5362693866854432e-05 0 -0.011686784560910352 2.9703880822375667e-08 0 -0.012060017093497544 5.21912866449805e-05 0 -0.011686784560910352 2.9703880822375667e-08 0 -0.012485105456752955 1.7217970581105198e-07 0 -0.012060017093497544 5.21912866449805e-05 0 -0.011686784560910352 2.9703880822375667e-08 0 -0.011322127425826113 -2.4937192596897986e-05 0 -0.010888564393226203 -1.8959679298928322e-09 0 -0.011674831398844286 4.5362693866854432e-05 0 -0.011686784560910352 2.9703880822375667e-08 0 -0.011322127425826113 -2.4937192596897986e-05 0 -0.011674831398844286 4.5362693866854432e-05 0 -0.011322127425826113 -2.4937192596897986e-05 0 -0.011500741046992318 -5.8562384110641751e-05 0 -0.011500741046992318 -5.8562384110641751e-05 0 -0.010589330844259488 -0.0001096773286986236 0 -0.010882005134603696 -1.4663023190477235e-05 0 -0.011322127425826113 -2.4937192596897986e-05 0 -0.011500741046992318 -5.8562384110641751e-05 0 -0.010882005134603696 -1.4663023190477235e-05 0 -0.011500741046992318 -5.8562384110641751e-05 0 -0.012189572828915864 -2.9343017414198454e-05 0 -0.012110668215415543 0.00019173836100884903 0 -0.011500741046992318 -5.8562384110641751e-05 0 -0.012189572828915864 -2.9343017414198454e-05 0 -0.012101289327235584 -0.00032747513884854223 0 -0.011364463344875663 -1.4976297986276755e-05 0 -0.011422806254410662 -0.00028383660372926313 0 -0.012504809924508923 -0.00014419438175712859 0 -0.012189572828915864 -2.9343017414198454e-05 0 -0.012101289327235584 -0.00032747513884854223 0 -0.012504809924508923 -0.00014419438175712859 0 -0.012189572828915864 -2.9343017414198454e-05 0 -0.012575451849239902 0.00014760768984520623 0 -0.012189572828915864 -2.9343017414198454e-05 0 -0.012575451849239902 0.00014760768984520623 0 -0.012110668215415543 0.00019173836100884903 0 -0.012504809924508923 -0.00014419438175712859 0 -0.012756522100914653 3.2178722852133845e-05 0 -0.012575451849239902 0.00014760768984520623 0 -0.012504809924508923 -0.00014419438175712859 0 -0.012756522100914653 3.2178722852133845e-05 0 -0.012726823137515797 -5.5440082094157608e-05 0 -0.012756522100914653 3.2178722852133845e-05 0 -0.012575451849239902 0.00014760768984520623 0 -0.012894543404437043 0.00025436650660630076 0 -0.012575451849239902 0.00014760768984520623 0 -0.012741248691420522 0.00035435970851419073 0 -0.012894543404437043 0.00025436650660630076 0 -0.012575451849239902 0.00014760768984520623 0 -0.012741248691420522 0.00035435970851419073 0 -0.012469480733939884 0.00038706164288757603 0 -0.012741248691420522 0.00035435970851419073 0 -0.012469480733939884 0.00038706164288757603 0 -0.012688456596400187 0.00065552764620207887 0 -0.012741248691420522 0.00035435970851419073 0 -0.013000547424521867 0.00047735567717665909 0 -0.012894543404437043 0.00025436650660630076 0 -0.012575451849239902 0.00014760768984520623 0 -0.012110668215415543 0.00019173836100884903 0 -0.012469480733939884 0.00038706164288757603 0 -0.012110668215415543 0.00019173836100884903 0 -0.012469480733939884 0.00038706164288757603 0 -0.012235162344428029 0.00056878562878818388 0 -0.012235162344428029 0.00056878562878818388 0 -0.012334833059715821 0.00089150469167171946 0 -0.011839882802365751 0.00067881834875868445 0 -0.012469480733939884 0.00038706164288757603 0 -0.012235162344428029 0.00056878562878818388 0 -0.012688456596400187 0.00065552764620207887 0 -0.012235162344428029 0.00056878562878818388 0 -0.012334833059715821 0.00089150469167171946 0 -0.012688456596400187 0.00065552764620207887 0 -0.012688456596400187 0.00065552764620207887 0 -0.01335297108622412 0.00073163615666173071 0 -0.013000547424521867 0.00047735567717665909 0 -0.012741248691420522 0.00035435970851419073 0 -0.012688456596400187 0.00065552764620207887 0 -0.013000547424521867 0.00047735567717665909 0 -0.012334833059715821 0.00089150469167171946 0 -0.012688456596400187 0.00065552764620207887 0 -0.012871074309148875 0.0012980891040301811 0 -0.012334833059715821 0.00089150469167171946 0 -0.012871074309148875 0.0012980891040301811 0 -0.012493153595362844 0.0013812437210412858 0 -0.012688456596400187 0.00065552764620207887 0 -0.012871074309148875 0.0012980891040301811 0 -0.01335297108622412 0.00073163615666173071 0 -0.012334833059715821 0.00089150469167171946 0 -0.012151121064615892 0.0012037017572283091 0 -0.012493153595362844 0.0013812437210412858 0 -0.013472721889241217 -3.4766052716005313e-05 0 -0.01343033883663932 -0.0001021763094599724 0 -0.013406117124992982 -6.8623757737174584e-05 0 -0.013472721889241217 -3.4766052716005313e-05 0 -0.013406117124992982 -6.8623757737174584e-05 0 -0.013445651716918484 3.4235736993267638e-06 0 -0.012779958033542482 0.00064568645803484098 0 -0.012396258403017543 0.00026723838149254973 0 -0.012334833059715821 0.00089150469167171946 0 -0.012151121064615892 0.0012037017572283091 0 -0.011839882802365751 0.00067881834875868445 0 -0.012396258403017543 0.00026723838149254973 0 -0.012987183426582271 -7.3961657858056759e-05 0 -0.011977695416186434 2.675274248454309e-05 0 -0.012396258403017543 0.00026723838149254973 0 -0.012485105456752955 1.7217970581105198e-07 0 -0.012060017093497544 5.21912866449805e-05 0 -0.012506654009564827 -6.1765087509254321e-05 0 -0.012003603430455782 9.5023351908677137e-06 0 -0.012060017093497544 5.21912866449805e-05 0 -0.012506654009564827 -6.1765087509254321e-05 0 -0.01186947157689972 0.00010427115691899411 0 -0.012003603430455782 9.5023351908677137e-06 0 -0.012060017093497544 5.21912866449805e-05 0 -0.012485105456752955 1.7217970581105198e-07 0 -0.012506654009564827 -6.1765087509254321e-05 0 -0.013283000407045515 -4.3835312164729125e-07 0 -0.012987183426582271 -7.3961657858056759e-05 0 -0.01328336907108167 1.0059948873639661e-07 0 -0.01328484993628011 7.7895775847577102e-08 0 -0.013445651716918484 3.4235736993267638e-06 0 -0.013454577644612819 3.6384497171720713e-05 0 -0.013406117124992982 -6.8623757737174584e-05 0 -0.01328484993628011 7.7895775847577102e-08 0 -0.013445651716918484 3.4235736993267638e-06 0 -0.013445651716918484 3.4235736993267638e-06 0 -0.013454577644612819 3.6384497171720713e-05 0 -0.013420671094034022 1.4490039402030623e-06 0 -0.01328484993628011 7.7895775847577102e-08 0 -0.013454577644612819 3.6384497171720713e-05 0 -0.013636001547758242 -6.0698992533698947e-08 0 -0.013472721889241217 -3.4766052716005313e-05 0 -0.013445651716918484 3.4235736993267638e-06 0 -0.01345764772429635 -1.6699417299174112e-06 0 -0.013445651716918484 3.4235736993267638e-06 0 -0.01345764772429635 -1.6699417299174112e-06 0 -0.013420671094034022 1.4490039402030623e-06 0 -0.013817670140248213 -5.0393325507465739e-05 0 -0.014274669351881679 -0.00011989810693493565 0 -0.01345764772429635 -1.6699417299174112e-06 0 -0.013420671094034022 1.4490039402030623e-06 0 -0.01347815299955229 2.6561587854330466e-05 0 -0.014312074424249617 -0.00012274029516033371 0 -0.014225084170717911 7.3300578013268463e-06 0 -0.014401506807727516 -2.9220798323664328e-05 0 -0.014312074424249617 -0.00012274029516033371 0 -0.014401506807727516 -2.9220798323664328e-05 0 -0.014422947722747081 -0.00010879846205003956 0 -0.013817670140248213 -5.0393325507465739e-05 0 -0.013637391150394073 -2.3540874253568317e-08 0 -0.013454577644612819 3.6384497171720713e-05 0 -0.013420671094034022 1.4490039402030623e-06 0 -0.013636001547758242 -6.0698992533698947e-08 0 -0.014312074424249617 -0.00012274029516033371 0 -0.013638914507201848 -6.1024454108897541e-07 0 -0.014225084170717911 7.3300578013268463e-06 0 -0.013638914507201848 -6.1024454108897541e-07 0 -0.014353286986534666 4.3489951128719635e-07 0 -0.014225084170717911 7.3300578013268463e-06 0 -0.01435487654277086 1.3867982906709338e-08 0 -0.014690249680835085 1.8248787249624297e-05 0 -0.014353286986534666 4.3489951128719635e-07 0 -0.014401506807727516 -2.9220798323664328e-05 0 -0.014419121483842836 4.2909184858971228e-05 0 -0.014961409379116516 -2.1508597738867798e-07 0 -0.0149990627050003 2.1218135913335336e-07 0 -0.015000355584655314 -1.0572553379421838e-07 0 -0.014353286986534666 4.3489951128719635e-07 0 -0.014225084170717911 7.3300578013268463e-06 0 -0.014401506807727516 -2.9220798323664328e-05 0 -0.014486898104666078 -8.5933348022889375e-05 0 -0.014274669351881679 -0.00011989810693493565 0 -0.014401506807727516 -2.9220798323664328e-05 0 -0.014636827958565159 -0.00011566136589083911 0 -0.014676292915539697 -0.00026961908616984553 0 -0.014401506807727516 -2.9220798323664328e-05 0 -0.014663261380669741 -3.9358150368994849e-05 0 -0.014636827958565159 -0.00011566136589083911 0 -0.014401506807727516 -2.9220798323664328e-05 0 -0.014419121483842836 4.2909184858971228e-05 0 -0.014663261380669741 -3.9358150368994849e-05 0 -0.014356241021552127 -3.1844545580819863e-07 0 -0.014961409379116516 -2.1508597738867798e-07 0 -0.0149990627050003 2.1218135913335336e-07 0 -0.014999074028107805 2.4812870258680943e-07 0 -0.014999823482537974 -1.6490396672266603e-07 0 -0.014909548707084552 -3.4066917152648541e-05 0 -0.014863079752082991 -5.4000825886152305e-05 0 -0.014999074028107805 2.4812870258680943e-07 0 -0.014909548707084552 -3.4066917152648541e-05 0 -0.014863079752082991 -5.4000825886152305e-05 0 -0.014839445365820729 -4.4074933973346604e-05 0 -0.014765999664813248 -0.00012402259544956975 0 -0.014863079752082991 -5.4000825886152305e-05 0 -0.014793458711606549 -9.4558641273275338e-05 0 -0.014909548707084552 -3.4066917152648541e-05 0 -0.014863079752082991 -5.4000825886152305e-05 0 -0.014999074028107805 2.4812870258680943e-07 0 -0.014839445365820729 -4.4074933973346604e-05 0 -0.014690249680835085 1.8248787249624297e-05 0 -0.014999855608622582 3.8560613512287731e-09 0 -0.014419121483842836 4.2909184858971228e-05 0 -0.014999074028107805 2.4812870258680943e-07 0 -0.014663261380669741 -3.9358150368994849e-05 0 -0.014663261380669741 -3.9358150368994849e-05 0 -0.014839445365820729 -4.4074933973346604e-05 0 -0.01472296453840883 -0.00010570363071235767 0 -0.014999074028107805 2.4812870258680943e-07 0 -0.014663261380669741 -3.9358150368994849e-05 0 -0.014839445365820729 -4.4074933973346604e-05 0 -0.01472296453840883 -0.00010570363071235767 0 -0.014719751284761459 -0.00016436682704788424 0 -0.014765999664813248 -0.00012402259544956975 0 -0.014839445365820729 -4.4074933973346604e-05 0 -0.01472296453840883 -0.00010570363071235767 0 -0.014765999664813248 -0.00012402259544956975 0 -0.014663261380669741 -3.9358150368994849e-05 0 -0.01472296453840883 -0.00010570363071235767 0 -0.014636827958565159 -0.00011566136589083911 0 -0.014636827958565159 -0.00011566136589083911 0 -0.014699981747500923 -0.00017085568595497672 0 -0.014676292915539697 -0.00026961908616984553 0 -0.01472296453840883 -0.00010570363071235767 0 -0.014636827958565159 -0.00011566136589083911 0 -0.014699981747500923 -0.00017085568595497672 0 -0.014699981747500923 -0.00017085568595497672 0 -0.014719751284761459 -0.00016436682704788424 0 -0.014707556227529351 -0.00018193037389437489 0 -0.01472296453840883 -0.00010570363071235767 0 -0.014699981747500923 -0.00017085568595497672 0 -0.014719751284761459 -0.00016436682704788424 0 -0.014719751284761459 -0.00016436682704788424 0 -0.014667707224042478 -0.00018433046720247104 0 -0.014765999664813248 -0.00012402259544956975 0 -0.014863079752082991 -5.4000825886152305e-05 0 -0.014765999664813248 -0.00012402259544956975 0 -0.014793458711606549 -9.4558641273275338e-05 0 -0.014765999664813248 -0.00012402259544956975 0 -0.014793458711606549 -9.4558641273275338e-05 0 -0.014671477800686568 -0.0001642247713779376 0 -0.014667707224042478 -0.00018433046720247104 0 -0.014765999664813248 -0.00012402259544956975 0 -0.014671477800686568 -0.0001642247713779376 0 -0.014667707224042478 -0.00018433046720247104 0 -0.014671477800686568 -0.0001642247713779376 0 -0.014509052257802678 -0.00021229055762531123 0 -0.014771791059736274 -0.00018680418709656908 0 -0.013755320266962349 0.00037624208631886492 0 -0.014667707224042478 -0.00018433046720247104 0 -0.014440863391253616 2.4308118586605723e-05 0 -0.014509052257802678 -0.00021229055762531123 0 -0.014667707224042478 -0.00018433046720247104 0 -0.014440863391253616 2.4308118586605723e-05 0 -0.014711682810840506 9.2229327090251505e-05 0 -0.014667707224042478 -0.00018433046720247104 0 -0.014707556227529351 -0.00018193037389437489 0 -0.01472462839283937 -0.00015870908647490223 0 -0.014719751284761459 -0.00016436682704788424 0 -0.014667707224042478 -0.00018433046720247104 0 -0.014707556227529351 -0.00018193037389437489 0 -0.014699981747500923 -0.00017085568595497672 0 -0.014707556227529351 -0.00018193037389437489 0 -0.014676292915539697 -0.00026961908616984553 0 -0.014747765391825936 -0.00013735371674889339 0 -0.014274669351881679 -0.00011989810693493565 0 -0.014707556227529351 -0.00018193037389437489 0 -0.014730599244620796 -0.00017682079299947677 0 -0.01472462839283937 -0.00015870908647490223 0 -0.014274669351881679 -0.00011989810693493565 0 -0.013755320266962349 0.00037624208631886492 0 -0.01345764772429635 -1.6699417299174112e-06 0 -0.01347815299955229 2.6561587854330466e-05 0 -0.013493596065818779 7.0909644698470754e-06 0 -0.012151121064615892 0.0012037017572283091 0 -0.012493153595362844 0.0013812437210412858 0 -0.012486287329812122 0.0017523010880457325 0 -0.012779958033542482 0.00064568645803484098 0 -0.013755320266962349 0.00037624208631886492 0 -0.013472721889241217 -3.4766052716005313e-05 0 -0.01345764772429635 -1.6699417299174112e-06 0 -0.013493596065818779 7.0909644698470754e-06 0 -0.014245175695713701 0.00049078200063355326 0 -0.014440863391253616 2.4308118586605723e-05 0 -0.014711682810840506 9.2229327090251505e-05 0 -0.013489747102193802 0.00095365754049645879 0 -0.013755320266962349 0.00037624208631886492 0 -0.014245175695713701 0.00049078200063355326 0 -0.014440863391253616 2.4308118586605723e-05 0 -0.014059679231607846 0.00018368593723550242 0 -0.012871074309148875 0.0012980891040301811 0 -0.012493153595362844 0.0013812437210412858 0 -0.012486287329812122 0.0017523010880457325 0 -0.014245175695713701 0.00049078200063355326 0 -0.014059679231607846 0.00018368593723550242 0 -0.013670354757077941 0.0004859384537668611 0 -0.014059679231607846 0.00018368593723550242 0 -0.013458796378160465 0.00022127182444562762 0 -0.013670354757077941 0.0004859384537668611 0 -0.014052841579938701 0.0001781800067938311 0 -0.013319358277692501 0.00068818136043004752 0 -0.013458796378160465 0.00022127182444562762 0 -0.013344217173879474 0.00056324375093074538 0 -0.013670354757077941 0.0004859384537668611 0 -0.014762573423724655 0.00013550192533240131 0 -0.01461517312672617 9.6874515782030321e-05 0 -0.014438282735319425 0.00023912590738797023 0 -0.014052841579938701 0.0001781800067938311 0 -0.014855645473722224 -0.00011048839948274413 0 -0.014502524703433007 0.00038340591272439402 0 -0.014762573423724655 0.00013550192533240131 0 -0.014438282735319425 0.00023912590738797023 0 -0.014867874539443151 -0.00059509469270046644 0 -0.014509052257802678 -0.00021229055762531123 0 -0.014778426568593486 -0.00018291059045827664 0 -0.014440863391253616 2.4308118586605723e-05 0 -0.014059679231607846 0.00018368593723550242 0 -0.014509052257802678 -0.00021229055762531123 0 -0.014059679231607846 0.00018368593723550242 0 -0.013458796378160465 0.00022127182444562762 0 -0.014509052257802678 -0.00021229055762531123 0 -0.014052841579938701 0.0001781800067938311 0 -0.014522494833166403 -0.00034749634093945986 0 -0.014805362934490827 -8.7249296760974604e-05 0 -0.014778426568593486 -0.00018291059045827664 0 -0.014934097411024911 -2.3562607959961036e-05 0 -0.014671477800686568 -0.0001642247713779376 0 -0.014509052257802678 -0.00021229055762531123 0 -0.014698954470631784 -0.00013832888745427866 0 -0.014855645473722224 -0.00011048839948274413 0 -0.014879156632222359 1.387195781298283e-05 0 -0.014793458711606549 -9.4558641273275338e-05 0 -0.014671477800686568 -0.0001642247713779376 0 -0.014698954470631784 -0.00013832888745427866 0 -0.014793458711606549 -9.4558641273275338e-05 0 -0.014698954470631784 -0.00013832888745427866 0 -0.014805362934490827 -8.7249296760974604e-05 0 -0.014698954470631784 -0.00013832888745427866 0 -0.014805362934490827 -8.7249296760974604e-05 0 -0.014778426568593486 -0.00018291059045827664 0 -0.014509052257802678 -0.00021229055762531123 0 -0.014698954470631784 -0.00013832888745427866 0 -0.014778426568593486 -0.00018291059045827664 0 -0.014762573423724655 0.00013550192533240131 0 -0.014810676870898024 3.0158036577585631e-05 0 -0.014934097411024911 -2.3562607959961036e-05 0 -0.014762573423724655 0.00013550192533240131 0 -0.01461517312672617 9.6874515782030321e-05 0 -0.014810676870898024 3.0158036577585631e-05 0 -0.01461517312672617 9.6874515782030321e-05 0 -0.014810676870898024 3.0158036577585631e-05 0 -0.014867187394516392 -4.3754261654150469e-05 0 -0.014810676870898024 3.0158036577585631e-05 0 -0.014867187394516392 -4.3754261654150469e-05 0 -0.014934097411024911 -2.3562607959961036e-05 0 -0.014867187394516392 -4.3754261654150469e-05 0 -0.014999823482537974 -1.6490396672266603e-07 0 -0.014999773107039687 5.2108923200380988e-08 0 -0.014867187394516392 -4.3754261654150469e-05 0 -0.014999823482537974 -1.6490396672266603e-07 0 -0.014934097411024911 -2.3562607959961036e-05 0 -0.014999823482537974 -1.6490396672266603e-07 0 -0.014934097411024911 -2.3562607959961036e-05 0 -0.014909548707084552 -3.4066917152648541e-05 0 -0.014793458711606549 -9.4558641273275338e-05 0 -0.014805362934490827 -8.7249296760974604e-05 0 -0.014909548707084552 -3.4066917152648541e-05 0 -0.014805362934490827 -8.7249296760974604e-05 0 -0.014934097411024911 -2.3562607959961036e-05 0 -0.014909548707084552 -3.4066917152648541e-05 0 -0.014999773107039687 5.2108923200380988e-08 0 -0.015009554906575431 -1.0673237090039024e-05 0 -0.015000091392744727 -2.2681038109511267e-08 0 -0.014867187394516392 -4.3754261654150469e-05 0 -0.014999773107039687 5.2108923200380988e-08 0 -0.015009554906575431 -1.0673237090039024e-05 0 -0.01461517312672617 9.6874515782030321e-05 0 -0.014867187394516392 -4.3754261654150469e-05 0 -0.014216152223596909 7.5433079820613668e-05 0 -0.014834223219534367 -3.9054601133584597e-05 0 -0.014619992036832187 4.2254975326841953e-05 0 -0.01461517312672617 9.6874515782030321e-05 0 -0.014216152223596909 7.5433079820613668e-05 0 -0.014438282735319425 0.00023912590738797023 0 -0.014619992036832187 4.2254975326841953e-05 0 -0.014534801894202073 0.00016701591337224759 0 -0.014216152223596909 7.5433079820613668e-05 0 -0.014165714155202418 0.00030369978361096306 0 -0.014000942798552457 0.00032435547365900771 0 -0.014216152223596909 7.5433079820613668e-05 0 -0.014438282735319425 0.00023912590738797023 0 -0.014165714155202418 0.00030369978361096306 0 -0.014244091302803448 0.00036207431340169407 0 -0.013989466206124387 0.00035538553576055213 0 -0.014165714155202418 0.00030369978361096306 0 -0.014438282735319425 0.00023912590738797023 0 -0.014244091302803448 0.00036207431340169407 0 -0.014165714155202418 0.00030369978361096306 0 -0.014502524703433007 0.00038340591272439402 0 -0.014438282735319425 0.00023912590738797023 0 -0.014244091302803448 0.00036207431340169407 0 -0.014502524703433007 0.00038340591272439402 0 -0.014244091302803448 0.00036207431340169407 0 -0.014127921435654103 0.00046415751024838346 0 -0.013989466206124387 0.00035538553576055213 0 -0.014165714155202418 0.00030369978361096306 0 -0.014000942798552457 0.00032435547365900771 0 -0.013989466206124387 0.00035538553576055213 0 -0.013805925903479177 0.00039000176390316404 0 -0.013959686832299518 0.00028346311375304314 0 -0.013989466206124387 0.00035538553576055213 0 -0.013805925903479177 0.00039000176390316404 0 -0.014127921435654103 0.00046415751024838346 0 -0.013657766381334426 0.0004231111119871852 0 -0.013694322793966969 0.00062099937052320837 0 -0.013805925903479177 0.00039000176390316404 0 -0.013587133306169261 0.00044018129537384132 0 -0.014127921435654103 0.00046415751024838346 0 -0.013587133306169261 0.00044018129537384132 0 -0.013352607455424371 0.00042980091031777096 0 -0.01335384098401559 0.00067626324361318494 0 -0.013352607455424371 0.00042980091031777096 0 -0.01335384098401559 0.00067626324361318494 0 -0.01328435710659291 0.00057051372108944914 0 -0.013352607455424371 0.00042980091031777096 0 -0.01328435710659291 0.00057051372108944914 0 -0.013232439799469236 0.00039022619745598009 0 -0.01335384098401559 0.00067626324361318494 0 -0.013275377678310355 0.00068752638072259022 0 -0.01328435710659291 0.00057051372108944914 0 -0.014244091302803448 0.00036207431340169407 0 -0.013989466206124387 0.00035538553576055213 0 -0.014127921435654103 0.00046415751024838346 0 -0.013344217173879474 0.00056324375093074538 0 -0.01335297108622412 0.00073163615666173071 0 -0.01328435710659291 0.00057051372108944914 0 -0.014052841579938701 0.0001781800067938311 0 -0.013694322793966969 0.00062099937052320837 0 -0.013259320331369825 0.00075966075080101457 0 -0.01335384098401559 0.00067626324361318494 0 -0.013275377678310355 0.00068752638072259022 0 -0.013319358277692501 0.00068818136043004752 0 -0.013302304921396059 0.00056818599002519911 0 -0.014245175695713701 0.00049078200063355326 0 -0.013670354757077941 0.0004859384537668611 0 -0.01335297108622412 0.00073163615666173071 0 -0.013489747102193802 0.00095365754049645879 0 -0.013454711868579819 0.00071156351475830685 0 -0.013344217173879474 0.00056324375093074538 0 -0.013670354757077941 0.0004859384537668611 0 -0.01335297108622412 0.00073163615666173071 0 -0.01335297108622412 0.00073163615666173071 0 -0.013000547424521867 0.00047735567717665909 0 -0.013175580386189111 0.00040338157380924347 0 -0.01335297108622412 0.00073163615666173071 0 -0.01328435710659291 0.00057051372108944914 0 -0.013175580386189111 0.00040338157380924347 0 -0.01328435710659291 0.00057051372108944914 0 -0.013232439799469236 0.00039022619745598009 0 -0.013175580386189111 0.00040338157380924347 0 -0.013175580386189111 0.00040338157380924347 0 -0.012982098569201203 0.00016852141750932812 0 -0.013131555790485038 0.0002571426529567139 0 -0.013232439799469236 0.00039022619745598009 0 -0.013175580386189111 0.00040338157380924347 0 -0.013131555790485038 0.0002571426529567139 0 -0.013232439799469236 0.00039022619745598009 0 -0.013131555790485038 0.0002571426529567139 0 -0.013229303650287575 0.00030635261764319285 0 -0.013175580386189111 0.00040338157380924347 0 -0.012894543404437043 0.00025436650660630076 0 -0.012982098569201203 0.00016852141750932812 0 -0.013000547424521867 0.00047735567717665909 0 -0.013175580386189111 0.00040338157380924347 0 -0.012894543404437043 0.00025436650660630076 0 -0.012982098569201203 0.00016852141750932812 0 -0.013015161227954795 0.00013269660293363053 0 -0.012855470795068833 1.7980928997710845e-05 0 -0.012756522100914653 3.2178722852133845e-05 0 -0.012894543404437043 0.00025436650660630076 0 -0.012982098569201203 0.00016852141750932812 0 -0.012756522100914653 3.2178722852133845e-05 0 -0.012982098569201203 0.00016852141750932812 0 -0.012855470795068833 1.7980928997710845e-05 0 -0.012982098569201203 0.00016852141750932812 0 -0.013131555790485038 0.0002571426529567139 0 -0.013015161227954795 0.00013269660293363053 0 -0.013131555790485038 0.0002571426529567139 0 -0.013015161227954795 0.00013269660293363053 0 -0.013101449026781014 0.00018348904072050339 0 -0.013101449026781014 0.00018348904072050339 0 -0.013320925931393507 0.0002714423100043669 0 -0.01307162292312453 0.00015696212609899463 0 -0.013101449026781014 0.00018348904072050339 0 -0.013320925931393507 0.0002714423100043669 0 -0.013229303650287575 0.00030635261764319285 0 -0.013131555790485038 0.0002571426529567139 0 -0.013101449026781014 0.00018348904072050339 0 -0.013229303650287575 0.00030635261764319285 0 -0.013320925931393507 0.0002714423100043669 0 -0.013107877026908587 0.00017535165993678506 0 -0.01307162292312453 0.00015696212609899463 0 -0.013587133306169261 0.00044018129537384132 0 -0.013352607455424371 0.00042980091031777096 0 -0.013320925931393507 0.0002714423100043669 0 -0.013587133306169261 0.00044018129537384132 0 -0.013320925931393507 0.0002714423100043669 0 -0.013609739027119157 0.00040171743979045194 0 -0.013352607455424371 0.00042980091031777096 0 -0.013320925931393507 0.0002714423100043669 0 -0.013229303650287575 0.00030635261764319285 0 -0.013352607455424371 0.00042980091031777096 0 -0.013232439799469236 0.00039022619745598009 0 -0.013229303650287575 0.00030635261764319285 0 -0.014226629787310978 -0.00017947815787296568 0 -0.014144620188742943 -0.00028217054737236975 0 -0.014064172661731893 -7.1811910918677789e-05 0 -0.013320925931393507 0.0002714423100043669 0 -0.013282005783695875 0.00022223924881135238 0 -0.013609739027119157 0.00040171743979045194 0 -0.013708305035147965 -6.8857589408274639e-06 0 -0.013838216010901738 0.00018339820072180277 0 -0.013320925931393507 0.0002714423100043669 0 -0.013282005783695875 0.00022223924881135238 0 -0.013107877026908587 0.00017535165993678506 0 -0.014144620188742943 -0.00028217054737236975 0 -0.014289382953338594 -0.00030144345805830378 0 -0.014209441747971348 -0.00032957843496176872 0 -0.014226629787310978 -0.00017947815787296568 0 -0.014144620188742943 -0.00028217054737236975 0 -0.014289382953338594 -0.00030144345805830378 0 -0.014528674258738525 -1.4412333410522801e-05 0 -0.014463401346986418 1.5192764198947652e-05 0 -0.01450038316728409 9.5866132591013994e-05 0 -0.014528674258738525 -1.4412333410522801e-05 0 -0.014463401346986418 1.5192764198947652e-05 0 -0.014509312092854118 -0.00010260084937554727 0 -0.014528674258738525 -1.4412333410522801e-05 0 -0.014509312092854118 -0.00010260084937554727 0 -0.014438274253088738 -8.9820048566246772e-05 0 -0.014226629787310978 -0.00017947815787296568 0 -0.014289382953338594 -0.00030144345805830378 0 -0.014438274253088738 -8.9820048566246772e-05 0 -0.01441406187978822 -0.00014189353943914174 0 -0.014435025128155865 -8.7185456313439101e-05 0 -0.014226629787310978 -0.00017947815787296568 0 -0.014438274253088738 -8.9820048566246772e-05 0 -0.014253038096309026 -5.2693296487625063e-06 0 -0.014438274253088738 -8.9820048566246772e-05 0 -0.014326739840382198 0.00013161705798860271 0 -0.014253038096309026 -5.2693296487625063e-06 0 -0.014438274253088738 -8.9820048566246772e-05 0 -0.014569746990932353 2.8986418145502754e-05 0 -0.014326739840382198 0.00013161705798860271 0 -0.014509312092854118 -0.00010260084937554727 0 -0.014438274253088738 -8.9820048566246772e-05 0 -0.014569746990932353 2.8986418145502754e-05 0 -0.014569746990932353 2.8986418145502754e-05 0 -0.014326739840382198 0.00013161705798860271 0 -0.014733125725042692 0.00018317758841373763 0 -0.014326739840382198 0.00013161705798860271 0 -0.014253038096309026 -5.2693296487625063e-06 0 -0.013959686832299518 0.00028346311375304314 0 -0.014226629787310978 -0.00017947815787296568 0 -0.014253038096309026 -5.2693296487625063e-06 0 -0.014064172661731893 -7.1811910918677789e-05 0 -0.014253038096309026 -5.2693296487625063e-06 0 -0.014064172661731893 -7.1811910918677789e-05 0 -0.013959686832299518 0.00028346311375304314 0 -0.013805925903479177 0.00039000176390316404 0 -0.013587133306169261 0.00044018129537384132 0 -0.013609739027119157 0.00040171743979045194 0 -0.013838216010901738 0.00018339820072180277 0 -0.013933883476341596 0.00029713829172722908 0 -0.013805925903479177 0.00039000176390316404 0 -0.013609739027119157 0.00040171743979045194 0 -0.013959686832299518 0.00028346311375304314 0 -0.014000942798552457 0.00032435547365900771 0 -0.014043962680526661 0.00030415827468614813 0 -0.014257165716498706 0.00039856053178231117 0 -0.013959686832299518 0.00028346311375304314 0 -0.014000942798552457 0.00032435547365900771 0 -0.014257165716498706 0.00039856053178231117 0 -0.013989466206124387 0.00035538553576055213 0 -0.013959686832299518 0.00028346311375304314 0 -0.014000942798552457 0.00032435547365900771 0 -0.014326739840382198 0.00013161705798860271 0 -0.013959686832299518 0.00028346311375304314 0 -0.014257165716498706 0.00039856053178231117 0 -0.014534801894202073 0.00016701591337224759 0 -0.014610782373986638 0.00024028955284967774 0 -0.015005877103211711 3.4053379033329294e-05 0 -0.014987667995458073 2.3909846359518461e-05 0 -0.014960311859031981 0.00010998004193592918 0 -0.014216152223596909 7.5433079820613668e-05 0 -0.014000942798552457 0.00032435547365900771 0 -0.014043962680526661 0.00030415827468614813 0 -0.015009554906575431 -1.0673237090039024e-05 0 -0.015005877103211711 3.4053379033329294e-05 0 -0.015000091392744727 -2.2681038109511267e-08 0 -0.015005877103211711 3.4053379033329294e-05 0 -0.014987667995458073 2.3909846359518461e-05 0 -0.015000091392744727 -2.2681038109511267e-08 0 -0.014987667995458073 2.3909846359518461e-05 0 -0.015000091392744727 -2.2681038109511267e-08 0 -0.014999952510537507 1.0947591310426149e-08 0 -0.014999952510537507 1.0947591310426149e-08 0 -0.014937117273623899 3.222876549822914e-05 0 -0.014999900849628623 1.1893625325947984e-08 0 -0.014987667995458073 2.3909846359518461e-05 0 -0.014999952510537507 1.0947591310426149e-08 0 -0.014937117273623899 3.222876549822914e-05 0 -0.014987667995458073 2.3909846359518461e-05 0 -0.014937117273623899 3.222876549822914e-05 0 -0.014960311859031981 0.00010998004193592918 0 -0.014937117273623899 3.222876549822914e-05 0 -0.014960311859031981 0.00010998004193592918 0 -0.014733125725042692 0.00018317758841373763 0 -0.014937117273623899 3.222876549822914e-05 0 -0.014733125725042692 0.00018317758841373763 0 -0.014910578363103453 4.7987579047787394e-05 0 -0.014326739840382198 0.00013161705798860271 0 -0.014257165716498706 0.00039856053178231117 0 -0.014733125725042692 0.00018317758841373763 0 -0.014610782373986638 0.00024028955284967774 0 -0.014727961779424297 0.00019086911496392359 0 -0.014733125725042692 0.00018317758841373763 0 -0.014817952066925603 0.00010558332309989175 0 -0.014857712194048633 9.4970288986473132e-05 0 -0.014733125725042692 0.00018317758841373763 0 -0.014857712194048633 9.4970288986473132e-05 0 -0.014910578363103453 4.7987579047787394e-05 0 -0.014817952066925603 0.00010558332309989175 0 -0.014857712194048633 9.4970288986473132e-05 0 -0.014873916427232046 8.1222825555240613e-05 0 -0.014937117273623899 3.222876549822914e-05 0 -0.014910578363103453 4.7987579047787394e-05 0 -0.014999900849628623 1.1893625325947984e-08 0 -0.014857712194048633 9.4970288986473132e-05 0 -0.014910578363103453 4.7987579047787394e-05 0 -0.014927676199653697 3.3139899556706341e-05 0 -0.014910578363103453 4.7987579047787394e-05 0 -0.014999906212189721 4.8314171243222503e-08 0 -0.014927676199653697 3.3139899556706341e-05 0 -0.014910578363103453 4.7987579047787394e-05 0 -0.014999906212189721 4.8314171243222503e-08 0 -0.014999900849628623 1.1893625325947984e-08 0 -0.014999846313935628 -3.8409790045444969e-08 0 -0.014927676199653697 3.3139899556706341e-05 0 -0.014914349270893532 1.1061992815685261e-05 0 -0.014999906212189721 4.8314171243222503e-08 0 -0.014999846313935628 -3.8409790045444969e-08 0 -0.014927676199653697 3.3139899556706341e-05 0 -0.014927676199653697 3.3139899556706341e-05 0 -0.014914349270893532 1.1061992815685261e-05 0 -0.014896192243131327 5.030089165844632e-05 0 -0.014867242088720247 4.6809782828431769e-05 0 -0.014914349270893532 1.1061992815685261e-05 0 -0.014896192243131327 5.030089165844632e-05 0 -0.014867242088720247 4.6809782828431769e-05 0 -0.014896192243131327 5.030089165844632e-05 0 -0.014862866370222834 8.8543980897190101e-05 0 -0.014927676199653697 3.3139899556706341e-05 0 -0.014896192243131327 5.030089165844632e-05 0 -0.014873916427232046 8.1222825555240613e-05 0 -0.014857712194048633 9.4970288986473132e-05 0 -0.014927676199653697 3.3139899556706341e-05 0 -0.014873916427232046 8.1222825555240613e-05 0 -0.014896192243131327 5.030089165844632e-05 0 -0.014873916427232046 8.1222825555240613e-05 0 -0.014862866370222834 8.8543980897190101e-05 0 -0.014850670630324577 9.0188198168415689e-05 0 -0.014862866370222834 8.8543980897190101e-05 0 -0.014840233111271478 7.3909288840358288e-05 0 -0.014817952066925603 0.00010558332309989175 0 -0.014873916427232046 8.1222825555240613e-05 0 -0.014850670630324577 9.0188198168415689e-05 0 -0.014873916427232046 8.1222825555240613e-05 0 -0.014850670630324577 9.0188198168415689e-05 0 -0.014862866370222834 8.8543980897190101e-05 0 -0.014833975518685313 8.9146584269163544e-05 0 -0.014862866370222834 8.8543980897190101e-05 0 -0.014854861585284393 8.6880126661693647e-05 0 -0.014833975518685313 8.9146584269163544e-05 0 -0.014867242088720247 4.6809782828431769e-05 0 -0.014862866370222834 8.8543980897190101e-05 0 -0.014862866370222834 8.8543980897190101e-05 0 -0.014854861585284393 8.6880126661693647e-05 0 -0.014840233111271478 7.3909288840358288e-05 0 -0.014854861585284393 8.6880126661693647e-05 0 -0.014851651518752588 4.8247692977747824e-05 0 -0.014840233111271478 7.3909288840358288e-05 0 -0.014867350044493605 5.856424313921667e-05 0 -0.014851651518752588 4.8247692977747824e-05 0 -0.014866004905811402 -5.2666759727420411e-07 0 -0.014851651518752588 4.8247692977747824e-05 0 -0.014825792976934052 1.9418206920040262e-05 0 -0.014866004905811402 -5.2666759727420411e-07 0 -0.014867350044493605 5.856424313921667e-05 0 -0.014854861585284393 8.6880126661693647e-05 0 -0.014851651518752588 4.8247692977747824e-05 0 -0.01463875226068489 5.3429840773139694e-05 0 -0.014344637422537759 -0.00010328200778072941 0 -0.014825792976934052 1.9418206920040262e-05 0 -0.014840233111271478 7.3909288840358288e-05 0 -0.014740927485837255 4.9684772141749255e-05 0 -0.014851651518752588 4.8247692977747824e-05 0 -0.014825792976934052 1.9418206920040262e-05 0 -0.014840233111271478 7.3909288840358288e-05 0 -0.014817952066925603 0.00010558332309989175 0 -0.014850670630324577 9.0188198168415689e-05 0 -0.014840233111271478 7.3909288840358288e-05 0 -0.014817952066925603 0.00010558332309989175 0 -0.014840233111271478 7.3909288840358288e-05 0 -0.014740927485837255 4.9684772141749255e-05 0 -0.014569746990932353 2.8986418145502754e-05 0 -0.014733125725042692 0.00018317758841373763 0 -0.014740927485837255 4.9684772141749255e-05 0 -0.014733125725042692 0.00018317758841373763 0 -0.014817952066925603 0.00010558332309989175 0 -0.014740927485837255 4.9684772141749255e-05 0 -0.014509312092854118 -0.00010260084937554727 0 -0.014740927485837255 4.9684772141749255e-05 0 -0.014786815220407527 -6.0519767831296958e-05 0 -0.014509312092854118 -0.00010260084937554727 0 -0.014569746990932353 2.8986418145502754e-05 0 -0.014740927485837255 4.9684772141749255e-05 0 -0.014825792976934052 1.9418206920040262e-05 0 -0.014740927485837255 4.9684772141749255e-05 0 -0.014786815220407527 -6.0519767831296958e-05 0 -0.014495010258561465 -0.00010360923005117756 0 -0.01454133280977114 -8.7882207292052836e-05 0 -0.014509312092854118 -0.00010260084937554727 0 -0.014247785685063212 -0.00013010480212951407 0 -0.014315031150899911 1.3009542014790008e-05 0 -0.014463401346986418 1.5192764198947652e-05 0 -0.014509312092854118 -0.00010260084937554727 0 -0.014315031150899911 1.3009542014790008e-05 0 -0.014315031150899911 1.3009542014790008e-05 0 -0.014213067771961586 -2.1800747845337294e-05 0 -0.014171586559471828 5.5739866396290129e-05 0 -0.014247785685063212 -0.00013010480212951407 0 -0.014315031150899911 1.3009542014790008e-05 0 -0.014213067771961586 -2.1800747845337294e-05 0 -0.014247785685063212 -0.00013010480212951407 0 -0.014213067771961586 -2.1800747845337294e-05 0 -0.014121101889644305 -3.0234629991650182e-05 0 -0.014073890714079579 -0.00011419469151251675 0 -0.014174230801024569 5.0575006763906563e-05 0 -0.014213067771961586 -2.1800747845337294e-05 0 -0.014121101889644305 -3.0234629991650182e-05 0 -0.014171586559471828 5.5739866396290129e-05 0 -0.013931276322605879 -0.00013282638042420058 0 -0.014082267332584251 -0.00013060442662560039 0 -0.013985775558441335 2.6845836003033884e-05 0 -0.013931276322605879 -0.00013282638042420058 0 -0.014082267332584251 -0.00013060442662560039 0 -0.013992976499151233 -0.00027073870444543777 0 -0.014073890714079579 -0.00011419469151251675 0 -0.014344637422537759 -0.00010328200778072941 0 -0.014247785685063212 -0.00013010480212951407 0 -0.014121101889644305 -3.0234629991650182e-05 0 -0.014060941539797374 -0.00012724692031487576 0 -0.01454133280977114 -8.7882207292052836e-05 0 -0.014344637422537759 -0.00010328200778072941 0 -0.014825792976934052 1.9418206920040262e-05 0 -0.014786815220407527 -6.0519767831296958e-05 0 -0.014866004905811402 -5.2666759727420411e-07 0 -0.014099184398043965 0.00015423540721533802 0 -0.014256508023565801 0.00017423331386822466 0 -0.014106973223030683 0.00031099100125401896 0 -0.013915674900741443 0.0002413647707261176 0 -0.014099184398043965 0.00015423540721533802 0 -0.014106973223030683 0.00031099100125401896 0 -0.013915674900741443 0.0002413647707261176 0 -0.014099184398043965 0.00015423540721533802 0 -0.013985775558441335 2.6845836003033884e-05 0 -0.014082267332584251 -0.00013060442662560039 0 -0.013985775558441335 2.6845836003033884e-05 0 -0.014171586559471828 5.5739866396290129e-05 0 -0.014099184398043965 0.00015423540721533802 0 -0.013985775558441335 2.6845836003033884e-05 0 -0.014171586559471828 5.5739866396290129e-05 0 -0.014099184398043965 0.00015423540721533802 0 -0.014171586559471828 5.5739866396290129e-05 0 -0.014256508023565801 0.00017423331386822466 0 -0.014315031150899911 1.3009542014790008e-05 0 -0.014171586559471828 5.5739866396290129e-05 0 -0.014256508023565801 0.00017423331386822466 0 -0.014315031150899911 1.3009542014790008e-05 0 -0.014398511415424661 0.00012913406852903879 0 -0.014256508023565801 0.00017423331386822466 0 -0.014463401346986418 1.5192764198947652e-05 0 -0.014315031150899911 1.3009542014790008e-05 0 -0.014398511415424661 0.00012913406852903879 0 -0.014398511415424661 0.00012913406852903879 0 -0.014368296533546203 0.00027312978508909637 0 -0.014256508023565801 0.00017423331386822466 0 -0.014256508023565801 0.00017423331386822466 0 -0.014251848864068647 0.00031686309763024391 0 -0.014106973223030683 0.00031099100125401896 0 -0.014368296533546203 0.00027312978508909637 0 -0.014256508023565801 0.00017423331386822466 0 -0.014251848864068647 0.00031686309763024391 0 -0.014368296533546203 0.00027312978508909637 0 -0.014251848864068647 0.00031686309763024391 0 -0.014314253284551069 0.00041048310329993502 0 -0.014182636424171193 0.00047717999871506539 0 -0.014407010313738594 0.00037112105496292909 0 -0.014368296533546203 0.00027312978508909637 0 -0.014314253284551069 0.00041048310329993502 0 -0.014415992669677332 0.00036242497395807714 0 -0.014037537829675345 0.0005424905701818558 0 -0.014162517608566818 0.00078944971261195101 0 -0.014350532936153917 0.00060231875833542637 0 -0.014251848864068647 0.00031686309763024391 0 -0.014314253284551069 0.00041048310329993502 0 -0.01411378086230756 0.00055094367815115635 0 -0.014037537829675345 0.0005424905701818558 0 -0.013858067101715563 0.0006853380101148101 0 -0.013923559124025799 0.00080723900274754878 0 -0.014182636424171193 0.00047717999871506539 0 -0.013980171366071487 0.00061811579837911068 0 -0.014251848864068647 0.00031686309763024391 0 -0.01411378086230756 0.00055094367815115635 0 -0.014106973223030683 0.00031099100125401896 0 -0.01411378086230756 0.00055094367815115635 0 -0.014106973223030683 0.00031099100125401896 0 -0.013924303379405169 0.00044788298965469926 0 -0.013915674900741443 0.0002413647707261176 0 -0.014106973223030683 0.00031099100125401896 0 -0.013924303379405169 0.00044788298965469926 0 -0.013770805212963453 0.00072769044507878993 0 -0.013980171366071487 0.00061811579837911068 0 -0.013763799359260538 0.00073772275852423508 0 -0.01411378086230756 0.00055094367815115635 0 -0.013924303379405169 0.00044788298965469926 0 -0.013763799359260538 0.00073772275852423508 0 -0.013858067101715563 0.0006853380101148101 0 -0.013829357122266191 0.00083589000169362879 0 -0.013858067101715563 0.0006853380101148101 0 -0.013829357122266191 0.00083589000169362879 0 -0.013923559124025799 0.00080723900274754878 0 -0.011628150784291087 0.0013594003776547542 0 -0.011331887073482825 0.001329425688494468 0 -0.0094243416307383324 0.0018720667213058587 0 -0.0090434973047715354 0.0013714888836340335 0 -0.0087214525081961789 0.0018591069292753944 0 -0.0090434973047715354 0.0013714888836340335 0 -0.0085786257832782542 0.0012802465925928106 0 -0.0087214525081961789 0.0018591069292753944 0 -0.0098143105117105365 0.0015645613324825601 0 -0.0094243416307383324 0.0018720667213058587 0 -0.0095276470559851247 0.001285534374027139 0 -0.0094243416307383324 0.0018720667213058587 0 -0.0095276470559851247 0.001285534374027139 0 -0.0090434973047715354 0.0013714888836340335 0 -0.0095276470559851247 0.001285534374027139 0 -0.0090434973047715354 0.0013714888836340335 0 -0.0091379416893245038 0.0009922739685665797 0 -0.0090434973047715354 0.0013714888836340335 0 -0.0091379416893245038 0.0009922739685665797 0 -0.0087353795841883155 0.00094278581634495227 0 -0.0090434973047715354 0.0013714888836340335 0 -0.0087353795841883155 0.00094278581634495227 0 -0.0085786257832782542 0.0012802465925928106 0 -0.0091379416893245038 0.0009922739685665797 0 -0.0087353795841883155 0.00094278581634495227 0 -0.0089090028769998886 0.00066151334631754806 0 -0.0087353795841883155 0.00094278581634495227 0 -0.0089090028769998886 0.00066151334631754806 0 -0.0085675589066437664 0.00056747870604110877 0 -0.0091379416893245038 0.0009922739685665797 0 -0.0089090028769998886 0.00066151334631754806 0 -0.0092217596865515686 0.00071361303005215183 0 -0.0092217596865515686 0.00071361303005215183 0 -0.0094294066716795553 0.00089505609078654818 0 -0.0095102841512764245 0.00056968266748223567 0 -0.0097589175362725617 0.00091313861674834356 0 -0.0094294066716795553 0.00089505609078654818 0 -0.0095102841512764245 0.00056968266748223567 0 -0.0097589175362725617 0.00091313861674834356 0 -0.0095276470559851247 0.001285534374027139 0 -0.0094294066716795553 0.00089505609078654818 0 -0.0091379416893245038 0.0009922739685665797 0 -0.0092217596865515686 0.00071361303005215183 0 -0.0094294066716795553 0.00089505609078654818 0 -0.0095276470559851247 0.001285534374027139 0 -0.0091379416893245038 0.0009922739685665797 0 -0.0094294066716795553 0.00089505609078654818 0 -0.0083153142660096178 0.00081174542147271643 0 -0.0081027408738502792 0.0011712115577266603 0 -0.0079341794800514738 0.00082756525316819837 0 -0.0083153142660096178 0.00081174542147271643 0 -0.0079341794800514738 0.00082756525316819837 0 -0.0080020868190747163 0.00057767614575165971 0 -0.0087353795841883155 0.00094278581634495227 0 -0.0083153142660096178 0.00081174542147271643 0 -0.0085786257832782542 0.0012802465925928106 0 -0.0087353795841883155 0.00094278581634495227 0 -0.0083153142660096178 0.00081174542147271643 0 -0.0085675589066437664 0.00056747870604110877 0 -0.0085786257832782542 0.0012802465925928106 0 -0.0081027408738502792 0.0011712115577266603 0 -0.0083342477344096992 0.0015502736880621602 0 -0.0083153142660096178 0.00081174542147271643 0 -0.0085786257832782542 0.0012802465925928106 0 -0.0081027408738502792 0.0011712115577266603 0 -0.0083342477344096992 0.0015502736880621602 0 -0.0081255467351551841 0.0018446468374391585 0 -0.0079248026376090453 0.0015057773212068595 0 -0.0081027408738502792 0.0011712115577266603 0 -0.0083342477344096992 0.0015502736880621602 0 -0.0079248026376090453 0.0015057773212068595 0 -0.0083342477344096992 0.0015502736880621602 0 -0.0087214525081961789 0.0018591069292753944 0 -0.0081255467351551841 0.0018446468374391585 0 -0.0085786257832782542 0.0012802465925928106 0 -0.0083342477344096992 0.0015502736880621602 0 -0.0087214525081961789 0.0018591069292753944 0 -0.011331887073482825 0.001329425688494468 0 -0.011145474238048568 0.0013506318638048039 0 -0.014037537829675345 0.0005424905701818558 0 -0.013923559124025799 0.00080723900274754878 0 -0.014162517608566818 0.00078944971261195101 0 -0.011145474238048568 0.0013506318638048039 0 -0.011025429688895206 0.0010481718534957288 0 -0.014162517608566818 0.00078944971261195101 0 -0.014490061440297183 0.00075609417051688773 0 -0.014350532936153917 0.00060231875833542637 0 -0.0081255467351551841 0.0018446468374391585 0 -0.0075648185128472075 0.0018875176774610254 0 -0.0079248026376090453 0.0015057773212068595 0 -0.011025429688895206 0.0010481718534957288 0 -0.011730705337497916 0.00026020478186140704 0 -0.014374337123863564 0.00052904494044779234 0 -0.014486993573039493 0.0005108571546778341 0 -0.014450842217646363 0.00044366248140215002 0 -0.0076467084167292218 0.0011425757117959532 0 -0.0075970760306442349 0.0011110691041304969 0 -0.0075930083480285401 0.0011478361377770707 0 -0.011025429688895206 0.0010481718534957288 0 -0.0075421498905090265 0.0014253006108624093 0 -0.0076467084167292218 0.0011425757117959532 0 -0.0076282195410975777 0.0010746118944279617 0 -0.0075970760306442349 0.0011110691041304969 0 -0.0075648185128472075 0.0018875176774610254 0 -0.007582898467278925 0.0014827811538023466 0 -0.0079248026376090453 0.0015057773212068595 0 -0.0076282195410975777 0.0010746118944279617 0 -0.0075748892055181498 0.0010458934740970708 0 -0.0075970760306442349 0.0011110691041304969 0 -0.007582898467278925 0.0014827811538023466 0 -0.0079248026376090453 0.0015057773212068595 0 -0.007634684472222192 0.0010128078460533072 0 -0.0081027408738502792 0.0011712115577266603 0 -0.007634684472222192 0.0010128078460533072 0 -0.0079341794800514738 0.00082756525316819837 0 -0.0081027408738502792 0.0011712115577266603 0 -0.0079248026376090453 0.0015057773212068595 0 -0.007634684472222192 0.0010128078460533072 0 -0.0075421498905090265 0.0014253006108624093 0 -0.0076399433299544134 0.0009873271340372742 0 -0.0076282195410975777 0.0010746118944279617 0 -0.0075748892055181498 0.0010458934740970708 0 -0.007634684472222192 0.0010128078460533072 0 -0.0075748892055181498 0.0010458934740970708 0 -0.007555153249106863 0.00098077278107075536 0 -0.007634684472222192 0.0010128078460533072 0 -0.007555153249106863 0.00098077278107075536 0 -0.007634684472222192 0.0010128078460533072 0 -0.0075191339353790267 0.00085200346463952721 0 -0.007634684472222192 0.0010128078460533072 0 -0.0075191339353790267 0.00085200346463952721 0 -0.0076645875802048603 0.00061178344522533682 0 -0.007634684472222192 0.0010128078460533072 0 -0.0079341794800514738 0.00082756525316819837 0 -0.0076645875802048603 0.00061178344522533682 0 -0.011919980427056071 -0.0003129029479510712 0 -0.012208960624823045 1.3849236681516526e-05 0 -0.012087418450044197 -0.00082326843153721389 0 -0.011855699761401634 5.9277531268114481e-06 0 -0.011919980427056071 -0.0003129029479510712 0 -0.012208960624823045 1.3849236681516526e-05 0 -0.011855699761401634 5.9277531268114481e-06 0 -0.011919980427056071 -0.0003129029479510712 0 -0.011490603619223567 -0.00032272920530347795 0 -0.0075191339353790267 0.00085200346463952721 0 -0.0074036881037166501 0.0008784017742512419 0 -0.0074456410072402356 0.00074653985894685131 0 -0.0075191339353790267 0.00085200346463952721 0 -0.0074036881037166501 0.0008784017742512419 0 -0.0074856291838482939 0.00098857109826008122 0 -0.0074036881037166501 0.0008784017742512419 0 -0.0074856291838482939 0.00098857109826008122 0 -0.0075124902318312826 0.0011605114936479853 0 -0.0099497827369296223 0.00042386438013946188 0 -0.0095343864731322198 0.00085879956065042793 0 -0.0075870410009391959 0.0011357353605993214 0 -0.0095343864731322198 0.00085879956065042793 0 -0.0075748892055181498 0.0010458934740970708 0 -0.0074856291838482939 0.00098857109826008122 0 -0.0075388417399176368 0.0010825161990981678 0 -0.007555153249106863 0.00098077278107075536 0 -0.0075191339353790267 0.00085200346463952721 0 -0.0074856291838482939 0.00098857109826008122 0 -0.0075748892055181498 0.0010458934740970708 0 -0.007555153249106863 0.00098077278107075536 0 -0.0074856291838482939 0.00098857109826008122 0 -0.011855699761401634 5.9277531268114481e-06 0 -0.012208960624823045 1.3849236681516526e-05 0 -0.012003448075921193 0.0003902529997626351 0 -0.012208960624823045 1.3849236681516526e-05 0 -0.012003448075921193 0.0003902529997626351 0 -0.012226067647093051 0.00049438777720789092 0 -0.012003448075921193 0.0003902529997626351 0 -0.012172243478078069 0.00051634271096148796 0 -0.012075856973417273 0.00054858503941623198 0 -0.012003448075921193 0.0003902529997626351 0 -0.012172243478078069 0.00051634271096148796 0 -0.012226067647093051 0.00049438777720789092 0 -0.0075388417399176368 0.0010825161990981678 0 -0.0075970760306442349 0.0011110691041304969 0 -0.0075930083480285401 0.0011478361377770707 0 -0.0075748892055181498 0.0010458934740970708 0 -0.0075388417399176368 0.0010825161990981678 0 -0.0075970760306442349 0.0011110691041304969 0 -0.012172243478078069 0.00051634271096148796 0 -0.012226067647093051 0.00049438777720789092 0 -0.012166142178217529 0.00048829125801081537 0 -0.0095343864731322198 0.00085879956065042793 0 -0.011730705337497916 0.00026020478186140704 0 -0.0095343864731322198 0.00085879956065042793 0 -0.01239272206962137 8.3198287726792409e-05 0 -0.010973630516853709 0.00072153383958372091 0 -0.011023258074905944 0.00031806115604259005 0 -0.010924995458957075 0.00033000043633640657 0 -0.01239272206962137 8.3198287726792409e-05 0 -0.011730705337497916 0.00026020478186140704 0 -0.012172243478078069 0.00051634271096148796 0 -0.01226949177839695 0.00044255274570355937 0 -0.012075856973417273 0.00054858503941623198 0 -0.012172243478078069 0.00051634271096148796 0 -0.012166142178217529 0.00048829125801081537 0 -0.01226949177839695 0.00044255274570355937 0 -0.012324297174858761 0.0004123364338029267 0 -0.01226949177839695 0.00044255274570355937 0 -0.01239928382441364 0.00036284994782405811 0 -0.01239272206962137 8.3198287726792409e-05 0 -0.012216720855126489 0.0003992224288406948 0 -0.01226949177839695 0.00044255274570355937 0 -0.012422994095269745 0.00034906778647429313 0 -0.01239928382441364 0.00036284994782405811 0 -0.01239928382441364 0.00036284994782405811 0 -0.012514396894074417 0.00029666636253415342 0 -0.012498041521009005 0.00027708530752111263 0 -0.012422994095269745 0.00034906778647429313 0 -0.01239928382441364 0.00036284994782405811 0 -0.012514396894074417 0.00029666636253415342 0 -0.012422994095269745 0.00034906778647429313 0 -0.012514396894074417 0.00029666636253415342 0 -0.012559012915691186 0.00027092337733609695 0 -0.012514396894074417 0.00029666636253415342 0 -0.012697800485055309 0.0002074708485299443 0 -0.012559012915691186 0.00027092337733609695 0 -0.012514396894074417 0.00029666636253415342 0 -0.012697800485055309 0.0002074708485299443 0 -0.012498041521009005 0.00027708530752111263 0 -0.014183905770362049 -0.00029367039239317503 0 -0.014145640955657702 -0.00028909407966095106 0 -0.014178220457847009 -0.00032498590171564163 0 -0.012324297174858761 0.0004123364338029267 0 -0.01239928382441364 0.00036284994782405811 0 -0.012498041521009005 0.00027708530752111263 0 -0.014486993573039493 0.0005108571546778341 0 -0.014515938110940596 0.0003360881094547234 0 -0.014450842217646363 0.00044366248140215002 0 -0.014142992809463894 -0.00018165693881663886 0 -0.014123239038437041 -0.00017894652950786524 0 -0.014145640955657702 -0.00028909407966095106 0 -0.011730705337497916 0.00026020478186140704 0 -0.014620456464285714 5.0785798899862099e-05 0 -0.014142992809463894 -0.00018165693881663886 0 -0.014183905770362049 -0.00029367039239317503 0 -0.014145640955657702 -0.00028909407966095106 0 -0.01239272206962137 8.3198287726792409e-05 0 -0.013443016733032985 5.7872638835635471e-06 0 -0.014374337123863564 0.00052904494044779234 0 -0.014450842217646363 0.00044366248140215002 0 -0.014436628766887163 0.00037758869179461383 0 -0.011025429688895206 0.0010481718534957288 0 -0.014697768572587545 0.00028393599951086185 0 -0.014490061440297183 0.00075609417051688773 0 -0.014547468035166348 0.00046709964532302143 0 -0.014350532936153917 0.00060231875833542637 0 -0.014515938110940596 0.0003360881094547234 0 -0.014450842217646363 0.00044366248140215002 0 -0.014436628766887163 0.00037758869179461383 0 -0.014037537829675345 0.0005424905701818558 0 -0.014350532936153917 0.00060231875833542637 0 -0.014415992669677332 0.00036242497395807714 0 -0.014547468035166348 0.00046709964532302143 0 -0.014350532936153917 0.00060231875833542637 0 -0.014415992669677332 0.00036242497395807714 0 -0.014368296533546203 0.00027312978508909637 0 -0.014415992669677332 0.00036242497395807714 0 -0.014465479525821416 0.00026866178820650382 0 -0.014515938110940596 0.0003360881094547234 0 -0.014436628766887163 0.00037758869179461383 0 -0.014539970358918575 0.00024777732150203221 0 -0.014697768572587545 0.00028393599951086185 0 -0.014501952948142332 0.00032970015094546369 0 -0.014547468035166348 0.00046709964532302143 0 -0.014415992669677332 0.00036242497395807714 0 -0.014465479525821416 0.00026866178820650382 0 -0.014547468035166348 0.00046709964532302143 0 -0.014539970358918575 0.00024777732150203221 0 -0.014465479525821416 0.00026866178820650382 0 -0.014515938110940596 0.0003360881094547234 0 -0.014539970358918575 0.00024777732150203221 0 -0.014574616145978863 0.00017926152829210072 0 -0.014539970358918575 0.00024777732150203221 0 -0.014465479525821416 0.00026866178820650382 0 -0.014505445071395284 0.00020015491355057177 0 -0.014505445071395284 0.00020015491355057177 0 -0.0144468429727223 0.00019696399373546981 0 -0.01450038316728409 9.5866132591013994e-05 0 -0.014505445071395284 0.00020015491355057177 0 -0.014574616145978863 0.00017926152829210072 0 -0.01450038316728409 9.5866132591013994e-05 0 -0.014539970358918575 0.00024777732150203221 0 -0.014505445071395284 0.00020015491355057177 0 -0.014574616145978863 0.00017926152829210072 0 -0.014398511415424661 0.00012913406852903879 0 -0.014368296533546203 0.00027312978508909637 0 -0.0144468429727223 0.00019696399373546981 0 -0.014368296533546203 0.00027312978508909637 0 -0.014465479525821416 0.00026866178820650382 0 -0.0144468429727223 0.00019696399373546981 0 -0.014465479525821416 0.00026866178820650382 0 -0.014505445071395284 0.00020015491355057177 0 -0.0144468429727223 0.00019696399373546981 0 -0.014398511415424661 0.00012913406852903879 0 -0.0144468429727223 0.00019696399373546981 0 -0.01450038316728409 9.5866132591013994e-05 0 -0.014463401346986418 1.5192764198947652e-05 0 -0.014398511415424661 0.00012913406852903879 0 -0.01450038316728409 9.5866132591013994e-05 0 -0.01441406187978822 -0.00014189353943914174 0 -0.014348408282177594 -9.6130556020799596e-05 0 -0.014289382953338594 -0.00030144345805830378 0 -0.014194440352510886 -0.00035117866011778493 0 -0.014209441747971348 -0.00032957843496176872 0 -0.014528674258738525 -1.4412333410522801e-05 0 -0.014574616145978863 0.00017926152829210072 0 -0.01450038316728409 9.5866132591013994e-05 0 -0.014194440352510886 -0.00035117866011778493 0 -0.014209441747971348 -0.00032957843496176872 0 -0.014187697777977452 -0.00035192925854750042 0 -0.014144620188742943 -0.00028217054737236975 0 -0.014209441747971348 -0.00032957843496176872 0 -0.014187697777977452 -0.00035192925854750042 0 -0.013708305035147965 -6.8857589408274639e-06 0 -0.013520952774863258 -7.6267460349305652e-05 0 -0.013282005783695875 0.00022223924881135238 0 -0.013107877026908587 0.00017535165993678506 0 -0.01288030826256927 0.0001484723527385818 0 -0.013107877026908587 0.00017535165993678506 0 -0.01288030826256927 0.0001484723527385818 0 -0.012937573702059536 0.00014854763394012198 0 -0.012697800485055309 0.0002074708485299443 0 -0.01288030826256927 0.0001484723527385818 0 -0.012937573702059536 0.00014854763394012198 0 -0.012697800485055309 0.0002074708485299443 0 -0.012498041521009005 0.00027708530752111263 0 -0.01288030826256927 0.0001484723527385818 0 -0.014194440352510886 -0.00035117866011778493 0 -0.014187697777977452 -0.00035192925854750042 0 -0.014178220457847009 -0.00032498590171564163 0 -0.014620456464285714 5.0785798899862099e-05 0 -0.014348408282177594 -9.6130556020799596e-05 0 -0.013443016733032985 5.7872638835635471e-06 0 -0.013520952774863258 -7.6267460349305652e-05 0 -0.014183905770362049 -0.00029367039239317503 0 -0.014187697777977452 -0.00035192925854750042 0 -0.014178220457847009 -0.00032498590171564163 0 -0.014145640955657702 -0.00028909407966095106 0 -0.014194440352510886 -0.00035117866011778493 0 -0.014178220457847009 -0.00032498590171564163 0 -0.012928384499227962 0.00012733624573933437 0 -0.012886673706144651 8.6048786838697713e-05 0 -0.012774535636944398 0.00015928375080352552 0 -0.012928384499227962 0.00012733624573933437 0 -0.012987608683572073 0.0001127748430975044 0 -0.012886673706144651 8.6048786838697713e-05 0 -0.012886673706144651 8.6048786838697713e-05 0 -0.012793814662205808 0.00014699044480372613 0 -0.012774535636944398 0.00015928375080352552 0 -0.012697800485055309 0.0002074708485299443 0 -0.012937573702059536 0.00014854763394012198 0 -0.012774535636944398 0.00015928375080352552 0 -0.012928384499227962 0.00012733624573933437 0 -0.012937573702059536 0.00014854763394012198 0 -0.012774535636944398 0.00015928375080352552 0 -0.012928384499227962 0.00012733624573933437 0 -0.012937573702059536 0.00014854763394012198 0 -0.01307162292312453 0.00015696212609899463 0 -0.013107877026908587 0.00017535165993678506 0 -0.012937573702059536 0.00014854763394012198 0 -0.01307162292312453 0.00015696212609899463 0 -0.012928384499227962 0.00012733624573933437 0 -0.01307162292312453 0.00015696212609899463 0 -0.012987608683572073 0.0001127748430975044 0 -0.013101449026781014 0.00018348904072050339 0 -0.01307162292312453 0.00015696212609899463 0 -0.012987608683572073 0.0001127748430975044 0 -0.013015161227954795 0.00013269660293363053 0 -0.012987608683572073 0.0001127748430975044 0 -0.01292869511009515 6.4205297983134166e-05 0 -0.013015161227954795 0.00013269660293363053 0 -0.013101449026781014 0.00018348904072050339 0 -0.012987608683572073 0.0001127748430975044 0 -0.012987608683572073 0.0001127748430975044 0 -0.01292869511009515 6.4205297983134166e-05 0 -0.012886673706144651 8.6048786838697713e-05 0 -0.013015161227954795 0.00013269660293363053 0 -0.01292869511009515 6.4205297983134166e-05 0 -0.012855470795068833 1.7980928997710845e-05 0 -0.01292869511009515 6.4205297983134166e-05 0 -0.012855470795068833 1.7980928997710845e-05 0 -0.012869463415294685 2.9587210689763697e-05 0 -0.012855470795068833 1.7980928997710845e-05 0 -0.012869463415294685 2.9587210689763697e-05 0 -0.01280063914219866 -1.5618582289763335e-05 0 -0.012869463415294685 2.9587210689763697e-05 0 -0.012870423709321505 5.067993053904772e-05 0 -0.01280063914219866 -1.5618582289763335e-05 0 -0.012869463415294685 2.9587210689763697e-05 0 -0.012856996465605772 9.3834059598433756e-05 0 -0.012870423709321505 5.067993053904772e-05 0 -0.01292869511009515 6.4205297983134166e-05 0 -0.012869463415294685 2.9587210689763697e-05 0 -0.012886673706144651 8.6048786838697713e-05 0 -0.012869463415294685 2.9587210689763697e-05 0 -0.012886673706144651 8.6048786838697713e-05 0 -0.012856996465605772 9.3834059598433756e-05 0 -0.012886673706144651 8.6048786838697713e-05 0 -0.012793814662205808 0.00014699044480372613 0 -0.012856996465605772 9.3834059598433756e-05 0 -0.012793814662205808 0.00014699044480372613 0 -0.01285393371117801 0.00024269965492714927 0 -0.012640927045346022 0.00025234212653890887 0 -0.012793814662205808 0.00014699044480372613 0 -0.012856996465605772 9.3834059598433756e-05 0 -0.01285393371117801 0.00024269965492714927 0 -0.012856996465605772 9.3834059598433756e-05 0 -0.01285393371117801 0.00024269965492714927 0 -0.012870423709321505 5.067993053904772e-05 0 -0.011525059656981154 0.00092719881621359309 0 -0.011228202723496073 0.0011591004735552509 0 -0.010173985119021241 0.0016625759142417681 0 -0.0096953308753589557 0.0016454335507899414 0 -0.0096880842985987963 0.0020265940248526799 0 -0.010173985119021241 0.0016625759142417681 0 -0.0098989996181511608 0.0010567465065808885 0 -0.0096953308753589557 0.0016454335507899414 0 -0.01285393371117801 0.00024269965492714927 0 -0.012640927045346022 0.00025234212653890887 0 -0.012559422273008646 0.00047988256311078424 0 -0.011525059656981154 0.00092719881621359309 0 -0.011674864696941317 0.00083183267827965674 0 -0.012640927045346022 0.00025234212653890887 0 -0.012381711203998369 0.00037548948307927635 0 -0.012559422273008646 0.00047988256311078424 0 -0.012793814662205808 0.00014699044480372613 0 -0.012640927045346022 0.00025234212653890887 0 -0.012774535636944398 0.00015928375080352552 0 -0.012640927045346022 0.00025234212653890887 0 -0.012774535636944398 0.00015928375080352552 0 -0.012559012915691186 0.00027092337733609695 0 -0.012697800485055309 0.0002074708485299443 0 -0.012774535636944398 0.00015928375080352552 0 -0.012559012915691186 0.00027092337733609695 0 -0.012640927045346022 0.00025234212653890887 0 -0.012559012915691186 0.00027092337733609695 0 -0.012381711203998369 0.00037548948307927635 0 -0.012422994095269745 0.00034906778647429313 0 -0.012559012915691186 0.00027092337733609695 0 -0.012381711203998369 0.00037548948307927635 0 -0.01226949177839695 0.00044255274570355937 0 -0.012422994095269745 0.00034906778647429313 0 -0.012381711203998369 0.00037548948307927635 0 -0.012381711203998369 0.00037548948307927635 0 -0.012075856973417273 0.00054858503941623198 0 -0.012559422273008646 0.00047988256311078424 0 -0.01226949177839695 0.00044255274570355937 0 -0.012381711203998369 0.00037548948307927635 0 -0.012075856973417273 0.00054858503941623198 0 -0.011674864696941317 0.00083183267827965674 0 -0.011820805007178373 0.00058425020383962088 0 -0.010776526218563384 0.0012448513338129041 0 -0.011785124867569479 0.00059140127831991808 0 -0.01094624573391813 0.00037122511099957676 0 -0.012075856973417273 0.00054858503941623198 0 -0.012559422273008646 0.00047988256311078424 0 -0.011785124867569479 0.00059140127831991808 0 -0.012003448075921193 0.0003902529997626351 0 -0.012075856973417273 0.00054858503941623198 0 -0.011785124867569479 0.00059140127831991808 0 -0.011855699761401634 5.9277531268114481e-06 0 -0.012003448075921193 0.0003902529997626351 0 -0.011549828751508166 0.00015152139406084231 0 -0.012003448075921193 0.0003902529997626351 0 -0.011785124867569479 0.00059140127831991808 0 -0.011549828751508166 0.00015152139406084231 0 -0.011549828751508166 0.00015152139406084231 0 -0.01094624573391813 0.00037122511099957676 0 -0.010882485875400591 -0.00012634535895872243 0 -0.011785124867569479 0.00059140127831991808 0 -0.011549828751508166 0.00015152139406084231 0 -0.01094624573391813 0.00037122511099957676 0 -0.01094624573391813 0.00037122511099957676 0 -0.010882485875400591 -0.00012634535895872243 0 -0.010288373008940909 9.7576531452595909e-05 0 -0.010882485875400591 -0.00012634535895872243 0 -0.011490603619223567 -0.00032272920530347795 0 -0.010728759342348087 -0.00047773876061597527 0 -0.010882485875400591 -0.00012634535895872243 0 -0.010263648535558173 -0.00025044855236786397 0 -0.010728759342348087 -0.00047773876061597527 0 -0.011549828751508166 0.00015152139406084231 0 -0.010882485875400591 -0.00012634535895872243 0 -0.011490603619223567 -0.00032272920530347795 0 -0.011855699761401634 5.9277531268114481e-06 0 -0.011549828751508166 0.00015152139406084231 0 -0.011490603619223567 -0.00032272920530347795 0 -0.0097411381964448499 -0.00012136055681375133 0 -0.0096720687111941771 0.00027493297565715118 0 -0.0092927027288788235 -5.8208012228573273e-05 0 -0.0097411381964448499 -0.00012136055681375133 0 -0.0093861957748069911 -0.00031555523198858814 0 -0.0098075770333890915 -0.00039960729451788069 0 -0.0097411381964448499 -0.00012136055681375133 0 -0.010263648535558173 -0.00025044855236786397 0 -0.0098075770333890915 -0.00039960729451788069 0 -0.010882485875400591 -0.00012634535895872243 0 -0.010263648535558173 -0.00025044855236786397 0 -0.010288373008940909 9.7576531452595909e-05 0 -0.0097411381964448499 -0.00012136055681375133 0 -0.010263648535558173 -0.00025044855236786397 0 -0.010288373008940909 9.7576531452595909e-05 0 -0.01094624573391813 0.00037122511099957676 0 -0.010288373008940909 9.7576531452595909e-05 0 -0.010303158779195867 0.0005670553459296029 0 -0.010288373008940909 9.7576531452595909e-05 0 -0.0096720687111941771 0.00027493297565715118 0 -0.010303158779195867 0.0005670553459296029 0 -0.0097411381964448499 -0.00012136055681375133 0 -0.010288373008940909 9.7576531452595909e-05 0 -0.0096720687111941771 0.00027493297565715118 0 -0.0096720687111941771 0.00027493297565715118 0 -0.0098989996181511608 0.0010567465065808885 0 -0.0093671942883958494 0.00055664798029945854 0 -0.0096720687111941771 0.00027493297565715118 0 -0.010303158779195867 0.0005670553459296029 0 -0.0098989996181511608 0.0010567465065808885 0 -0.010776526218563384 0.0012448513338129041 0 -0.01094624573391813 0.00037122511099957676 0 -0.010303158779195867 0.0005670553459296029 0 -0.010776526218563384 0.0012448513338129041 0 -0.010303158779195867 0.0005670553459296029 0 -0.0098989996181511608 0.0010567465065808885 0 -0.010173985119021241 0.0016625759142417681 0 -0.010776526218563384 0.0012448513338129041 0 -0.0098989996181511608 0.0010567465065808885 0 -0.0094025794915190714 0.00034267320107517842 0 -0.0093671942883958494 0.00055664798029945854 0 -0.0094665833043855764 0.0003091584011277041 0 -0.0098989996181511608 0.0010567465065808885 0 -0.0093671942883958494 0.00055664798029945854 0 -0.0093773061452615131 0.0013861272186039522 0 -0.0093786176642077657 0.00059011807884746929 0 -0.0094508196342963525 0.00080623849060449445 0 -0.0094025794915190714 0.00034267320107517842 0 -0.0090795651376562991 0.00031093489526706194 0 -0.0093671942883958494 0.00055664798029945854 0 -0.0094025794915190714 0.00034267320107517842 0 -0.0090795651376562991 0.00031093489526706194 0 -0.0090917031064090999 0.00020827023025991805 0 -0.0090795651376562991 0.00031093489526706194 0 -0.0093671942883958494 0.00055664798029945854 0 -0.0092273789235649707 0.00022677896232718936 0 -0.0096720687111941771 0.00027493297565715118 0 -0.0092273789235649707 0.00022677896232718936 0 -0.0092927027288788235 -5.8208012228573273e-05 0 -0.0096720687111941771 0.00027493297565715118 0 -0.0093671942883958494 0.00055664798029945854 0 -0.0092273789235649707 0.00022677896232718936 0 -0.0090795651376562991 0.00031093489526706194 0 -0.0092273789235649707 0.00022677896232718936 0 -0.0088641161220950615 4.3356079199546074e-05 0 -0.0090795651376562991 0.00031093489526706194 0 -0.0088641161220950615 4.3356079199546074e-05 0 -0.0086033923650001808 0.00014039128311304271 0 -0.0088641161220950615 4.3356079199546074e-05 0 -0.0092927027288788235 -5.8208012228573273e-05 0 -0.0090107644984325202 -0.00025400875005068688 0 -0.0088641161220950615 4.3356079199546074e-05 0 -0.0090107644984325202 -0.00025400875005068688 0 -0.0085846656380752541 -0.00019308519829288299 0 -0.0092927027288788235 -5.8208012228573273e-05 0 -0.0093861957748069911 -0.00031555523198858814 0 -0.0090107644984325202 -0.00025400875005068688 0 -0.0092273789235649707 0.00022677896232718936 0 -0.0088641161220950615 4.3356079199546074e-05 0 -0.0092927027288788235 -5.8208012228573273e-05 0 -0.0097411381964448499 -0.00012136055681375133 0 -0.0092927027288788235 -5.8208012228573273e-05 0 -0.0093861957748069911 -0.00031555523198858814 0 -0.0076952994553807384 5.7055026000886121e-07 0 -0.0083936600011944914 -5.6586262908274019e-06 0 -0.0079856977203337526 -0.00010853292843796104 0 -0.0076952994553807384 5.7055026000886121e-07 0 -0.0083936600011944914 -5.6586262908274019e-06 0 -0.0086033923650001808 0.00014039128311304271 0 -0.0088641161220950615 4.3356079199546074e-05 0 -0.0083936600011944914 -5.6586262908274019e-06 0 -0.0086033923650001808 0.00014039128311304271 0 -0.0088641161220950615 4.3356079199546074e-05 0 -0.0083936600011944914 -5.6586262908274019e-06 0 -0.0085846656380752541 -0.00019308519829288299 0 -0.0076952994553807384 5.7055026000886121e-07 0 -0.0086033923650001808 0.00014039128311304271 0 -0.0084939287178496768 1.8894844193325163e-07 0 -0.0084939287178496768 1.8894844193325163e-07 0 -0.0090917031064090999 0.00020827023025991805 0 -0.0092920497588527655 3.5051682135440991e-07 0 -0.0086033923650001808 0.00014039128311304271 0 -0.0084939287178496768 1.8894844193325163e-07 0 -0.0090917031064090999 0.00020827023025991805 0 -0.0090795651376562991 0.00031093489526706194 0 -0.0086033923650001808 0.00014039128311304271 0 -0.0090917031064090999 0.00020827023025991805 0 -0.0094025794915190714 0.00034267320107517842 0 -0.0090917031064090999 0.00020827023025991805 0 -0.0096216319910034966 0.00020448831269519386 0 -0.0090917031064090999 0.00020827023025991805 0 -0.0092920497588527655 3.5051682135440991e-07 0 -0.0096216319910034966 0.00020448831269519386 0 -0.0092920497588527655 3.5051682135440991e-07 0 -0.0099287180541530046 0.00011426168428169279 0 -0.010090278512570711 2.115421232046835e-07 0 -0.0092920497588527655 3.5051682135440991e-07 0 -0.0099287180541530046 0.00011426168428169279 0 -0.0096216319910034966 0.00020448831269519386 0 -0.0099287180541530046 0.00011426168428169279 0 -0.010090278512570711 2.115421232046835e-07 0 -0.010371134868692346 8.4501188017502808e-05 0 -0.0099287180541530046 0.00011426168428169279 0 -0.009936103725837581 0.00016958252607959161 0 -0.010371134868692346 8.4501188017502808e-05 0 -0.0099287180541530046 0.00011426168428169279 0 -0.0096216319910034966 0.00020448831269519386 0 -0.009936103725837581 0.00016958252607959161 0 -0.0096868294883230392 0.00023431425905129418 0 -0.0094665833043855764 0.0003091584011277041 0 -0.0098040304708329456 0.00018230227522082336 0 -0.0094025794915190714 0.00034267320107517842 0 -0.0096216319910034966 0.00020448831269519386 0 -0.0096868294883230392 0.00023431425905129418 0 -0.0094025794915190714 0.00034267320107517842 0 -0.0096868294883230392 0.00023431425905129418 0 -0.0094665833043855764 0.0003091584011277041 0 -0.0096216319910034966 0.00020448831269519386 0 -0.0096868294883230392 0.00023431425905129418 0 -0.009936103725837581 0.00016958252607959161 0 -0.0096953308753589557 0.0016454335507899414 0 -0.0093773061452615131 0.0013861272186039522 0 -0.00942425985164164 0.0019365114267379515 0 -0.0098989996181511608 0.0010567465065808885 0 -0.0096953308753589557 0.0016454335507899414 0 -0.0093773061452615131 0.0013861272186039522 0 -0.0094508196342963525 0.00080623849060449445 0 -0.0094657490671595252 0.0012410888262496241 0 -0.0096953308753589557 0.0016454335507899414 0 -0.00942425985164164 0.0019365114267379515 0 -0.0096880842985987963 0.0020265940248526799 0 -0.0098040304708329456 0.00018230227522082336 0 -0.009936103725837581 0.00016958252607959161 0 -0.010131298279489517 0.00011216305037203061 0 -0.0096868294883230392 0.00023431425905129418 0 -0.0098040304708329456 0.00018230227522082336 0 -0.009936103725837581 0.00016958252607959161 0 -0.0094657490671595252 0.0012410888262496241 0 -0.011147376463272053 0.000449696291269519 0 -0.0098040304708329456 0.00018230227522082336 0 -0.010131298279489517 0.00011216305037203061 0 -0.010126489795424156 1.2520337016035454e-05 0 -0.010131298279489517 0.00011216305037203061 0 -0.010403764595033647 3.9101030524260891e-05 0 -0.010126489795424156 1.2520337016035454e-05 0 -0.012870423709321505 5.067993053904772e-05 0 -0.01280063914219866 -1.5618582289763335e-05 0 -0.012720624035081897 -5.9159565418766163e-05 0 -0.00942425985164164 0.0019365114267379515 0 -0.0096880842985987963 0.0020265940248526799 0 -0.009415121064344242 0.002281474351774504 0 -0.011228202723496073 0.0011591004735552509 0 -0.011147376463272053 0.000449696291269519 0 -0.012504809924508923 -0.00014419438175712859 0 -0.012726823137515797 -5.5440082094157608e-05 0 -0.012720624035081897 -5.9159565418766163e-05 0 -0.012855470795068833 1.7980928997710845e-05 0 -0.01280063914219866 -1.5618582289763335e-05 0 -0.012726823137515797 -5.5440082094157608e-05 0 -0.01280063914219866 -1.5618582289763335e-05 0 -0.012726823137515797 -5.5440082094157608e-05 0 -0.012720624035081897 -5.9159565418766163e-05 0 -0.012756522100914653 3.2178722852133845e-05 0 -0.012855470795068833 1.7980928997710845e-05 0 -0.012726823137515797 -5.5440082094157608e-05 0 -0.012539842235249033 -0.00049908464850782178 0 -0.011147376463272053 0.000449696291269519 0 -0.012504809924508923 -0.00014419438175712859 0 -0.012581967385471916 -0.00081334174325921977 0 -0.012101289327235584 -0.00032747513884854223 0 -0.010403764595033647 3.9101030524260891e-05 0 -0.010126489795424156 1.2520337016035454e-05 0 -0.010589330844259488 -0.0001096773286986236 0 -0.011147376463272053 0.000449696291269519 0 -0.011422806254410662 -0.00028383660372926313 0 -0.010403764595033647 3.9101030524260891e-05 0 -0.010882005134603696 -1.4663023190477235e-05 0 -0.010371134868692346 8.4501188017502808e-05 0 -0.010403764595033647 3.9101030524260891e-05 0 -0.010589330844259488 -0.0001096773286986236 0 -0.010882005134603696 -1.4663023190477235e-05 0 -0.011322127425826113 -2.4937192596897986e-05 0 -0.010882005134603696 -1.4663023190477235e-05 0 -0.010888564393226203 -1.8959679298928322e-09 0 -0.010882005134603696 -1.4663023190477235e-05 0 -0.010888564393226203 -1.8959679298928322e-09 0 -0.010371134868692346 8.4501188017502808e-05 0 -0.010090278512570711 2.115421232046835e-07 0 -0.010888564393226203 -1.8959679298928322e-09 0 -0.010371134868692346 8.4501188017502808e-05 0 -0.010131298279489517 0.00011216305037203061 0 -0.010403764595033647 3.9101030524260891e-05 0 -0.010371134868692346 8.4501188017502808e-05 0 -0.009936103725837581 0.00016958252607959161 0 -0.010131298279489517 0.00011216305037203061 0 -0.010371134868692346 8.4501188017502808e-05 0 -0.0058507396748440493 9.092110949829611e-05 0 -0.005351376471694546 -0.00014708595873236179 0 -0.0077216556199978005 1.8130479106568676e-05 0 -0.0078252073149711349 -0.00021377471866553175 0 -0.0080541840259194513 8.0916448592823907e-05 0 -0.0077216556199978005 1.8130479106568676e-05 0 -0.0080541840259194513 8.0916448592823907e-05 0 -0.0078807892305697031 0.00019426457239156195 0 -0.0040735986135120011 7.1126383624642506e-05 0 -0.0038533379429461427 2.7485958096714097e-07 0 -0.0047010225113887708 -4.5241247752824839e-07 0 -0.0040183004931734967 2.5878469142412281e-05 0 -0.0040735986135120011 7.1126383624642506e-05 0 -0.0047010225113887708 -4.5241247752824839e-07 0 -0.0040735986135120011 7.1126383624642506e-05 0 -0.0038923985654867274 5.0768973413977115e-05 0 -0.003952028004934824 8.5801172906696624e-05 0 -0.0038533379429461427 2.7485958096714097e-07 0 -0.0038923985654867274 5.0768973413977115e-05 0 -0.003733223404396406 3.1898867345176094e-05 0 -0.0040735986135120011 7.1126383624642506e-05 0 -0.0038533379429461427 2.7485958096714097e-07 0 -0.0038923985654867274 5.0768973413977115e-05 0 -0.0038923985654867274 5.0768973413977115e-05 0 -0.0037947572426406616 4.3556008052729193e-05 0 -0.003733223404396406 3.1898867345176094e-05 0 -0.0077216556199978005 1.8130479106568676e-05 0 -0.007772530917221381 -0.00023033754315333831 0 -0.0078252073149711349 -0.00021377471866553175 0 -0.0040183004931734967 2.5878469142412281e-05 0 -0.0040735986135120011 7.1126383624642506e-05 0 -0.003952028004934824 8.5801172906696624e-05 0 -0.003952028004934824 8.5801172906696624e-05 0 -0.004056650894314783 3.7677004472914638e-05 0 -0.0037947572426406616 4.3556008052729193e-05 0 -0.0040183004931734967 2.5878469142412281e-05 0 -0.003952028004934824 8.5801172906696624e-05 0 -0.0039461707339035375 8.1224011975431924e-05 0 -0.0038923985654867274 5.0768973413977115e-05 0 -0.003952028004934824 8.5801172906696624e-05 0 -0.0037947572426406616 4.3556008052729193e-05 0 -0.0048315688610042831 -0.00022877117897402899 0 -0.005351376471694546 -0.00014708595873236179 0 -0.005351376471694546 -0.00014708595873236179 0 -0.0060821445165340788 0.00019593233681513281 0 -0.0036843475627097431 0.00060954626120931447 0 -0.0037514006269019225 0.00047557956327755698 0 -0.0036784402641622726 0.0005049834791965251 0 -0.0036784402641622726 0.0005049834791965251 0 -0.0036147668228795797 0.00050938935633962096 0 -0.0036442866952031273 0.00038938066758378392 0 -0.003952028004934824 8.5801172906696624e-05 0 -0.0040433223226533001 0.00010509852459525766 0 -0.004056650894314783 3.7677004472914638e-05 0 -0.005351376471694546 -0.00014708595873236179 0 -0.0049041815829372146 4.6092768071623418e-05 0 -0.0036843475627097431 0.00060954626120931447 0 -0.0036784402641622726 0.0005049834791965251 0 -0.0036147668228795797 0.00050938935633962096 0 -0.0052270937196960254 1.4103650734831212e-05 0 -0.0054008079195572165 7.2112614798347218e-05 0 -0.0052602251474307606 -0.00011852058270345029 0 -0.0060821445165340788 0.00019593233681513281 0 -0.0049041815829372146 4.6092768071623418e-05 0 -0.0049041815829372146 4.6092768071623418e-05 0 -0.0046245321123339648 0.00033789296980662965 0 -0.0037514006269019225 0.00047557956327755698 0 -0.0036442866952031273 0.00038938066758378392 0 -0.0037683766914676465 0.00035266043830492195 0 -0.0037514006269019225 0.00047557956327755698 0 -0.0036784402641622726 0.0005049834791965251 0 -0.0036442866952031273 0.00038938066758378392 0 -0.0036843475627097431 0.00060954626120931447 0 -0.0037514006269019225 0.00047557956327755698 0 -0.0039264005869293368 0.00044833078260021384 0 -0.0039264005869293368 0.00044833078260021384 0 -0.0041638654357345649 0.00039539688734753872 0 -0.003864970650081997 0.00025331681883495406 0 -0.0037514006269019225 0.00047557956327755698 0 -0.0039264005869293368 0.00044833078260021384 0 -0.0037683766914676465 0.00035266043830492195 0 -0.0036843475627097431 0.00060954626120931447 0 -0.0039264005869293368 0.00044833078260021384 0 -0.0043564280178950976 0.00081429901233438134 0 -0.0060821445165340788 0.00019593233681513281 0 -0.0062302827403758346 0.00057783500987476297 0 -0.0039264005869293368 0.00044833078260021384 0 -0.0041638654357345649 0.00039539688734753872 0 -0.0043564280178950976 0.00081429901233438134 0 -0.0046771994542235788 0.00030432662757705179 0 -0.004451966565776953 0.00047816293227130618 0 -0.0049134926908215694 0.00058213952588169612 0 -0.0046771994542235788 0.00030432662757705179 0 -0.004451966565776953 0.00047816293227130618 0 -0.0043649091640343444 0.00022053976083692326 0 -0.0041638654357345649 0.00039539688734753872 0 -0.004451966565776953 0.00047816293227130618 0 -0.0043649091640343444 0.00022053976083692326 0 -0.0041638654357345649 0.00039539688734753872 0 -0.004451966565776953 0.00047816293227130618 0 -0.0043564280178950976 0.00081429901233438134 0 -0.004451966565776953 0.00047816293227130618 0 -0.0043564280178950976 0.00081429901233438134 0 -0.0049134926908215694 0.00058213952588169612 0 -0.0062302827403758346 0.00057783500987476297 0 -0.0067793487119041209 0.0007116576232669929 0 -0.0081850776699438979 0.00031138870916955561 0 -0.0082134840940520717 0.00036764330997334952 0 -0.0082417105010116534 0.00040569257107420987 0 -0.0081850776699438979 0.00031138870916955561 0 -0.0082134840940520717 0.00036764330997334952 0 -0.0081401669859315368 0.00036673910264948542 0 -0.0060821445165340788 0.00019593233681513281 0 -0.008311397741223546 0.00030957388623764723 0 -0.0080111172336624157 0.00024308637784854534 0 -0.0081850776699438979 0.00031138870916955561 0 -0.0081401669859315368 0.00036673910264948542 0 -0.0080541840259194513 8.0916448592823907e-05 0 -0.0082220538589035785 0.00035523713812200087 0 -0.008080433286677003 0.00041217001237827441 0 -0.0080541840259194513 8.0916448592823907e-05 0 -0.008080433286677003 0.00041217001237827441 0 -0.0078807892305697031 0.00019426457239156195 0 -0.008311397741223546 0.00030957388623764723 0 -0.0081452374091184245 0.00029065362373717447 0 -0.0082134840940520717 0.00036764330997334952 0 -0.0081401669859315368 0.00036673910264948542 0 -0.0082220538589035785 0.00035523713812200087 0 -0.0082134840940520717 0.00036764330997334952 0 -0.0082220538589035785 0.00035523713812200087 0 -0.0082676378489535025 0.00037746385585136919 0 -0.0082220538589035785 0.00035523713812200087 0 -0.008080433286677003 0.00041217001237827441 0 -0.0082975903458818671 0.00034905520403648511 0 -0.0086521726184678235 -0.00073237454199905473 0 -0.0087340214376244226 -0.00048900503960952707 0 -0.0087228198843687169 -0.0018467930281384566 0 -0.0088599039470154597 -0.0013757934240789167 0 -0.0093469485405250543 -0.0013073706696542545 0 -0.0087228198843687169 -0.0018467930281384566 0 -0.0083718776740138983 -0.001536449749985503 0 -0.0088599039470154597 -0.0013757934240789167 0 -0.0087228198843687169 -0.0018467930281384566 0 -0.0080292930310040429 -0.0021662999600989782 0 -0.0083718776740138983 -0.001536449749985503 0 -0.0080292930310040429 -0.0021662999600989782 0 -0.0078710920680071135 -0.0016085132031432308 0 -0.0083718776740138983 -0.001536449749985503 0 -0.0077216556199978005 1.8130479106568676e-05 0 -0.0078807892305697031 0.00019426457239156195 0 -0.0076608637183806279 0.00026393474243808108 0 -0.0086521726184678235 -0.00073237454199905473 0 -0.0064711840555808165 -0.0004539937720557077 0 -0.008080433286677003 0.00041217001237827441 0 -0.0078807892305697031 0.00019426457239156195 0 -0.0076608637183806279 0.00026393474243808108 0 -0.0058507396748440493 9.092110949829611e-05 0 -0.0064711840555808165 -0.0004539937720557077 0 -0.0064711840555808165 -0.0004539937720557077 0 -0.0047009391379822726 -5.9992958208044263e-07 0 -0.0040183004931734967 2.5878469142412281e-05 0 -0.004181644656014314 -0.00033555611547609899 0 -0.0047010225113887708 -4.5241247752824839e-07 0 -0.0051789986696117131 -3.5410680921292798e-06 0 -0.0047033500184428916 -3.0551860237720226e-07 0 -0.0054335027290533392 2.2774097567515161e-07 0 -0.0064711840555808165 -0.0004539937720557077 0 -0.0067231540867011119 -0.00090336749251646747 0 -0.0051789986696117131 -3.5410680921292798e-06 0 -0.0055115774828322743 5.9734609574960083e-06 0 -0.0054335027290533392 2.2774097567515161e-07 0 -0.0078710920680071135 -0.0016085132031432308 0 -0.008147271137574439 -0.0012584884968302637 0 -0.0075549616063962594 -0.0011187530411984907 0 -0.0055115774828322743 5.9734609574960083e-06 0 -0.0054335027290533392 2.2774097567515161e-07 0 -0.0061652904246856767 -7.4061177908045257e-08 0 -0.0067231540867011119 -0.00090336749251646747 0 -0.0068264328981627884 -0.00046349299074727819 0 -0.0055115774828322743 5.9734609574960083e-06 0 -0.0061652904246856767 -7.4061177908045257e-08 0 -0.0061599241305893776 -1.0803136464517597e-05 0 -0.008147271137574439 -0.0012584884968302637 0 -0.0083718776740138983 -0.001536449749985503 0 -0.0086748673126743597 -0.0011080389619441701 0 -0.0078710920680071135 -0.0016085132031432308 0 -0.008147271137574439 -0.0012584884968302637 0 -0.0083718776740138983 -0.001536449749985503 0 -0.008147271137574439 -0.0012584884968302637 0 -0.0082502982121299903 -0.00083048431918711916 0 -0.0086748673126743597 -0.0011080389619441701 0 -0.008147271137574439 -0.0012584884968302637 0 -0.0082502982121299903 -0.00083048431918711916 0 -0.0075549616063962594 -0.0011187530411984907 0 -0.0061652904246856767 -7.4061177908045257e-08 0 -0.0061599241305893776 -1.0803136464517597e-05 0 -0.006896746231497634 -3.283071846803018e-08 0 -0.0082502982121299903 -0.00083048431918711916 0 -0.0075549616063962594 -0.0011187530411984907 0 -0.0078558262084625838 -0.00041556184677652759 0 -0.0075549616063962594 -0.0011187530411984907 0 -0.006899091848847393 -1.8032268990267294e-06 0 -0.0078558262084625838 -0.00041556184677652759 0 -0.0068264328981627884 -0.00046349299074727819 0 -0.006896893959881422 -7.4717223730433633e-09 0 -0.006899091848847393 -1.8032268990267294e-06 0 -0.0078558262084625838 -0.00041556184677652759 0 -0.0079856977203337526 -0.00010853292843796104 0 -0.0082502982121299903 -0.00083048431918711916 0 -0.0078558262084625838 -0.00041556184677652759 0 -0.0083844442981047037 -0.0004496119990513675 0 -0.0082502982121299903 -0.00083048431918711916 0 -0.0083844442981047037 -0.0004496119990513675 0 -0.0086966297385037035 -0.00078173031315579514 0 -0.0078558262084625838 -0.00041556184677652759 0 -0.0083844442981047037 -0.0004496119990513675 0 -0.0079856977203337526 -0.00010853292843796104 0 -0.0083844442981047037 -0.0004496119990513675 0 -0.0079856977203337526 -0.00010853292843796104 0 -0.0085846656380752541 -0.00019308519829288299 0 -0.0083936600011944914 -5.6586262908274019e-06 0 -0.0079856977203337526 -0.00010853292843796104 0 -0.0085846656380752541 -0.00019308519829288299 0 -0.0076952994553807384 5.7055026000886121e-07 0 -0.006899091848847393 -1.8032268990267294e-06 0 -0.0079856977203337526 -0.00010853292843796104 0 -0.009176724320401718 -0.00051200704900430363 0 -0.0090107644984325202 -0.00025400875005068688 0 -0.0088140477421062915 -0.00048849182058169013 0 -0.009176724320401718 -0.00051200704900430363 0 -0.0093861957748069911 -0.00031555523198858814 0 -0.0095442930347661055 -0.00060974149696463916 0 -0.009176724320401718 -0.00051200704900430363 0 -0.0093861957748069911 -0.00031555523198858814 0 -0.0090107644984325202 -0.00025400875005068688 0 -0.0083844442981047037 -0.0004496119990513675 0 -0.0085846656380752541 -0.00019308519829288299 0 -0.0088140477421062915 -0.00048849182058169013 0 -0.0090107644984325202 -0.00025400875005068688 0 -0.0085846656380752541 -0.00019308519829288299 0 -0.0088140477421062915 -0.00048849182058169013 0 -0.0083844442981047037 -0.0004496119990513675 0 -0.0088140477421062915 -0.00048849182058169013 0 -0.0086966297385037035 -0.00078173031315579514 0 -0.0088140477421062915 -0.00048849182058169013 0 -0.0086966297385037035 -0.00078173031315579514 0 -0.0090682146090203062 -0.00071172654227244449 0 -0.0086966297385037035 -0.00078173031315579514 0 -0.0090682146090203062 -0.00071172654227244449 0 -0.0089947031785922414 -0.00091237998781316368 0 -0.009176724320401718 -0.00051200704900430363 0 -0.0088140477421062915 -0.00048849182058169013 0 -0.0090682146090203062 -0.00071172654227244449 0 -0.009176724320401718 -0.00051200704900430363 0 -0.0093341125129546513 -0.00073189099623113991 0 -0.0095442930347661055 -0.00060974149696463916 0 -0.009176724320401718 -0.00051200704900430363 0 -0.0090682146090203062 -0.00071172654227244449 0 -0.0093341125129546513 -0.00073189099623113991 0 -0.0090682146090203062 -0.00071172654227244449 0 -0.0093341125129546513 -0.00073189099623113991 0 -0.0092913594861997358 -0.00088199186200050021 0 -0.0090682146090203062 -0.00071172654227244449 0 -0.0092913594861997358 -0.00088199186200050021 0 -0.0089947031785922414 -0.00091237998781316368 0 -0.0092913594861997358 -0.00088199186200050021 0 -0.0089947031785922414 -0.00091237998781316368 0 -0.0090935932502596139 -0.0011033670721528454 0 -0.0092913594861997358 -0.00088199186200050021 0 -0.0090935932502596139 -0.0011033670721528454 0 -0.0093536463230204803 -0.00096812318440048142 0 -0.0082502982121299903 -0.00083048431918711916 0 -0.0086966297385037035 -0.00078173031315579514 0 -0.0086748673126743597 -0.0011080389619441701 0 -0.0086966297385037035 -0.00078173031315579514 0 -0.0089947031785922414 -0.00091237998781316368 0 -0.0086748673126743597 -0.0011080389619441701 0 -0.0089947031785922414 -0.00091237998781316368 0 -0.0086748673126743597 -0.0011080389619441701 0 -0.0090935932502596139 -0.0011033670721528454 0 -0.0083718776740138983 -0.001536449749985503 0 -0.0086748673126743597 -0.0011080389619441701 0 -0.0088599039470154597 -0.0013757934240789167 0 -0.0086748673126743597 -0.0011080389619441701 0 -0.0088599039470154597 -0.0013757934240789167 0 -0.0090935932502596139 -0.0011033670721528454 0 -0.0088599039470154597 -0.0013757934240789167 0 -0.0090935932502596139 -0.0011033670721528454 0 -0.0093469485405250543 -0.0013073706696542545 0 -0.0090935932502596139 -0.0011033670721528454 0 -0.0093536463230204803 -0.00096812318440048142 0 -0.0093469485405250543 -0.0013073706696542545 0 -0.0082646612490052621 0.00011689016634061483 0 -0.0082640919274492557 0.00030272180372020957 0 -0.0082975903458818671 0.00034905520403648511 0 -0.0093536463230204803 -0.00096812318440048142 0 -0.0094443491357096392 -0.00085942700550521191 0 -0.0093469485405250543 -0.0013073706696542545 0 -0.0093551513578239258 -0.00064577756693462722 0 -0.0094443491357096392 -0.00085942700550521191 0 -0.0093469485405250543 -0.0013073706696542545 0 -0.0087532308810744103 -0.00028685240161798565 0 -0.0087340214376244226 -0.00048900503960952707 0 -0.0093551513578239258 -0.00064577756693462722 0 -0.0093256717756395255 -0.00083990429549771792 0 -0.0094443491357096392 -0.00085942700550521191 0 -0.0093551513578239258 -0.00064577756693462722 0 -0.0093256717756395255 -0.00083990429549771792 0 -0.0088545086452718885 -0.00075992830040467693 0 -0.0095018048758099445 -0.00092014344153963309 0 -0.0093256717756395255 -0.00083990429549771792 0 -0.0094443491357096392 -0.00085942700550521191 0 -0.0095018048758099445 -0.00092014344153963309 0 -0.0093256717756395255 -0.00083990429549771792 0 -0.0096301205996961667 -0.0010655050886080656 0 -0.0093256717756395255 -0.00083990429549771792 0 -0.0092464685762099624 -0.0011990067835171913 0 -0.0088545086452718885 -0.00075992830040467693 0 -0.0093536463230204803 -0.00096812318440048142 0 -0.0094443491357096392 -0.00085942700550521191 0 -0.0094898496444069478 -0.00093290288995157586 0 -0.0095018048758099445 -0.00092014344153963309 0 -0.0094443491357096392 -0.00085942700550521191 0 -0.0094898496444069478 -0.00093290288995157586 0 -0.0095018048758099445 -0.00092014344153963309 0 -0.0094898496444069478 -0.00093290288995157586 0 -0.0095768721866166528 -0.0009555703097621133 0 -0.0092913594861997358 -0.00088199186200050021 0 -0.0093536463230204803 -0.00096812318440048142 0 -0.0094898496444069478 -0.00093290288995157586 0 -0.0092913594861997358 -0.00088199186200050021 0 -0.0094898496444069478 -0.00093290288995157586 0 -0.0095140983294550122 -0.00084969430972635525 0 -0.0093341125129546513 -0.00073189099623113991 0 -0.0092913594861997358 -0.00088199186200050021 0 -0.0095140983294550122 -0.00084969430972635525 0 -0.0093341125129546513 -0.00073189099623113991 0 -0.0095140983294550122 -0.00084969430972635525 0 -0.0095442930347661055 -0.00060974149696463916 0 -0.0095140983294550122 -0.00084969430972635525 0 -0.0096870839362634426 -0.00074061353239199344 0 -0.0095442930347661055 -0.00060974149696463916 0 -0.0096870839362634426 -0.00074061353239199344 0 -0.0096834102665000789 -0.00090468644152906388 0 -0.0099147592133668611 -0.00080334256717023468 0 -0.0095140983294550122 -0.00084969430972635525 0 -0.0096870839362634426 -0.00074061353239199344 0 -0.0096834102665000789 -0.00090468644152906388 0 -0.0094898496444069478 -0.00093290288995157586 0 -0.0095140983294550122 -0.00084969430972635525 0 -0.0095768721866166528 -0.0009555703097621133 0 -0.0096834102665000789 -0.00090468644152906388 0 -0.0095768721866166528 -0.0009555703097621133 0 -0.0096301205996961667 -0.0010655050886080656 0 -0.0095140983294550122 -0.00084969430972635525 0 -0.0096834102665000789 -0.00090468644152906388 0 -0.0095768721866166528 -0.0009555703097621133 0 -0.0095018048758099445 -0.00092014344153963309 0 -0.0095768721866166528 -0.0009555703097621133 0 -0.0096301205996961667 -0.0010655050886080656 0 -0.00968055235627697 -0.0010161709020926231 0 -0.0098116759405483412 -0.00087150844470733455 0 -0.0096301205996961667 -0.0010655050886080656 0 -0.010107867299895084 -0.0011091187935577975 0 -0.010298276831948705 -0.0011907239811676524 0 -0.0093256717756395255 -0.00083990429549771792 0 -0.0096301205996961667 -0.0010655050886080656 0 -0.0092464685762099624 -0.0011990067835171913 0 -0.0096301205996961667 -0.0010655050886080656 0 -0.010107867299895084 -0.0011091187935577975 0 -0.0098689714560858226 -0.00095140811045994625 0 -0.0096834102665000789 -0.00090468644152906388 0 -0.0096301205996961667 -0.0010655050886080656 0 -0.0098689714560858226 -0.00095140811045994625 0 -0.010107867299895084 -0.0011091187935577975 0 -0.010255380941833822 -0.0011438470860168672 0 -0.010089459436092289 -0.00094257242719078917 0 -0.0098930255901650277 -0.00089351000726692494 0 -0.0098116759405483412 -0.00087150844470733455 0 -0.010089459436092289 -0.00094257242719078917 0 -0.0099147592133668611 -0.00080334256717023468 0 -0.01033288589122372 -0.0007564807299750031 0 -0.010255380941833822 -0.0011438470860168672 0 -0.010089459436092289 -0.00094257242719078917 0 -0.01033288589122372 -0.0007564807299750031 0 -0.0096834102665000789 -0.00090468644152906388 0 -0.0098689714560858226 -0.00095140811045994625 0 -0.0099147592133668611 -0.00080334256717023468 0 -0.010107867299895084 -0.0011091187935577975 0 -0.010089459436092289 -0.00094257242719078917 0 -0.0098689714560858226 -0.00095140811045994625 0 -0.010089459436092289 -0.00094257242719078917 0 -0.0098689714560858226 -0.00095140811045994625 0 -0.0099147592133668611 -0.00080334256717023468 0 -0.0099147592133668611 -0.00080334256717023468 0 -0.01033288589122372 -0.0007564807299750031 0 -0.0098498606079816704 -0.00059803835732622195 0 -0.0096870839362634426 -0.00074061353239199344 0 -0.0099147592133668611 -0.00080334256717023468 0 -0.0098498606079816704 -0.00059803835732622195 0 -0.01033288589122372 -0.0007564807299750031 0 -0.010187725823866331 -0.00049284379597983833 0 -0.0098498606079816704 -0.00059803835732622195 0 -0.01033288589122372 -0.0007564807299750031 0 -0.010187725823866331 -0.00049284379597983833 0 -0.010728759342348087 -0.00047773876061597527 0 -0.010263648535558173 -0.00025044855236786397 0 -0.010187725823866331 -0.00049284379597983833 0 -0.010728759342348087 -0.00047773876061597527 0 -0.010187725823866331 -0.00049284379597983833 0 -0.0098075770333890915 -0.00039960729451788069 0 -0.0098498606079816704 -0.00059803835732622195 0 -0.010263648535558173 -0.00025044855236786397 0 -0.010187725823866331 -0.00049284379597983833 0 -0.0098075770333890915 -0.00039960729451788069 0 -0.0093861957748069911 -0.00031555523198858814 0 -0.0098075770333890915 -0.00039960729451788069 0 -0.0095442930347661055 -0.00060974149696463916 0 -0.0096870839362634426 -0.00074061353239199344 0 -0.0095442930347661055 -0.00060974149696463916 0 -0.0098498606079816704 -0.00059803835732622195 0 -0.0098075770333890915 -0.00039960729451788069 0 -0.0095442930347661055 -0.00060974149696463916 0 -0.0098498606079816704 -0.00059803835732622195 0 -0.011490603619223567 -0.00032272920530347795 0 -0.011693418082095109 -0.00061874523324929377 0 -0.01127234164707169 -0.0010306988403095743 0 -0.011490603619223567 -0.00032272920530347795 0 -0.010728759342348087 -0.00047773876061597527 0 -0.01127234164707169 -0.0010306988403095743 0 -0.011919980427056071 -0.0003129029479510712 0 -0.011490603619223567 -0.00032272920530347795 0 -0.011693418082095109 -0.00061874523324929377 0 -0.01033288589122372 -0.0007564807299750031 0 -0.010728759342348087 -0.00047773876061597527 0 -0.01127234164707169 -0.0010306988403095743 0 -0.0098116759405483412 -0.00087150844470733455 0 -0.010689287180687424 -0.0008119399756087416 0 -0.0098116759405483412 -0.00087150844470733455 0 -0.0089046080556239911 -0.00067017831353106602 0 -0.010255380941833822 -0.0011438470860168672 0 -0.01033288589122372 -0.0007564807299750031 0 -0.01127234164707169 -0.0010306988403095743 0 -0.0092464685762099624 -0.0011990067835171913 0 -0.008273238097264107 -0.00097360664532283056 0 -0.0088545086452718885 -0.00075992830040467693 0 -0.010019773778528925 -0.00041736042200832252 0 -0.0093836944949903574 -0.00055828737704160191 0 -0.009418694688299388 -0.00035185277653205046 0 -0.008273238097264107 -0.00097360664532283056 0 -0.0078090211131448062 -0.00042912545878475919 0 -0.0075130974083142321 -0.00058028589710916803 0 -0.0089046080556239911 -0.00067017831353106602 0 -0.0078012961848965036 -0.00018834237628268145 0 -0.0093836944949903574 -0.00055828737704160191 0 -0.009418694688299388 -0.00035185277653205046 0 -0.0088049048224371103 -0.00029166944859392084 0 -0.008273238097264107 -0.00097360664532283056 0 -0.0078090211131448062 -0.00042912545878475919 0 -0.0081702049582898038 -0.0003144309203005037 0 -0.0078090211131448062 -0.00042912545878475919 0 -0.0081702049582898038 -0.0003144309203005037 0 -0.0077364859341765646 -0.00012039860195721321 0 -0.0093551513578239258 -0.00064577756693462722 0 -0.0081702049582898038 -0.0003144309203005037 0 -0.0088545086452718885 -0.00075992830040467693 0 -0.008273238097264107 -0.00097360664532283056 0 -0.0081702049582898038 -0.0003144309203005037 0 -0.0088545086452718885 -0.00075992830040467693 0 -0.0082646612490052621 0.00011689016634061483 0 -0.008056654733981863 -1.5845665699901533e-05 0 -0.0080389793053464373 0.00018973911651142363 0 -0.0087532308810744103 -0.00028685240161798565 0 -0.0081675429948953292 -0.00035832717624762828 0 -0.0082646612490052621 0.00011689016634061483 0 -0.0081702049582898038 -0.0003144309203005037 0 -0.008056654733981863 -1.5845665699901533e-05 0 -0.008056654733981863 -1.5845665699901533e-05 0 -0.0077989241576174734 9.2370046755183165e-05 0 -0.0077364859341765646 -0.00012039860195721321 0 -0.0081702049582898038 -0.0003144309203005037 0 -0.008056654733981863 -1.5845665699901533e-05 0 -0.0077364859341765646 -0.00012039860195721321 0 -0.008056654733981863 -1.5845665699901533e-05 0 -0.0077989241576174734 9.2370046755183165e-05 0 -0.0080389793053464373 0.00018973911651142363 0 -0.0076812958711493838 0.00029316957474266321 0 -0.0079878600696805212 0.00041295486810336756 0 -0.0080389793053464373 0.00018973911651142363 0 -0.0076812958711493838 0.00029316957474266321 0 -0.0076578598357673585 0.00067222457447160583 0 -0.0079878600696805212 0.00041295486810336756 0 -0.0077989241576174734 9.2370046755183165e-05 0 -0.0076812958711493838 0.00029316957474266321 0 -0.0080389793053464373 0.00018973911651142363 0 -0.0076578598357673585 0.00067222457447160583 0 -0.0076225963528250874 0.00064307706505911579 0 -0.0075582064004694298 0.00050527293063456103 0 -0.0076812958711493838 0.00029316957474266321 0 -0.0076578598357673585 0.00067222457447160583 0 -0.0075582064004694298 0.00050527293063456103 0 -0.0075742325320690704 0.00069955560473104056 0 -0.0073223927664547899 0.00078527153551617994 0 -0.0076578598357673585 0.00067222457447160583 0 -0.0081652676909123763 0.00053634887233599117 0 -0.0079878600696805212 0.00041295486810336756 0 -0.0076578598357673585 0.00067222457447160583 0 -0.0065673865568413557 0.0011028205915888524 0 -0.0071922193165506803 0.00075010420312630443 0 -0.0081652676909123763 0.00053634887233599117 0 -0.0079878600696805212 0.00041295486810336756 0 -0.0081839673172219816 0.00033554738247328379 0 -0.0082646612490052621 0.00011689016634061483 0 -0.0080389793053464373 0.00018973911651142363 0 -0.0081839673172219816 0.00033554738247328379 0 -0.0079878600696805212 0.00041295486810336756 0 -0.0080389793053464373 0.00018973911651142363 0 -0.0081839673172219816 0.00033554738247328379 0 -0.0082646612490052621 0.00011689016634061483 0 -0.0082640919274492557 0.00030272180372020957 0 -0.0081839673172219816 0.00033554738247328379 0 -0.0082640919274492557 0.00030272180372020957 0 -0.0081839673172219816 0.00033554738247328379 0 -0.0082676378489535025 0.00037746385585136919 0 -0.0082640919274492557 0.00030272180372020957 0 -0.0082975903458818671 0.00034905520403648511 0 -0.0082676378489535025 0.00037746385585136919 0 -0.0082220538589035785 0.00035523713812200087 0 -0.0082975903458818671 0.00034905520403648511 0 -0.0082676378489535025 0.00037746385585136919 0 -0.0082134840940520717 0.00036764330997334952 0 -0.0082676378489535025 0.00037746385585136919 0 -0.0082417105010116534 0.00040569257107420987 0 -0.0081652676909123763 0.00053634887233599117 0 -0.0082676378489535025 0.00037746385585136919 0 -0.0082417105010116534 0.00040569257107420987 0 -0.0081652676909123763 0.00053634887233599117 0 -0.0081839673172219816 0.00033554738247328379 0 -0.0082676378489535025 0.00037746385585136919 0 -0.0065673865568413557 0.0011028205915888524 0 -0.0053203409060903432 0.0010387942539772041 0 -0.00573907790256575 0.00054610371911984574 0 -0.0073223927664547899 0.00078527153551617994 0 -0.0067793487119041209 0.0007116576232669929 0 -0.0065673865568413557 0.0011028205915888524 0 -0.00573907790256575 0.00054610371911984574 0 -0.0066405457318835358 0.00029531088305121875 0 -0.0053203409060903432 0.0010387942539772041 0 -0.0049134926908215694 0.00058213952588169612 0 -0.00573907790256575 0.00054610371911984574 0 -0.0043564280178950976 0.00081429901233438134 0 -0.0053203409060903432 0.0010387942539772041 0 -0.0049134926908215694 0.00058213952588169612 0 -0.0049134926908215694 0.00058213952588169612 0 -0.00573907790256575 0.00054610371911984574 0 -0.0052072399185179559 0.00011379674621737295 0 -0.0046771994542235788 0.00030432662757705179 0 -0.0049134926908215694 0.00058213952588169612 0 -0.0052072399185179559 0.00011379674621737295 0 -0.00573907790256575 0.00054610371911984574 0 -0.0066405457318835358 0.00029531088305121875 0 -0.0052072399185179559 0.00011379674621737295 0 -0.0062692378070342229 0.0003411535076932167 0 -0.0053013091750991493 9.9648518138292517e-05 0 -0.0059232568296485964 0.00035746806908412384 0 -0.0056242797105721812 -4.3699345755456205e-06 0 -0.0052072399185179559 0.00011379674621737295 0 -0.0059232568296485964 0.00035746806908412384 0 -0.0063842254258591026 0.00019558044694300452 0 -0.0060718515256938839 -8.2860430008661467e-05 0 -0.0059232568296485964 0.00035746806908412384 0 -0.0060718515256938839 -8.2860430008661467e-05 0 -0.0056242797105721812 -4.3699345755456205e-06 0 -0.0059232568296485964 0.00035746806908412384 0 -0.0063842254258591026 0.00019558044694300452 0 -0.0066574075040802478 0.00050904703224241956 0 -0.0063842254258591026 0.00019558044694300452 0 -0.0066574075040802478 0.00050904703224241956 0 -0.0067773843643961591 0.00014342914943989819 0 -0.0063842254258591026 0.00019558044694300452 0 -0.0067773843643961591 0.00014342914943989819 0 -0.0065217759504355649 -6.5398278329510087e-05 0 -0.0062692378070342229 0.0003411535076932167 0 -0.0071202716952199086 0.00055815438618779696 0 -0.0066405457318835358 0.00029531088305121875 0 -0.0076225963528250874 0.00064307706505911579 0 -0.0071922193165506803 0.00075010420312630443 0 -0.0076578598357673585 0.00067222457447160583 0 -0.0076225963528250874 0.00064307706505911579 0 -0.0071922193165506803 0.00075010420312630443 0 -0.0065673865568413557 0.0011028205915888524 0 -0.0066405457318835358 0.00029531088305121875 0 -0.0071922193165506803 0.00075010420312630443 0 -0.0073115463380621091 0.00031853159064061285 0 -0.0071156956367799786 0.00026831681532544447 0 -0.0073387459838831059 0.0004756804410556406 0 -0.0066574075040802478 0.00050904703224241956 0 -0.0071156956367799786 0.00026831681532544447 0 -0.0073387459838831059 0.0004756804410556406 0 -0.0071202716952199086 0.00055815438618779696 0 -0.0073094641412311196 0.00049611593080957166 0 -0.0066574075040802478 0.00050904703224241956 0 -0.0071156956367799786 0.00026831681532544447 0 -0.0067773843643961591 0.00014342914943989819 0 -0.0071156956367799786 0.00026831681532544447 0 -0.0067773843643961591 0.00014342914943989819 0 -0.007068676963526273 3.8072542022582834e-05 0 -0.0067773843643961591 0.00014342914943989819 0 -0.007068676963526273 3.8072542022582834e-05 0 -0.0068387082904365765 -0.00010784558102675977 0 -0.0073115463380621091 0.00031853159064061285 0 -0.0071156956367799786 0.00026831681532544447 0 -0.0074057176197107541 0.00010100337691550824 0 -0.0071156956367799786 0.00026831681532544447 0 -0.007068676963526273 3.8072542022582834e-05 0 -0.0074057176197107541 0.00010100337691550824 0 -0.007248627179180441 0.00025988741554558924 0 -0.0073705337282489606 0.00030888511006370214 0 -0.007315450100695408 9.1812176907910963e-05 0 -0.0066285721456144182 0.00042232902419394984 0 -0.0066885108710793345 0.00073993715582454931 0 -0.0065675454058880542 0.00058155495618974638 0 -0.0066233956275625963 0.00039968826791149088 0 -0.006682181044921888 0.00068298827022243735 0 -0.0069606409695735739 0.00042061574972451538 0 -0.0070740199163953034 0.00073652242019614609 0 -0.0073705337282489606 0.00030888511006370214 0 -0.0073734075422334493 0.00035982079044214913 0 -0.0073275534504640225 0.00032337873141576013 0 -0.0065675454058880542 0.00058155495618974638 0 -0.006682181044921888 0.00068298827022243735 0 -0.0067447520033429029 0.00095765352802113207 0 -0.007248627179180441 0.00025988741554558924 0 -0.0073705337282489606 0.00030888511006370214 0 -0.0073734075422334493 0.00035982079044214913 0 -0.007301828413229918 0.00016794276508833982 0 -0.0073764022299964913 0.00034718686787798398 0 -0.0073115463380621091 0.00031853159064061285 0 -0.0074057176197107541 0.00010100337691550824 0 -0.0073734075422334493 0.00035982079044214913 0 -0.0073115463380621091 0.00031853159064061285 0 -0.0073734075422334493 0.00035982079044214913 0 -0.0073387459838831059 0.0004756804410556406 0 -0.0073734075422334493 0.00035982079044214913 0 -0.0073790082046362145 0.0002248671054596374 0 -0.0073805429782781481 0.00027455123698710859 0 -0.0073734075422334493 0.00035982079044214913 0 -0.0073805429782781481 0.00027455123698710859 0 -0.0073387459838831059 0.0004756804410556406 0 -0.0073790082046362145 0.0002248671054596374 0 -0.007306568486953797 0.00018827967615560147 0 -0.0073275534504640225 0.00032337873141576013 0 -0.0073734075422334493 0.00035982079044214913 0 -0.0073790082046362145 0.0002248671054596374 0 -0.0073275534504640225 0.00032337873141576013 0 -0.0073790082046362145 0.0002248671054596374 0 -0.0074079899905061851 9.2410899583191458e-05 0 -0.0074387557495749282 3.6973864857727372e-05 0 -0.0073790082046362145 0.0002248671054596374 0 -0.0074387557495749282 3.6973864857727372e-05 0 -0.007306568486953797 0.00018827967615560147 0 -0.0073790082046362145 0.0002248671054596374 0 -0.0073805429782781481 0.00027455123698710859 0 -0.0074079899905061851 9.2410899583191458e-05 0 -0.0073805429782781481 0.00027455123698710859 0 -0.007444324736401043 9.8345394143224346e-05 0 -0.0074079899905061851 9.2410899583191458e-05 0 -0.0073805429782781481 0.00027455123698710859 0 -0.0074702346522212588 0.00030170361755733275 0 -0.007444324736401043 9.8345394143224346e-05 0 -0.0074702346522212588 0.00030170361755733275 0 -0.0075715271531313624 0.00016193261677138168 0 -0.007444324736401043 9.8345394143224346e-05 0 -0.0073805429782781481 0.00027455123698710859 0 -0.0073387459838831059 0.0004756804410556406 0 -0.0074702346522212588 0.00030170361755733275 0 -0.0076225963528250874 0.00064307706505911579 0 -0.0073387459838831059 0.0004756804410556406 0 -0.0075582064004694298 0.00050527293063456103 0 -0.0073387459838831059 0.0004756804410556406 0 -0.0075582064004694298 0.00050527293063456103 0 -0.0074702346522212588 0.00030170361755733275 0 -0.0076812958711493838 0.00029316957474266321 0 -0.0075582064004694298 0.00050527293063456103 0 -0.0074702346522212588 0.00030170361755733275 0 -0.0076812958711493838 0.00029316957474266321 0 -0.0074702346522212588 0.00030170361755733275 0 -0.0075715271531313624 0.00016193261677138168 0 -0.0077989241576174734 9.2370046755183165e-05 0 -0.0076812958711493838 0.00029316957474266321 0 -0.0075715271531313624 0.00016193261677138168 0 -0.0077989241576174734 9.2370046755183165e-05 0 -0.0075715271531313624 0.00016193261677138168 0 -0.0075707820604384527 -7.1351929894728847e-06 0 -0.0075715271531313624 0.00016193261677138168 0 -0.0075707820604384527 -7.1351929894728847e-06 0 -0.007444324736401043 9.8345394143224346e-05 0 -0.0075707820604384527 -7.1351929894728847e-06 0 -0.0074709568445237816 -6.7685968186139293e-05 0 -0.0075562783458783698 -0.00018108986103607103 0 -0.0075707820604384527 -7.1351929894728847e-06 0 -0.0077364859341765646 -0.00012039860195721321 0 -0.0075562783458783698 -0.00018108986103607103 0 -0.0077989241576174734 9.2370046755183165e-05 0 -0.0075707820604384527 -7.1351929894728847e-06 0 -0.0077364859341765646 -0.00012039860195721321 0 -0.0075707820604384527 -7.1351929894728847e-06 0 -0.007444324736401043 9.8345394143224346e-05 0 -0.0074709568445237816 -6.7685968186139293e-05 0 -0.007444324736401043 9.8345394143224346e-05 0 -0.0074709568445237816 -6.7685968186139293e-05 0 -0.0074208386839333994 -4.6861560510900109e-05 0 -0.0074901808450191709 -0.00023712267159134448 0 -0.0075524619483929084 -0.00038815237147612987 0 -0.0074447016464518042 -0.00019601637571795103 0 -0.0074344514842631711 -0.00011581342734778709 0 -0.0074447016464518042 -0.00019601637571795103 0 -0.007420400432236165 -2.1591433394118737e-05 0 -0.0074709568445237816 -6.7685968186139293e-05 0 -0.0074344514842631711 -0.00011581342734778709 0 -0.0074208386839333994 -4.6861560510900109e-05 0 -0.0074709568445237816 -6.7685968186139293e-05 0 -0.0074901808450191709 -0.00023712267159134448 0 -0.0075562783458783698 -0.00018108986103607103 0 -0.0074709568445237816 -6.7685968186139293e-05 0 -0.0074344514842631711 -0.00011581342734778709 0 -0.0074901808450191709 -0.00023712267159134448 0 -0.0074344514842631711 -0.00011581342734778709 0 -0.0074901808450191709 -0.00023712267159134448 0 -0.0074447016464518042 -0.00019601637571795103 0 -0.0077364859341765646 -0.00012039860195721321 0 -0.0076590738288442066 -0.00028123774173036484 0 -0.0075562783458783698 -0.00018108986103607103 0 -0.0078090211131448062 -0.00042912545878475919 0 -0.0077364859341765646 -0.00012039860195721321 0 -0.0076590738288442066 -0.00028123774173036484 0 -0.0076590738288442066 -0.00028123774173036484 0 -0.0075562783458783698 -0.00018108986103607103 0 -0.0075557084690416254 -0.00039885302317847488 0 -0.0074901808450191709 -0.00023712267159134448 0 -0.0075557084690416254 -0.00039885302317847488 0 -0.0075524619483929084 -0.00038815237147612987 0 -0.0074901808450191709 -0.00023712267159134448 0 -0.0075562783458783698 -0.00018108986103607103 0 -0.0075557084690416254 -0.00039885302317847488 0 -0.0077327904092147183 -0.00033831421231162156 0 -0.0078012961848965036 -0.00018834237628268145 0 -0.0078090211131448062 -0.00042912545878475919 0 -0.0075557084690416254 -0.00039885302317847488 0 -0.0075130974083142321 -0.00058028589710916803 0 -0.0078090211131448062 -0.00042912545878475919 0 -0.0076590738288442066 -0.00028123774173036484 0 -0.0075557084690416254 -0.00039885302317847488 0 -0.0093836944949903574 -0.00055828737704160191 0 -0.0088049048224371103 -0.00029166944859392084 0 -0.0087339196990728323 -0.00070706469560612476 0 -0.010689287180687424 -0.0008119399756087416 0 -0.0088405772401210485 1.4981703835611656e-05 0 -0.006818660485201215 5.7412832352872463e-05 0 -0.0070536298662640003 0.00021567083466876303 0 -0.0068682671555327221 0.00034710405570855267 0 -0.0078012961848965036 -0.00018834237628268145 0 -0.0088405772401210485 1.4981703835611656e-05 0 -0.006818660485201215 5.7412832352872463e-05 0 -0.0071087448105883622 2.6132636786895115e-05 0 -0.0070536298662640003 0.00021567083466876303 0 -0.0078012961848965036 -0.00018834237628268145 0 -0.0072026542596130569 -8.1064552173274777e-05 0 -0.0071087448105883622 2.6132636786895115e-05 0 -0.0070536298662640003 0.00021567083466876303 0 -0.0072655969884022889 0.00018398616920563182 0 -0.0070536298662640003 0.00021567083466876303 0 -0.007210965539476046 0.00045775393794727647 0 -0.0072655969884022889 0.00018398616920563182 0 -0.0074036881037166501 0.0008784017742512419 0 -0.0074456410072402356 0.00074653985894685131 0 -0.0073482758254821614 0.00060838632708836988 0 -0.0075154425081314672 0.00064449478908425845 0 -0.0074456410072402356 0.00074653985894685131 0 -0.0073482758254821614 0.00060838632708836988 0 -0.0075191339353790267 0.00085200346463952721 0 -0.0075154425081314672 0.00064449478908425845 0 -0.0074456410072402356 0.00074653985894685131 0 -0.0070728972140955875 0.00050668898266811749 0 -0.0088405772401210485 1.4981703835611656e-05 0 -0.0070536298662640003 0.00021567083466876303 0 -0.007210965539476046 0.00045775393794727647 0 -0.0068682671555327221 0.00034710405570855267 0 -0.011919980427056071 -0.0003129029479510712 0 -0.011693418082095109 -0.00061874523324929377 0 -0.012087418450044197 -0.00082326843153721389 0 -0.011693418082095109 -0.00061874523324929377 0 -0.01127234164707169 -0.0010306988403095743 0 -0.012087418450044197 -0.00082326843153721389 0 -0.0099497827369296223 0.00042386438013946188 0 -0.0088405772401210485 1.4981703835611656e-05 0 -0.0076645875802048603 0.00061178344522533682 0 -0.0078717255102572145 0.0002700260385624606 0 -0.0080020868190747163 0.00057767614575165971 0 -0.0076645875802048603 0.00061178344522533682 0 -0.0075531136240519128 0.00025098500324313835 0 -0.0078717255102572145 0.0002700260385624606 0 -0.0079341794800514738 0.00082756525316819837 0 -0.0076645875802048603 0.00061178344522533682 0 -0.0080020868190747163 0.00057767614575165971 0 -0.0070728972140955875 0.00050668898266811749 0 -0.0077490284029700989 0.00063439315533998992 0 -0.0075191339353790267 0.00085200346463952721 0 -0.0075154425081314672 0.00064449478908425845 0 -0.0076645875802048603 0.00061178344522533682 0 -0.007210965539476046 0.00045775393794727647 0 -0.0076645875802048603 0.00061178344522533682 0 -0.0075531136240519128 0.00025098500324313835 0 -0.007210965539476046 0.00045775393794727647 0 -0.0075531136240519128 0.00025098500324313835 0 -0.0072655969884022889 0.00018398616920563182 0 -0.0071087448105883622 2.6132636786895115e-05 0 -0.0072655969884022889 0.00018398616920563182 0 -0.007420400432236165 -2.1591433394118737e-05 0 -0.0075531136240519128 0.00025098500324313835 0 -0.0072655969884022889 0.00018398616920563182 0 -0.007420400432236165 -2.1591433394118737e-05 0 -0.0075531136240519128 0.00025098500324313835 0 -0.007619577405049721 -0.00012803778048375817 0 -0.0078717255102572145 0.0002700260385624606 0 -0.0075531136240519128 0.00025098500324313835 0 -0.007619577405049721 -0.00012803778048375817 0 -0.007420400432236165 -2.1591433394118737e-05 0 -0.007619577405049721 -0.00012803778048375817 0 -0.0074719558712199865 -5.6815631144685022e-05 0 -0.007420400432236165 -2.1591433394118737e-05 0 -0.007619577405049721 -0.00012803778048375817 0 -0.0074719558712199865 -5.6815631144685022e-05 0 -0.0074387557495749282 3.6973864857727372e-05 0 -0.0072026542596130569 -8.1064552173274777e-05 0 -0.0074424256204727209 -5.189651641091794e-05 0 -0.0074719558712199865 -5.6815631144685022e-05 0 -0.007420400432236165 -2.1591433394118737e-05 0 -0.0074208386839333994 -4.6861560510900109e-05 0 -0.0074344514842631711 -0.00011581342734778709 0 -0.007420400432236165 -2.1591433394118737e-05 0 -0.0074208386839333994 -4.6861560510900109e-05 0 -0.007444324736401043 9.8345394143224346e-05 0 -0.0074208386839333994 -4.6861560510900109e-05 0 -0.0074079899905061851 9.2410899583191458e-05 0 -0.0074719558712199865 -5.6815631144685022e-05 0 -0.0074208386839333994 -4.6861560510900109e-05 0 -0.0074079899905061851 9.2410899583191458e-05 0 -0.007619577405049721 -0.00012803778048375817 0 -0.0074387557495749282 3.6973864857727372e-05 0 -0.0073363128313159824 5.6119324826714908e-06 0 -0.0074719558712199865 -5.6815631144685022e-05 0 -0.0074079899905061851 9.2410899583191458e-05 0 -0.0074387557495749282 3.6973864857727372e-05 0 -0.0077461147585797443 -0.0001623881404904909 0 -0.0073823709875318159 0.00034641257338708563 0 -0.0073069024379983725 0.00029325393114070327 0 -0.0074036611559124641 0.00018837836435465111 0 -0.0074505992545391524 0.0004826753464431699 0 -0.0074387557495749282 3.6973864857727372e-05 0 -0.0073363128313159824 5.6119324826714908e-06 0 -0.007306568486953797 0.00018827967615560147 0 -0.0077706899525451026 0.00037706857217520201 0 -0.0077461147585797443 -0.0001623881404904909 0 -0.0077706899525451026 0.00037706857217520201 0 -0.0085964415062223538 -0.00012461407007530883 0 -0.0087765168880242564 0.00023194420678334098 0 -0.0087197076723620082 8.9820661628566716e-05 0 -0.0086512725729479857 0.00021079607597493911 0 -0.0082166334096159706 -0.00066192044536234887 0 -0.0080707061184830155 -0.00050645090712735216 0 -0.00841744599032632 -0.00022569426453646134 0 -0.0077461147585797443 -0.0001623881404904909 0 -0.00817432427404737 -0.0001493009895188079 0 -0.0080707061184830155 -0.00050645090712735216 0 -0.00841744599032632 -0.00022569426453646134 0 -0.0081622245632212136 7.9494797104724404e-06 0 -0.007619577405049721 -0.00012803778048375817 0 -0.0079908992011114011 -0.00054072039434281791 0 -0.0081622245632212136 7.9494797104724404e-06 0 -0.0076110364395288203 -0.00015084823630693217 0 -0.0077461147585797443 -0.0001623881404904909 0 -0.007619577405049721 -0.00012803778048375817 0 -0.0081622245632212136 7.9494797104724404e-06 0 -0.0078717255102572145 0.0002700260385624606 0 -0.0081622245632212136 7.9494797104724404e-06 0 -0.0078717255102572145 0.0002700260385624606 0 -0.0082874884405397288 0.0003530210094161119 0 -0.0085964415062223538 -0.00012461407007530883 0 -0.0086682044644024042 0.00014623110501812565 0 -0.00841744599032632 -0.00022569426453646134 0 -0.0083898041524315507 0.00013064510674331908 0 -0.0086730524329321004 0.00013349369954934788 0 -0.00841744599032632 -0.00022569426453646134 0 -0.0081622245632212136 7.9494797104724404e-06 0 -0.0083898041524315507 0.00013064510674331908 0 -0.0081622245632212136 7.9494797104724404e-06 0 -0.0083898041524315507 0.00013064510674331908 0 -0.0082874884405397288 0.0003530210094161119 0 -0.0083898041524315507 0.00013064510674331908 0 -0.0085345056798624142 0.00031363297579868881 0 -0.0086730524329321004 0.00013349369954934788 0 -0.0083898041524315507 0.00013064510674331908 0 -0.0082874884405397288 0.0003530210094161119 0 -0.0085345056798624142 0.00031363297579868881 0 -0.0082874884405397288 0.0003530210094161119 0 -0.0085345056798624142 0.00031363297579868881 0 -0.0085675589066437664 0.00056747870604110877 0 -0.0083153142660096178 0.00081174542147271643 0 -0.0082874884405397288 0.0003530210094161119 0 -0.0085675589066437664 0.00056747870604110877 0 -0.0085345056798624142 0.00031363297579868881 0 -0.0085675589066437664 0.00056747870604110877 0 -0.0087657627656077108 0.00038532146114013209 0 -0.0085345056798624142 0.00031363297579868881 0 -0.0087657627656077108 0.00038532146114013209 0 -0.0086730524329321004 0.00013349369954934788 0 -0.0083153142660096178 0.00081174542147271643 0 -0.0082874884405397288 0.0003530210094161119 0 -0.0080020868190747163 0.00057767614575165971 0 -0.0078717255102572145 0.0002700260385624606 0 -0.0082874884405397288 0.0003530210094161119 0 -0.0080020868190747163 0.00057767614575165971 0 -0.0094530239242145535 0.00026761974853466424 0 -0.0090931625932418637 0.00043938875743471144 0 -0.0091547209354868129 0.00017643905002115703 0 -0.0094530239242145535 0.00026761974853466424 0 -0.0095102841512764245 0.00056968266748223567 0 -0.0090931625932418637 0.00043938875743471144 0 -0.0094530239242145535 0.00026761974853466424 0 -0.0095102841512764245 0.00056968266748223567 0 -0.0097798141959296054 0.00019849236528363164 0 -0.0092217596865515686 0.00071361303005215183 0 -0.0095102841512764245 0.00056968266748223567 0 -0.0090931625932418637 0.00043938875743471144 0 -0.0089090028769998886 0.00066151334631754806 0 -0.0087657627656077108 0.00038532146114013209 0 -0.0090931625932418637 0.00043938875743471144 0 -0.0089090028769998886 0.00066151334631754806 0 -0.0092217596865515686 0.00071361303005215183 0 -0.0090931625932418637 0.00043938875743471144 0 -0.0089090028769998886 0.00066151334631754806 0 -0.0085675589066437664 0.00056747870604110877 0 -0.0087657627656077108 0.00038532146114013209 0 -0.0090931625932418637 0.00043938875743471144 0 -0.0088852886334694625 0.00023832624674881178 0 -0.0091547209354868129 0.00017643905002115703 0 -0.0087657627656077108 0.00038532146114013209 0 -0.0090931625932418637 0.00043938875743471144 0 -0.0088852886334694625 0.00023832624674881178 0 -0.0088852886334694625 0.00023832624674881178 0 -0.008751350031927764 2.6267803306483145e-05 0 -0.0091547209354868129 0.00017643905002115703 0 -0.0087197076723620082 8.9820661628566716e-05 0 -0.0086730524329321004 0.00013349369954934788 0 -0.008751350031927764 2.6267803306483145e-05 0 -0.0088852886334694625 0.00023832624674881178 0 -0.0086730524329321004 0.00013349369954934788 0 -0.008751350031927764 2.6267803306483145e-05 0 -0.0087657627656077108 0.00038532146114013209 0 -0.0088852886334694625 0.00023832624674881178 0 -0.0086730524329321004 0.00013349369954934788 0 -0.008751350031927764 2.6267803306483145e-05 0 -0.0086214539703089507 7.4745050381565094e-05 0 -0.0084513911010030158 1.9189667452192967e-05 0 -0.0088189889346280675 1.8371561071776226e-05 0 -0.0089545789335608167 -9.4315548645525828e-05 0 -0.008751350031927764 2.6267803306483145e-05 0 -0.0091547209354868129 0.00017643905002115703 0 -0.0096426169807107311 -0.00012814171055232731 0 -0.0094530239242145535 0.00026761974853466424 0 -0.0091547209354868129 0.00017643905002115703 0 -0.0096426169807107311 -0.00012814171055232731 0 -0.0084693450305223378 0.00011431039333530174 0 -0.0085666021450774947 0.0001103422830409174 0 -0.0084513911010030158 1.9189667452192967e-05 0 -0.0086214539703089507 7.4745050381565094e-05 0 -0.0085666021450774947 0.0001103422830409174 0 -0.0084513911010030158 1.9189667452192967e-05 0 -0.0085666021450774947 0.0001103422830409174 0 -0.0086741511407211792 0.0001129738823232274 0 -0.0085207602895340916 0.00019160925567104169 0 -0.0084693450305223378 0.00011431039333530174 0 -0.0085666021450774947 0.0001103422830409174 0 -0.0085207602895340916 0.00019160925567104169 0 -0.0087197076723620082 8.9820661628566716e-05 0 -0.0086741511407211792 0.0001129738823232274 0 -0.0086512725729479857 0.00021079607597493911 0 -0.0087197076723620082 8.9820661628566716e-05 0 -0.008751350031927764 2.6267803306483145e-05 0 -0.0086741511407211792 0.0001129738823232274 0 -0.0086214539703089507 7.4745050381565094e-05 0 -0.0085666021450774947 0.0001103422830409174 0 -0.0086741511407211792 0.0001129738823232274 0 -0.008751350031927764 2.6267803306483145e-05 0 -0.0086214539703089507 7.4745050381565094e-05 0 -0.0086741511407211792 0.0001129738823232274 0 -0.0086741511407211792 0.0001129738823232274 0 -0.0086512725729479857 0.00021079607597493911 0 -0.0085207602895340916 0.00019160925567104169 0 -0.0085207602895340916 0.00019160925567104169 0 -0.008466788113425593 0.00033885253746295126 0 -0.0083795595429644563 0.00027434496539801922 0 -0.0086512725729479857 0.00021079607597493911 0 -0.0085207602895340916 0.00019160925567104169 0 -0.008466788113425593 0.00033885253746295126 0 -0.008466788113425593 0.00033885253746295126 0 -0.0084431655401692712 0.00050481411920967037 0 -0.0083213535610705599 0.00044621014750297831 0 -0.0073396127428500321 0.001295477406820024 0 -0.0072788465378967474 0.0010074427269876937 0 -0.0076973874967588649 0.00096910042865433769 0 -0.0079805045885795959 0.00092080330942695713 0 -0.0080789634881445575 0.00070663545133770305 0 -0.008466788113425593 0.00033885253746295126 0 -0.0086349502652511411 0.0003744009610094768 0 -0.0084431655401692712 0.00050481411920967037 0 -0.0086512725729479857 0.00021079607597493911 0 -0.008466788113425593 0.00033885253746295126 0 -0.0086349502652511411 0.0003744009610094768 0 -0.0077706899525451026 0.00037706857217520201 0 -0.0079805045885795959 0.00092080330942695713 0 -0.0087765168880242564 0.00023194420678334098 0 -0.0086512725729479857 0.00021079607597493911 0 -0.0086349502652511411 0.0003744009610094768 0 -0.0070252878593739321 0.0016155351256159796 0 -0.0073396127428500321 0.001295477406820024 0 -0.0068989525542751803 0.0013475038541088322 0 -0.0073069024379983725 0.00029325393114070327 0 -0.0074028856739176861 0.00053365010914545113 0 -0.0074505992545391524 0.0004826753464431699 0 -0.0077706899525451026 0.00037706857217520201 0 -0.0071843424750582321 0.0010102906863094746 0 -0.0067608258568656251 0.0010641897875042494 0 -0.0070671446870338456 0.0011140492385536061 0 -0.0070687182511380512 0.00083877194192162618 0 -0.0074028856739176861 0.00053365010914545113 0 -0.0074505992545391524 0.0004826753464431699 0 -0.0074879625809341471 0.00076603242928685361 0 -0.0071843424750582321 0.0010102906863094746 0 -0.0070740199163953034 0.00073652242019614609 0 -0.0073823709875318159 0.00034641257338708563 0 -0.0070740199163953034 0.00073652242019614609 0 -0.0068989525542751803 0.0013475038541088322 0 -0.0067608258568656251 0.0010641897875042494 0 -0.0070671446870338456 0.0011140492385536061 0 -0.0073396127428500321 0.001295477406820024 0 -0.0068989525542751803 0.0013475038541088322 0 -0.0070671446870338456 0.0011140492385536061 0 -0.0073396127428500321 0.001295477406820024 0 -0.0070671446870338456 0.0011140492385536061 0 -0.0072788465378967474 0.0010074427269876937 0 -0.0072788465378967474 0.0010074427269876937 0 -0.0070687182511380512 0.00083877194192162618 0 -0.0073647897236265815 0.00076922772420742768 0 -0.0070671446870338456 0.0011140492385536061 0 -0.0072788465378967474 0.0010074427269876937 0 -0.0070687182511380512 0.00083877194192162618 0 -0.0067608258568656251 0.0010641897875042494 0 -0.0070687182511380512 0.00083877194192162618 0 -0.0068711629838690705 0.00075999205819748863 0 -0.0070687182511380512 0.00083877194192162618 0 -0.0068711629838690705 0.00075999205819748863 0 -0.0068970918004259193 0.00052082699905639767 0 -0.0066885108710793345 0.00073993715582454931 0 -0.0070740199163953034 0.00073652242019614609 0 -0.0066859638014910511 0.00073382724223238676 0 -0.0067608258568656251 0.0010641897875042494 0 -0.0068711629838690705 0.00075999205819748863 0 -0.0066233956275625963 0.00039968826791149088 0 -0.0066859638014910511 0.00073382724223238676 0 -0.0068970918004259193 0.00052082699905639767 0 -0.0066859638014910511 0.00073382724223238676 0 -0.0068711629838690705 0.00075999205819748863 0 -0.0068970918004259193 0.00052082699905639767 0 -0.0066233956275625963 0.00039968826791149088 0 -0.0068970918004259193 0.00052082699905639767 0 -0.0068984535292267498 0.00029365173984193503 0 -0.0070687182511380512 0.00083877194192162618 0 -0.0068970918004259193 0.00052082699905639767 0 -0.0071921102167582587 0.00046543125474554831 0 -0.0068970918004259193 0.00052082699905639767 0 -0.0071921102167582587 0.00046543125474554831 0 -0.0068984535292267498 0.00029365173984193503 0 -0.0070687182511380512 0.00083877194192162618 0 -0.0071921102167582587 0.00046543125474554831 0 -0.0073647897236265815 0.00076922772420742768 0 -0.0071921102167582587 0.00046543125474554831 0 -0.0076208689524428202 0.00055374114809418932 0 -0.0073647897236265815 0.00076922772420742768 0 -0.0071921102167582587 0.00046543125474554831 0 -0.0076208689524428202 0.00055374114809418932 0 -0.0075217325974836794 0.00029349507394741477 0 -0.0076208689524428202 0.00055374114809418932 0 -0.0078726620866558013 0.00040746836787688626 0 -0.0075217325974836794 0.00029349507394741477 0 -0.0076208689524428202 0.00055374114809418932 0 -0.0076973874967588649 0.00096910042865433769 0 -0.0081411298990652758 0.00055084058648370625 0 -0.0076208689524428202 0.00055374114809418932 0 -0.0078726620866558013 0.00040746836787688626 0 -0.0081411298990652758 0.00055084058648370625 0 -0.0084431655401692712 0.00050481411920967037 0 -0.0083213535610705599 0.00044621014750297831 0 -0.0082300022154101031 0.00052981778154847549 0 -0.0080789634881445575 0.00070663545133770305 0 -0.0081496469479090429 0.00056634552031238389 0 -0.0072788465378967474 0.0010074427269876937 0 -0.0076973874967588649 0.00096910042865433769 0 -0.0073647897236265815 0.00076922772420742768 0 -0.0076208689524428202 0.00055374114809418932 0 -0.0076973874967588649 0.00096910042865433769 0 -0.0073647897236265815 0.00076922772420742768 0 -0.0074110004571093157 -5.871024685927966e-05 0 -0.0077901257045736886 0.00014727561998036125 0 -0.0073768871932032003 -6.8722497173301752e-05 0 -0.0076284868941895066 0.00010040769811607226 0 -0.0075445248596556023 -0.00023122246150652037 0 -0.0078726620866558013 0.00040746836787688626 0 -0.007973864376949906 0.00018506810736187119 0 -0.0075217325974836794 0.00029349507394741477 0 -0.0073768871932032003 -6.8722497173301752e-05 0 -0.007973864376949906 0.00018506810736187119 0 -0.0075217325974836794 0.00029349507394741477 0 -0.0073768871932032003 -6.8722497173301752e-05 0 -0.0075217325974836794 0.00029349507394741477 0 -0.0071561531878134872 0.00015707981872355216 0 -0.0071921102167582587 0.00046543125474554831 0 -0.0075217325974836794 0.00029349507394741477 0 -0.0071561531878134872 0.00015707981872355216 0 -0.0071921102167582587 0.00046543125474554831 0 -0.0071561531878134872 0.00015707981872355216 0 -0.0068984535292267498 0.00029365173984193503 0 -0.0071561531878134872 0.00015707981872355216 0 -0.0068984535292267498 0.00029365173984193503 0 -0.0068914653290934342 6.2934687671912446e-05 0 -0.0066233956275625963 0.00039968826791149088 0 -0.0068984535292267498 0.00029365173984193503 0 -0.006648880999102583 0.00013044442999623638 0 -0.0068984535292267498 0.00029365173984193503 0 -0.0068914653290934342 6.2934687671912446e-05 0 -0.006648880999102583 0.00013044442999623638 0 -0.0068914653290934342 6.2934687671912446e-05 0 -0.0067528624413361361 -0.00018636935070830943 0 -0.006648880999102583 0.00013044442999623638 0 -0.0068914653290934342 6.2934687671912446e-05 0 -0.0070824151942270337 -0.00015704100439302887 0 -0.0067528624413361361 -0.00018636935070830943 0 -0.0073768871932032003 -6.8722497173301752e-05 0 -0.0071561531878134872 0.00015707981872355216 0 -0.0070824151942270337 -0.00015704100439302887 0 -0.0071561531878134872 0.00015707981872355216 0 -0.0068914653290934342 6.2934687671912446e-05 0 -0.0070824151942270337 -0.00015704100439302887 0 -0.0070824151942270337 -0.00015704100439302887 0 -0.0069685829710563699 -0.00043264623788190544 0 -0.0073057925783514485 -0.00044275325661125953 0 -0.0067528624413361361 -0.00018636935070830943 0 -0.0069685829710563699 -0.00043264623788190544 0 -0.0066735775782628369 -0.00051149561525246751 0 -0.0070824151942270337 -0.00015704100439302887 0 -0.0067528624413361361 -0.00018636935070830943 0 -0.0069685829710563699 -0.00043264623788190544 0 -0.0069685829710563699 -0.00043264623788190544 0 -0.0069397542365305315 -0.00081476414734156977 0 -0.0066735775782628369 -0.00051149561525246751 0 -0.0069685829710563699 -0.00043264623788190544 0 -0.0073057925783514485 -0.00044275325661125953 0 -0.0069397542365305315 -0.00081476414734156977 0 -0.0073057925783514485 -0.00044275325661125953 0 -0.0075042790773752486 -0.00050027180662416866 0 -0.0073215880429261422 -0.00082847166332101823 0 -0.0073768871932032003 -6.8722497173301752e-05 0 -0.0070824151942270337 -0.00015704100439302887 0 -0.0073057925783514485 -0.00044275325661125953 0 -0.0073768871932032003 -6.8722497173301752e-05 0 -0.0073057925783514485 -0.00044275325661125953 0 -0.0075445248596556023 -0.00023122246150652037 0 -0.0075445248596556023 -0.00023122246150652037 0 -0.0075042790773752486 -0.00050027180662416866 0 -0.0076744830838847864 -0.00038170003319856977 0 -0.0075042790773752486 -0.00050027180662416866 0 -0.0076744830838847864 -0.00038170003319856977 0 -0.0076793451134879818 -0.0006258492494446528 0 -0.0073057925783514485 -0.00044275325661125953 0 -0.0075445248596556023 -0.00023122246150652037 0 -0.0075042790773752486 -0.00050027180662416866 0 -0.0075042790773752486 -0.00050027180662416866 0 -0.0073215880429261422 -0.00082847166332101823 0 -0.0076793451134879818 -0.0006258492494446528 0 -0.0073215880429261422 -0.00082847166332101823 0 -0.0076778890480902594 -0.00085367735287494796 0 -0.0076793451134879818 -0.0006258492494446528 0 -0.0073057925783514485 -0.00044275325661125953 0 -0.0073215880429261422 -0.00082847166332101823 0 -0.0069397542365305315 -0.00081476414734156977 0 -0.0019851812732758173 -0.00070148784017280447 0 -0.0019336126912321463 -0.0004862030064376546 0 -0.0022321701349823672 -0.00054938172647028621 0 -0.0019851812732758173 -0.00070148784017280447 0 -0.0019214874193168052 -0.00057451050922870432 0 -0.0019336126912321463 -0.0004862030064376546 0 -0.0045800102810315971 -0.00077602345433903995 0 -0.0052011317497649432 -0.00061053987657782628 0 -0.0019851812732758173 -0.00070148784017280447 0 -0.0019214874193168052 -0.00057451050922870432 0 -0.0018992681112510715 -0.00059839364615288371 0 -0.0019336126912321463 -0.0004862030064376546 0 -0.001889773224364543 -0.00055356824125989037 0 -0.0019239623190989961 -0.0005437400274809919 0 -0.0019214874193168052 -0.00057451050922870432 0 -0.0019336126912321463 -0.0004862030064376546 0 -0.0019239623190989961 -0.0005437400274809919 0 -0.0019336126912321463 -0.0004862030064376546 0 -0.001889773224364543 -0.00055356824125989037 0 -0.0016780098093188932 -0.00048402541882659533 0 -0.001889773224364543 -0.00055356824125989037 0 -0.001861189716709868 -0.00060274973552235751 0 -0.0017836660924793327 -0.00059901463160460513 0 -0.001889773224364543 -0.00055356824125989037 0 -0.0019005251427903168 -0.00059294847918382797 0 -0.001861189716709868 -0.00060274973552235751 0 -0.001889773224364543 -0.00055356824125989037 0 -0.0019239623190989961 -0.0005437400274809919 0 -0.0019005251427903168 -0.00059294847918382797 0 -0.0020728555894359299 -0.00034316300400601552 0 -0.0018410762591956602 -0.0004668916212468705 0 -0.0023526897947873889 -0.00025201800632734431 0 -0.0026018107450217105 -0.00047529528457147975 0 -0.0027686077881937977 -6.7108894271951231e-05 0 -0.0016780098093188932 -0.00048402541882659533 0 -0.0014000854782921881 -0.00055803931110444535 0 -0.0015780636051393668 -0.00068587303770732667 0 -0.001889773224364543 -0.00055356824125989037 0 -0.0016780098093188932 -0.00048402541882659533 0 -0.0017836660924793327 -0.00059901463160460513 0 -0.0016780098093188932 -0.00048402541882659533 0 -0.001694223602586133 -0.00066613439615097268 0 -0.0017836660924793327 -0.00059901463160460513 0 -0.0019336126912321463 -0.0004862030064376546 0 -0.0023526897947873889 -0.00025201800632734431 0 -0.0022321701349823672 -0.00054938172647028621 0 -0.0019057749521932533 -0.0004848391420487175 0 -0.0020728555894359299 -0.00034316300400601552 0 -0.0023526897947873889 -0.00025201800632734431 0 -0.0026018107450217105 -0.00047529528457147975 0 -0.0022321701349823672 -0.00054938172647028621 0 -0.0026018107450217105 -0.00047529528457147975 0 -0.0022321701349823672 -0.00054938172647028621 0 -0.00234802818491545 -0.0008204062904751154 0 -0.0026018107450217105 -0.00047529528457147975 0 -0.00234802818491545 -0.0008204062904751154 0 -0.0027799862025390115 -0.00088112313616793168 0 -0.0019851812732758173 -0.00070148784017280447 0 -0.0022321701349823672 -0.00054938172647028621 0 -0.00234802818491545 -0.0008204062904751154 0 -0.0045800102810315971 -0.00077602345433903995 0 -0.0046269173684124849 -0.00080728430436658317 0 -0.0046269173684124849 -0.00080728430436658317 0 -0.0048143028851798282 -0.00088175903786036249 0 -0.0069397542365305315 -0.00081476414734156977 0 -0.0065226452054700842 -0.0007918858938190254 0 -0.0066735775782628369 -0.00051149561525246751 0 -0.0048143028851798282 -0.00088175903786036249 0 -0.0038999092789906362 -0.00050459272888261182 0 -0.0065226452054700842 -0.0007918858938190254 0 -0.0060911141222799439 -0.00075217540310814626 0 -0.0062288369991326219 -0.00058954605485647682 0 -0.0020318354532100629 -0.00042150241181151791 0 -0.0018718383080501091 -0.00036690211451797849 0 -0.0018847937003311822 -9.7673306775522558e-05 0 -0.0027799862025390115 -0.00088112313616793168 0 -0.002985821998495754 -0.00049485759952127325 0 -0.0032072963387656979 -0.00092508944066807682 0 -0.002402096313314448 -0.00043234702328856983 0 -0.0038999092789906362 -0.00050459272888261182 0 -0.0026018107450217105 -0.00047529528457147975 0 -0.0027799862025390115 -0.00088112313616793168 0 -0.002985821998495754 -0.00049485759952127325 0 -0.0026018107450217105 -0.00047529528457147975 0 -0.002985821998495754 -0.00049485759952127325 0 -0.0027686077881937977 -6.7108894271951231e-05 0 -0.002402096313314448 -0.00043234702328856983 0 -0.0018410762591956602 -0.0004668916212468705 0 -0.0020318354532100629 -0.00042150241181151791 0 -0.0022131706886740553 -0.00079964574425399283 0 -0.0018950866790204191 -0.00053899924474963448 0 -0.0020318354532100629 -0.00042150241181151791 0 -0.0018950866790204191 -0.00053899924474963448 0 -0.0018718383080501091 -0.00036690211451797849 0 -0.0022131706886740553 -0.00079964574425399283 0 -0.0018305307554319862 -0.00072972900928308421 0 -0.0018950866790204191 -0.00053899924474963448 0 -0.0022131706886740553 -0.00079964574425399283 0 -0.0018305307554319862 -0.00072972900928308421 0 -0.0018468762605769247 -0.00097538366833425157 0 -0.001789221961088217 -0.00069861636808748269 0 -0.0016919181212109976 -0.00051238058613768732 0 -0.0016533800387377054 -0.00059431700360344005 0 -0.0016489838949059281 -0.00072480184954306021 0 -0.0017568325819968997 -0.0004552521447909317 0 -0.0016533800387377054 -0.00059431700360344005 0 -0.0015490473477835487 -0.0006807920273433157 0 -0.0016489838949059281 -0.00072480184954306021 0 -0.0016533800387377054 -0.00059431700360344005 0 -0.0015490473477835487 -0.0006807920273433157 0 -0.0016466206456833055 -0.00051695539309191648 0 -0.0015490473477835487 -0.0006807920273433157 0 -0.0016489838949059281 -0.00072480184954306021 0 -0.0014881300221466882 -0.00088671260648945436 0 -0.0015490473477835487 -0.0006807920273433157 0 -0.001400312518990374 -0.00087342799448235906 0 -0.0014881300221466882 -0.00088671260648945436 0 -0.0015397860088248664 -0.00077528072185514461 0 -0.0018305307554319862 -0.00072972900928308421 0 -0.0017568325819968997 -0.0004552521447909317 0 -0.0015397860088248664 -0.00077528072185514461 0 -0.0018305307554319862 -0.00072972900928308421 0 -0.0017010246180345595 -0.00085775383094635149 0 -0.0018305307554319862 -0.00072972900928308421 0 -0.0018950866790204191 -0.00053899924474963448 0 -0.0017568325819968997 -0.0004552521447909317 0 -0.0018950866790204191 -0.00053899924474963448 0 -0.0017568325819968997 -0.0004552521447909317 0 -0.0018718383080501091 -0.00036690211451797849 0 -0.0017568325819968997 -0.0004552521447909317 0 -0.0018718383080501091 -0.00036690211451797849 0 -0.0017301157802370897 -0.00038695035207357911 0 -0.0017568325819968997 -0.0004552521447909317 0 -0.0016891311235469333 -0.00045043059333692965 0 -0.0017301157802370897 -0.00038695035207357911 0 -0.0018851490378548412 -2.984141238478276e-05 0 -0.0018890759763940557 -0.00040890457028376279 0 -0.0015237645560464131 -0.00064086765737359592 0 -0.0018749342533867759 -0.00036330571379115934 0 -0.0015490473477835487 -0.0006807920273433157 0 -0.0017555486679985987 -0.00021495079898715169 0 -0.0014890757009644972 -0.00051848826134898846 0 -0.0017568325819968997 -0.0004552521447909317 0 -0.0016891311235469333 -0.00045043059333692965 0 -0.0016466206456833055 -0.00051695539309191648 0 -0.0015490473477835487 -0.0006807920273433157 0 -0.0016466206456833055 -0.00051695539309191648 0 -0.0016456997850275387 -0.00038101888960314999 0 -0.0016592436647198353 -0.00042334597266009607 0 -0.0016456997850275387 -0.00038101888960314999 0 -0.0017301157802370897 -0.00038695035207357911 0 -0.0016592436647198353 -0.00042334597266009607 0 -0.0016891311235469333 -0.00045043059333692965 0 -0.0017301157802370897 -0.00038695035207357911 0 -0.0016592436647198353 -0.00042334597266009607 0 -0.0016466206456833055 -0.00051695539309191648 0 -0.0016456997850275387 -0.00038101888960314999 0 -0.0016524459530286731 -0.00013042131284947127 0 -0.0017555486679985987 -0.00021495079898715169 0 -0.0014890757009644972 -0.00051848826134898846 0 -0.0016592436647198353 -0.00042334597266009607 0 -0.0016891311235469333 -0.00045043059333692965 0 -0.0016466206456833055 -0.00051695539309191648 0 -0.0016533800387377054 -0.00059431700360344005 0 -0.0017568325819968997 -0.0004552521447909317 0 -0.0016466206456833055 -0.00051695539309191648 0 -0.0018749342533867759 -0.00036330571379115934 0 -0.0034232872709704146 -0.00039978218143387812 0 -0.0023704901668165704 -4.2376593485516193e-05 0 -0.0024462072866904714 0.00015359977600932142 0 -0.0022314984803817883 2.672251638143682e-05 0 -0.0016524459530286731 -0.00013042131284947127 0 -0.0017555486679985987 -0.00021495079898715169 0 -0.0019164208489857572 0.00025062126100728287 0 -0.0018749342533867759 -0.00036330571379115934 0 -0.0035815398528330957 -0.00025579820009325653 0 -0.0016456997850275387 -0.00038101888960314999 0 -0.0018099660086340341 -0.0002146320230530886 0 -0.0017891002694836677 -8.7631323859230031e-05 0 -0.0018718383080501091 -0.00036690211451797849 0 -0.0018099660086340341 -0.0002146320230530886 0 -0.0018847937003311822 -9.7673306775522558e-05 0 -0.0016456997850275387 -0.00038101888960314999 0 -0.0017804784430436535 -0.00031309007373969797 0 -0.0017301157802370897 -0.00038695035207357911 0 -0.0016456997850275387 -0.00038101888960314999 0 -0.0017804784430436535 -0.00031309007373969797 0 -0.0018099660086340341 -0.0002146320230530886 0 -0.0018718383080501091 -0.00036690211451797849 0 -0.0017804784430436535 -0.00031309007373969797 0 -0.0017301157802370897 -0.00038695035207357911 0 -0.0018718383080501091 -0.00036690211451797849 0 -0.0017804784430436535 -0.00031309007373969797 0 -0.0018099660086340341 -0.0002146320230530886 0 -0.0026818902295088366 -0.00062545240716201263 0 -0.0028332859356201465 -9.4506936815059425e-05 0 -0.0029279183561419634 -0.00010472240947990199 0 -0.0018099660086340341 -0.0002146320230530886 0 -0.0017891002694836677 -8.7631323859230031e-05 0 -0.0018847937003311822 -9.7673306775522558e-05 0 -0.0050757919178836507 -0.00068379388547942712 0 -0.0050800195455277019 -0.00068425454217038739 0 -0.0050858048362019907 -0.00069970397372579398 0 -0.0034232872709704146 -0.00039978218143387812 0 -0.0054449413312494047 -0.00048664092155915043 0 -0.0046449140069099752 -0.00056560493156791009 0 -0.0046801500250480679 -0.00056959033991046569 0 -0.004715022218196455 -0.00050293423012783033 0 -0.0035815398528330957 -0.00025579820009325653 0 -0.0034232872709704146 -0.00039978218143387812 0 -0.0060911141222799439 -0.00075217540310814626 0 -0.0060259855587785176 -0.00060026511206291299 0 -0.0062288369991326219 -0.00058954605485647682 0 -0.0034232872709704146 -0.00039978218143387812 0 -0.0038999092789906362 -0.00050459272888261182 0 -0.0043958708214871991 -0.00039910621982039928 0 -0.004334409355284616 -0.0003923905194169758 0 -0.0043717796283610794 -0.00046499556098140982 0 -0.0038999092789906362 -0.00050459272888261182 0 -0.0054449413312494047 -0.00048664092155915043 0 -0.0016524459530286731 -0.00013042131284947127 0 -0.0019164208489857572 0.00025062126100728287 0 -0.0018048838481509258 0.00026269299950956992 0 -0.0018851490378548412 -2.984141238478276e-05 0 -0.004110112684579878 -0.00044358970402657422 0 -0.0035815398528330957 -0.00025579820009325653 0 -0.004110112684579878 -0.00044358970402657422 0 -0.006820447960370386 -0.0016890622062113209 0 -0.0066377240508317427 -0.0011456054825805153 0 -0.0062382904451031632 -0.0016423222352278783 0 -0.004110112684579878 -0.00044358970402657422 0 -0.0064933058554430033 -0.0010491594554487937 0 -0.006820447960370386 -0.0016890622062113209 0 -0.0066377240508317427 -0.0011456054825805153 0 -0.0070087406764645904 -0.0011023825428069236 0 -0.0067638035448729225 -0.001040561346067241 0 -0.0064933058554430033 -0.0010491594554487937 0 -0.0066377240508317427 -0.0011456054825805153 0 -0.0069134115958884926 -0.00087632051408261229 0 -0.0070087406764645904 -0.0011023825428069236 0 -0.0069134115958884926 -0.00087632051408261229 0 -0.0066811432941286282 -0.00076223445851716627 0 -0.0069043470823538936 -0.0006586870556632915 0 -0.0066377240508317427 -0.0011456054825805153 0 -0.0069134115958884926 -0.00087632051408261229 0 -0.0066811432941286282 -0.00076223445851716627 0 -0.0069440416337939034 -0.00047651367680163651 0 -0.0071755939188284752 -0.00023175420430716464 0 -0.0070984144818928372 -5.5742647172294334e-05 0 -0.007084614199446288 -0.001204105446424206 0 -0.0071250344344602132 -0.00068045244931364207 0 -0.0072807334862032081 -0.00055379220130091561 0 -0.0060007218194201269 -0.00068375159415430867 0 -0.0073331558194032016 -0.00031920042584069165 0 -0.0070104020840284003 -0.0010346656446068813 0 -0.007084614199446288 -0.001204105446424206 0 -0.0071250344344602132 -0.00068045244931364207 0 -0.0069134115958884926 -0.00087632051408261229 0 -0.0070154854009070334 -0.00109847094790703 0 -0.0071250344344602132 -0.00068045244931364207 0 -0.0064933058554430033 -0.0010491594554487937 0 -0.0070980606390207432 -0.00068683173797152118 0 -0.0069134115958884926 -0.00087632051408261229 0 -0.0069043470823538936 -0.0006586870556632915 0 -0.0071250344344602132 -0.00068045244931364207 0 -0.0069440416337939034 -0.00047651367680163651 0 -0.0069933457138013338 -0.00059591004806355125 0 -0.0071755939188284752 -0.00023175420430716464 0 -0.0054449413312494047 -0.00048664092155915043 0 -0.0068271005513991295 -0.00020530928705260427 0 -0.0050800195455277019 -0.00068425454217038739 0 -0.0050946274803218769 -0.00070747215632769222 0 -0.0050858048362019907 -0.00069970397372579398 0 -0.0064933058554430033 -0.0010491594554487937 0 -0.0060007218194201269 -0.00068375159415430867 0 -0.0035815398528330957 -0.00025579820009325653 0 -0.0060007218194201269 -0.00068375159415430867 0 -0.0046449140069099752 -0.00056560493156791009 0 -0.0046909748827314388 -0.00044141864899124709 0 -0.004715022218196455 -0.00050293423012783033 0 -0.0060007218194201269 -0.00068375159415430867 0 -0.0054449413312494047 -0.00048664092155915043 0 -0.0065226452054700842 -0.0007918858938190254 0 -0.006393457580308206 -0.0004931363591691852 0 -0.0062288369991326219 -0.00058954605485647682 0 -0.0060259855587785176 -0.00060026511206291299 0 -0.0062288369991326219 -0.00058954605485647682 0 -0.0062123503443076329 -0.000213345951573522 0 -0.006393457580308206 -0.0004931363591691852 0 -0.0062288369991326219 -0.00058954605485647682 0 -0.0062123503443076329 -0.000213345951573522 0 -0.006393457580308206 -0.0004931363591691852 0 -0.0066735775782628369 -0.00051149561525246751 0 -0.0065045007305271638 -0.00029894344768342953 0 -0.0065226452054700842 -0.0007918858938190254 0 -0.006393457580308206 -0.0004931363591691852 0 -0.0066735775782628369 -0.00051149561525246751 0 -0.0067528624413361361 -0.00018636935070830943 0 -0.0066735775782628369 -0.00051149561525246751 0 -0.0065045007305271638 -0.00029894344768342953 0 -0.0067528624413361361 -0.00018636935070830943 0 -0.0065045007305271638 -0.00029894344768342953 0 -0.0064906575875437987 -8.7283584825716159e-05 0 -0.006393457580308206 -0.0004931363591691852 0 -0.0065045007305271638 -0.00029894344768342953 0 -0.0062123503443076329 -0.000213345951573522 0 -0.0065045007305271638 -0.00029894344768342953 0 -0.0062123503443076329 -0.000213345951573522 0 -0.0064906575875437987 -8.7283584825716159e-05 0 -0.0062123503443076329 -0.000213345951573522 0 -0.0064906575875437987 -8.7283584825716159e-05 0 -0.0063891622889346213 0.00018034345900871929 0 -0.0071755939188284752 -0.00023175420430716464 0 -0.007315450100695408 9.1812176907910963e-05 0 -0.0070984144818928372 -5.5742647172294334e-05 0 -0.0068271005513991295 -0.00020530928705260427 0 -0.0068337387601488109 0.00013080274343270671 0 -0.0064906575875437987 -8.7283584825716159e-05 0 -0.006648880999102583 0.00013044442999623638 0 -0.0063891622889346213 0.00018034345900871929 0 -0.0067528624413361361 -0.00018636935070830943 0 -0.0064906575875437987 -8.7283584825716159e-05 0 -0.006648880999102583 0.00013044442999623638 0 -0.0065675454058880542 0.00058155495618974638 0 -0.0066233956275625963 0.00039968826791149088 0 -0.0063891622889346213 0.00018034345900871929 0 -0.0069606409695735739 0.00042061574972451538 0 -0.0068337387601488109 0.00013080274343270671 0 -0.0066233956275625963 0.00039968826791149088 0 -0.006648880999102583 0.00013044442999623638 0 -0.0063891622889346213 0.00018034345900871929 0 -0.007248627179180441 0.00025988741554558924 0 -0.007315450100695408 9.1812176907910963e-05 0 -0.0070984144818928372 -5.5742647172294334e-05 0 -0.007301828413229918 0.00016794276508833982 0 -0.0073331558194032016 -0.00031920042584069165 0 -0.0074057176197107541 0.00010100337691550824 0 -0.0070775915595779658 -0.00027112161754988919 0 -0.0072807334862032081 -0.00055379220130091561 0 -0.007068676963526273 3.8072542022582834e-05 0 -0.0074057176197107541 0.00010100337691550824 0 -0.0070775915595779658 -0.00027112161754988919 0 -0.007068676963526273 3.8072542022582834e-05 0 -0.0070775915595779658 -0.00027112161754988919 0 -0.0068387082904365765 -0.00010784558102675977 0 -0.0067773843643961591 0.00014342914943989819 0 -0.0068387082904365765 -0.00010784558102675977 0 -0.0065217759504355649 -6.5398278329510087e-05 0 -0.0068387082904365765 -0.00010784558102675977 0 -0.0066364569179801196 -0.00027884797351439874 0 -0.0065217759504355649 -6.5398278329510087e-05 0 -0.0068387082904365765 -0.00010784558102675977 0 -0.0066364569179801196 -0.00027884797351439874 0 -0.0068684524544097899 -0.00031033097118264775 0 -0.0070775915595779658 -0.00027112161754988919 0 -0.0068387082904365765 -0.00010784558102675977 0 -0.0068684524544097899 -0.00031033097118264775 0 -0.0070775915595779658 -0.00027112161754988919 0 -0.0068684524544097899 -0.00031033097118264775 0 -0.0070078252817312317 -0.00048462083060061325 0 -0.0067783254122956247 -0.00048595531335656204 0 -0.0069043470823538936 -0.0006586870556632915 0 -0.0070078252817312317 -0.00048462083060061325 0 -0.0068684524544097899 -0.00031033097118264775 0 -0.0067783254122956247 -0.00048595531335656204 0 -0.0070078252817312317 -0.00048462083060061325 0 -0.0066364569179801196 -0.00027884797351439874 0 -0.0067783254122956247 -0.00048595531335656204 0 -0.0064805263020048225 -0.00054277443783179143 0 -0.0066364569179801196 -0.00027884797351439874 0 -0.0068684524544097899 -0.00031033097118264775 0 -0.0067783254122956247 -0.00048595531335656204 0 -0.0066811432941286282 -0.00076223445851716627 0 -0.0067783254122956247 -0.00048595531335656204 0 -0.0069043470823538936 -0.0006586870556632915 0 -0.0066811432941286282 -0.00076223445851716627 0 -0.0067783254122956247 -0.00048595531335656204 0 -0.0064805263020048225 -0.00054277443783179143 0 -0.0069043470823538936 -0.0006586870556632915 0 -0.0071250344344602132 -0.00068045244931364207 0 -0.0070078252817312317 -0.00048462083060061325 0 -0.0071250344344602132 -0.00068045244931364207 0 -0.0072807334862032081 -0.00055379220130091561 0 -0.0070078252817312317 -0.00048462083060061325 0 -0.0070775915595779658 -0.00027112161754988919 0 -0.0072807334862032081 -0.00055379220130091561 0 -0.0070078252817312317 -0.00048462083060061325 0 -0.0060581475093314015 -0.00056044787387493839 0 -0.0064805263020048225 -0.00054277443783179143 0 -0.006342017139541029 -0.00029667847421453812 0 -0.0060581475093314015 -0.00056044787387493839 0 -0.0064805263020048225 -0.00054277443783179143 0 -0.006365928018412635 -0.00088646212228703973 0 -0.0066811432941286282 -0.00076223445851716627 0 -0.0064805263020048225 -0.00054277443783179143 0 -0.006365928018412635 -0.00088646212228703973 0 -0.0066364569179801196 -0.00027884797351439874 0 -0.0064805263020048225 -0.00054277443783179143 0 -0.006342017139541029 -0.00029667847421453812 0 -0.0063842254258591026 0.00019558044694300452 0 -0.0065217759504355649 -6.5398278329510087e-05 0 -0.0060718515256938839 -8.2860430008661467e-05 0 -0.006342017139541029 -0.00029667847421453812 0 -0.0065217759504355649 -6.5398278329510087e-05 0 -0.0060718515256938839 -8.2860430008661467e-05 0 -0.0066364569179801196 -0.00027884797351439874 0 -0.006342017139541029 -0.00029667847421453812 0 -0.0065217759504355649 -6.5398278329510087e-05 0 -0.0060581475093314015 -0.00056044787387493839 0 -0.0060718515256938839 -8.2860430008661467e-05 0 -0.0056080500675639517 -0.00030819738207350734 0 -0.0060581475093314015 -0.00056044787387493839 0 -0.006342017139541029 -0.00029667847421453812 0 -0.0060718515256938839 -8.2860430008661467e-05 0 -0.0056242797105721812 -4.3699345755456205e-06 0 -0.0053171191641360289 -0.00012169850757776382 0 -0.0052072399185179559 0.00011379674621737295 0 -0.0056242797105721812 -4.3699345755456205e-06 0 -0.0053171191641360289 -0.00012169850757776382 0 -0.0056080500675639517 -0.00030819738207350734 0 -0.0060718515256938839 -8.2860430008661467e-05 0 -0.0056242797105721812 -4.3699345755456205e-06 0 -0.0056080500675639517 -0.00030819738207350734 0 -0.0046771994542235788 0.00030432662757705179 0 -0.0052072399185179559 0.00011379674621737295 0 -0.0046019231056869461 2.5544172367289514e-05 0 -0.0053171191641360289 -0.00012169850757776382 0 -0.0052072399185179559 0.00011379674621737295 0 -0.0048890537440529095 -0.00011558478207358616 0 -0.0053171191641360289 -0.00012169850757776382 0 -0.0048890537440529095 -0.00011558478207358616 0 -0.0052728713811690782 -0.00045012082285821763 0 -0.0052072399185179559 0.00011379674621737295 0 -0.0048890537440529095 -0.00011558478207358616 0 -0.0046019231056869461 2.5544172367289514e-05 0 -0.0048890537440529095 -0.00011558478207358616 0 -0.0046328933345156321 -0.00041347677006365338 0 -0.0045134267296335351 -0.00023084609410740955 0 -0.0048890537440529095 -0.00011558478207358616 0 -0.0052728713811690782 -0.00045012082285821763 0 -0.0049790777912662315 -0.00090700924705689422 0 -0.0052728713811690782 -0.00045012082285821763 0 -0.0055360253339974859 -0.00078575983119125506 0 -0.0049790777912662315 -0.00090700924705689422 0 -0.004841872528965098 -6.5704899189881929e-05 0 -0.0049610658804793142 -0.00080388573660058256 0 -0.0060581475093314015 -0.00056044787387493839 0 -0.0056080500675639517 -0.00030819738207350734 0 -0.0055360253339974859 -0.00078575983119125506 0 -0.0052728713811690782 -0.00045012082285821763 0 -0.0056080500675639517 -0.00030819738207350734 0 -0.0055360253339974859 -0.00078575983119125506 0 -0.0053171191641360289 -0.00012169850757776382 0 -0.0052728713811690782 -0.00045012082285821763 0 -0.0056080500675639517 -0.00030819738207350734 0 -0.0055360253339974859 -0.00078575983119125506 0 -0.0053685643843143817 -0.0012299625805815835 0 -0.0059886549160785745 -0.0011638311031174399 0 -0.0055360253339974859 -0.00078575983119125506 0 -0.0049790777912662315 -0.00090700924705689422 0 -0.0053685643843143817 -0.0012299625805815835 0 -0.0049790777912662315 -0.00090700924705689422 0 -0.0049909926409270958 -0.0015436965246543647 0 -0.0053685643843143817 -0.0012299625805815835 0 -0.0049610658804793142 -0.00080388573660058256 0 -0.0032723963587235169 -0.00052157288272253286 0 -0.0032723963587235169 -0.00052157288272253286 0 -0.0038140946665634803 -0.00071189888474479824 0 -0.0053685643843143817 -0.0012299625805815835 0 -0.0059886549160785745 -0.0011638311031174399 0 -0.0056210305616928051 -0.0016025150830411776 0 -0.0049909926409270958 -0.0015436965246543647 0 -0.0053685643843143817 -0.0012299625805815835 0 -0.0056210305616928051 -0.0016025150830411776 0 -0.0059886549160785745 -0.0011638311031174399 0 -0.0062382904451031632 -0.0016423222352278783 0 -0.0056210305616928051 -0.0016025150830411776 0 -0.0060581475093314015 -0.00056044787387493839 0 -0.0059886549160785745 -0.0011638311031174399 0 -0.006365928018412635 -0.00088646212228703973 0 -0.0060581475093314015 -0.00056044787387493839 0 -0.0055360253339974859 -0.00078575983119125506 0 -0.0059886549160785745 -0.0011638311031174399 0 -0.0066377240508317427 -0.0011456054825805153 0 -0.0066811432941286282 -0.00076223445851716627 0 -0.006365928018412635 -0.00088646212228703973 0 -0.0059886549160785745 -0.0011638311031174399 0 -0.006365928018412635 -0.00088646212228703973 0 -0.0063185235533620475 -0.0011417363084521371 0 -0.0066377240508317427 -0.0011456054825805153 0 -0.006365928018412635 -0.00088646212228703973 0 -0.0063185235533620475 -0.0011417363084521371 0 -0.0066377240508317427 -0.0011456054825805153 0 -0.0063185235533620475 -0.0011417363084521371 0 -0.0062382904451031632 -0.0016423222352278783 0 -0.0059886549160785745 -0.0011638311031174399 0 -0.0063185235533620475 -0.0011417363084521371 0 -0.0062382904451031632 -0.0016423222352278783 0 -0.004110112684579878 -0.00044358970402657422 0 -0.0043341447865500289 -0.00076519115870602719 0 -0.0022212885383094982 0.00017711847438532156 0 -0.0020717173542083561 -6.4130707881316865e-06 0 -0.0022314984803817883 2.672251638143682e-05 0 -0.0024462072866904714 0.00015359977600932142 0 -0.0022212885383094982 0.00017711847438532156 0 -0.0022314984803817883 2.672251638143682e-05 0 -0.0022212885383094982 0.00017711847438532156 0 -0.0020717173542083561 -6.4130707881316865e-06 0 -0.0019990075240119147 0.0001953149094744542 0 -0.0043341447865500289 -0.00076519115870602719 0 -0.0038140946665634803 -0.00071189888474479824 0 -0.0020717173542083561 -6.4130707881316865e-06 0 -0.0022314984803817883 2.672251638143682e-05 0 -0.0021672666942805772 -0.00013827376383985818 0 -0.0023704901668165704 -4.2376593485516193e-05 0 -0.0022314984803817883 2.672251638143682e-05 0 -0.0021672666942805772 -0.00013827376383985818 0 -0.0021672666942805772 -0.00013827376383985818 0 -0.0022994058205515911 -0.00023958845207787058 0 -0.0021108284043830773 -0.00033234279889558517 0 -0.0023704901668165704 -4.2376593485516193e-05 0 -0.0021672666942805772 -0.00013827376383985818 0 -0.0022994058205515911 -0.00023958845207787058 0 -0.0021672666942805772 -0.00013827376383985818 0 -0.0020243974456708599 -0.00021525780489172971 0 -0.0021108284043830773 -0.00033234279889558517 0 -0.0020717173542083561 -6.4130707881316865e-06 0 -0.0021672666942805772 -0.00013827376383985818 0 -0.0020243974456708599 -0.00021525780489172971 0 -0.0020243974456708599 -0.00021525780489172971 0 -0.0021108284043830773 -0.00033234279889558517 0 -0.0019242779661426306 -0.00031997139775594347 0 -0.0021108284043830773 -0.00033234279889558517 0 -0.0019242779661426306 -0.00031997139775594347 0 -0.0020425263719726573 -0.00051212635876543425 0 -0.0018890759763940557 -0.00040890457028376279 0 -0.0019180337897045257 -0.00058044473629992213 0 -0.0014890757009644972 -0.00051848826134898846 0 -0.0013387997030964841 -0.00089456125391293927 0 -0.001400312518990374 -0.00087342799448235906 0 -0.0022994058205515911 -0.00023958845207787058 0 -0.0021108284043830773 -0.00033234279889558517 0 -0.0022326629447720929 -0.00044504089742717289 0 -0.0015490473477835487 -0.0006807920273433157 0 -0.0014890757009644972 -0.00051848826134898846 0 -0.001400312518990374 -0.00087342799448235906 0 -0.0017153811700493552 -0.00026218290049374773 0 -0.0015054360926009705 -0.00035181374898117014 0 -0.0017813171149938189 -0.00043746622091584152 0 -0.0017153811700493552 -0.00026218290049374773 0 -0.0019242779661426306 -0.00031997139775594347 0 -0.0017813171149938189 -0.00043746622091584152 0 -0.0017153811700493552 -0.00026218290049374773 0 -0.0019242779661426306 -0.00031997139775594347 0 -0.0018769400335918959 -0.00013596678389471775 0 -0.0020717173542083561 -6.4130707881316865e-06 0 -0.0020243974456708599 -0.00021525780489172971 0 -0.0018769400335918959 -0.00013596678389471775 0 -0.0020243974456708599 -0.00021525780489172971 0 -0.0019242779661426306 -0.00031997139775594347 0 -0.0018769400335918959 -0.00013596678389471775 0 -0.0017153811700493552 -0.00026218290049374773 0 -0.0018769400335918959 -0.00013596678389471775 0 -0.0017704228175483251 -2.2340495014761325e-05 0 -0.0017153811700493552 -0.00026218290049374773 0 -0.0016383894993765764 -1.0222355527182569e-05 0 -0.0015213158564227128 -0.00011126666237667645 0 -0.001759873178904716 -0.00032285965559274111 0 -0.0015114160692734984 0.00013430107894140018 0 -0.0018769400335918959 -0.00013596678389471775 0 -0.0017704228175483251 -2.2340495014761325e-05 0 -0.0019184512651173942 5.2351116765781655e-05 0 -0.0020717173542083561 -6.4130707881316865e-06 0 -0.0018769400335918959 -0.00013596678389471775 0 -0.0019184512651173942 5.2351116765781655e-05 0 -0.0017959682711419917 0.00020994512705426699 0 -0.0019184512651173942 5.2351116765781655e-05 0 -0.0019990075240119147 0.0001953149094744542 0 -0.0020717173542083561 -6.4130707881316865e-06 0 -0.0019184512651173942 5.2351116765781655e-05 0 -0.0019990075240119147 0.0001953149094744542 0 -0.0017959682711419917 0.00020994512705426699 0 -0.0017704228175483251 -2.2340495014761325e-05 0 -0.0019184512651173942 5.2351116765781655e-05 0 -0.0015955821963580844 0.00011267427664537581 0 -0.0016383894993765764 -1.0222355527182569e-05 0 -0.0015070643766744488 4.4527856513500006e-05 0 -0.0032723963587235169 -0.00052157288272253286 0 -0.0015114160692734984 0.00013430107894140018 0 -0.0015955821963580844 0.00011267427664537581 0 -0.0015070643766744488 4.4527856513500006e-05 0 -0.0014602846469521464 8.0481756452683293e-05 0 -0.0013776974329168417 5.8272076357174273e-05 0 -0.001422075371612243 8.1580446290383543e-05 0 -0.0014602846469521464 8.0481756452683293e-05 0 -0.0013776974329168417 5.8272076357174273e-05 0 -0.0015070643766744488 4.4527856513500006e-05 0 -0.0014602846469521464 8.0481756452683293e-05 0 -0.0013776974329168417 5.8272076357174273e-05 0 -0.0015070643766744488 4.4527856513500006e-05 0 -0.0015213158564227128 -0.00011126666237667645 0 -0.0016383894993765764 -1.0222355527182569e-05 0 -0.0015070643766744488 4.4527856513500006e-05 0 -0.0015213158564227128 -0.00011126666237667645 0 -0.0013776974329168417 5.8272076357174273e-05 0 -0.0015213158564227128 -0.00011126666237667645 0 -0.0012504214164180821 -0.00027827951348940397 0 -0.00066787048904260783 -0.00018961285817370303 0 -0.00055062603987093297 -0.00013943111607820125 0 9.7300893882084841e-05 -2.2194886712874436e-05 0 0.00016738288663181836 -2.4431905739364607e-05 0 0.00012247239032598509 -4.4376602575847391e-05 0 -0.0015213158564227128 -0.00011126666237667645 0 -0.0015054360926009705 -0.00035181374898117014 0 -0.0012504214164180821 -0.00027827951348940397 0 -0.0017153811700493552 -0.00026218290049374773 0 -0.0015213158564227128 -0.00011126666237667645 0 -0.0015054360926009705 -0.00035181374898117014 0 -0.00055062603987093297 -0.00013943111607820125 0 -0.0004806808388902068 -5.0509886893441377e-08 0 -0.0004794825811323092 -2.0971953309334004e-07 0 0.00013019849845120771 5.6082524788937637e-05 0 0.00024199967013494161 4.0355107209775515e-08 0 0.00016738288663181836 -2.4431905739364607e-05 0 -0.0004794825811323092 -2.0971953309334004e-07 0 0.00013019849845120771 5.6082524788937637e-05 0 -0.0013776974329168417 5.8272076357174273e-05 0 -0.0012504214164180821 -0.00027827951348940397 0 -0.0011105775734746549 3.2662177231162865e-05 0 -0.0012504214164180821 -0.00027827951348940397 0 -0.0011105775734746549 3.2662177231162865e-05 0 -0.00048202999029884377 -8.2109897153291865e-07 0 -0.0011105775734746549 3.2662177231162865e-05 0 -0.00048202999029884377 -8.2109897153291865e-07 0 -0.0013176482994901792 6.3852263829451279e-07 0 -0.0011105775734746549 3.2662177231162865e-05 0 -0.0013176482994901792 6.3852263829451279e-07 0 -0.001422075371612243 8.1580446290383543e-05 0 -0.0013776974329168417 5.8272076357174273e-05 0 -0.0011105775734746549 3.2662177231162865e-05 0 -0.001422075371612243 8.1580446290383543e-05 0 -0.0013176482994901792 6.3852263829451279e-07 0 -0.001422075371612243 8.1580446290383543e-05 0 -0.0021533989279555201 -5.0780896369104192e-07 0 -0.001422075371612243 8.1580446290383543e-05 0 -0.0021533989279555201 -5.0780896369104192e-07 0 -0.0014757958974599063 -2.7441478253106914e-05 0 -0.0021561299419995627 -1.5694171014724613e-06 0 -0.0029582433831693094 -0.00011880371125440117 0 -0.0033316778408617664 -0.0007175999192468172 0 -0.0021547278114270613 -1.7819237985151858e-07 0 -0.0024429714636057445 -0.00033707132156117286 0 -0.0021561299419995627 -1.5694171014724613e-06 0 -0.0029582433831693094 -0.00011880371125440117 0 -0.0030036746855417874 4.2082493184959959e-07 0 -0.0029582433831693094 -0.00011880371125440117 0 -0.0030036746855417874 4.2082493184959959e-07 0 -0.0032186493414096732 -1.8999536517880635e-05 0 -0.0029582433831693094 -0.00011880371125440117 0 -0.0037062337423766759 -0.00039829370678120949 0 -0.0034696818514039188 -8.792876729362469e-05 0 -0.0029582433831693094 -0.00011880371125440117 0 -0.0033316778408617664 -0.0007175999192468172 0 -0.0037062337423766759 -0.00039829370678120949 0 -0.0029582433831693094 -0.00011880371125440117 0 -0.0032186493414096732 -1.8999536517880635e-05 0 -0.0034696818514039188 -8.792876729362469e-05 0 -0.001422075371612243 8.1580446290383543e-05 0 -0.0014757958974599063 -2.7441478253106914e-05 0 -0.0014602846469521464 8.0481756452683293e-05 0 -0.0033316778408617664 -0.0007175999192468172 0 -0.0040832271906231709 -0.00087124298485186948 0 -0.0037062337423766759 -0.00039829370678120949 0 -0.0024429714636057445 -0.00033707132156117286 0 -0.002737836066929717 -0.00038592001941646333 0 -0.0040832271906231709 -0.00087124298485186948 0 -0.0042413411078473899 -0.00045517074386336356 0 -0.0037062337423766759 -0.00039829370678120949 0 -0.0032723963587235169 -0.00052157288272253286 0 -0.002737836066929717 -0.00038592001941646333 0 -0.0046209042669724375 -0.00092461960181417782 0 -0.0040832271906231709 -0.00087124298485186948 0 -0.0042413411078473899 -0.00045517074386336356 0 -0.0046328933345156321 -0.00041347677006365338 0 -0.0042413411078473899 -0.00045517074386336356 0 -0.0045134267296335351 -0.00023084609410740955 0 -0.0046328933345156321 -0.00041347677006365338 0 -0.0046209042669724375 -0.00092461960181417782 0 -0.0042413411078473899 -0.00045517074386336356 0 -0.0037062337423766759 -0.00039829370678120949 0 -0.0039893307161301319 -0.00018146320574080374 0 -0.0034696818514039188 -8.792876729362469e-05 0 -0.0042413411078473899 -0.00045517074386336356 0 -0.0037062337423766759 -0.00039829370678120949 0 -0.0039893307161301319 -0.00018146320574080374 0 -0.0039893307161301319 -0.00018146320574080374 0 -0.0037613107597028162 6.4626875006866701e-05 0 -0.0034696818514039188 -8.792876729362469e-05 0 -0.0039893307161301319 -0.00018146320574080374 0 -0.0037613107597028162 6.4626875006866701e-05 0 -0.0042311259531534603 5.2102239475280601e-06 0 -0.0042413411078473899 -0.00045517074386336356 0 -0.0039893307161301319 -0.00018146320574080374 0 -0.0045134267296335351 -0.00023084609410740955 0 -0.0039893307161301319 -0.00018146320574080374 0 -0.0045134267296335351 -0.00023084609410740955 0 -0.0042311259531534603 5.2102239475280601e-06 0 -0.0048890537440529095 -0.00011558478207358616 0 -0.0045134267296335351 -0.00023084609410740955 0 -0.0046019231056869461 2.5544172367289514e-05 0 -0.0045134267296335351 -0.00023084609410740955 0 -0.0046019231056869461 2.5544172367289514e-05 0 -0.0042311259531534603 5.2102239475280601e-06 0 -0.0042311259531534603 5.2102239475280601e-06 0 -0.0043649091640343444 0.00022053976083692326 0 -0.0040979695882326474 0.00018613253673553898 0 -0.0046019231056869461 2.5544172367289514e-05 0 -0.0042311259531534603 5.2102239475280601e-06 0 -0.0043649091640343444 0.00022053976083692326 0 -0.0046771994542235788 0.00030432662757705179 0 -0.0046019231056869461 2.5544172367289514e-05 0 -0.0043649091640343444 0.00022053976083692326 0 -0.0037613107597028162 6.4626875006866701e-05 0 -0.0040979695882326474 0.00018613253673553898 0 -0.003864970650081997 0.00025331681883495406 0 -0.0037613107597028162 6.4626875006866701e-05 0 -0.0042311259531534603 5.2102239475280601e-06 0 -0.0040979695882326474 0.00018613253673553898 0 -0.0041638654357345649 0.00039539688734753872 0 -0.0040979695882326474 0.00018613253673553898 0 -0.003864970650081997 0.00025331681883495406 0 -0.0041638654357345649 0.00039539688734753872 0 -0.0043649091640343444 0.00022053976083692326 0 -0.0040979695882326474 0.00018613253673553898 0 -0.0039264005869293368 0.00044833078260021384 0 -0.003864970650081997 0.00025331681883495406 0 -0.0037683766914676465 0.00035266043830492195 0 -0.004056650894314783 3.7677004472914638e-05 0 -0.0037947572426406616 4.3556008052729193e-05 0 -0.0033445741403443628 3.9288733089956856e-05 0 -0.0036442866952031273 0.00038938066758378392 0 -0.0037683766914676465 0.00035266043830492195 0 -0.0036262296966025039 0.00021450066951258045 0 -0.003864970650081997 0.00025331681883495406 0 -0.0037683766914676465 0.00035266043830492195 0 -0.0036262296966025039 0.00021450066951258045 0 -0.0036442866952031273 0.00038938066758378392 0 -0.0036262296966025039 0.00021450066951258045 0 -0.0033445741403443628 3.9288733089956856e-05 0 -0.0049041815829372146 4.6092768071623418e-05 0 -0.0031062038078303244 4.7327784671014047e-05 0 -0.0036237166300381448 0.00047076127068529193 0 -0.0036442866952031273 0.00038938066758378392 0 -0.0033445741403443628 3.9288733089956856e-05 0 -0.0036262296966025039 0.00021450066951258045 0 -0.0035163852563759868 0.0001000380425467795 0 -0.0033445741403443628 3.9288733089956856e-05 0 -0.0037613107597028162 6.4626875006866701e-05 0 -0.003864970650081997 0.00025331681883495406 0 -0.0036262296966025039 0.00021450066951258045 0 -0.0037613107597028162 6.4626875006866701e-05 0 -0.0036262296966025039 0.00021450066951258045 0 -0.0035163852563759868 0.0001000380425467795 0 -0.0038533379429461427 2.7485958096714097e-07 0 -0.0033445741403443628 3.9288733089956856e-05 0 -0.0030036746855417874 4.2082493184959959e-07 0 -0.0037947572426406616 4.3556008052729193e-05 0 -0.003733223404396406 3.1898867345176094e-05 0 -0.0033445741403443628 3.9288733089956856e-05 0 -0.0038533379429461427 2.7485958096714097e-07 0 -0.003733223404396406 3.1898867345176094e-05 0 -0.0033445741403443628 3.9288733089956856e-05 0 -0.0033445741403443628 3.9288733089956856e-05 0 -0.0032186493414096732 -1.8999536517880635e-05 0 -0.003437153871938639 3.3841109849487528e-05 0 -0.0033445741403443628 3.9288733089956856e-05 0 -0.0030036746855417874 4.2082493184959959e-07 0 -0.0032186493414096732 -1.8999536517880635e-05 0 -0.0032186493414096732 -1.8999536517880635e-05 0 -0.0034696818514039188 -8.792876729362469e-05 0 -0.003437153871938639 3.3841109849487528e-05 0 -0.0037613107597028162 6.4626875006866701e-05 0 -0.0035163852563759868 0.0001000380425467795 0 -0.003437153871938639 3.3841109849487528e-05 0 -0.0037613107597028162 6.4626875006866701e-05 0 -0.0034696818514039188 -8.792876729362469e-05 0 -0.003437153871938639 3.3841109849487528e-05 0 -0.0035163852563759868 0.0001000380425467795 0 -0.0033445741403443628 3.9288733089956856e-05 0 -0.003437153871938639 3.3841109849487528e-05 0 -0.012226218454199668 0.00086833760695710237 0 -0.012137158428224833 0.0008765562854738992 0 -0.012262980655568393 0.00078720429349157935 0 -0.012226218454199668 0.00086833760695710237 0 -0.012137158428224833 0.0008765562854738992 0 -0.012160877971781631 0.00093939086389374399 0 -0.012137158428224833 0.0008765562854738992 0 -0.012115534665270997 0.00077639512739483029 0 -0.012028133597947663 0.0009184403314926187 0 -0.012115534665270997 0.00077639512739483029 0 -0.012262980655568393 0.00078720429349157935 0 -0.01228865159999957 0.00073982995034951188 0 -0.012226218454199668 0.00086833760695710237 0 -0.012262980655568393 0.00078720429349157935 0 -0.012300195645364677 0.00082411177308491345 0 -0.012137158428224833 0.0008765562854738992 0 -0.012115534665270997 0.00077639512739483029 0 -0.012262980655568393 0.00078720429349157935 0 -0.012262980655568393 0.00078720429349157935 0 -0.012368179084796481 0.00078663253807163846 0 -0.012300195645364677 0.00082411177308491345 0 -0.012300195645364677 0.00082411177308491345 0 -0.012357331428593656 0.00081713690734467194 0 -0.012317128714746875 0.0008386827462664758 0 -0.012368179084796481 0.00078663253807163846 0 -0.012300195645364677 0.00082411177308491345 0 -0.012357331428593656 0.00081713690734467194 0 -0.012368179084796481 0.00078663253807163846 0 -0.012357331428593656 0.00081713690734467194 0 -0.012406073478698602 0.00079149010234056327 0 -0.012398364268456846 0.00083047388345814364 0 -0.012357331428593656 0.00081713690734467194 0 -0.012406073478698602 0.00079149010234056327 0 -0.012357331428593656 0.00081713690734467194 0 -0.012359944889816291 0.00080598501139807774 0 -0.012335872418489137 0.00083189857249709874 0 -0.012398364268456846 0.00083047388345814364 0 -0.012357331428593656 0.00081713690734467194 0 -0.012359944889816291 0.00080598501139807774 0 -0.012398364268456846 0.00083047388345814364 0 -0.012359944889816291 0.00080598501139807774 0 -0.012329234937682808 0.00076900613895759275 0 -0.012359944889816291 0.00080598501139807774 0 -0.012342522483133417 0.00082906910706299864 0 -0.012329234937682808 0.00076900613895759275 0 -0.012342522483133417 0.00082906910706299864 0 -0.012335872418489137 0.00083189857249709874 0 -0.012325677893146246 0.00086592896788085789 0 -0.012359944889816291 0.00080598501139807774 0 -0.012342522483133417 0.00082906910706299864 0 -0.012335872418489137 0.00083189857249709874 0 -0.012357331428593656 0.00081713690734467194 0 -0.012335872418489137 0.00083189857249709874 0 -0.012317128714746875 0.0008386827462664758 0 -0.012335872418489137 0.00083189857249709874 0 -0.01230977773015513 0.00086066018029194204 0 -0.012317128714746875 0.0008386827462664758 0 -0.012335872418489137 0.00083189857249709874 0 -0.01230977773015513 0.00086066018029194204 0 -0.012325677893146246 0.00086592896788085789 0 -0.01230977773015513 0.00086066018029194204 0 -0.012325677893146246 0.00086592896788085789 0 -0.012293654368321113 0.00090230056347542179 0 -0.012325677893146246 0.00086592896788085789 0 -0.0123589761804662 0.00088795887122559687 0 -0.012328680781060844 0.00091557185203088487 0 -0.012342522483133417 0.00082906910706299864 0 -0.012325677893146246 0.00086592896788085789 0 -0.0123589761804662 0.00088795887122559687 0 -0.012226218454199668 0.00086833760695710237 0 -0.012300195645364677 0.00082411177308491345 0 -0.012274300319527498 0.00087486330417525457 0 -0.012300195645364677 0.00082411177308491345 0 -0.012317128714746875 0.0008386827462664758 0 -0.012274300319527498 0.00087486330417525457 0 -0.01230977773015513 0.00086066018029194204 0 -0.012317128714746875 0.0008386827462664758 0 -0.012274300319527498 0.00087486330417525457 0 -0.01230977773015513 0.00086066018029194204 0 -0.012274300319527498 0.00087486330417525457 0 -0.012293654368321113 0.00090230056347542179 0 -0.012226218454199668 0.00086833760695710237 0 -0.012274300319527498 0.00087486330417525457 0 -0.012220490933782382 0.00092729784897989148 0 -0.012274300319527498 0.00087486330417525457 0 -0.012220490933782382 0.00092729784897989148 0 -0.01226005966647644 0.00093058037339189734 0 -0.012220490933782382 0.00092729784897989148 0 -0.01226005966647644 0.00093058037339189734 0 -0.012232970134013619 0.00096802440450228318 0 -0.012274300319527498 0.00087486330417525457 0 -0.01226005966647644 0.00093058037339189734 0 -0.012293654368321113 0.00090230056347542179 0 -0.01226005966647644 0.00093058037339189734 0 -0.012293654368321113 0.00090230056347542179 0 -0.012292313649371235 0.00094171598309233289 0 -0.01226005966647644 0.00093058037339189734 0 -0.012261409720548176 0.0009571596311256349 0 -0.012292313649371235 0.00094171598309233289 0 -0.012232970134013619 0.00096802440450228318 0 -0.012261409720548176 0.0009571596311256349 0 -0.012251869947619324 0.00098522735905965959 0 -0.01226005966647644 0.00093058037339189734 0 -0.012232970134013619 0.00096802440450228318 0 -0.012261409720548176 0.0009571596311256349 0 -0.012261409720548176 0.0009571596311256349 0 -0.012251869947619324 0.00098522735905965959 0 -0.012284582616463185 0.00098282803070333662 0 -0.012251869947619324 0.00098522735905965959 0 -0.012230236802060354 0.0010061167907140275 0 -0.012250745966805931 0.001017044072280277 0 -0.012251869947619324 0.00098522735905965959 0 -0.012284582616463185 0.00098282803070333662 0 -0.012250745966805931 0.001017044072280277 0 -0.012232970134013619 0.00096802440450228318 0 -0.012251869947619324 0.00098522735905965959 0 -0.012230236802060354 0.0010061167907140275 0 -0.012232970134013619 0.00096802440450228318 0 -0.012230236802060354 0.0010061167907140275 0 -0.012205218920410321 0.0010064037985460018 0 -0.012232970134013619 0.00096802440450228318 0 -0.012205218920410321 0.0010064037985460018 0 -0.012183773705251024 0.00098110950812123842 0 -0.012205218920410321 0.0010064037985460018 0 -0.012183773705251024 0.00098110950812123842 0 -0.012168186597001278 0.0010373436932881561 0 -0.012220490933782382 0.00092729784897989148 0 -0.012232970134013619 0.00096802440450228318 0 -0.012183773705251024 0.00098110950812123842 0 -0.0123589761804662 0.00088795887122559687 0 -0.012328680781060844 0.00091557185203088487 0 -0.012372907195411139 0.00094775540728499912 0 -0.012328680781060844 0.00091557185203088487 0 -0.012334450448215873 0.00096676083314559461 0 -0.012372907195411139 0.00094775540728499912 0 -0.012328680781060844 0.00091557185203088487 0 -0.012292313649371235 0.00094171598309233289 0 -0.012334450448215873 0.00096676083314559461 0 -0.012328680781060844 0.00091557185203088487 0 -0.012293654368321113 0.00090230056347542179 0 -0.012292313649371235 0.00094171598309233289 0 -0.012325677893146246 0.00086592896788085789 0 -0.012328680781060844 0.00091557185203088487 0 -0.012293654368321113 0.00090230056347542179 0 -0.012292313649371235 0.00094171598309233289 0 -0.012284582616463185 0.00098282803070333662 0 -0.012334450448215873 0.00096676083314559461 0 -0.012284582616463185 0.00098282803070333662 0 -0.012334450448215873 0.00096676083314559461 0 -0.012322295022687824 0.0010191004122017018 0 -0.012261409720548176 0.0009571596311256349 0 -0.012292313649371235 0.00094171598309233289 0 -0.012284582616463185 0.00098282803070333662 0 -0.012334450448215873 0.00096676083314559461 0 -0.012372907195411139 0.00094775540728499912 0 -0.012395193849570579 0.0010320190931016491 0 -0.011579303372914379 0.0015290886323625456 0 -0.011172537817972176 0.0010844249661690292 0 -0.012282716844601546 0.0010605846586304922 0 -0.012213198120154456 0.0010854027057512934 0 -0.012330864269542894 0.0011252732992070465 0 -0.012334450448215873 0.00096676083314559461 0 -0.012322295022687824 0.0010191004122017018 0 -0.012395193849570579 0.0010320190931016491 0 -0.012322295022687824 0.0010191004122017018 0 -0.012276961496880149 0.0010235049366042661 0 -0.012282716844601546 0.0010605846586304922 0 -0.012284582616463185 0.00098282803070333662 0 -0.012322295022687824 0.0010191004122017018 0 -0.012276961496880149 0.0010235049366042661 0 -0.012284582616463185 0.00098282803070333662 0 -0.012276961496880149 0.0010235049366042661 0 -0.012250745966805931 0.001017044072280277 0 -0.012276961496880149 0.0010235049366042661 0 -0.012282716844601546 0.0010605846586304922 0 -0.012248049256835923 0.0010522843398537219 0 -0.012322295022687824 0.0010191004122017018 0 -0.012282716844601546 0.0010605846586304922 0 -0.012330864269542894 0.0011252732992070465 0 -0.011606088076478945 0.00083011147604183271 0 -0.011172537817972176 0.0010844249661690292 0 -0.012322295022687824 0.0010191004122017018 0 -0.012395193849570579 0.0010320190931016491 0 -0.012330864269542894 0.0011252732992070465 0 -0.012187390776475557 0.0010590911032120236 0 -0.012164949705819507 0.0010681180228825917 0 -0.012168186597001278 0.0010373436932881561 0 -0.012187390776475557 0.0010590911032120236 0 -0.012168186597001278 0.0010373436932881561 0 -0.012195995671999931 0.00103462025321962 0 -0.012187390776475557 0.0010590911032120236 0 -0.012195995671999931 0.00103462025321962 0 -0.012210387434239675 0.0010411188010937121 0 -0.012187390776475557 0.0010590911032120236 0 -0.012208197090281446 0.0010599435076240492 0 -0.012181253728579908 0.0010818777741723328 0 -0.012187390776475557 0.0010590911032120236 0 -0.012164949705819507 0.0010681180228825917 0 -0.012181253728579908 0.0010818777741723328 0 -0.012164949705819507 0.0010681180228825917 0 -0.012168186597001278 0.0010373436932881561 0 -0.012124219184058876 0.0010940103014670756 0 -0.012205218920410321 0.0010064037985460018 0 -0.012168186597001278 0.0010373436932881561 0 -0.012195995671999931 0.00103462025321962 0 -0.012205218920410321 0.0010064037985460018 0 -0.012195995671999931 0.00103462025321962 0 -0.012213848468603003 0.001022667814864343 0 -0.012230236802060354 0.0010061167907140275 0 -0.012205218920410321 0.0010064037985460018 0 -0.012213848468603003 0.001022667814864343 0 -0.012230236802060354 0.0010061167907140275 0 -0.012227513466340179 0.0010263432587836198 0 -0.012213848468603003 0.001022667814864343 0 -0.012230236802060354 0.0010061167907140275 0 -0.012227513466340179 0.0010263432587836198 0 -0.012250745966805931 0.001017044072280277 0 -0.012227513466340179 0.0010263432587836198 0 -0.012250745966805931 0.001017044072280277 0 -0.012228319890186846 0.0010466715337132243 0 -0.012195995671999931 0.00103462025321962 0 -0.012213848468603003 0.001022667814864343 0 -0.012210387434239675 0.0010411188010937121 0 -0.012227513466340179 0.0010263432587836198 0 -0.012213848468603003 0.001022667814864343 0 -0.012210387434239675 0.0010411188010937121 0 -0.012276961496880149 0.0010235049366042661 0 -0.012250745966805931 0.001017044072280277 0 -0.012248049256835923 0.0010522843398537219 0 -0.012250745966805931 0.001017044072280277 0 -0.012248049256835923 0.0010522843398537219 0 -0.012228319890186846 0.0010466715337132243 0 -0.012228319890186846 0.0010466715337132243 0 -0.012208197090281446 0.0010599435076240492 0 -0.012213198120154456 0.0010854027057512934 0 -0.012248049256835923 0.0010522843398537219 0 -0.012228319890186846 0.0010466715337132243 0 -0.012213198120154456 0.0010854027057512934 0 -0.012210387434239675 0.0010411188010937121 0 -0.012228319890186846 0.0010466715337132243 0 -0.012208197090281446 0.0010599435076240492 0 -0.012227513466340179 0.0010263432587836198 0 -0.012210387434239675 0.0010411188010937121 0 -0.012228319890186846 0.0010466715337132243 0 -0.012187390776475557 0.0010590911032120236 0 -0.012210387434239675 0.0010411188010937121 0 -0.012208197090281446 0.0010599435076240492 0 -0.011579303372914379 0.0015290886323625456 0 -0.011655890257297291 0.0015262612764906016 0 -0.012208197090281446 0.0010599435076240492 0 -0.012213198120154456 0.0010854027057512934 0 -0.012181253728579908 0.0010818777741723328 0 -0.012282716844601546 0.0010605846586304922 0 -0.012248049256835923 0.0010522843398537219 0 -0.012213198120154456 0.0010854027057512934 0 -0.012190873800228432 0.0010894159260222296 0 -0.012181253728579908 0.0010818777741723328 0 -0.012124219184058876 0.0010940103014670756 0 -0.012190873800228432 0.0010894159260222296 0 -0.012066533057378407 0.0011318875393203031 0 -0.012124219184058876 0.0010940103014670756 0 -0.012164949705819507 0.0010681180228825917 0 -0.012181253728579908 0.0010818777741723328 0 -0.012124219184058876 0.0010940103014670756 0 -0.012066533057378407 0.0011318875393203031 0 -0.012124219184058876 0.0010940103014670756 0 -0.01209771381336408 0.0010693352756261469 0 -0.012066533057378407 0.0011318875393203031 0 -0.01204413475769979 0.0010725702266232413 0 -0.011966199192355288 0.0011839176620259029 0 -0.012066533057378407 0.0011318875393203031 0 -0.01204413475769979 0.0010725702266232413 0 -0.01209771381336408 0.0010693352756261469 0 -0.01204413475769979 0.0010725702266232413 0 -0.01209771381336408 0.0010693352756261469 0 -0.01212209915507596 0.0010096680124746515 0 -0.012168186597001278 0.0010373436932881561 0 -0.01209771381336408 0.0010693352756261469 0 -0.01212209915507596 0.0010096680124746515 0 -0.012168186597001278 0.0010373436932881561 0 -0.012124219184058876 0.0010940103014670756 0 -0.01209771381336408 0.0010693352756261469 0 -0.012183773705251024 0.00098110950812123842 0 -0.01212209915507596 0.0010096680124746515 0 -0.012160877971781631 0.00093939086389374399 0 -0.012183773705251024 0.00098110950812123842 0 -0.012168186597001278 0.0010373436932881561 0 -0.01212209915507596 0.0010096680124746515 0 -0.01204413475769979 0.0010725702266232413 0 -0.01212209915507596 0.0010096680124746515 0 -0.012083687980798459 0.00097213018999038354 0 -0.01212209915507596 0.0010096680124746515 0 -0.012160877971781631 0.00093939086389374399 0 -0.012083687980798459 0.00097213018999038354 0 -0.012137158428224833 0.0008765562854738992 0 -0.012160877971781631 0.00093939086389374399 0 -0.012083687980798459 0.00097213018999038354 0 -0.012226218454199668 0.00086833760695710237 0 -0.012220490933782382 0.00092729784897989148 0 -0.012160877971781631 0.00093939086389374399 0 -0.012220490933782382 0.00092729784897989148 0 -0.012183773705251024 0.00098110950812123842 0 -0.012160877971781631 0.00093939086389374399 0 -0.012028133597947663 0.0009184403314926187 0 -0.012083687980798459 0.00097213018999038354 0 -0.011935636492386773 0.0010691513937369818 0 -0.012137158428224833 0.0008765562854738992 0 -0.012028133597947663 0.0009184403314926187 0 -0.012083687980798459 0.00097213018999038354 0 -0.01204413475769979 0.0010725702266232413 0 -0.012083687980798459 0.00097213018999038354 0 -0.011935636492386773 0.0010691513937369818 0 -0.01204413475769979 0.0010725702266232413 0 -0.011935636492386773 0.0010691513937369818 0 -0.011966199192355288 0.0011839176620259029 0 -0.011935636492386773 0.0010691513937369818 0 -0.01179549503768061 0.0010439444243932007 0 -0.011808549982742285 0.0011775522013716996 0 -0.01179549503768061 0.0010439444243932007 0 -0.011641834901582647 0.0011285746792978368 0 -0.011808549982742285 0.0011775522013716996 0 -0.011562995192176961 0.0011321251749384824 0 -0.011798875692150971 0.0011751907865682873 0 -0.01179549503768061 0.0010439444243932007 0 -0.011696433424940547 0.00092726871425569254 0 -0.011894471310385533 0.00090029077255188356 0 -0.011935636492386773 0.0010691513937369818 0 -0.01179549503768061 0.0010439444243932007 0 -0.011894471310385533 0.00090029077255188356 0 -0.012028133597947663 0.0009184403314926187 0 -0.011935636492386773 0.0010691513937369818 0 -0.011894471310385533 0.00090029077255188356 0 -0.011253813659688873 0.0011023290268596371 0 -0.011562995192176961 0.0011321251749384824 0 -0.011355503773131969 0.0011103541407446378 0 -0.011641834901582647 0.0011285746792978368 0 -0.011538404232607474 0.0009482936995362473 0 -0.01179549503768061 0.0010439444243932007 0 -0.011641834901582647 0.0011285746792978368 0 -0.011696433424940547 0.00092726871425569254 0 -0.011641834901582647 0.0011285746792978368 0 -0.011696433424940547 0.00092726871425569254 0 -0.011538404232607474 0.0009482936995362473 0 -0.011696433424940547 0.00092726871425569254 0 -0.011538404232607474 0.0009482936995362473 0 -0.011580732668182134 0.00076571805144166319 0 -0.011369841506077963 0.00079376868752859355 0 -0.011538404232607474 0.0009482936995362473 0 -0.011580732668182134 0.00076571805144166319 0 -0.011696433424940547 0.00092726871425569254 0 -0.011580732668182134 0.00076571805144166319 0 -0.011763209268917284 0.00074177914198936723 0 -0.011580732668182134 0.00076571805144166319 0 -0.011763209268917284 0.00074177914198936723 0 -0.011660655914058274 0.00065913143760705484 0 -0.011763209268917284 0.00074177914198936723 0 -0.011660655914058274 0.00065913143760705484 0 -0.011726806098044731 0.00053800758676451411 0 -0.011660655914058274 0.00065913143760705484 0 -0.011566030527245351 0.00057666417087099504 0 -0.011726806098044731 0.00053800758676451411 0 -0.011580732668182134 0.00076571805144166319 0 -0.011660655914058274 0.00065913143760705484 0 -0.011566030527245351 0.00057666417087099504 0 -0.01143171599661799 0.00062565071058095297 0 -0.011580732668182134 0.00076571805144166319 0 -0.011566030527245351 0.00057666417087099504 0 -0.012115534665270997 0.00077639512739483029 0 -0.012028133597947663 0.0009184403314926187 0 -0.011894471310385533 0.00090029077255188356 0 -0.011763209268917284 0.00074177914198936723 0 -0.011894471310385533 0.00090029077255188356 0 -0.011934598705037948 0.00062879165951308647 0 -0.011696433424940547 0.00092726871425569254 0 -0.011763209268917284 0.00074177914198936723 0 -0.011894471310385533 0.00090029077255188356 0 -0.011763209268917284 0.00074177914198936723 0 -0.011934598705037948 0.00062879165951308647 0 -0.011726806098044731 0.00053800758676451411 0 -0.012115534665270997 0.00077639512739483029 0 -0.011894471310385533 0.00090029077255188356 0 -0.011934598705037948 0.00062879165951308647 0 -0.011934598705037948 0.00062879165951308647 0 -0.011933997628877648 0.00041940188588249276 0 -0.012154002018949294 0.0004656333406189255 0 -0.011934598705037948 0.00062879165951308647 0 -0.011933997628877648 0.00041940188588249276 0 -0.011726806098044731 0.00053800758676451411 0 -0.011548152114439696 0.00040983855500319037 0 -0.011566030527245351 0.00057666417087099504 0 -0.011726806098044731 0.00053800758676451411 0 -0.011933997628877648 0.00041940188588249276 0 -0.011726806098044731 0.00053800758676451411 0 -0.011735586452094063 0.00031588577662020658 0 -0.011548152114439696 0.00040983855500319037 0 -0.011602977046650543 0.00019898126491540381 0 -0.011735586452094063 0.00031588577662020658 0 -0.011548152114439696 0.00040983855500319037 0 -0.011726806098044731 0.00053800758676451411 0 -0.011735586452094063 0.00031588577662020658 0 -0.011602977046650543 0.00019898126491540381 0 -0.011735586452094063 0.00031588577662020658 0 -0.011734097480343649 0.00013264662048876959 0 -0.011735586452094063 0.00031588577662020658 0 -0.011734097480343649 0.00013264662048876959 0 -0.011891610612507581 0.00021693406609245151 0 -0.011643729717940343 3.5942752299833379e-05 0 -0.011602977046650543 0.00019898126491540381 0 -0.011734097480343649 0.00013264662048876959 0 -0.012039140076049578 6.6514917579106792e-05 0 -0.011891610612507581 0.00021693406609245151 0 -0.012184759386587711 0.00022895232036689045 0 -0.011933997628877648 0.00041940188588249276 0 -0.011891610612507581 0.00021693406609245151 0 -0.012184759386587711 0.00022895232036689045 0 -0.011933997628877648 0.00041940188588249276 0 -0.011735586452094063 0.00031588577662020658 0 -0.011891610612507581 0.00021693406609245151 0 -0.012039140076049578 6.6514917579106792e-05 0 -0.011865076867606126 4.5170812594898246e-05 0 -0.011891610612507581 0.00021693406609245151 0 -0.011865076867606126 4.5170812594898246e-05 0 -0.011734097480343649 0.00013264662048876959 0 -0.011891610612507581 0.00021693406609245151 0 -0.012224588242374127 1.2859310214493584e-05 0 -0.012039140076049578 6.6514917579106792e-05 0 -0.012184759386587711 0.00022895232036689045 0 -0.012376236203639316 0.00066373978158976979 0 -0.012519678623888794 0.00068120397807071873 0 -0.012562675236128163 0.00055859125579871825 0 -0.01241509731706864 0.00039938209126618769 0 -0.012376236203639316 0.00066373978158976979 0 -0.012562675236128163 0.00055859125579871825 0 -0.012342228948118815 0.00020254980233113575 0 -0.012275834122547602 0.00044580988735382331 0 -0.012376236203639316 0.00066373978158976979 0 -0.012414793415354036 0.00072076749820258724 0 -0.012519678623888794 0.00068120397807071873 0 -0.012275834122547602 0.00044580988735382331 0 -0.012215781053586018 0.00061036141788905682 0 -0.011933997628877648 0.00041940188588249276 0 -0.012184759386587711 0.00022895232036689045 0 -0.012154002018949294 0.0004656333406189255 0 -0.012376236203639316 0.00066373978158976979 0 -0.01228865159999957 0.00073982995034951188 0 -0.012414793415354036 0.00072076749820258724 0 -0.01228865159999957 0.00073982995034951188 0 -0.012414793415354036 0.00072076749820258724 0 -0.012401342339960776 0.00075103094716422777 0 -0.012262980655568393 0.00078720429349157935 0 -0.01228865159999957 0.00073982995034951188 0 -0.012401342339960776 0.00075103094716422777 0 -0.012115534665270997 0.00077639512739483029 0 -0.011934598705037948 0.00062879165951308647 0 -0.012154002018949294 0.0004656333406189255 0 -0.012128876597760135 0.00077723479340173073 0 -0.012215781053586018 0.00061036141788905682 0 -0.012398364268456846 0.00083047388345814364 0 -0.012406073478698602 0.00079149010234056327 0 -0.0124992922777011 0.00073526259814661523 0 -0.012416610661851691 0.00080669137010123905 0 -0.012334504610009464 0.0010843387296564117 0 -0.012431974897730657 0.00075906827943150181 0 -0.012406073478698602 0.00079149010234056327 0 -0.0124992922777011 0.00073526259814661523 0 -0.012368179084796481 0.00078663253807163846 0 -0.012431974897730657 0.00075906827943150181 0 -0.012406073478698602 0.00079149010234056327 0 -0.012262980655568393 0.00078720429349157935 0 -0.012368179084796481 0.00078663253807163846 0 -0.012401342339960776 0.00075103094716422777 0 -0.012368179084796481 0.00078663253807163846 0 -0.012431974897730657 0.00075906827943150181 0 -0.012401342339960776 0.00075103094716422777 0 -0.012414793415354036 0.00072076749820258724 0 -0.012401342339960776 0.00075103094716422777 0 -0.012504046461651116 0.00072215999377920682 0 -0.012401342339960776 0.00075103094716422777 0 -0.012504046461651116 0.00072215999377920682 0 -0.012484431507050482 0.00072530037277051889 0 -0.012504046461651116 0.00072215999377920682 0 -0.012484431507050482 0.00072530037277051889 0 -0.012525820321072426 0.00071332568567220153 0 -0.012431974897730657 0.00075906827943150181 0 -0.012484431507050482 0.00072530037277051889 0 -0.0124992922777011 0.00073526259814661523 0 -0.012431974897730657 0.00075906827943150181 0 -0.012401342339960776 0.00075103094716422777 0 -0.012484431507050482 0.00072530037277051889 0 -0.012484431507050482 0.00072530037277051889 0 -0.01249983404280963 0.00072185675844868612 0 -0.0124992922777011 0.00073526259814661523 0 -0.012484431507050482 0.00072530037277051889 0 -0.01249983404280963 0.00072185675844868612 0 -0.012525820321072426 0.00071332568567220153 0 -0.01249983404280963 0.00072185675844868612 0 -0.012499602515156839 0.00073231427523479879 0 -0.012525820321072426 0.00071332568567220153 0 -0.012499602515156839 0.00073231427523479879 0 -0.012525820321072426 0.00071332568567220153 0 -0.012594796542349313 0.00071241778393425651 0 -0.012608877366707637 0.00070520241479360489 0 -0.012581076376669956 0.00070787437681012406 0 -0.012504046461651116 0.00072215999377920682 0 -0.012525820321072426 0.00071332568567220153 0 -0.012594796542349313 0.00071241778393425651 0 -0.012678339074279087 0.0006681793233281754 0 -0.01268019177277804 0.00068586121392940984 0 -0.012594796542349313 0.00071241778393425651 0 -0.01268019177277804 0.00068586121392940984 0 -0.012594796542349313 0.00071241778393425651 0 -0.012696438993933103 0.0006114348449312143 0 -0.012678339074279087 0.0006681793233281754 0 -0.01268019177277804 0.00068586121392940984 0 -0.012649725798693069 0.00073371110003522734 0 -0.012414793415354036 0.00072076749820258724 0 -0.012504046461651116 0.00072215999377920682 0 -0.012519678623888794 0.00068120397807071873 0 -0.012504046461651116 0.00072215999377920682 0 -0.012594796542349313 0.00071241778393425651 0 -0.012519678623888794 0.00068120397807071873 0 -0.012594796542349313 0.00071241778393425651 0 -0.012519678623888794 0.00068120397807071873 0 -0.012696438993933103 0.0006114348449312143 0 -0.012519678623888794 0.00068120397807071873 0 -0.012562675236128163 0.00055859125579871825 0 -0.012696438993933103 0.0006114348449312143 0 -0.012826425662301745 0.00044181573231502115 0 -0.012562675236128163 0.00055859125579871825 0 -0.012696438993933103 0.0006114348449312143 0 -0.01308081185414252 0.00048518167615304756 0 -0.01268019177277804 0.00068586121392940984 0 -0.012696438993933103 0.0006114348449312143 0 -0.012899098701849672 0.00065898151170345207 0 -0.012716396998622597 0.00067897291320915285 0 -0.012702935815025386 0.00083775378913203164 0 -0.01268019177277804 0.00068586121392940984 0 -0.012649725798693069 0.00073371110003522734 0 -0.012563291642414088 0.00079894801205538139 0 -0.012649725798693069 0.00073371110003522734 0 -0.012497352066407121 0.00071528597170951674 0 -0.012649725798693069 0.00073371110003522734 0 -0.012598692406316458 0.00068683944736091932 0 -0.012497352066407121 0.00071528597170951674 0 -0.012563291642414088 0.00079894801205538139 0 -0.012702935815025386 0.00083775378913203164 0 -0.012649725798693069 0.00073371110003522734 0 -0.012678339074279087 0.0006681793233281754 0 -0.012649725798693069 0.00073371110003522734 0 -0.012598692406316458 0.00068683944736091932 0 -0.012598692406316458 0.00068683944736091932 0 -0.012560931146181599 0.00063596778371004172 0 -0.012497352066407121 0.00071528597170951674 0 -0.012678339074279087 0.0006681793233281754 0 -0.012598692406316458 0.00068683944736091932 0 -0.012560931146181599 0.00063596778371004172 0 -0.01249983404280963 0.00072185675844868612 0 -0.012499602515156839 0.00073231427523479879 0 -0.012497383791235122 0.0007243475704135601 0 -0.012608877366707637 0.00070520241479360489 0 -0.01234800234635245 0.0008280880203938235 0 -0.012045328187531014 0.0017274801364062493 0 -0.011402407212817389 0.001750253908212546 0 -0.011756790084859898 0.0015347664410693175 0 -0.012734882132455329 6.6249871784315387e-05 0 -0.01232456226972858 0.0003159820501842029 0 -0.012064917472237988 2.5423467475067656e-05 0 -0.012734882132455329 6.6249871784315387e-05 0 -0.012582952645870015 0.00041067863832332203 0 -0.01232456226972858 0.0003159820501842029 0 -0.01234800234635245 0.0008280880203938235 0 -0.011715125945812099 0.00088763975074532329 0 -0.01234800234635245 0.0008280880203938235 0 -0.012564843055595356 0.00049002703918361607 0 -0.012391830397058439 0.0007961864511616902 0 -0.012582952645870015 0.00041067863832332203 0 -0.01232456226972858 0.0003159820501842029 0 -0.012391830397058439 0.0007961864511616902 0 -0.012563291642414088 0.00079894801205538139 0 -0.012497352066407121 0.00071528597170951674 0 -0.012408298175322692 0.00079467979486701364 0 -0.012564843055595356 0.00049002703918361607 0 -0.012391830397058439 0.0007961864511616902 0 -0.012049930048983058 0.00049781234830327352 0 -0.01232456226972858 0.0003159820501842029 0 -0.012049930048983058 0.00049781234830327352 0 -0.01232456226972858 0.0003159820501842029 0 -0.012064917472237988 2.5423467475067656e-05 0 -0.01169269998089013 0.00072652428451413088 0 -0.012049930048983058 0.00049781234830327352 0 -0.011649941518835642 0.00031571723268645769 0 -0.012049930048983058 0.00049781234830327352 0 -0.011649941518835642 0.00031571723268645769 0 -0.012064917472237988 2.5423467475067656e-05 0 -0.011649941518835642 0.00031571723268645769 0 -0.012064917472237988 2.5423467475067656e-05 0 -0.011353512057295578 -7.9114775388991379e-05 0 -0.011402407212817389 0.001750253908212546 0 -0.010867927119911969 0.0014772190881825792 0 -0.010628481540801182 0.0017327153681434275 0 -0.011715125945812099 0.00088763975074532329 0 -0.011087979953572979 0.00086434440598539284 0 -0.011402407212817389 0.001750253908212546 0 -0.011312545003217361 0.0012885239842954025 0 -0.011626566811308818 0.0013896258374748731 0 -0.011402407212817389 0.001750253908212546 0 -0.011626566811308818 0.0013896258374748731 0 -0.011756790084859898 0.0015347664410693175 0 -0.011936599707712681 0.0015619360928453524 0 -0.010099735877174791 0.00088017983989496036 0 -0.011402407212817389 0.001750253908212546 0 -0.011312545003217361 0.0012885239842954025 0 -0.011149634130642034 0.0014239250605383945 0 -0.011626566811308818 0.0013896258374748731 0 -0.011337499312948671 0.0011679302068496654 0 -0.011572196021846214 0.0012249431464426965 0 -0.011312545003217361 0.0012885239842954025 0 -0.011626566811308818 0.0013896258374748731 0 -0.011194631690756272 0.0010227166033917748 0 -0.010099735877174791 0.00088017983989496036 0 -0.0091372673536988958 0.00082734824815568447 0 -0.011402407212817389 0.001750253908212546 0 -0.010867927119911969 0.0014772190881825792 0 -0.011149634130642034 0.0014239250605383945 0 -0.011060326676947231 0.0011931475413459269 0 -0.011190227838596807 0.001030452194282792 0 -0.010525087548507336 0.0013664842816605205 0 -0.011312545003217361 0.0012885239842954025 0 -0.011149634130642034 0.0014239250605383945 0 -0.011199426309799053 0.0011716232068709274 0 -0.011149634130642034 0.0014239250605383945 0 -0.011199426309799053 0.0011716232068709274 0 -0.011060326676947231 0.0011931475413459269 0 -0.010867927119911969 0.0014772190881825792 0 -0.011149634130642034 0.0014239250605383945 0 -0.011060326676947231 0.0011931475413459269 0 -0.010099735877174791 0.00088017983989496036 0 -0.0080155112298660163 0.00051783178789143163 0 -0.011312545003217361 0.0012885239842954025 0 -0.011199426309799053 0.0011716232068709274 0 -0.011194631690756272 0.0010227166033917748 0 -0.011199426309799053 0.0011716232068709274 0 -0.011060326676947231 0.0011931475413459269 0 -0.011194631690756272 0.0010227166033917748 0 -0.010671941728048757 0.00083132219265254919 0 -0.010099735877174791 0.00088017983989496036 0 -0.010099735877174791 0.00088017983989496036 0 -0.010787715667956924 0.00074357670938954973 0 -0.010099735877174791 0.00088017983989496036 0 -0.010335547909813333 0.00096186347730742772 0 -0.011329679545327613 0.0011675238432852146 0 -0.01142518326849463 0.0011213698715605847 0 -0.011576247961408307 0.00086189656252365083 0 -0.011572196021846214 0.0012249431464426965 0 -0.011577108739503961 0.0010679574484643432 0 -0.011735824784768839 0.0010621449228577636 0 -0.011337499312948671 0.0011679302068496654 0 -0.011572196021846214 0.0012249431464426965 0 -0.01142518326849463 0.0011213698715605847 0 -0.011572196021846214 0.0012249431464426965 0 -0.01142518326849463 0.0011213698715605847 0 -0.011577108739503961 0.0010679574484643432 0 -0.01142518326849463 0.0011213698715605847 0 -0.011577108739503961 0.0010679574484643432 0 -0.011576247961408307 0.00086189656252365083 0 -0.011577108739503961 0.0010679574484643432 0 -0.011735824784768839 0.0010621449228577636 0 -0.011576247961408307 0.00086189656252365083 0 -0.011735824784768839 0.0010621449228577636 0 -0.011999222687187432 0.0010257781750989447 0 -0.011835770299198425 0.00084920181314004472 0 -0.011572196021846214 0.0012249431464426965 0 -0.011735824784768839 0.0010621449228577636 0 -0.011927871745507516 0.0012994860988515195 0 -0.011735824784768839 0.0010621449228577636 0 -0.011999222687187432 0.0010257781750989447 0 -0.011927871745507516 0.0012994860988515195 0 -0.012398364268456846 0.00083047388345814364 0 -0.012233459043967091 0.0012652439932754013 0 -0.012211443651465351 0.00092743679998347434 0 -0.011999222687187432 0.0010257781750989447 0 -0.012233459043967091 0.0012652439932754013 0 -0.012211443651465351 0.00092743679998347434 0 -0.011999222687187432 0.0010257781750989447 0 -0.012233459043967091 0.0012652439932754013 0 -0.011927871745507516 0.0012994860988515195 0 -0.012045328187531014 0.0017274801364062493 0 -0.012233459043967091 0.0012652439932754013 0 -0.011927871745507516 0.0012994860988515195 0 -0.01249983404280963 0.00072185675844868612 0 -0.012497383791235122 0.0007243475704135601 0 -0.0124992922777011 0.00073526259814661523 0 -0.01234800234635245 0.0008280880203938235 0 -0.012334504610009464 0.0010843387296564117 0 -0.011626566811308818 0.0013896258374748731 0 -0.011572196021846214 0.0012249431464426965 0 -0.011927871745507516 0.0012994860988515195 0 -0.012045328187531014 0.0017274801364062493 0 -0.011756790084859898 0.0015347664410693175 0 -0.011927871745507516 0.0012994860988515195 0 -0.011626566811308818 0.0013896258374748731 0 -0.011756790084859898 0.0015347664410693175 0 -0.011927871745507516 0.0012994860988515195 0 -0.0089545789335608167 -9.4315548645525828e-05 0 -0.0097189654256608689 0.00047952414481818744 0 -0.0096426169807107311 -0.00012814171055232731 0 -0.0097798141959296054 0.00019849236528363164 0 -0.010333881618020697 -0.00010187928235614006 0 -0.0094530239242145535 0.00026761974853466424 0 -0.0096426169807107311 -0.00012814171055232731 0 -0.0097798141959296054 0.00019849236528363164 0 -0.0095102841512764245 0.00056968266748223567 0 -0.0097798141959296054 0.00019849236528363164 0 -0.0098454322768399879 0.00049290902821671762 0 -0.0097798141959296054 0.00019849236528363164 0 -0.0098454322768399879 0.00049290902821671762 0 -0.010178956687677168 0.00053921040531913008 0 -0.010178956687677168 0.00053921040531913008 0 -0.010648677886202631 0.00050596814798145573 0 -0.01048610572044802 -0.00016525801001634504 0 -0.0097798141959296054 0.00019849236528363164 0 -0.010178956687677168 0.00053921040531913008 0 -0.01048610572044802 -0.00016525801001634504 0 -0.010121332902056973 -2.5730915155898425e-05 0 -0.0097189654256608689 0.00047952414481818744 0 -0.009864477756993827 0.0016935784105550954 0 -0.010628481540801182 0.0017327153681434275 0 -0.010525087548507336 0.0013664842816605205 0 -0.01048610572044802 -0.00016525801001634504 0 -0.01092422519085276 0.00017923549584799304 0 -0.011353512057295578 -7.9114775388991379e-05 0 -0.0097189654256608689 0.00047952414481818744 0 -0.011087979953572979 0.00086434440598539284 0 -0.010648677886202631 0.00050596814798145573 0 -0.01048610572044802 -0.00016525801001634504 0 -0.01092422519085276 0.00017923549584799304 0 -0.010648677886202631 0.00050596814798145573 0 -0.011081953652268328 0.00049644088691733039 0 -0.01092422519085276 0.00017923549584799304 0 -0.011081953652268328 0.00049644088691733039 0 -0.01092422519085276 0.00017923549584799304 0 -0.011281389314697562 0.00026635914568797446 0 -0.01169269998089013 0.00072652428451413088 0 -0.011649941518835642 0.00031571723268645769 0 -0.011416525117671859 0.00050965906802693975 0 -0.011081953652268328 0.00049644088691733039 0 -0.011281389314697562 0.00026635914568797446 0 -0.011416525117671859 0.00050965906802693975 0 -0.011649941518835642 0.00031571723268645769 0 -0.011281389314697562 0.00026635914568797446 0 -0.011416525117671859 0.00050965906802693975 0 -0.011649941518835642 0.00031571723268645769 0 -0.011281389314697562 0.00026635914568797446 0 -0.011353512057295578 -7.9114775388991379e-05 0 -0.01092422519085276 0.00017923549584799304 0 -0.011281389314697562 0.00026635914568797446 0 -0.011353512057295578 -7.9114775388991379e-05 0 -0.010867927119911969 0.0014772190881825792 0 -0.011060326676947231 0.0011931475413459269 0 -0.010525087548507336 0.0013664842816605205 0 -0.010867927119911969 0.0014772190881825792 0 -0.010628481540801182 0.0017327153681434275 0 -0.010525087548507336 0.0013664842816605205 0 -0.0081209412010535033 0.00023573985891277036 0 -0.0081597423450674427 0.00023403759485684077 0 -0.0081712610477158599 0.00029998698827636805 0 -0.0081209412010535033 0.00023573985891277036 0 -0.0081818009857589791 0.00017064007725812869 0 -0.0081597423450674427 0.00023403759485684077 0 -0.0081597423450674427 0.00023403759485684077 0 -0.0082117229605840076 0.00023930723562116127 0 -0.0081712610477158599 0.00029998698827636805 0 -0.0081818009857589791 0.00017064007725812869 0 -0.0081597423450674427 0.00023403759485684077 0 -0.0082117229605840076 0.00023930723562116127 0 -0.0082117229605840076 0.00023930723562116127 0 -0.0082929114874745538 0.00024828158457572582 0 -0.0082398701759105377 0.00030552910148113748 0 -0.0082117229605840076 0.00023930723562116127 0 -0.0082659619649439482 0.00017570139807043643 0 -0.0082929114874745538 0.00024828158457572582 0 -0.0082944192022525731 6.0850349656267775e-05 0 -0.0081818009857589791 0.00017064007725812869 0 -0.0082659619649439482 0.00017570139807043643 0 -0.0097189654256608689 0.00047952414481818744 0 -0.0091372673536988958 0.00082734824815568447 0 -0.0081818009857589791 0.00017064007725812869 0 -0.0082117229605840076 0.00023930723562116127 0 -0.0082659619649439482 0.00017570139807043643 0 -0.0082944192022525731 6.0850349656267775e-05 0 -0.0082659619649439482 0.00017570139807043643 0 -0.0083761147827732581 0.00015507575995116159 0 -0.0082659619649439482 0.00017570139807043643 0 -0.0082929114874745538 0.00024828158457572582 0 -0.0083761147827732581 0.00015507575995116159 0 -0.0082929114874745538 0.00024828158457572582 0 -0.0083795595429644563 0.00027434496539801922 0 -0.0083761147827732581 0.00015507575995116159 0 -0.0085207602895340916 0.00019160925567104169 0 -0.0083795595429644563 0.00027434496539801922 0 -0.0083761147827732581 0.00015507575995116159 0 -0.0084693450305223378 0.00011431039333530174 0 -0.0085207602895340916 0.00019160925567104169 0 -0.0083761147827732581 0.00015507575995116159 0 -0.0084693450305223378 0.00011431039333530174 0 -0.0084513911010030158 1.9189667452192967e-05 0 -0.0083761147827732581 0.00015507575995116159 0 -0.0084513911010030158 1.9189667452192967e-05 0 -0.0082944192022525731 6.0850349656267775e-05 0 -0.0083761147827732581 0.00015507575995116159 0 -0.008466788113425593 0.00033885253746295126 0 -0.0083329620990207354 0.00037476485106924929 0 -0.0083213535610705599 0.00044621014750297831 0 -0.0083329620990207354 0.00037476485106924929 0 -0.0083213535610705599 0.00044621014750297831 0 -0.0082384089748786145 0.0004057084650225346 0 -0.0083795595429644563 0.00027434496539801922 0 -0.0083329620990207354 0.00037476485106924929 0 -0.0082935468909621675 0.00032537915104428715 0 -0.008466788113425593 0.00033885253746295126 0 -0.0083795595429644563 0.00027434496539801922 0 -0.0083329620990207354 0.00037476485106924929 0 -0.0082929114874745538 0.00024828158457572582 0 -0.0083795595429644563 0.00027434496539801922 0 -0.0082935468909621675 0.00032537915104428715 0 -0.0082935468909621675 0.00032537915104428715 0 -0.0082384089748786145 0.0004057084650225346 0 -0.0082398701759105377 0.00030552910148113748 0 -0.0082929114874745538 0.00024828158457572582 0 -0.0082935468909621675 0.00032537915104428715 0 -0.0082398701759105377 0.00030552910148113748 0 -0.0083329620990207354 0.00037476485106924929 0 -0.0082935468909621675 0.00032537915104428715 0 -0.0082384089748786145 0.0004057084650225346 0 -0.0082346518972548684 0.00062145392172404941 0 -0.0084816871983207538 0.00091811094965523507 0 -0.0084216175704221984 0.00062635960564663674 0 -0.008310643373660033 0.0005541265374964929 0 -0.0080155112298660163 0.00051783178789143163 0 -0.0082346518972548684 0.00062145392172404941 0 -0.0084216175704221984 0.00062635960564663674 0 -0.0082945456420840113 0.00055793772484322949 0 -0.0082117229605840076 0.00023930723562116127 0 -0.0082398701759105377 0.00030552910148113748 0 -0.0081712610477158599 0.00029998698827636805 0 -0.0082384089748786145 0.0004057084650225346 0 -0.0082398701759105377 0.00030552910148113748 0 -0.0081712610477158599 0.00029998698827636805 0 -0.0084216175704221984 0.00062635960564663674 0 -0.0087132206325600866 0.00070972201147692377 0 -0.0087398019350900247 0.00047462311385167974 0 -0.0084816871983207538 0.00091811094965523507 0 -0.0084216175704221984 0.00062635960564663674 0 -0.0087132206325600866 0.00070972201147692377 0 -0.0084216175704221984 0.00062635960564663674 0 -0.008451031607131107 0.00047808010367252529 0 -0.0083142651307686107 0.0004917662203458333 0 -0.0084271659052973045 0.00060588810573588821 0 -0.0085364029561342727 0.00037537322351550995 0 -0.0084216175704221984 0.00062635960564663674 0 -0.0086290330935270849 0.00024893166624257357 0 -0.0087398019350900247 0.00047462311385167974 0 -0.008451031607131107 0.00047808010367252529 0 -0.008359990219653838 0.00031612636761017441 0 -0.0085771636242876464 0.00022031195423471617 0 -0.008451031607131107 0.00047808010367252529 0 -0.008359990219653838 0.00031612636761017441 0 -0.0083142651307686107 0.0004917662203458333 0 -0.008359990219653838 0.00031612636761017441 0 -0.0081789656726235262 0.00027276958912456349 0 -0.0083142651307686107 0.0004917662203458333 0 -0.0083003567847285426 0.00048841611596597855 0 -0.0081102992711592718 0.00037742007452662603 0 -0.0081789656726235262 0.00027276958912456349 0 -0.0083142651307686107 0.0004917662203458333 0 -0.0079264647699400833 0.00030257272840399747 0 -0.0082945456420840113 0.00055793772484322949 0 -0.0083142651307686107 0.0004917662203458333 0 -0.0082539814153921431 0.0005414918869483358 0 -0.0084216175704221984 0.00062635960564663674 0 -0.0082945456420840113 0.00055793772484322949 0 -0.0083142651307686107 0.0004917662203458333 0 -0.0082346518972548684 0.00062145392172404941 0 -0.0082945456420840113 0.00055793772484322949 0 -0.0082539814153921431 0.0005414918869483358 0 -0.0082346518972548684 0.00062145392172404941 0 -0.0082539814153921431 0.0005414918869483358 0 -0.0082300022154101031 0.00052981778154847549 0 -0.008310643373660033 0.0005541265374964929 0 -0.0082089417147566575 0.00051484109098197785 0 -0.0083142651307686107 0.0004917662203458333 0 -0.0082539814153921431 0.0005414918869483358 0 -0.0082922388282524722 0.00046800500106620145 0 -0.0082539814153921431 0.0005414918869483358 0 -0.0082922388282524722 0.00046800500106620145 0 -0.0082279140025559513 0.00053699880401110109 0 -0.007973864376949906 0.00018506810736187119 0 -0.0082922388282524722 0.00046800500106620145 0 -0.0081411298990652758 0.00055084058648370625 0 -0.0082922388282524722 0.00046800500106620145 0 -0.0082279140025559513 0.00053699880401110109 0 -0.0081411298990652758 0.00055084058648370625 0 -0.0082279140025559513 0.00053699880401110109 0 -0.0081411298990652758 0.00055084058648370625 0 -0.0082300022154101031 0.00052981778154847549 0 -0.0083213535610705599 0.00044621014750297831 0 -0.0082384089748786145 0.0004057084650225346 0 -0.0082300022154101031 0.00052981778154847549 0 -0.0082539814153921431 0.0005414918869483358 0 -0.0082279140025559513 0.00053699880401110109 0 -0.0082300022154101031 0.00052981778154847549 0 -0.0084431655401692712 0.00050481411920967037 0 -0.0081411298990652758 0.00055084058648370625 0 -0.0082300022154101031 0.00052981778154847549 0 -0.010580570629793305 0.00057707394005220871 0 -0.011208220846843968 0.00066074108968449936 0 -0.011819078618495734 0.00055511504693821147 0 -0.012043782416174854 0.0007290893044001618 0 -0.012067496511781768 0.0002142341491920875 0 -0.012342522483133417 0.00082906910706299864 0 -0.012329234937682808 0.00076900613895759275 0 -0.012456355146205272 0.000939334918432244 0 -0.012342522483133417 0.00082906910706299864 0 -0.0123589761804662 0.00088795887122559687 0 -0.012456355146205272 0.000939334918432244 0 -0.012043782416174854 0.0007290893044001618 0 -0.012329234937682808 0.00076900613895759275 0 -0.012067496511781768 0.0002142341491920875 0 -0.01263308186066826 0.00079547980022992646 0 -0.011208220846843968 0.00066074108968449936 0 -0.011999222687187432 0.0010257781750989447 0 -0.012043782416174854 0.0007290893044001618 0 -0.012211443651465351 0.00092743679998347434 0 -0.012043782416174854 0.0007290893044001618 0 -0.012329234937682808 0.00076900613895759275 0 -0.012211443651465351 0.00092743679998347434 0 -0.012398364268456846 0.00083047388345814364 0 -0.012329234937682808 0.00076900613895759275 0 -0.012211443651465351 0.00092743679998347434 0 -0.011819078618495734 0.00055511504693821147 0 -0.011835770299198425 0.00084920181314004472 0 -0.011576247961408307 0.00086189656252365083 0 -0.011999222687187432 0.0010257781750989447 0 -0.012043782416174854 0.0007290893044001618 0 -0.011835770299198425 0.00084920181314004472 0 -0.011819078618495734 0.00055511504693821147 0 -0.012043782416174854 0.0007290893044001618 0 -0.011835770299198425 0.00084920181314004472 0 -0.011735824784768839 0.0010621449228577636 0 -0.011835770299198425 0.00084920181314004472 0 -0.011576247961408307 0.00086189656252365083 0 -0.0091384701442538303 0.00096222229296305105 0 -0.0088406041386881566 0.00092390976739138209 0 -0.0089850734862622177 0.00077707993025881688 0 -0.0093633876265915399 0.00067218701703643583 0 -0.0091384701442538303 0.00096222229296305105 0 -0.0089850734862622177 0.00077707993025881688 0 -0.010580570629793305 0.00057707394005220871 0 -0.010335547909813333 0.00096186347730742772 0 -0.0089181142463881473 0.0012648122015956884 0 -0.0091384701442538303 0.00096222229296305105 0 -0.0088406041386881566 0.00092390976739138209 0 -0.0084816871983207538 0.00091811094965523507 0 -0.0088406041386881566 0.00092390976739138209 0 -0.0087132206325600866 0.00070972201147692377 0 -0.0089181142463881473 0.0012648122015956884 0 -0.0084816871983207538 0.00091811094965523507 0 -0.0088406041386881566 0.00092390976739138209 0 -0.0088406041386881566 0.00092390976739138209 0 -0.0087132206325600866 0.00070972201147692377 0 -0.0089850734862622177 0.00077707993025881688 0 -0.0087132206325600866 0.00070972201147692377 0 -0.0089850734862622177 0.00077707993025881688 0 -0.0089861713567341503 0.0005389042365467416 0 -0.0087132206325600866 0.00070972201147692377 0 -0.0089861713567341503 0.0005389042365467416 0 -0.0087398019350900247 0.00047462311385167974 0 -0.0093633876265915399 0.00067218701703643583 0 -0.0089850734862622177 0.00077707993025881688 0 -0.0089861713567341503 0.0005389042365467416 0 -0.0089861713567341503 0.0005389042365467416 0 -0.0092371543190036456 0.00031675614651354095 0 -0.0089396509666086095 0.0002505195967849254 0 -0.0093633876265915399 0.00067218701703643583 0 -0.0089861713567341503 0.0005389042365467416 0 -0.0092371543190036456 0.00031675614651354095 0 -0.0086290330935270849 0.00024893166624257357 0 -0.0089396509666086095 0.0002505195967849254 0 -0.0087398019350900247 0.00047462311385167974 0 -0.0089861713567341503 0.0005389042365467416 0 -0.0089396509666086095 0.0002505195967849254 0 -0.0087398019350900247 0.00047462311385167974 0 -0.0089396509666086095 0.0002505195967849254 0 -0.0091335646127409676 4.9311559675187518e-05 0 -0.0088301518371981299 -0.00010058387674215886 0 -0.0086290330935270849 0.00024893166624257357 0 -0.0089396509666086095 0.0002505195967849254 0 -0.0088301518371981299 -0.00010058387674215886 0 -0.0085364029561342727 0.00037537322351550995 0 -0.0087245409974128548 2.9754637261264906e-05 0 -0.0092371543190036456 0.00031675614651354095 0 -0.0089396509666086095 0.0002505195967849254 0 -0.0091335646127409676 4.9311559675187518e-05 0 -0.0092371543190036456 0.00031675614651354095 0 -0.0091335646127409676 4.9311559675187518e-05 0 -0.0094119076386941364 1.3459635497900784e-05 0 -0.0092371543190036456 0.00031675614651354095 0 -0.0094119076386941364 1.3459635497900784e-05 0 -0.0095882584244478038 0.00038096664822547818 0 -0.0097574885343148787 0.00016776438363975718 0 -0.011208220846843968 0.00066074108968449936 0 -0.0093633876265915399 0.00067218701703643583 0 -0.0092371543190036456 0.00031675614651354095 0 -0.0095882584244478038 0.00038096664822547818 0 -0.0123589761804662 0.00088795887122559687 0 -0.012456355146205272 0.000939334918432244 0 -0.012372907195411139 0.00094775540728499912 0 -0.011208220846843968 0.00066074108968449936 0 -0.011606088076478945 0.00083011147604183271 0 -0.012456355146205272 0.000939334918432244 0 -0.012372907195411139 0.00094775540728499912 0 -0.012395193849570579 0.0010320190931016491 0 -0.010778939432675088 0.00076138487559058228 0 -0.010617945341291464 0.00055219208215849676 0 -0.010989505813621245 0.00048523847818907035 0 -0.010572659145926935 0.0010377151465625206 0 -0.010778939432675088 0.00076138487559058228 0 -0.010617945341291464 0.00055219208215849676 0 -0.010351773682227424 0.00057396248195227617 0 -0.010572659145926935 0.0010377151465625206 0 -0.010617945341291464 0.00055219208215849676 0 -0.010617945341291464 0.00055219208215849676 0 -0.01056276563975854 0.00029295031005789992 0 -0.010989505813621245 0.00048523847818907035 0 -0.010310837562256465 0.00089030284735354946 0 -0.011172537817972176 0.0010844249661690292 0 -0.010071843365691465 0.0014570789890814419 0 -0.010531938071246239 0.0016569030541879468 0 -0.010411697176796878 0.0013953806338118922 0 -0.010351773682227424 0.00057396248195227617 0 -0.010617945341291464 0.00055219208215849676 0 -0.01056276563975854 0.00029295031005789992 0 -0.010071843365691465 0.0014570789890814419 0 -0.010322826248300318 0.0010867443759039555 0 -0.010411697176796878 0.0013953806338118922 0 -0.010071843365691465 0.0014570789890814419 0 -0.010322826248300318 0.0010867443759039555 0 -0.0099302581485919555 0.00088717009240948995 0 -0.0096125982305246653 0.0012540392186499048 0 -0.0094366844125613747 0.00087463883918836383 0 -0.0099302581485919555 0.00088717009240948995 0 -0.010071843365691465 0.0014570789890814419 0 -0.0096125982305246653 0.0012540392186499048 0 -0.0099302581485919555 0.00088717009240948995 0 -0.0097574885343148787 0.00016776438363975718 0 -0.0095842488920987248 0.00037506019684055615 0 -0.010351773682227424 0.00057396248195227617 0 -0.01056276563975854 0.00029295031005789992 0 -0.010128290033748533 0.00010280849969892407 0 -0.010310837562256465 0.00089030284735354946 0 -0.0095842488920987248 0.00037506019684055615 0 -0.0091335646127409676 4.9311559675187518e-05 0 -0.0094119076386941364 1.3459635497900784e-05 0 -0.0090456525663598492 -0.00020951486499748746 0 -0.0094119076386941364 1.3459635497900784e-05 0 -0.0090456525663598492 -0.00020951486499748746 0 -0.0092421172801384656 -0.00034648119704939806 0 -0.0091335646127409676 4.9311559675187518e-05 0 -0.0090456525663598492 -0.00020951486499748746 0 -0.0088301518371981299 -0.00010058387674215886 0 -0.0087245409974128548 2.9754637261264906e-05 0 -0.0087475749618274607 -0.0001242716028838067 0 -0.0090456525663598492 -0.00020951486499748746 0 -0.0088301518371981299 -0.00010058387674215886 0 -0.0090209875732862026 -0.00044380215696945775 0 -0.0085771636242876464 0.00022031195423471617 0 -0.0087298454334992816 -6.3431820915957495e-05 0 -0.008460863230809695 8.3054851839485336e-07 0 -0.0087298454334992816 -6.3431820915957495e-05 0 -0.008460863230809695 8.3054851839485336e-07 0 -0.0083245593624250991 -0.00022258204689144237 0 -0.0087475749618274607 -0.0001242716028838067 0 -0.0082862442795102326 -0.00022326183459005903 0 -0.0095842488920987248 0.00037506019684055615 0 -0.0082951796968006846 0.00036436685365080632 0 -0.0090234253972637964 0.00037328922311696795 0 -0.0087437964233697749 0.00024913424238777129 0 -0.0088615235675320002 2.6120454119092049e-05 0 -0.0095842488920987248 0.00037506019684055615 0 -0.0087475749618274607 -0.0001242716028838067 0 -0.0090456525663598492 -0.00020951486499748746 0 -0.0092421172801384656 -0.00034648119704939806 0 -0.0090209875732862026 -0.00044380215696945775 0 -0.0087475749618274607 -0.0001242716028838067 0 -0.0082951796968006846 0.00036436685365080632 0 -0.006962325666617775 0.00061078445507365114 0 -0.0068117646639560313 0.00031879279338208397 0 -0.0070653009147435318 0.00040136602952584586 0 -0.0082951796968006846 0.00036436685365080632 0 -0.008340073717254275 0.00046099099328239729 0 -0.0085353479901371949 -0.00022375954573903062 0 -0.0084575590538234092 -0.00028238417646370037 0 -0.0084575795153111217 -0.00036935692213368955 0 -0.0082951796968006846 0.00036436685365080632 0 -0.0076218975837759233 -4.6546706559729701e-05 0 -0.0085025543029992826 -0.00015724532113573902 0 -0.0085353479901371949 -0.00022375954573903062 0 -0.0084445463929170121 -0.00024023944962204419 0 -0.0085025543029992826 -0.00015724532113573902 0 -0.0084445463929170121 -0.00024023944962204419 0 -0.0083245593624250991 -0.00022258204689144237 0 -0.0084445463929170121 -0.00024023944962204419 0 -0.0083930975288382774 -0.0002954600691746964 0 -0.0083245593624250991 -0.00022258204689144237 0 -0.0085353479901371949 -0.00022375954573903062 0 -0.0084445463929170121 -0.00024023944962204419 0 -0.0084575590538234092 -0.00028238417646370037 0 -0.0084445463929170121 -0.00024023944962204419 0 -0.0084575590538234092 -0.00028238417646370037 0 -0.0083930975288382774 -0.0002954600691746964 0 -0.0083891847917940791 -0.00029169787619282836 0 -0.0083993066155554543 -0.00051539903155339601 0 -0.0083930975288382774 -0.0002954600691746964 0 -0.0084575795153111217 -0.00036935692213368955 0 -0.0083874085516516504 -0.00039757899421822527 0 -0.0084575590538234092 -0.00028238417646370037 0 -0.0083930975288382774 -0.0002954600691746964 0 -0.0084575795153111217 -0.00036935692213368955 0 -0.0068117646639560313 0.00031879279338208397 0 -0.0070653009147435318 0.00040136602952584586 0 -0.006997586629845608 0.00012724500252807744 0 -0.0096441728521554672 0.00049130822160639966 0 -0.010026550827871098 0.00048614856498204178 0 -0.0098497386500696494 0.00010440628333432545 0 -0.008340073717254275 0.00046099099328239729 0 -0.0087845455352460345 0.00059053748062650412 0 -0.0070653009147435318 0.00040136602952584586 0 -0.0071812490364145118 0.00018746618596041082 0 -0.006997586629845608 0.00012724500252807744 0 -0.010026550827871098 0.00048614856498204178 0 -0.010353121710583378 0.00028158356806849856 0 -0.010357020717035348 0.00066395629907119104 0 -0.010026550827871098 0.00048614856498204178 0 -0.010353121710583378 0.00028158356806849856 0 -0.0098497386500696494 0.00010440628333432545 0 -0.010026550827871098 0.00048614856498204178 0 -0.010357020717035348 0.00066395629907119104 0 -0.0099302581485919555 0.00088717009240948995 0 -0.010322826248300318 0.0010867443759039555 0 -0.010357020717035348 0.00066395629907119104 0 -0.0099302581485919555 0.00088717009240948995 0 -0.0096441728521554672 0.00049130822160639966 0 -0.010026550827871098 0.00048614856498204178 0 -0.0099302581485919555 0.00088717009240948995 0 -0.0094366844125613747 0.00087463883918836383 0 -0.0096441728521554672 0.00049130822160639966 0 -0.0099302581485919555 0.00088717009240948995 0 -0.0076284868941895066 0.00010040769811607226 0 -0.0075445248596556023 -0.00023122246150652037 0 -0.0077525239147570504 -0.0001341330048185719 0 -0.0076284868941895066 0.00010040769811607226 0 -0.0077525239147570504 -0.0001341330048185719 0 -0.0078616274557476457 5.1966860272269447e-05 0 -0.0078726620866558013 0.00040746836787688626 0 -0.007973864376949906 0.00018506810736187119 0 -0.0081411298990652758 0.00055084058648370625 0 -0.0077901257045736886 0.00014727561998036125 0 -0.0081102992711592718 0.00037742007452662603 0 -0.0076284868941895066 0.00010040769811607226 0 -0.0079264647699400833 0.00030257272840399747 0 -0.0078616274557476457 5.1966860272269447e-05 0 -0.0081789656726235262 0.00027276958912456349 0 -0.0079264647699400833 0.00030257272840399747 0 -0.008065607136741591 0.00010730074039610568 0 -0.0079264647699400833 0.00030257272840399747 0 -0.0078616274557476457 5.1966860272269447e-05 0 -0.008065607136741591 0.00010730074039610568 0 -0.0078616274557476457 5.1966860272269447e-05 0 -0.0079691150301974163 -9.4986399081373649e-05 0 -0.008065607136741591 0.00010730074039610568 0 -0.0077525239147570504 -0.0001341330048185719 0 -0.0078616274557476457 5.1966860272269447e-05 0 -0.0079691150301974163 -9.4986399081373649e-05 0 -0.0079691150301974163 -9.4986399081373649e-05 0 -0.0082184351561321051 -2.3119338785720547e-05 0 -0.008065607136741591 0.00010730074039610568 0 -0.0079691150301974163 -9.4986399081373649e-05 0 -0.0082184351561321051 -2.3119338785720547e-05 0 -0.0081104228816770204 -0.00024630706114311767 0 -0.0081789656726235262 0.00027276958912456349 0 -0.008065607136741591 0.00010730074039610568 0 -0.0082316170319631995 0.00016103715501827797 0 -0.008359990219653838 0.00031612636761017441 0 -0.0081789656726235262 0.00027276958912456349 0 -0.0082316170319631995 0.00016103715501827797 0 -0.0082184351561321051 -2.3119338785720547e-05 0 -0.008065607136741591 0.00010730074039610568 0 -0.0082316170319631995 0.00016103715501827797 0 -0.0082184351561321051 -2.3119338785720547e-05 0 -0.0082316170319631995 0.00016103715501827797 0 -0.0083709837244230964 0.0001358618045192928 0 -0.008359990219653838 0.00031612636761017441 0 -0.0085771636242876464 0.00022031195423471617 0 -0.0083709837244230964 0.0001358618045192928 0 -0.0085771636242876464 0.00022031195423471617 0 -0.0083709837244230964 0.0001358618045192928 0 -0.008460863230809695 8.3054851839485336e-07 0 -0.008359990219653838 0.00031612636761017441 0 -0.0082316170319631995 0.00016103715501827797 0 -0.0083709837244230964 0.0001358618045192928 0 -0.0082184351561321051 -2.3119338785720547e-05 0 -0.008460863230809695 8.3054851839485336e-07 0 -0.0083245593624250991 -0.00022258204689144237 0 -0.0082184351561321051 -2.3119338785720547e-05 0 -0.0083709837244230964 0.0001358618045192928 0 -0.008460863230809695 8.3054851839485336e-07 0 -0.0083930975288382774 -0.0002954600691746964 0 -0.0083245593624250991 -0.00022258204689144237 0 -0.008225508159132448 -0.00031789374004648061 0 -0.0083930975288382774 -0.0002954600691746964 0 -0.008225508159132448 -0.00031789374004648061 0 -0.0082930439592749754 -0.00041248446849198085 0 -0.0083245593624250991 -0.00022258204689144237 0 -0.008225508159132448 -0.00031789374004648061 0 -0.0081104228816770204 -0.00024630706114311767 0 -0.0083930975288382774 -0.0002954600691746964 0 -0.0083927736422113822 -0.00051007994834339034 0 -0.0082930439592749754 -0.00041248446849198085 0 -0.0083927736422113822 -0.00051007994834339034 0 -0.0082930439592749754 -0.00041248446849198085 0 -0.0082771202469697994 -0.00051566804542830657 0 -0.0082930439592749754 -0.00041248446849198085 0 -0.0082771202469697994 -0.00051566804542830657 0 -0.0081858077652295393 -0.0004474307094204213 0 -0.0082771202469697994 -0.00051566804542830657 0 -0.0081858077652295393 -0.0004474307094204213 0 -0.0081060601873746852 -0.00056761235179174894 0 -0.008225508159132448 -0.00031789374004648061 0 -0.0082930439592749754 -0.00041248446849198085 0 -0.0081858077652295393 -0.0004474307094204213 0 -0.0080268565789070635 -0.00042018219411561617 0 -0.0078803171318425434 -0.00059675241895923296 0 -0.0081060601873746852 -0.00056761235179174894 0 -0.008225508159132448 -0.00031789374004648061 0 -0.0081858077652295393 -0.0004474307094204213 0 -0.0080268565789070635 -0.00042018219411561617 0 -0.0081858077652295393 -0.0004474307094204213 0 -0.0080268565789070635 -0.00042018219411561617 0 -0.0081060601873746852 -0.00056761235179174894 0 -0.0082184351561321051 -2.3119338785720547e-05 0 -0.0083245593624250991 -0.00022258204689144237 0 -0.0081104228816770204 -0.00024630706114311767 0 -0.008225508159132448 -0.00031789374004648061 0 -0.0080268565789070635 -0.00042018219411561617 0 -0.0081104228816770204 -0.00024630706114311767 0 -0.0077525239147570504 -0.0001341330048185719 0 -0.0079691150301974163 -9.4986399081373649e-05 0 -0.0078828079913784294 -0.00029328542134099894 0 -0.0079691150301974163 -9.4986399081373649e-05 0 -0.0081104228816770204 -0.00024630706114311767 0 -0.0078828079913784294 -0.00029328542134099894 0 -0.0080268565789070635 -0.00042018219411561617 0 -0.0081104228816770204 -0.00024630706114311767 0 -0.0078828079913784294 -0.00029328542134099894 0 -0.0080268565789070635 -0.00042018219411561617 0 -0.0078278225069436467 -0.00045095804664510428 0 -0.0078803171318425434 -0.00059675241895923296 0 -0.0080268565789070635 -0.00042018219411561617 0 -0.0078828079913784294 -0.00029328542134099894 0 -0.0078278225069436467 -0.00045095804664510428 0 -0.0076679632282796494 -0.00038987808801308713 0 -0.0076230042604476982 -0.00065464425826030248 0 -0.0078278225069436467 -0.00045095804664510428 0 -0.0076744830838847864 -0.00038170003319856977 0 -0.0076817743548793652 -0.00055727878747736134 0 -0.0078278225069436467 -0.00045095804664510428 0 -0.0076817743548793652 -0.00055727878747736134 0 -0.0078803171318425434 -0.00059675241895923296 0 -0.0078828079913784294 -0.00029328542134099894 0 -0.0078278225069436467 -0.00045095804664510428 0 -0.0076744830838847864 -0.00038170003319856977 0 -0.0075445248596556023 -0.00023122246150652037 0 -0.0077525239147570504 -0.0001341330048185719 0 -0.0076744830838847864 -0.00038170003319856977 0 -0.0077525239147570504 -0.0001341330048185719 0 -0.0078828079913784294 -0.00029328542134099894 0 -0.0076744830838847864 -0.00038170003319856977 0 -0.0019214874193168052 -0.00057451050922870432 0 -0.0018992681112510715 -0.00059839364615288371 0 -0.0019239623190989961 -0.0005437400274809919 0 -0.0076815099193764287 -0.00074128769808995821 0 -0.0076817743548793652 -0.00055727878747736134 0 -0.0078803171318425434 -0.00059675241895923296 0 -0.0052011317497649432 -0.00061053987657782628 0 -0.0076230042604476982 -0.00065464425826030248 0 -0.0076815099193764287 -0.00074128769808995821 0 -0.0078803171318425434 -0.00059675241895923296 0 -0.0080164248122577518 -0.00077220576931851632 0 -0.0040578372844499297 -0.00073274076547990533 0 -0.0037743108823209029 -0.00070382724078716979 0 -0.0038306845873693203 -0.00052373682183988165 0 -0.0052011317497649432 -0.00061053987657782628 0 -0.0061061410248224764 -0.00078617687864007398 0 -0.0037743108823209029 -0.00070382724078716979 0 -0.0036631922168940127 -0.00059523643440432313 0 -0.0038306845873693203 -0.00052373682183988165 0 -0.0080164248122577518 -0.00077220576931851632 0 -0.0081060601873746852 -0.00056761235179174894 0 -0.0082435589700493826 -0.00065045275978559461 0 -0.0078803171318425434 -0.00059675241895923296 0 -0.0080164248122577518 -0.00077220576931851632 0 -0.0081060601873746852 -0.00056761235179174894 0 -0.0083927736422113822 -0.00051007994834339034 0 -0.0082435589700493826 -0.00065045275978559461 0 -0.0083816799850769241 -0.00071297782515884062 0 -0.0082771202469697994 -0.00051566804542830657 0 -0.0081060601873746852 -0.00056761235179174894 0 -0.0082435589700493826 -0.00065045275978559461 0 -0.0083927736422113822 -0.00051007994834339034 0 -0.0082771202469697994 -0.00051566804542830657 0 -0.0082435589700493826 -0.00065045275978559461 0 -0.0080164248122577518 -0.00077220576931851632 0 -0.0082435589700493826 -0.00065045275978559461 0 -0.0083358818501002036 -0.00079899049148302026 0 -0.0082435589700493826 -0.00065045275978559461 0 -0.0083816799850769241 -0.00071297782515884062 0 -0.0083358818501002036 -0.00079899049148302026 0 -0.0037743108823209029 -0.00070382724078716979 0 -0.0036631922168940127 -0.00059523643440432313 0 -0.0034954518467369593 -0.00067260679923797774 0 -0.0035176255228745353 -0.00060756249995732171 0 -0.0036631922168940127 -0.00059523643440432313 0 -0.0034954518467369593 -0.00067260679923797774 0 -0.0061061410248224764 -0.00078617687864007398 0 -0.0056180413393600668 -0.00056374150195746928 0 -0.0045990221134846335 -0.0010011441436109641 0 -0.0056180413393600668 -0.00056374150195746928 0 -0.0035176255228745353 -0.00060756249995732171 0 -0.0035543617066067026 -0.00046166105536390409 0 -0.0034057528191656105 -0.00041338198514637631 0 -0.0035543617066067026 -0.00046166105536390409 0 -0.0036727106838826897 -0.00039177691071340745 0 -0.0036631922168940127 -0.00059523643440432313 0 -0.0035176255228745353 -0.00060756249995732171 0 -0.0035543617066067026 -0.00046166105536390409 0 -0.0036631922168940127 -0.00059523643440432313 0 -0.0035543617066067026 -0.00046166105536390409 0 -0.003511755201767846 -0.00029116610983187779 0 -0.0034057528191656105 -0.00041338198514637631 0 -0.003511755201767846 -0.00029116610983187779 0 -0.0036727106838826897 -0.00039177691071340745 0 -0.0035967315693685377 -0.0001700422214251829 0 -0.0035543617066067026 -0.00046166105536390409 0 -0.003511755201767846 -0.00029116610983187779 0 -0.0036727106838826897 -0.00039177691071340745 0 -0.0036727106838826897 -0.00039177691071340745 0 -0.0038306845873693203 -0.00052373682183988165 0 -0.0038062253918666315 -0.00028317662825620037 0 -0.0036727106838826897 -0.00039177691071340745 0 -0.0038062253918666315 -0.00028317662825620037 0 -0.0035967315693685377 -0.0001700422214251829 0 -0.0036727106838826897 -0.00039177691071340745 0 -0.0036631922168940127 -0.00059523643440432313 0 -0.0038306845873693203 -0.00052373682183988165 0 -0.0038062253918666315 -0.00028317662825620037 0 -0.0040095069151151758 -0.00043306839548956183 0 -0.003961890439510893 -0.00013668028672020452 0 -0.0038306845873693203 -0.00052373682183988165 0 -0.0038062253918666315 -0.00028317662825620037 0 -0.0040095069151151758 -0.00043306839548956183 0 -0.0019239623190989961 -0.0005437400274809919 0 -0.0019368986813148056 -0.00065481821502519745 0 -0.0019005251427903168 -0.00059294847918382797 0 -0.0027698562198232401 -0.00043148876696454705 0 -0.0020911673435047204 -0.00069002054485225713 0 -0.0040578372844499297 -0.00073274076547990533 0 -0.0038306845873693203 -0.00052373682183988165 0 -0.0040095069151151758 -0.00043306839548956183 0 -0.0052011317497649432 -0.00061053987657782628 0 -0.0027698562198232401 -0.00043148876696454705 0 -0.0071095986001123105 2.1779384025786844e-05 0 -0.006997586629845608 0.00012724500252807744 0 -0.0069920773967581335 -0.00010132194608594938 0 -0.0072262110340619657 0.0004736469891451996 0 -0.0046073941868142029 -0.00044485595110613474 0 -0.0071095986001123105 2.1779384025786844e-05 0 -0.0073014662065843724 -0.00012113119632471727 0 -0.0069920773967581335 -0.00010132194608594938 0 -0.0071095986001123105 2.1779384025786844e-05 0 -0.0073014662065843724 -0.00012113119632471727 0 -0.0071472034761096348 0.00018053566669443358 0 -0.010063501072419951 0.00092117724080755089 0 -0.010446444579508329 0.00089169080453357799 0 -0.010300273806822401 0.0013276659008629591 0 -0.010063501072419951 0.00092117724080755089 0 -0.0096974434422617672 0.0015888302037955562 0 -0.010300273806822401 0.0013276659008629591 0 -0.0072262110340619657 0.0004736469891451996 0 -0.0087845455352460345 0.00059053748062650412 0 -0.0072262110340619657 0.0004736469891451996 0 -0.011070563860124789 0.0007050704653217679 0 -0.010423849594928727 0.0010753625727727854 0 -0.0087845455352460345 0.00059053748062650412 0 -0.010248724197355586 0.0017841881530097129 0 -0.0096974434422617672 0.0015888302037955562 0 -0.010300273806822401 0.0013276659008629591 0 -0.0071095986001123105 2.1779384025786844e-05 0 -0.0071472034761096348 0.00018053566669443358 0 -0.006997586629845608 0.00012724500252807744 0 -0.0087845455352460345 0.00059053748062650412 0 -0.0066654519399890312 -2.6952723895507074e-05 0 -0.0068117646639560313 0.00031879279338208397 0 -0.0068301993281933019 0.00013466945672116991 0 -0.006997586629845608 0.00012724500252807744 0 -0.0068301993281933019 0.00013466945672116991 0 -0.006997586629845608 0.00012724500252807744 0 -0.0068323180570280537 2.6149782392100237e-05 0 -0.0083993066155554543 -0.00051539903155339601 0 -0.0070468429795341476 -0.00030929896968448592 0 -0.0084575795153111217 -0.00036935692213368955 0 -0.0083874085516516504 -0.00039757899421822527 0 -0.0083761939182972825 -0.00050047675180414446 0 -0.0076218975837759233 -4.6546706559729701e-05 0 -0.0070468429795341476 -0.00030929896968448592 0 -0.0068117646639560313 0.00031879279338208397 0 -0.0068301993281933019 0.00013466945672116991 0 -0.0066638284317590123 2.5322957012248527e-05 0 -0.0068301993281933019 0.00013466945672116991 0 -0.0066638284317590123 2.5322957012248527e-05 0 -0.0068323180570280537 2.6149782392100237e-05 0 -0.0061351796268015769 -0.00025970051935023857 0 -0.0061566602363546368 -0.0007577630624560829 0 -0.0059183310859861633 -0.00073266905246023183 0 -0.0070468429795341476 -0.00030929896968448592 0 -0.0050854653064161363 -0.00053069791862563368 0 -0.0070468429795341476 -0.00030929896968448592 0 -0.0056180413393600668 -0.00056374150195746928 0 -0.0066638284317590123 2.5322957012248527e-05 0 -0.0066650108370213748 -7.995394863423708e-05 0 -0.0068323180570280537 2.6149782392100237e-05 0 -0.0035176255228745353 -0.00060756249995732171 0 -0.0034594905393439106 -0.0006682533834589348 0 -0.0034960452344537808 -0.00067141042352296041 0 -0.0050854653064161363 -0.00053069791862563368 0 -0.0056180413393600668 -0.00056374150195746928 0 -0.0050854653064161363 -0.00053069791862563368 0 -0.0046073941868142029 -0.00044485595110613474 0 -0.0066650108370213748 -7.995394863423708e-05 0 -0.0069920773967581335 -0.00010132194608594938 0 -0.0068323180570280537 2.6149782392100237e-05 0 -0.0034127523590012036 -0.00070455622360623656 0 -0.0031237436128056196 -0.00067523604838662648 0 -0.0032574650811403377 -0.00054982576620122637 0 -0.006997586629845608 0.00012724500252807744 0 -0.0069920773967581335 -0.00010132194608594938 0 -0.0068323180570280537 2.6149782392100237e-05 0 -0.0031237436128056196 -0.00067523604838662648 0 -0.0032574650811403377 -0.00054982576620122637 0 -0.0030202078994661804 -0.000474709304631487 0 -0.0034127523590012036 -0.00070455622360623656 0 -0.0032574650811403377 -0.00054982576620122637 0 -0.0033736108391109738 -0.00041042287597340717 0 -0.0050854653064161363 -0.00053069791862563368 0 -0.0031925786900512481 -0.00043343031853110368 0 -0.0035176255228745353 -0.00060756249995732171 0 -0.0034594905393439106 -0.0006682533834589348 0 -0.0034057528191656105 -0.00041338198514637631 0 -0.0032574650811403377 -0.00054982576620122637 0 -0.0033736108391109738 -0.00041042287597340717 0 -0.003153836057307974 -0.00027968824260463798 0 -0.0033736108391109738 -0.00041042287597340717 0 -0.003153836057307974 -0.00027968824260463798 0 -0.0032611936623600677 -0.00022373932494615593 0 -0.0032574650811403377 -0.00054982576620122637 0 -0.003153836057307974 -0.00027968824260463798 0 -0.0030202078994661804 -0.000474709304631487 0 -0.003153836057307974 -0.00027968824260463798 0 -0.0030202078994661804 -0.000474709304631487 0 -0.0028893012973175642 -0.00024284278060207937 0 -0.0030202078994661804 -0.000474709304631487 0 -0.0028501593079010247 -0.00043057571925709485 0 -0.0028893012973175642 -0.00024284278060207937 0 -0.0028489461448581777 -0.00065034798340841081 0 -0.0031237436128056196 -0.00067523604838662648 0 -0.0030202078994661804 -0.000474709304631487 0 -0.0028489461448581777 -0.00065034798340841081 0 -0.0028501593079010247 -0.00043057571925709485 0 -0.0026398895202041769 -0.00035021213080219799 0 -0.0028489461448581777 -0.00065034798340841081 0 -0.0030202078994661804 -0.000474709304631487 0 -0.0028501593079010247 -0.00043057571925709485 0 -0.0072262110340619657 0.0004736469891451996 0 -0.0066135112534253934 -0.0003270410798198316 0 -0.0028501593079010247 -0.00043057571925709485 0 -0.0026398895202041769 -0.00035021213080219799 0 -0.0028893012973175642 -0.00024284278060207937 0 -0.010485671552215204 0.00022410913424550835 0 -0.010786166928873835 0.00034426514472467925 0 -0.010475195248765367 0.0006074647310991253 0 -0.010485671552215204 0.00022410913424550835 0 -0.010854999976455438 0.00014977715053715221 0 -0.010786166928873835 0.00034426514472467925 0 -0.01111231783401922 0.00013325923624058565 0 -0.010954947038347873 0.00038519402580360019 0 -0.011319697594421481 0.00059063495311637666 0 -0.010854999976455438 0.00014977715053715221 0 -0.01111231783401922 0.00013325923624058565 0 -0.010954947038347873 0.00038519402580360019 0 -0.010854999976455438 0.00014977715053715221 0 -0.010954947038347873 0.00038519402580360019 0 -0.010786166928873835 0.00034426514472467925 0 -0.010806445245692827 0.00038019230220796249 0 -0.010879437482248958 0.00082261164768929445 0 -0.010954947038347873 0.00038519402580360019 0 -0.011214020239434864 0.00072281346129947355 0 -0.011012806189566782 0.00082678826479656018 0 -0.010954947038347873 0.00038519402580360019 0 -0.011214020239434864 0.00072281346129947355 0 -0.011515671318907501 0.00064077099575687933 0 -0.011325527038567491 0.00045506720296385186 0 -0.010304159736443172 0.00096349973148191891 0 -0.010954947038347873 0.00038519402580360019 0 -0.010786166928873835 0.00034426514472467925 0 -0.011012806189566782 0.00082678826479656018 0 -0.010633209764638369 0.00064125612877854803 0 -0.010446444579508329 0.00089169080453357799 0 -0.010751119342021781 0.00090549159226578255 0 -0.010786166928873835 0.00034426514472467925 0 -0.010633209764638369 0.00064125612877854803 0 -0.010751119342021781 0.00090549159226578255 0 -0.010475195248765367 0.0006074647310991253 0 -0.010633209764638369 0.00064125612877854803 0 -0.010446444579508329 0.00089169080453357799 0 -0.010034091320168291 0.00093061368833220629 0 -0.010485671552215204 0.00022410913424550835 0 -0.010475195248765367 0.0006074647310991253 0 -0.010034091320168291 0.00093061368833220629 0 -0.010475195248765367 0.0006074647310991253 0 -0.010446444579508329 0.00089169080453357799 0 -0.010786166928873835 0.00034426514472467925 0 -0.010475195248765367 0.0006074647310991253 0 -0.010633209764638369 0.00064125612877854803 0 -0.0067667964092578787 0.0020539114263149303 0 -0.0067308162031376436 0.002220765512284552 0 -0.0068932201792353777 0.0021226121352095296 0 -0.0066390942415821119 0.0020550884306205545 0 -0.0067667964092578787 0.0020539114263149303 0 -0.0067308162031376436 0.002220765512284552 0 -0.0090755540336981255 0.0012450101493172092 0 -0.010304159736443172 0.00096349973148191891 0 -0.011214020239434864 0.00072281346129947355 0 -0.011515671318907501 0.00064077099575687933 0 -0.011368197970094045 0.00099003835371786028 0 -0.0067308162031376436 0.002220765512284552 0 -0.0069304237089690586 0.002334504942621175 0 -0.0068932201792353777 0.0021226121352095296 0 -0.010304159736443172 0.00096349973148191891 0 -0.0090776474689134145 0.0017654721131361928 0 -0.010304159736443172 0.00096349973148191891 0 -0.012110151417579717 0.001202495522031573 0 -0.011624541175828068 0.001074183257113234 0 -0.011724619607534492 0.0011885127084343135 0 -0.011751757934408075 0.0011403061471998988 0 -0.011515671318907501 0.00064077099575687933 0 -0.011368197970094045 0.00099003835371786028 0 -0.011724619607534492 0.0011885127084343135 0 -0.011368197970094045 0.00099003835371786028 0 -0.011537692992952781 0.0012808009815320994 0 -0.011724619607534492 0.0011885127084343135 0 -0.011724619607534492 0.0011885127084343135 0 -0.011728306777411065 0.0013184255566355114 0 -0.01179073722531802 0.001248794885303033 0 -0.011537692992952781 0.0012808009815320994 0 -0.011724619607534492 0.0011885127084343135 0 -0.011728306777411065 0.0013184255566355114 0 -0.010579285124526727 0.0011721483096146035 0 -0.010446444579508329 0.00089169080453357799 0 -0.010300273806822401 0.0013276659008629591 0 -0.010579285124526727 0.0011721483096146035 0 -0.010751119342021781 0.00090549159226578255 0 -0.010760462180661234 0.0014380194041983814 0 -0.010579285124526727 0.0011721483096146035 0 -0.010446444579508329 0.00089169080453357799 0 -0.010751119342021781 0.00090549159226578255 0 -0.011368197970094045 0.00099003835371786028 0 -0.011012806189566782 0.00082678826479656018 0 -0.011184464353767569 0.0011594547013029451 0 -0.010879437482248958 0.00082261164768929445 0 -0.010963768084000207 0.001377385804421397 0 -0.011214020239434864 0.00072281346129947355 0 -0.011368197970094045 0.00099003835371786028 0 -0.011012806189566782 0.00082678826479656018 0 -0.011368197970094045 0.00099003835371786028 0 -0.011537692992952781 0.0012808009815320994 0 -0.011184464353767569 0.0011594547013029451 0 -0.010579285124526727 0.0011721483096146035 0 -0.010760462180661234 0.0014380194041983814 0 -0.010300273806822401 0.0013276659008629591 0 -0.010248724197355586 0.0017841881530097129 0 -0.010760462180661234 0.0014380194041983814 0 -0.010300273806822401 0.0013276659008629591 0 -0.010353121710583378 0.00028158356806849856 0 -0.010357020717035348 0.00066395629907119104 0 -0.01085027092033356 0.00046222617024072889 0 -0.010248724197355586 0.0017841881530097129 0 -0.010760462180661234 0.0014380194041983814 0 -0.010785222069967172 0.0019700585333085607 0 -0.010423849594928727 0.0010753625727727854 0 -0.011165356700662134 0.0012688113663703823 0 -0.010322826248300318 0.0010867443759039555 0 -0.010357020717035348 0.00066395629907119104 0 -0.010602201090394135 0.00092578988739310626 0 -0.010357020717035348 0.00066395629907119104 0 -0.010602201090394135 0.00092578988739310626 0 -0.01085027092033356 0.00046222617024072889 0 -0.011165356700662134 0.0012688113663703823 0 -0.011531614035363938 0.0011426772225035936 0 -0.012073203889860867 0.0015704628238573286 0 -0.011782076506650391 0.0014511951410142168 0 -0.01210342403931172 0.0012861195052300666 0 -0.010602201090394135 0.00092578988739310626 0 -0.01085027092033356 0.00046222617024072889 0 -0.010884288692553779 0.0011453024247387493 0 -0.010963768084000207 0.001377385804421397 0 -0.011165356700662134 0.0012688113663703823 0 -0.011537692992952781 0.0012808009815320994 0 -0.011184464353767569 0.0011594547013029451 0 -0.0112781750634923 0.001441173365617834 0 -0.011165356700662134 0.0012688113663703823 0 -0.011980781891847706 0.0015517632860633478 0 -0.011537692992952781 0.0012808009815320994 0 -0.0112781750634923 0.001441173365617834 0 -0.011782076506650391 0.0014511951410142168 0 -0.011537692992952781 0.0012808009815320994 0 -0.011728306777411065 0.0013184255566355114 0 -0.011782076506650391 0.0014511951410142168 0 -0.011728306777411065 0.0013184255566355114 0 -0.011782076506650391 0.0014511951410142168 0 -0.011785690371388078 0.0013484707277304062 0 -0.011728306777411065 0.0013184255566355114 0 -0.011785690371388078 0.0013484707277304062 0 -0.01179073722531802 0.001248794885303033 0 -0.011782076506650391 0.0014511951410142168 0 -0.011878807195690597 0.0013058133104813044 0 -0.011806319830905848 0.0013700537704978782 0 -0.011782076506650391 0.0014511951410142168 0 -0.011806319830905848 0.0013700537704978782 0 -0.011785690371388078 0.0013484707277304062 0 -0.011782076506650391 0.0014511951410142168 0 -0.012000025147585032 0.0012503104403308264 0 -0.01210342403931172 0.0012861195052300666 0 -0.011782076506650391 0.0014511951410142168 0 -0.012000025147585032 0.0012503104403308264 0 -0.011878807195690597 0.0013058133104813044 0 -0.011878807195690597 0.0013058133104813044 0 -0.011864776925940004 0.0012438046244662179 0 -0.011806319830905848 0.0013700537704978782 0 -0.011878807195690597 0.0013058133104813044 0 -0.011966199192355288 0.0011839176620259029 0 -0.011864776925940004 0.0012438046244662179 0 -0.011935636492386773 0.0010691513937369818 0 -0.011966199192355288 0.0011839176620259029 0 -0.011864776925940004 0.0012438046244662179 0 -0.012066533057378407 0.0011318875393203031 0 -0.012000025147585032 0.0012503104403308264 0 -0.011966199192355288 0.0011839176620259029 0 -0.012190873800228432 0.0010894159260222296 0 -0.012066533057378407 0.0011318875393203031 0 -0.012000025147585032 0.0012503104403308264 0 -0.012000025147585032 0.0012503104403308264 0 -0.011878807195690597 0.0013058133104813044 0 -0.011966199192355288 0.0011839176620259029 0 -0.012190873800228432 0.0010894159260222296 0 -0.012000025147585032 0.0012503104403308264 0 -0.01210342403931172 0.0012861195052300666 0 -0.011579303372914379 0.0015290886323625456 0 -0.011531614035363938 0.0011426772225035936 0 -0.010922976136909703 0.0018216727630662769 0 -0.010631087794144662 0.00152332486345668 0 -0.010884288692553779 0.0011453024247387493 0 -0.010922976136909703 0.0018216727630662769 0 -0.010631087794144662 0.00152332486345668 0 -0.010537322476833968 0.0016505455458722367 0 -0.010631087794144662 0.00152332486345668 0 -0.010531938071246239 0.0016569030541879468 0 -0.010411697176796878 0.0013953806338118922 0 -0.010760325934442488 0.0015344375063582319 0 -0.011172537817972176 0.0010844249661690292 0 -0.010631087794144662 0.00152332486345668 0 -0.010411697176796878 0.0013953806338118922 0 -0.010570918351672103 0.0012153191879341791 0 -0.010631087794144662 0.00152332486345668 0 -0.010570918351672103 0.0012153191879341791 0 -0.010884288692553779 0.0011453024247387493 0 -0.010322826248300318 0.0010867443759039555 0 -0.010411697176796878 0.0013953806338118922 0 -0.010570918351672103 0.0012153191879341791 0 -0.010322826248300318 0.0010867443759039555 0 -0.010602201090394135 0.00092578988739310626 0 -0.010570918351672103 0.0012153191879341791 0 -0.010602201090394135 0.00092578988739310626 0 -0.010570918351672103 0.0012153191879341791 0 -0.010884288692553779 0.0011453024247387493 0 -0.01149362601875541 0.0013400436142031672 0 -0.011719018444781938 0.001346339364157457 0 -0.011470232741815332 0.0015658748608707962 0 -0.01149362601875541 0.0013400436142031672 0 -0.011298853229836611 0.0014351146529736369 0 -0.011470232741815332 0.0015658748608707962 0 -0.011478277044285095 0.0011282963602993847 0 -0.01149362601875541 0.0013400436142031672 0 -0.011298853229836611 0.0014351146529736369 0 -0.011141686476839928 0.0013245935375014442 0 -0.011478277044285095 0.0011282963602993847 0 -0.011298853229836611 0.0014351146529736369 0 -0.011478277044285095 0.0011282963602993847 0 -0.01149362601875541 0.0013400436142031672 0 -0.011719018444781938 0.001346339364157457 0 -0.011478277044285095 0.0011282963602993847 0 -0.011808549982742285 0.0011775522013716996 0 -0.011719018444781938 0.001346339364157457 0 -0.011935636492386773 0.0010691513937369818 0 -0.011808549982742285 0.0011775522013716996 0 -0.011864776925940004 0.0012438046244662179 0 -0.011808549982742285 0.0011775522013716996 0 -0.011864776925940004 0.0012438046244662179 0 -0.011719018444781938 0.001346339364157457 0 -0.011864776925940004 0.0012438046244662179 0 -0.011719018444781938 0.001346339364157457 0 -0.011806319830905848 0.0013700537704978782 0 -0.011655695427040159 0.0013838152527019098 0 -0.011995726157801026 0.0014395781657333974 0 -0.011719018444781938 0.001346339364157457 0 -0.011806319830905848 0.0013700537704978782 0 -0.011814469486090424 0.001362181685512499 0 -0.011806319830905848 0.0013700537704978782 0 -0.011785690371388078 0.0013484707277304062 0 -0.011814469486090424 0.001362181685512499 0 -0.011785690371388078 0.0013484707277304062 0 -0.011814469486090424 0.001362181685512499 0 -0.01179073722531802 0.001248794885303033 0 -0.011667249052926156 0.0016947074996988129 0 -0.011514083397765379 0.0017699654753500053 0 -0.011630042128315235 0.0019929151528301206 0 -0.011995726157801026 0.0014395781657333974 0 -0.0098435642427284857 0.001942463082052235 0 -0.011514083397765379 0.0017699654753500053 0 -0.011470232741815332 0.0015658748608707962 0 -0.011360110806407584 0.0017482390461527231 0 -0.011514083397765379 0.0017699654753500053 0 -0.011360110806407584 0.0017482390461527231 0 -0.011407659588851862 0.0018714263690311093 0 -0.011719018444781938 0.001346339364157457 0 -0.011667249052926156 0.0016947074996988129 0 -0.011470232741815332 0.0015658748608707962 0 -0.011667249052926156 0.0016947074996988129 0 -0.011514083397765379 0.0017699654753500053 0 -0.011470232741815332 0.0015658748608707962 0 -0.011298853229836611 0.0014351146529736369 0 -0.011470232741815332 0.0015658748608707962 0 -0.011278073453264672 0.0016047977717877253 0 -0.011470232741815332 0.0015658748608707962 0 -0.011278073453264672 0.0016047977717877253 0 -0.011360110806407584 0.0017482390461527231 0 -0.011164590146941889 0.0017409320360456729 0 -0.011278073453264672 0.0016047977717877253 0 -0.011360110806407584 0.0017482390461527231 0 -0.009228578024314836 0.001324742962530948 0 -0.0096753592603913592 0.0016217275241752534 0 -0.011164590146941889 0.0017409320360456729 0 -0.011360110806407584 0.0017482390461527231 0 -0.011395275410117501 0.0018583494301940408 0 -0.011078483884558846 0.0020687527716484783 0 -0.0096753592603913592 0.0016217275241752534 0 -0.007420457301615716 0.0011338225055307107 0 -0.0075821009913127598 0.0010751806548642427 0 -0.0075283375259240764 0.0011986514102302456 0 -0.007382980530101362 0.00096089419462671362 0 -0.007420457301615716 0.0011338225055307107 0 -0.0075821009913127598 0.0010751806548642427 0 -0.0096753592603913592 0.0016217275241752534 0 -0.0098435642427284857 0.001942463082052235 0 -0.011514083397765379 0.0017699654753500053 0 -0.011407659588851862 0.0018714263690311093 0 -0.011630042128315235 0.0019929151528301206 0 -0.0088105860783864957 0.0020592872943380569 0 -0.0086635012931780882 0.0017388306473777211 0 -0.0085457789705234311 0.0019271194173945641 0 -0.0075821009913127598 0.0010751806548642427 0 -0.007628105252647531 0.0012885273984502589 0 -0.0075283375259240764 0.0011986514102302456 0 -0.0096753592603913592 0.0016217275241752534 0 -0.0079962200325847891 0.0014241874966391217 0 -0.007420457301615716 0.0011338225055307107 0 -0.0075283375259240764 0.0011986514102302456 0 -0.0074751533881517312 0.0012928092071511029 0 -0.007628105252647531 0.0012885273984502589 0 -0.0075283375259240764 0.0011986514102302456 0 -0.0074751533881517312 0.0012928092071511029 0 -0.011724619607534492 0.0011885127084343135 0 -0.01179073722531802 0.001248794885303033 0 -0.011751757934408075 0.0011403061471998988 0 -0.011814469486090424 0.001362181685512499 0 -0.01179073722531802 0.001248794885303033 0 -0.011846576510634857 0.0012327680027956532 0 -0.0086635012931780882 0.0017388306473777211 0 -0.0085457789705234311 0.0019271194173945641 0 -0.0085318548290596024 0.0016747745705222746 0 -0.0071592587147299705 0.0024466979076548131 0 -0.0069304237089690586 0.002334504942621175 0 -0.0071316269282200228 0.0022581503745077048 0 -0.0098435642427284857 0.001942463082052235 0 -0.0077092638360645284 0.0020244563148704856 0 -0.01179073722531802 0.001248794885303033 0 -0.011846576510634857 0.0012327680027956532 0 -0.011751757934408075 0.0011403061471998988 0 -0.0098435642427284857 0.001942463082052235 0 -0.0090776474689134145 0.0017654721131361928 0 -0.0069304237089690586 0.002334504942621175 0 -0.0070246826189473569 0.0021710700824016417 0 -0.0071316269282200228 0.0022581503745077048 0 -0.0069304237089690586 0.002334504942621175 0 -0.0070246826189473569 0.0021710700824016417 0 -0.0068932201792353777 0.0021226121352095296 0 -0.0086635012931780882 0.0017388306473777211 0 -0.0085318548290596024 0.0016747745705222746 0 -0.0085116349520085056 0.0014302029530247709 0 -0.0077092638360645284 0.0020244563148704856 0 -0.0075466983591415829 0.0017094992265337639 0 -0.0070246826189473569 0.0021710700824016417 0 -0.0071316269282200228 0.0022581503745077048 0 -0.0071090908294388988 0.0020778380579584334 0 -0.0075466983591415829 0.0017094992265337639 0 -0.0062759929554564884 0.0019365990424381598 0 -0.0071090908294388988 0.0020778380579584334 0 -0.0070014597427390272 0.0020679129493127121 0 -0.007067781267735905 0.0019858641062625191 0 -0.0070246826189473569 0.0021710700824016417 0 -0.0071090908294388988 0.0020778380579584334 0 -0.0070014597427390272 0.0020679129493127121 0 -0.0070246826189473569 0.0021710700824016417 0 -0.0070014597427390272 0.0020679129493127121 0 -0.0068932201792353777 0.0021226121352095296 0 -0.007628105252647531 0.0012885273984502589 0 -0.0074751533881517312 0.0012928092071511029 0 -0.0075079824591828704 0.0014629975688114705 0 -0.0073451965823786618 0.0013861763165348179 0 -0.0074751533881517312 0.0012928092071511029 0 -0.0075079824591828704 0.0014629975688114705 0 -0.0079962200325847891 0.0014241874966391217 0 -0.0075466983591415829 0.0017094992265337639 0 -0.007628105252647531 0.0012885273984502589 0 -0.007674474047553748 0.0014831197056173375 0 -0.0075079824591828704 0.0014629975688114705 0 -0.0052771037145123451 0.0024193952564241184 0 -0.0062759929554564884 0.0019365990424381598 0 -0.007674474047553748 0.0014831197056173375 0 -0.0075079824591828704 0.0014629975688114705 0 -0.0076683308658597972 0.0015415091720576209 0 -0.0033184925870491178 0.0033077882567690898 0 -0.0032998130738185376 0.0032866188308284098 0 -0.0033236872256735151 0.0032857919609081752 0 -0.0033184925870491178 0.0033077882567690898 0 -0.0032803022825264772 0.0032858890052552452 0 -0.0032890133707313067 0.003288324661348888 0 -0.0033184925870491178 0.0033077882567690898 0 -0.0032998130738185376 0.0032866188308284098 0 -0.0032803022825264772 0.0032858890052552452 0 -0.0032998130738185376 0.0032866188308284098 0 -0.0032803022825264772 0.0032858890052552452 0 -0.0032786462099004573 0.0032800034682322846 0 -0.0032803022825264772 0.0032858890052552452 0 -0.0032668582092193693 0.0032833426669887367 0 -0.0032595489721410258 0.0032807719807197945 0 -0.0032803022825264772 0.0032858890052552452 0 -0.0032786462099004573 0.0032800034682322846 0 -0.0032668582092193693 0.0032833426669887367 0 -0.0032668582092193693 0.0032833426669887367 0 -0.0032525420302007501 0.003285705238658045 0 -0.0032597652086033251 0.0032752862964373674 0 -0.0032786462099004573 0.0032800034682322846 0 -0.0032668582092193693 0.0032833426669887367 0 -0.0032597652086033251 0.0032752862964373674 0 -0.0032525420302007501 0.003285705238658045 0 -0.0032597652086033251 0.0032752862964373674 0 -0.0032338019775218323 0.0032758770166594407 0 -0.0032786462099004573 0.0032800034682322846 0 -0.0032597652086033251 0.0032752862964373674 0 -0.0032859664227797803 0.0032553782072394987 0 -0.0032786462099004573 0.0032800034682322846 0 -0.003303921762378724 0.0032712765623168993 0 -0.0032859664227797803 0.0032553782072394987 0 -0.0032998130738185376 0.0032866188308284098 0 -0.003303921762378724 0.0032712765623168993 0 -0.0033236872256735151 0.0032857919609081752 0 -0.0032998130738185376 0.0032866188308284098 0 -0.0032786462099004573 0.0032800034682322846 0 -0.003303921762378724 0.0032712765623168993 0 -0.0068671352714960998 0.0019291504328545208 0 -0.0068733927105672889 0.0019348310174667359 0 -0.0068396845759911718 0.0019272489334668027 0 -0.0067802248010071058 0.001884149456323393 0 -0.0067919808962505794 0.0019170781115131577 0 -0.0070014597427390272 0.0020679129493127121 0 -0.0068396845759911718 0.0019272489334668027 0 -0.007067781267735905 0.0019858641062625191 0 -0.0070014597427390272 0.0020679129493127121 0 -0.0068932201792353777 0.0021226121352095296 0 -0.0068396845759911718 0.0019272489334668027 0 -0.0032803022825264772 0.0032858890052552452 0 -0.0032890133707313067 0.003288324661348888 0 -0.0032595489721410258 0.0032807719807197945 0 -0.0062759929554564884 0.0019365990424381598 0 -0.004161707748908592 0.0031861504785674912 0 -0.0068733927105672889 0.0019348310174667359 0 -0.0068030099001323459 0.0018914856001978277 0 -0.0067776313295540456 0.0018921624509029456 0 -0.00676606141777322 0.0018881068937086074 0 -0.0067919808962505794 0.0019170781115131577 0 -0.0070680925647219053 0.001852390955717905 0 -0.0070068770592136894 0.0017027474931563856 0 -0.0070662575228676262 0.0017292175519516048 0 -0.0068733927105672889 0.0019348310174667359 0 -0.0062759929554564884 0.0019365990424381598 0 -0.0075466983591415829 0.0017094992265337639 0 -0.0068733927105672889 0.0019348310174667359 0 -0.004161707748908592 0.0031861504785674912 0 -0.0049270081724421631 0.0026332632690701276 0 -0.00676606141777322 0.0018881068937086074 0 -0.0067621502619742832 0.0019437420042658527 0 -0.0067919808962505794 0.0019170781115131577 0 -0.0067621502619742832 0.0019437420042658527 0 -0.0067919808962505794 0.0019170781115131577 0 -0.0068147061412003216 0.0019118053511327647 0 -0.0032668582092193693 0.0032833426669887367 0 -0.0032525420302007501 0.003285705238658045 0 -0.0032595489721410258 0.0032807719807197945 0 -0.0035850296769076146 0.003165070141677329 0 -0.004161707748908592 0.0031861504785674912 0 -0.0032525420302007501 0.003285705238658045 0 -0.0032243029382264662 0.0032903002650883869 0 -0.0032338019775218323 0.0032758770166594407 0 -0.0068396845759911718 0.0019272489334668027 0 -0.0067919808962505794 0.0019170781115131577 0 -0.0068147061412003216 0.0019118053511327647 0 -0.0029300239198360506 0.0034026677998404858 0 -0.0030471614073221136 0.0032790671224408497 0 -0.0027251161932373745 0.003155634136866156 0 -0.0032009188525518434 0.0034008134205403676 0 -0.0029300239198360506 0.0034026677998404858 0 -0.0030471614073221136 0.0032790671224408497 0 -0.0030471614073221136 0.0032790671224408497 0 -0.0031263783444632678 0.0031362073945196919 0 -0.0027251161932373745 0.003155634136866156 0 -0.0031934233927049592 0.0032817101577177813 0 -0.0031263783444632678 0.0031362073945196919 0 -0.003240892424569145 0.0032401901541635899 0 -0.0030471614073221136 0.0032790671224408497 0 -0.0031934233927049592 0.0032817101577177813 0 -0.0031263783444632678 0.0031362073945196919 0 -0.0032009188525518434 0.0034008134205403676 0 -0.0030471614073221136 0.0032790671224408497 0 -0.0031934233927049592 0.0032817101577177813 0 -0.004161707748908592 0.0031861504785674912 0 -0.0036957149833778445 0.0032991345033942052 0 -0.0032243029382264662 0.0032903002650883869 0 -0.0031934233927049592 0.0032817101577177813 0 -0.0032338019775218323 0.0032758770166594407 0 0.0012941372812404672 0.0030681735036136022 0 0.00122025343187477 0.002819584214999719 0 0.0015685365049674777 0.0028467348879427246 0 0.0012941372812404672 0.0030681735036136022 0 0.00067579588179120307 0.0030270801315304776 0 0.00122025343187477 0.002819584214999719 0 0.0012941372812404672 0.0030681735036136022 0 0.0015685365049674777 0.0028467348879427246 0 0.001716678308657162 0.0031399552606404635 0 -0.00086992357304034064 0.0031129496425511775 0 -0.00071603205694359038 0.0031309652091212801 0 -0.003303921762378724 0.0032712765623168993 0 -0.0032859664227797803 0.0032553782072394987 0 -0.0033120322382711492 0.0032392199231078647 0 -0.0032859664227797803 0.0032553782072394987 0 -0.0032678442802023828 0.0031844046544391787 0 -0.0033120322382711492 0.0032392199231078647 0 -0.0032597652086033251 0.0032752862964373674 0 -0.0032859664227797803 0.0032553782072394987 0 -0.003240892424569145 0.0032401901541635899 0 -0.0032859664227797803 0.0032553782072394987 0 -0.003240892424569145 0.0032401901541635899 0 -0.0032678442802023828 0.0031844046544391787 0 -0.0032597652086033251 0.0032752862964373674 0 -0.0032338019775218323 0.0032758770166594407 0 -0.003240892424569145 0.0032401901541635899 0 -0.0031934233927049592 0.0032817101577177813 0 -0.0032338019775218323 0.0032758770166594407 0 -0.003240892424569145 0.0032401901541635899 0 -0.0031263783444632678 0.0031362073945196919 0 -0.003240892424569145 0.0032401901541635899 0 -0.0032678442802023828 0.0031844046544391787 0 -0.00086992357304034064 0.0031129496425511775 0 -0.0013014657967986367 0.0031037507738126404 0 -0.0032678442802023828 0.0031844046544391787 0 -0.0033120322382711492 0.0032392199231078647 0 -0.003309147855971984 0.0032001319889711946 0 -0.0013014657967986367 0.0031037507738126404 0 -0.0019351766952343614 0.0029491434462141568 0 0.00067579588179120307 0.0030270801315304776 0 0.00033701860346965756 0.0024450232105608844 0 -0.00046688826724353984 0.0027894723858863167 0 0.00033701860346965756 0.0024450232105608844 0 0.00036425890454267504 0.0017695480174984952 0 0.00088611692012187848 0.0020803865073454478 0 0.00033701860346965756 0.0024450232105608844 0 0.00036425890454267504 0.0017695480174984952 0 -0.00056900657091914339 0.0018809712828280498 0 0.0010101744372009425 0.0016944443973725112 0 0.001803273799913186 0.0015688849055363471 0 0.00036425890454267504 0.0017695480174984952 0 0.00088611692012187848 0.0020803865073454478 0 0.0014053592750591299 0.0016010548209504554 0 0.00033701860346965756 0.0024450232105608844 0 0.00088611692012187848 0.0020803865073454478 0 0.00095260905407345772 0.0027361871382313909 0 0.00067579588179120307 0.0030270801315304776 0 0.00095260905407345772 0.0027361871382313909 0 0.00122025343187477 0.002819584214999719 0 0.00067579588179120307 0.0030270801315304776 0 0.00033701860346965756 0.0024450232105608844 0 0.00095260905407345772 0.0027361871382313909 0 0.00088611692012187848 0.0020803865073454478 0 0.00095260905407345772 0.0027361871382313909 0 0.0022058790621742336 0.0024267982125802624 0 0.00095260905407345772 0.0027361871382313909 0 0.00122025343187477 0.002819584214999719 0 0.0013938321925624833 0.0026346001682602022 0 0.0011099051609469441 0.0026948063796174097 0 0.0015550513697828059 0.0026278552996857238 0 0.0013938321925624833 0.0026346001682602022 0 0.0015685365049674777 0.0028467348879427246 0 0.001782821807874635 0.0025247270745060719 0 0.00122025343187477 0.002819584214999719 0 0.0013938321925624833 0.0026346001682602022 0 0.0015685365049674777 0.0028467348879427246 0 0.0015550513697828059 0.0026278552996857238 0 0.0035554820824180411 0.0016984182351159334 0 0.0022058790621742336 0.0024267982125802624 0 0.0026174106123342013 0.0014914877733512558 0 0.0033738868626770552 0.0020358963562920472 0 0.0022058790621742336 0.0024267982125802624 0 0.0014053592750591299 0.0016010548209504554 0 0.0026174106123342013 0.0014914877733512558 0 0.00088611692012187848 0.0020803865073454478 0 0.0022058790621742336 0.0024267982125802624 0 0.0014053592750591299 0.0016010548209504554 0 0.001803273799913186 0.0015688849055363471 0 0.0025547558432816291 0.0014933096140341041 0 0.0021685520696761973 0.0015250617558477879 0 0.0023369548232459363 0.0013622351883264144 0 0.0026174106123342013 0.0014914877733512558 0 0.0023369548232459363 0.0013622351883264144 0 0.0021685159000362684 0.0011266409717694483 0 0.0024668886325076825 0.0011516671796292272 0 0.0023369548232459363 0.0013622351883264144 0 0.0025620025948200164 0.0013256843085588477 0 0.0024668886325076825 0.0011516671796292272 0 0.0026174106123342013 0.0014914877733512558 0 0.0028517307851862184 0.0011519562027986654 0 0.0033738868626770552 0.0020358963562920472 0 0.0026174106123342013 0.0014914877733512558 0 0.0025620025948200164 0.0013256843085588477 0 0.0028517307851862184 0.0011519562027986654 0 0.0023369548232459363 0.0013622351883264144 0 0.0026174106123342013 0.0014914877733512558 0 0.0025620025948200164 0.0013256843085588477 0 0.0025620025948200164 0.0013256843085588477 0 0.0027544023696354993 0.0012747818143645142 0 0.0024668886325076825 0.0011516671796292272 0 0.0026310784218235828 0.0014154716579682998 0 0.004456374475316111 0.0010395610408371961 0 0.0062370810887541787 0.00098513909673903811 0 0.0060225821607557718 0.00056680049754528601 0 0.0065667076381536512 0.00063155984556989531 0 0.004456374475316111 0.0010395610408371961 0 0.0042974370767715391 0.00061833779476841465 0 0.0027544023696354993 0.0012747818143645142 0 0.0026177988143309809 0.00098671840622262122 0 0.0024668886325076825 0.0011516671796292272 0 0.0042974370767715391 0.00061833779476841465 0 0.0062866127880869607 0.00048967903556812096 0 0.0026177988143309809 0.00098671840622262122 0 0.0024668886325076825 0.0011516671796292272 0 0.0022752373775684542 0.00089654182693664909 0 0.0026177988143309809 0.00098671840622262122 0 0.0022752373775684542 0.00089654182693664909 0 0.0024821665049589102 0.00068387692995652101 0 0.0021685159000362684 0.0011266409717694483 0 0.0024668886325076825 0.0011516671796292272 0 0.0022752373775684542 0.00089654182693664909 0 0.0021685159000362684 0.0011266409717694483 0 0.0022752373775684542 0.00089654182693664909 0 0.0018512203103255556 0.00092893821845925083 0 0.0021685159000362684 0.0011266409717694483 0 0.0018512203103255556 0.00092893821845925083 0 0.0019535368940254128 0.0012859592621847337 0 0.0018512203103255556 0.00092893821845925083 0 0.0014125453695139143 0.0012656335444740619 0 0.0013588685650990772 0.00079736260230701939 0 0.0018512203103255556 0.00092893821845925083 0 0.0019535368940254128 0.0012859592621847337 0 0.0014125453695139143 0.0012656335444740619 0 0.0016639966244731419 0.0016168121670625838 0 0.0019535368940254128 0.0012859592621847337 0 0.0014125453695139143 0.0012656335444740619 0 0.0021685520696761973 0.0015250617558477879 0 0.0023369548232459363 0.0013622351883264144 0 0.0019535368940254128 0.0012859592621847337 0 0.0016639966244731419 0.0016168121670625838 0 0.0021685520696761973 0.0015250617558477879 0 0.0019535368940254128 0.0012859592621847337 0 0.0023369548232459363 0.0013622351883264144 0 0.0021685159000362684 0.0011266409717694483 0 0.0019535368940254128 0.0012859592621847337 0 0.0061946287231035724 0.00094042909392703163 0 0.0063114367441401394 0.00019358151089154068 0 0.0054583670220610869 0.00042890916070413413 0 0.0061946287231035724 0.00094042909392703163 0 0.0054583670220610869 0.00042890916070413413 0 0.0055857120135393828 0.0011382796009928337 0 0.0061946287231035724 0.00094042909392703163 0 0.0068088450974603662 0.00080432536182556045 0 0.0063114367441401394 0.00019358151089154068 0 0.0074607675901951264 0.00034352802435044078 0 0.0080794079785281997 0.00015442138562298774 0 0.0067469600692837729 0.00033096620768743997 0 0.0071453399080122718 0.00043254069497699623 0 0.0070897857843419234 0.0002283865457302372 0 0.0074607675901951264 0.00034352802435044078 0 0.0067306264892525438 0.00035850405564205872 0 0.0068088450974603662 0.00080432536182556045 0 0.0063114367441401394 0.00019358151089154068 0 0.0071453399080122718 0.00043254069497699623 0 0.0074607675901951264 0.00034352802435044078 0 0.0063429627099648687 0.00056275736891927988 0 0.0077514832954583279 0.00054870821083618246 0 0.0071075119392420465 0.00041862766927836393 0 0.0070014970564739225 0.00076893788515808911 0 0.009103327995083817 0.00010729668085261026 0 0.00932256829849612 0.00020071591297610996 0 0.009179043138899683 0.000270957746884231 0 0.0074607675901951264 0.00034352802435044078 0 0.0083491177601591072 0.00032451024867274198 0 0.0071075119392420465 0.00041862766927836393 0 0.0070014970564739225 0.00076893788515808911 0 0.0065667076381536512 0.00063155984556989531 0 0.0062370810887541787 0.00098513909673903811 0 0.0070014970564739225 0.00076893788515808911 0 0.0065667076381536512 0.00063155984556989531 0 0.0060225821607557718 0.00056680049754528601 0 0.0065667076381536512 0.00063155984556989531 0 0.0064563164381202911 0.00028585851304052895 0 0.0083491177601591072 0.00032451024867274198 0 0.0082199260693916181 0.00029625138759539228 0 0.0071075119392420465 0.00041862766927836393 0 0.0065667076381536512 0.00063155984556989531 0 0.0064563164381202911 0.00028585851304052895 0 0.004456374475316111 0.0010395610408371961 0 0.0063429627099648687 0.00056275736891927988 0 0.004603545826765987 0.00066818740154429368 0 0.0054583670220610869 0.00042890916070413413 0 0.0051522784537800939 0.00089383484442629336 0 0.004603545826765987 0.00066818740154429368 0 0.0051522784537800939 0.00089383484442629336 0 0.0049587792579516296 0.0013405849977896041 0 0.0054583670220610869 0.00042890916070413413 0 0.0051522784537800939 0.00089383484442629336 0 0.0055857120135393828 0.0011382796009928337 0 0.0051522784537800939 0.00089383484442629336 0 0.0055857120135393828 0.0011382796009928337 0 0.0049587792579516296 0.0013405849977896041 0 0.005786937286063081 0.0010531146574902616 0 0.0035554820824180411 0.0016984182351159334 0 0.0054609449110013157 0.0011230706451125275 0 0.0047612294682206555 0.0013405179423790089 0 0.0056355134958249046 0.0016929135792820896 0 0.004456374475316111 0.0010395610408371961 0 0.0035554820824180411 0.0016984182351159334 0 0.0035554820824180411 0.0016984182351159334 0 0.0039290940362233075 0.0026572464945096045 0 0.0015685365049674777 0.0028467348879427246 0 0.001782821807874635 0.0025247270745060719 0 0.0019518689752519385 0.0028956884431139748 0 0.0047612294682206555 0.0013405179423790089 0 0.0056355134958249046 0.0016929135792820896 0 0.0052066607892317937 0.0021659989494923768 0 0.005859850432089633 0.0020549527101771672 0 0.0056355134958249046 0.0016929135792820896 0 0.0052066607892317937 0.0021659989494923768 0 0.0056355134958249046 0.0016929135792820896 0 0.0060346555873018095 0.0013596475482920858 0 0.006253248772041759 0.0017497943355335227 0 0.005859850432089633 0.0020549527101771672 0 0.0056355134958249046 0.0016929135792820896 0 0.006253248772041759 0.0017497943355335227 0 0.005859850432089633 0.0020549527101771672 0 0.006253248772041759 0.0017497943355335227 0 0.0063116682364606335 0.0021762355313122497 0 0.0054609449110013157 0.0011230706451125275 0 0.0056355134958249046 0.0016929135792820896 0 0.0060346555873018095 0.0013596475482920858 0 0.0060329331236694539 0.00098496646950652468 0 0.005786937286063081 0.0010531146574902616 0 0.0061946287231035724 0.00094042909392703163 0 0.0054609449110013157 0.0011230706451125275 0 0.0060346555873018095 0.0013596475482920858 0 0.0061946287231035724 0.00094042909392703163 0 0.0068088450974603662 0.00080432536182556045 0 0.006592438426216555 0.0012835925002877759 0 0.0061946287231035724 0.00094042909392703163 0 0.0060346555873018095 0.0013596475482920858 0 0.006592438426216555 0.0012835925002877759 0 0.0060346555873018095 0.0013596475482920858 0 0.006592438426216555 0.0012835925002877759 0 0.006253248772041759 0.0017497943355335227 0 0.006253248772041759 0.0017497943355335227 0 0.0063116682364606335 0.0021762355313122497 0 0.006976419906467652 0.0017036551677899383 0 0.006592438426216555 0.0012835925002877759 0 0.006253248772041759 0.0017497943355335227 0 0.006976419906467652 0.0017036551677899383 0 0.0066061475837143032 0.0024216551484421583 0 0.0063116682364606335 0.0021762355313122497 0 0.006976419906467652 0.0017036551677899383 0 0.0065404184809102414 0.0019668236417856471 0 0.0065732228422619695 0.0021339328447067397 0 0.0067571940987097619 0.0019742154176503146 0 0.0066061475837143032 0.0024216551484421583 0 0.006213923351229232 0.0025983840814650465 0 0.0063116682364606335 0.0021762355313122497 0 0.005859850432089633 0.0020549527101771672 0 0.0063116682364606335 0.0021762355313122497 0 0.0059008280236783808 0.0024854402376272497 0 0.005859850432089633 0.0020549527101771672 0 0.0059008280236783808 0.0024854402376272497 0 0.0052066607892317937 0.0021659989494923768 0 0.006213923351229232 0.0025983840814650465 0 0.0059008280236783808 0.0024854402376272497 0 0.0060535715152838379 0.002788084409117886 0 0.006213923351229232 0.0025983840814650465 0 0.0063116682364606335 0.0021762355313122497 0 0.0059008280236783808 0.0024854402376272497 0 0.0060535715152838379 0.002788084409117886 0 0.005612488038526469 0.0029633069894950794 0 0.0059281202282092625 0.0030452067860431255 0 0.0059008280236783808 0.0024854402376272497 0 0.0060535715152838379 0.002788084409117886 0 0.005612488038526469 0.0029633069894950794 0 -0.0004732722631486338 0.0018987542027739919 0 -2.6314098745027653e-05 0.002733428516276365 0 0.0018448816289577928 0.0024970505757479743 0 0.00096353350500096165 0.0032234019734951264 0 0.0028230709663581936 0.0025394744373995271 0 0.00096353350500096165 0.0032234019734951264 0 -0.0020587211574883998 0.0022687121874006276 0 -0.0020587211574883998 0.0022687121874006276 0 0.0028230709663581936 0.0025394744373995271 0 0.0028230709663581936 0.0025394744373995271 0 0.0059318031564041356 0.0025725619472872032 0 0.0060535715152838379 0.002788084409117886 0 0.0059281202282092625 0.0030452067860431255 0 0.0062108889383495746 0.00301524085569907 0 0.0058122368072405168 0.0030538928910097004 0 0.0062038952545902378 0.0031334394856194431 0 0.0062108889383495746 0.00301524085569907 0 0.0028230709663581936 0.0025394744373995271 0 0.0024397249748878054 0.0017589833795427741 0 0.0066061475837143032 0.0024216551484421583 0 0.006213923351229232 0.0025983840814650465 0 0.0062108889383495746 0.00301524085569907 0 0.0066061475837143032 0.0024216551484421583 0 0.0062038952545902378 0.0031334394856194431 0 0.0062108889383495746 0.00301524085569907 0 0.0064158993953228986 0.0022390924063179379 0 0.0065732228422619695 0.0021339328447067397 0 0.0065510278263364481 0.0021843214787884168 0 0.0069006664034950279 0.0021533104177348106 0 0.0024397249748878054 0.0017589833795427741 0 0.0065404184809102414 0.0019668236417856471 0 0.0064158993953228986 0.0022390924063179379 0 0.0065732228422619695 0.0021339328447067397 0 0.006213923351229232 0.0025983840814650465 0 0.0060535715152838379 0.002788084409117886 0 0.0062108889383495746 0.00301524085569907 0 0.0015685365049674777 0.0028467348879427246 0 0.0019518689752519385 0.0028956884431139748 0 0.001716678308657162 0.0031399552606404635 0 0.0059008280236783808 0.0024854402376272497 0 0.005612488038526469 0.0029633069894950794 0 0.0052066607892317937 0.0021659989494923768 0 0.00096353350500096165 0.0032234019734951264 0 0.0039290940362233075 0.0026572464945096045 0 0.0021102576681533542 0.0032362023746657035 0 0.0019518689752519385 0.0028956884431139748 0 0.001716678308657162 0.0031399552606404635 0 -0.0021600966826572652 0.0032605705679689084 0 -0.0027251161932373745 0.003155634136866156 0 -0.0025658399062194076 0.0033895417624677472 0 -0.0020587211574883998 0.0022687121874006276 0 -0.0050644904612972266 0.0026760261697147112 0 0.00096353350500096165 0.0032234019734951264 0 -0.00071603205694359038 0.0031309652091212801 0 -0.0021600966826572652 0.0032605705679689084 0 -0.0021230801425614378 0.0033289640811071633 0 -0.0025658399062194076 0.0033895417624677472 0 -0.0049270081724421631 0.0026332632690701276 0 -0.0050644904612972266 0.0026760261697147112 0 -0.0029300239198360506 0.0034026677998404858 0 -0.0027251161932373745 0.003155634136866156 0 -0.0025658399062194076 0.0033895417624677472 0 -0.0068396845759911718 0.0019272489334668027 0 -0.006736737411859344 0.001855935997295291 0 -0.0067263217602744167 0.0019578342292954328 0 -0.0068396845759911718 0.0019272489334668027 0 -0.0068147061412003216 0.0019118053511327647 0 -0.006736737411859344 0.001855935997295291 0 -0.0065867126056720253 0.0018240331666645314 0 -0.006736737411859344 0.001855935997295291 0 -0.0066463682917082658 0.0019148188307678282 0 -0.006736737411859344 0.001855935997295291 0 -0.0066463682917082658 0.0019148188307678282 0 -0.0067263217602744167 0.0019578342292954328 0 -0.0066390942415821119 0.0020550884306205545 0 -0.0066463682917082658 0.0019148188307678282 0 -0.0067263217602744167 0.0019578342292954328 0 -0.0066390942415821119 0.0020550884306205545 0 -0.0067667964092578787 0.0020539114263149303 0 -0.0067263217602744167 0.0019578342292954328 0 -0.0067667964092578787 0.0020539114263149303 0 -0.0068932201792353777 0.0021226121352095296 0 -0.0068396845759911718 0.0019272489334668027 0 -0.0067667964092578787 0.0020539114263149303 0 -0.0068396845759911718 0.0019272489334668027 0 -0.0067263217602744167 0.0019578342292954328 0 -0.002519935054277373 -1.0127874234289155e-05 0 -0.0025671765775725258 -0.00011048269967884078 0 -0.0025958716283913334 3.0726967178592406e-05 0 0.0024397249748878054 0.0017589833795427741 0 0.00081080242413338565 0.00038460329556191589 0 -0.0034504223224054906 0.00023650018207762552 0 0.00081080242413338565 0.00038460329556191589 0 -0.0024816480121260137 6.7898206638745577e-05 0 -0.002519935054277373 -1.0127874234289155e-05 0 -0.0025958716283913334 3.0726967178592406e-05 0 -0.002519935054277373 -1.0127874234289155e-05 0 -0.0024393414422347053 -3.6322918320607392e-05 0 -0.0025671765775725258 -0.00011048269967884078 0 -0.0024816480121260137 6.7898206638745577e-05 0 -0.002519935054277373 -1.0127874234289155e-05 0 -0.0024393414422347053 -3.6322918320607392e-05 0 -0.0012172819637735967 0.0017553076284003274 0 -0.0012311618634533695 0.0017559461468166675 0 -0.0012602283426188475 0.0017062878560979871 0 0.0024397249748878054 0.0017589833795427741 0 -0.0057659153507871961 0.00076432533741622251 0 -0.0020587211574883998 0.0022687121874006276 0 -0.0057659153507871961 0.00076432533741622251 0 -0.0065867126056720253 0.0018240331666645314 0 -0.0066463682917082658 0.0019148188307678282 0 -0.0065491648078433414 0.001916954890534803 0 -0.0012311618634533695 0.0017559461468166675 0 -0.0012468247149924061 0.0017478280323281832 0 -0.0012602283426188475 0.0017062878560979871 0 -0.0090755540336981255 0.0012450101493172092 0 -0.0057659153507871961 0.00076432533741622251 0 -0.010854999976455438 0.00014977715053715221 0 -0.01111231783401922 0.00013325923624058565 0 -0.010815374481238035 -0.00039797268565978087 0 -0.0066390942415821119 0.0020550884306205545 0 -0.0066463682917082658 0.0019148188307678282 0 -0.0065491648078433414 0.001916954890534803 0 -0.0026398895202041769 -0.00035021213080219799 0 -0.0025671765775725258 -0.00011048269967884078 0 -0.0027410821696836653 -0.00012205244594788176 0 -0.0026398895202041769 -0.00035021213080219799 0 -0.0024393414422347053 -3.6322918320607392e-05 0 -0.0025671765775725258 -0.00011048269967884078 0 -0.0066135112534253934 -0.0003270410798198316 0 -0.0057659153507871961 0.00076432533741622251 0 -0.010485671552215204 0.00022410913424550835 0 -0.010854999976455438 0.00014977715053715221 0 -0.010815374481238035 -0.00039797268565978087 0 -0.0026398895202041769 -0.00035021213080219799 0 -0.0027410821696836653 -0.00012205244594788176 0 -0.0028893012973175642 -0.00024284278060207937 0 -0.0027410821696836653 -0.00012205244594788176 0 -0.0028805904977135949 -5.9291348313699124e-05 0 -0.0028893012973175642 -0.00024284278060207937 0 -0.0027410821696836653 -0.00012205244594788176 0 -0.0027453655145153037 6.9154392368736808e-05 0 -0.0028805904977135949 -5.9291348313699124e-05 0 -0.0025671765775725258 -0.00011048269967884078 0 -0.0027410821696836653 -0.00012205244594788176 0 -0.0027453655145153037 6.9154392368736808e-05 0 0.0012909410612932375 0.00029202096625406215 0 0.0016215569061531884 0.00037750860785061325 0 0.0016255032874193554 0.00019652090490297527 0 0.00081080242413338565 0.00038460329556191589 0 -0.0018723610825861928 -5.3024269441210939e-05 0 -0.0027453655145153037 6.9154392368736808e-05 0 -0.0028805904977135949 -5.9291348313699124e-05 0 -0.0030368373210406447 -1.4174982218295501e-05 0 -0.0032594874322388412 -0.00010771291304753557 0 -0.0018723610825861928 -5.3024269441210939e-05 0 -0.0028805904977135949 -5.9291348313699124e-05 0 -0.0028893012973175642 -0.00024284278060207937 0 -0.0030368373210406447 -1.4174982218295501e-05 0 -0.003153836057307974 -0.00027968824260463798 0 -0.0028893012973175642 -0.00024284278060207937 0 -0.0030826167089728338 -3.6871575305097831e-05 0 -0.003153836057307974 -0.00027968824260463798 0 -0.003189907178300728 -0.00013611700188066264 0 -0.0030826167089728338 -3.6871575305097831e-05 0 -0.003153836057307974 -0.00027968824260463798 0 -0.003189907178300728 -0.00013611700188066264 0 -0.0032611936623600677 -0.00022373932494615593 0 -0.0031925786900512481 -0.00043343031853110368 0 -0.0033821969826708298 -0.00013534366574429512 0 -0.003511755201767846 -0.00029116610983187779 0 -0.0034057528191656105 -0.00041338198514637631 0 -0.0033278275980380572 -0.0001302988355864518 0 -0.0033736108391109738 -0.00041042287597340717 0 -0.0032611936623600677 -0.00022373932494615593 0 -0.0033278275980380572 -0.0001302988355864518 0 -0.003189907178300728 -0.00013611700188066264 0 -0.0032749531041364349 -0.00015021365914633173 0 -0.0033217189581559409 -0.00011352503671255125 0 -0.0032611936623600677 -0.00022373932494615593 0 -0.0032749531041364349 -0.00015021365914633173 0 -0.0033278275980380572 -0.0001302988355864518 0 -0.003189907178300728 -0.00013611700188066264 0 -0.0032611936623600677 -0.00022373932494615593 0 -0.0032749531041364349 -0.00015021365914633173 0 -0.0032749531041364349 -0.00015021365914633173 0 -0.0033278275980380572 -0.0001302988355864518 0 -0.0033217189581559409 -0.00011352503671255125 0 -0.0033278275980380572 -0.0001302988355864518 0 -0.0033839780449742628 -0.00010209525320870055 0 -0.0034625671419013606 -0.00014475778678518968 0 -0.0033278275980380572 -0.0001302988355864518 0 -0.0033217189581559409 -0.00011352503671255125 0 -0.0033839780449742628 -0.00010209525320870055 0 -0.0033217189581559409 -0.00011352503671255125 0 -0.0034260280888285914 -1.0772821020820228e-05 0 -0.0028045886666090538 0.00010194883369452858 0 0.00022681412316905613 -0.00053373835924139083 0 0.00031995096293163433 -0.00046663793497169035 0 0.00041812363106488308 -0.00048491099829748202 0 -0.0016544028087545812 -0.00027867116605455084 0 -0.00090710210144337585 -0.00020368346299405628 0 -0.0033839780449742628 -0.00010209525320870055 0 -0.0034260280888285914 -1.0772821020820228e-05 0 -0.0034625671419013606 -0.00014475778678518968 0 -0.0033217189581559409 -0.00011352503671255125 0 -0.0033839780449742628 -0.00010209525320870055 0 -0.0034260280888285914 -1.0772821020820228e-05 0 0.00022681412316905613 -0.00053373835924139083 0 0.00031995096293163433 -0.00046663793497169035 0 0.00028349843993954267 -0.00045053698444448749 0 0.00022681412316905613 -0.00053373835924139083 0 0.00028349843993954267 -0.00045053698444448749 0 0.00022467217894312424 -0.00046132072286199816 0 -0.003189907178300728 -0.00013611700188066264 0 -0.0033217189581559409 -0.00011352503671255125 0 -0.0030826167089728338 -3.6871575305097831e-05 0 -0.0033217189581559409 -0.00011352503671255125 0 -0.0027445917498820347 3.2655814636816797e-05 0 -0.0028045886666090538 0.00010194883369452858 0 -0.0037078283659198307 -0.00014968277915225465 0 -0.0018723610825861928 -5.3024269441210939e-05 0 -0.0018723610825861928 -5.3024269441210939e-05 0 -0.00090710210144337585 -0.00020368346299405628 0 -0.00090710210144337585 -0.00020368346299405628 0 0.0010976061848036931 -0.00022634949842200274 0 0.00031995096293163433 -0.00046663793497169035 0 0.00041812363106488308 -0.00048491099829748202 0 0.00035280816657700482 -0.00039763463144487833 0 0.0016215569061531884 0.00037750860785061325 0 0.001656440549822768 0.00034072041901701925 0 0.0016255032874193554 0.00019652090490297527 0 0.0016255032874193554 0.00019652090490297527 0 0.0017719691196430042 5.135356926793873e-06 0 0.0015588493594690734 3.5289421926043847e-05 0 0.001656440549822768 0.00034072041901701925 0 0.0016255032874193554 0.00019652090490297527 0 0.0018102179929279489 0.00017716164964058347 0 0.0016255032874193554 0.00019652090490297527 0 0.0018102179929279489 0.00017716164964058347 0 0.0017719691196430042 5.135356926793873e-06 0 0.0018102179929279489 0.00017716164964058347 0 0.0019864823265869852 -2.321817932090348e-05 0 0.0017719691196430042 5.135356926793873e-06 0 0.00028349843993954267 -0.00045053698444448749 0 0.00022467217894312424 -0.00046132072286199816 0 0.00024581837223331912 -0.00039275173519323544 0 0.00028349843993954267 -0.00045053698444448749 0 0.00035280816657700482 -0.00039763463144487833 0 0.00024581837223331912 -0.00039275173519323544 0 0.00031995096293163433 -0.00046663793497169035 0 0.00028349843993954267 -0.00045053698444448749 0 0.00035280816657700482 -0.00039763463144487833 0 0.0010976061848036931 -0.00022634949842200274 0 0.0019020958524840191 6.8753413432788612e-05 0 0.00024581837223331912 -0.00039275173519323544 0 0.00026200002269061493 -0.00026498836073485813 0 0.00018748964096564953 -0.00034279936669219741 0 0.00035280816657700482 -0.00039763463144487833 0 0.00024581837223331912 -0.00039275173519323544 0 0.00026200002269061493 -0.00026498836073485813 0 0.0045897966299559357 0.00077950590456655144 0 0.0047451025296308454 0.00093320818817298071 0 0.0049217215920609042 0.00074329812759826278 0 0.0019020958524840191 6.8753413432788612e-05 0 0.0032569779006434364 0.00039487957457198255 0 0.0045897966299559357 0.00077950590456655144 0 0.0047451025296308454 0.00093320818817298071 0 0.0043702997852498211 0.0010440715325308141 0 0.0049217215920609042 0.00074329812759826278 0 0.0050297211089145076 0.00093419415257679393 0 0.0052518126789885579 0.00070958020963009813 0 0.0032569779006434364 0.00039487957457198255 0 0.0054477227951838098 0.0013622320012681417 0 0.0047451025296308454 0.00093320818817298071 0 0.0049217215920609042 0.00074329812759826278 0 0.0050297211089145076 0.00093419415257679393 0 0.0074513624324528856 0.002110492195894288 0 0.0070016931849748469 0.001946179387655929 0 0.0073571360909056374 0.0015925013329475585 0 0.0077964897654699645 0.0017432729264970311 0 0.0074513624324528856 0.002110492195894288 0 0.0073571360909056374 0.0015925013329475585 0 0.0064352334893956389 0.0013149259569528965 0 0.0054477227951838098 0.0013622320012681417 0 0.0065732228422619695 0.0021339328447067397 0 0.0074513624324528856 0.002110492195894288 0 0.0070016931849748469 0.001946179387655929 0 0.0065404184809102414 0.0019668236417856471 0 0.0067571940987097619 0.0019742154176503146 0 0.0069213352936083701 0.0013747315093657173 0 0.0067571940987097619 0.0019742154176503146 0 0.0070016931849748469 0.001946179387655929 0 0.0069213352936083701 0.0013747315093657173 0 0.0065732228422619695 0.0021339328447067397 0 0.0067571940987097619 0.0019742154176503146 0 0.0070016931849748469 0.001946179387655929 0 0.0065732228422619695 0.0021339328447067397 0 0.0065510278263364481 0.0021843214787884168 0 0.0065478087416443219 0.0021361776559681122 0 0.0072391571038928236 0.0022876457216800743 0 0.0054477227951838098 0.0013622320012681417 0 0.0012909410612932375 0.00029202096625406215 0 0.0016255032874193554 0.00019652090490297527 0 0.0015588493594690734 3.5289421926043847e-05 0 0.00081080242413338565 0.00038460329556191589 0 0.0054477227951838098 0.0013622320012681417 0 -0.0018879912804823187 -0.00069323520467004377 0 -0.0019345323409448742 -0.00065938637694344616 0 -0.0019081906339717208 -0.00074552505127036461 0 -0.0020911673435047204 -0.00069002054485225713 0 -0.0011729352342960931 -0.00056458690818740685 0 -0.0018879912804823187 -0.00069323520467004377 0 -0.0019212292552897164 -0.00065572254083841493 0 -0.0019345323409448742 -0.00065938637694344616 0 -0.0018879912804823187 -0.00069323520467004377 0 -0.0019212292552897164 -0.00065572254083841493 0 -0.0018919341492111788 -0.00065967064678686669 0 -0.0019212292552897164 -0.00065572254083841493 0 -0.0018919341492111788 -0.00065967064678686669 0 -0.0019005251427903168 -0.00059294847918382797 0 -0.0019212292552897164 -0.00065572254083841493 0 -0.0019368986813148056 -0.00065481821502519745 0 -0.0019005251427903168 -0.00059294847918382797 0 -0.0020220170695019711 -0.00067990022054979847 0 -0.0020911673435047204 -0.00069002054485225713 0 -0.0038062253918666315 -0.00028317662825620037 0 -0.003961890439510893 -0.00013668028672020452 0 -0.0037056350723384843 -9.4190862189302041e-05 0 -0.0020911673435047204 -0.00069002054485225713 0 -0.0018727271377561342 -0.00031559130329370921 0 -0.00037107607983422221 -0.00066737341710845213 0 -3.5945275083894847e-05 -0.00061272834726342753 0 -0.0003360381430889292 -0.00042750447151945531 0 -3.5945275083894847e-05 -0.00061272834726342753 0 -9.4886843188865381e-05 -0.00038716617181597663 0 -0.0003360381430889292 -0.00042750447151945531 0 -3.5945275083894847e-05 -0.00061272834726342753 0 6.6249613894555696e-05 -0.00046810406716582976 0 1.718238253220842e-05 -0.00041364979136534433 0 -3.5945275083894847e-05 -0.00061272834726342753 0 6.6249613894555696e-05 -0.00046810406716582976 0 0.00016157209572260057 -0.00046755370840439363 0 -3.5945275083894847e-05 -0.00061272834726342753 0 1.718238253220842e-05 -0.00041364979136534433 0 -9.4886843188865381e-05 -0.00038716617181597663 0 -0.0038062253918666315 -0.00028317662825620037 0 -0.0037056350723384843 -9.4190862189302041e-05 0 -0.0035967315693685377 -0.0001700422214251829 0 -0.003511755201767846 -0.00029116610983187779 0 -0.0035967315693685377 -0.0001700422214251829 0 -0.0034625671419013606 -0.00014475778678518968 0 -0.0034260280888285914 -1.0772821020820228e-05 0 -0.0035967315693685377 -0.0001700422214251829 0 -0.0034625671419013606 -0.00014475778678518968 0 -0.003511755201767846 -0.00029116610983187779 0 -0.0033278275980380572 -0.0001302988355864518 0 -0.0034625671419013606 -0.00014475778678518968 0 -0.0016544028087545812 -0.00027867116605455084 0 -0.0018727271377561342 -0.00031559130329370921 0 0.00022681412316905613 -0.00053373835924139083 0 -3.5945275083894847e-05 -0.00061272834726342753 0 0.00016157209572260057 -0.00046755370840439363 0 -0.0034260280888285914 -1.0772821020820228e-05 0 -0.0037056350723384843 -9.4190862189302041e-05 0 -0.0035967315693685377 -0.0001700422214251829 0 0.00022681412316905613 -0.00053373835924139083 0 0.00022467217894312424 -0.00046132072286199816 0 0.00016157209572260057 -0.00046755370840439363 0 0.00022467217894312424 -0.00046132072286199816 0 0.00024581837223331912 -0.00039275173519323544 0 0.00018110778588533425 -0.00040146466376268916 0 0.00024581837223331912 -0.00039275173519323544 0 0.00018110778588533425 -0.00040146466376268916 0 0.00018748964096564953 -0.00034279936669219741 0 0.00018110778588533425 -0.00040146466376268916 0 0.00012009406910005 -0.00038261706982328536 0 0.00018748964096564953 -0.00034279936669219741 0 0.00022467217894312424 -0.00046132072286199816 0 0.00016157209572260057 -0.00046755370840439363 0 0.00018110778588533425 -0.00040146466376268916 0 0.00016157209572260057 -0.00046755370840439363 0 0.00018110778588533425 -0.00040146466376268916 0 0.00012009406910005 -0.00038261706982328536 0 6.6249613894555696e-05 -0.00046810406716582976 0 0.00016157209572260057 -0.00046755370840439363 0 0.00012009406910005 -0.00038261706982328536 0 0.00012009406910005 -0.00038261706982328536 0 0.00014902152169822032 -0.00030970155247947364 0 0.00018748964096564953 -0.00034279936669219741 0 0.00012009406910005 -0.00038261706982328536 0 0.00014902152169822032 -0.00030970155247947364 0 8.1183216627198464e-05 -0.00033369656644533803 0 0.00014902152169822032 -0.00030970155247947364 0 9.9002589833560559e-05 -0.00026957219489301084 0 8.1183216627198464e-05 -0.00033369656644533803 0 0.00026200002269061493 -0.00026498836073485813 0 0.00014902152169822032 -0.00030970155247947364 0 0.00018748964096564953 -0.00034279936669219741 0 0.00026200002269061493 -0.00026498836073485813 0 0.00014902152169822032 -0.00030970155247947364 0 9.9002589833560559e-05 -0.00026957219489301084 0 0.00026200002269061493 -0.00026498836073485813 0 9.9002589833560559e-05 -0.00026957219489301084 0 3.7299995199515905e-05 -0.00017648720741796417 0 0.00164699189834986 -0.00039547533885393791 0 3.7299995199515905e-05 -0.00017648720741796417 0 0.0010220751433485374 0.00032764651288955294 0 0.0019020958524840191 6.8753413432788612e-05 0 -0.00033545126267366023 -0.00028210494168707303 0 0.0019020958524840191 6.8753413432788612e-05 0 0.0046858865291228317 0.00054058169087356641 0 9.9002589833560559e-05 -0.00026957219489301084 0 3.7299995199515905e-05 -0.00017648720741796417 0 1.1607283940487592e-05 -0.0002468412651620782 0 9.9002589833560559e-05 -0.00026957219489301084 0 1.1607283940487592e-05 -0.0002468412651620782 0 1.376580870601539e-05 -0.00031177360553825235 0 -3.8317285101672074e-05 -3.00937015206012e-05 0 3.7299995199515905e-05 -0.00017648720741796417 0 0.0010220751433485374 0.00032764651288955294 0 -3.8317285101672074e-05 -3.00937015206012e-05 0 3.7299995199515905e-05 -0.00017648720741796417 0 -0.00011136926170854886 -0.0002643211481178868 0 1.1607283940487592e-05 -0.0002468412651620782 0 1.376580870601539e-05 -0.00031177360553825235 0 -0.00011136926170854886 -0.0002643211481178868 0 3.7299995199515905e-05 -0.00017648720741796417 0 1.1607283940487592e-05 -0.0002468412651620782 0 -0.00011136926170854886 -0.0002643211481178868 0 1.376580870601539e-05 -0.00031177360553825235 0 -9.4886843188865381e-05 -0.00038716617181597663 0 -0.00011136926170854886 -0.0002643211481178868 0 1.376580870601539e-05 -0.00031177360553825235 0 1.718238253220842e-05 -0.00041364979136534433 0 -9.4886843188865381e-05 -0.00038716617181597663 0 1.376580870601539e-05 -0.00031177360553825235 0 8.1183216627198464e-05 -0.00033369656644533803 0 1.718238253220842e-05 -0.00041364979136534433 0 9.9002589833560559e-05 -0.00026957219489301084 0 1.376580870601539e-05 -0.00031177360553825235 0 8.1183216627198464e-05 -0.00033369656644533803 0 0.00012009406910005 -0.00038261706982328536 0 8.1183216627198464e-05 -0.00033369656644533803 0 1.718238253220842e-05 -0.00041364979136534433 0 6.6249613894555696e-05 -0.00046810406716582976 0 0.00012009406910005 -0.00038261706982328536 0 1.718238253220842e-05 -0.00041364979136534433 0 -9.4886843188865381e-05 -0.00038716617181597663 0 -0.00011136926170854886 -0.0002643211481178868 0 -0.0003360381430889292 -0.00042750447151945531 0 -0.00011136926170854886 -0.0002643211481178868 0 -0.00032309738647756317 -0.00016739523041408007 0 -0.0003360381430889292 -0.00042750447151945531 0 -3.8317285101672074e-05 -3.00937015206012e-05 0 -0.00011136926170854886 -0.0002643211481178868 0 -0.00032309738647756317 -0.00016739523041408007 0 0.0019330538051356395 -0.0002650144915847332 0 0.00087681245806161753 -0.00062441748642580734 0 0.00087681245806161753 -0.00062441748642580734 0 0.00024222611706048856 -0.00097678819169444539 0 0.00087681245806161753 -0.00062441748642580734 0 -0.0011729352342960931 -0.00056458690818740685 0 -0.0018850887180732205 -0.00080807511166033083 0 -0.0018639471390142479 -0.00075661587675395045 0 -0.0018169150614039829 -0.0008001072111268959 0 -0.0018850887180732205 -0.00080807511166033083 0 -0.0019081906339717208 -0.00074552505127036461 0 -0.0018639471390142479 -0.00075661587675395045 0 -0.0018879912804823187 -0.00069323520467004377 0 -0.0019081906339717208 -0.00074552505127036461 0 -0.0018639471390142479 -0.00075661587675395045 0 0.0067155452530933014 -0.00071805934283760873 0 0.0060003336902665644 -0.00084928872003244037 0 0.0062284578827107298 -0.00019655780083603587 0 0.0067155452530933014 -0.00071805934283760873 0 0.0067832148339522893 4.3443545133525754e-05 0 0.0062284578827107298 -0.00019655780083603587 0 0.0053178144923254483 -0.00017052611772879728 0 0.0041249546817258408 -0.00094533807587464369 0 0.00087681245806161753 -0.00062441748642580734 0 0.0053178144923254483 -0.00017052611772879728 0 0.0026952282377721419 -0.0010098147454629073 0 0.0027333166064354491 -0.00084075853619687525 0 0.0025301656660483818 -0.00088553361825692198 0 0.0042393307768716377 -0.00041344613064057349 0 0.0031209117773732509 -0.00071681276342455669 0 0.0032396038756950904 0.00044827895523477928 0 0.0042393307768716377 -0.00041344613064057349 0 0.0032396038756950904 0.00044827895523477928 0 0.004685270720725449 0.00068112465703719697 0 0.0053178144923254483 -0.00017052611772879728 0 0.0079557988373757556 0.00040930978579389952 0 0.0053178144923254483 -0.00017052611772879728 0 0.0073067321944791227 0.00083696257765038978 0 0.0085098007419883871 0.00071035125914434576 0 0.0084227419482693928 0.00074496287172355646 0 0.0085407973751713238 0.00066586493075562303 0 0.0085290288728382194 0.00075718513123082607 0 0.0085098007419883871 0.00071035125914434576 0 0.0085698014272620592 0.00065496285523312719 0 0.0085290288728382194 0.00075718513123082607 0 0.0085098007419883871 0.00071035125914434576 0 0.0084227419482693928 0.00074496287172355646 0 0.0084323360107807933 0.00086715522252429791 0 0.0084483459927363821 0.00097945419148828296 0 0.0085407973751713238 0.00066586493075562303 0 0.0073067321944791227 0.00083696257765038978 0 0.0089014006330467698 0.00059824693437385561 0 0.0084323360107807933 0.00086715522252429791 0 0.0083572503375018165 0.00086499499319756153 0 0.0083781995683602454 0.00078397405282385575 0 0.0084323360107807933 0.00086715522252429791 0 0.008422422660351838 0.00098433149170653505 0 0.0083568913372198649 0.00093516501969418732 0 0.0084323360107807933 0.00086715522252429791 0 0.008422422660351838 0.00098433149170653505 0 0.0084483459927363821 0.00097945419148828296 0 0.0074641578200070587 0.00086087567223961086 0 0.0073067321944791227 0.00083696257765038978 0 0.0019330538051356395 -0.0002650144915847332 0 0.0046858865291228317 0.00054058169087356641 0 0.0042393307768716377 -0.00041344613064057349 0 0.004685270720725449 0.00068112465703719697 0 0.0053483344812790944 -0.00010927259324916796 0 0.008422422660351838 0.00098433149170653505 0 0.0084493698518971153 0.00098818316465041646 0 0.00827454453882576 0.0012171178699805572 0 0.0073067321944791227 0.00083696257765038978 0 0.0046858865291228317 0.00054058169087356641 0 0.008422422660351838 0.00098433149170653505 0 0.00827454453882576 0.0012171178699805572 0 0.0082827460531423435 0.0010253312593105869 0 0.00827454453882576 0.0012171178699805572 0 0.0082827460531423435 0.0010253312593105869 0 0.0081700606914018609 0.0011075378347523504 0 0.0082827460531423435 0.0010253312593105869 0 0.0081700606914018609 0.0011075378347523504 0 0.0081960593854741703 0.00096769197179941591 0 0.0082827460531423435 0.0010253312593105869 0 0.0082948885417953849 0.00090876902296390272 0 0.0081960593854741703 0.00096769197179941591 0 0.0082827460531423435 0.0010253312593105869 0 0.0083568913372198649 0.00093516501969418732 0 0.0082948885417953849 0.00090876902296390272 0 0.008422422660351838 0.00098433149170653505 0 0.0082827460531423435 0.0010253312593105869 0 0.0083568913372198649 0.00093516501969418732 0 0.0083568913372198649 0.00093516501969418732 0 0.0083572503375018165 0.00086499499319756153 0 0.0082948885417953849 0.00090876902296390272 0 0.0084323360107807933 0.00086715522252429791 0 0.0083568913372198649 0.00093516501969418732 0 0.0083572503375018165 0.00086499499319756153 0 0.0083572503375018165 0.00086499499319756153 0 0.008316735521146491 0.00080441967961795567 0 0.0083781995683602454 0.00078397405282385575 0 0.0083572503375018165 0.00086499499319756153 0 0.0082948885417953849 0.00090876902296390272 0 0.008316735521146491 0.00080441967961795567 0 0.0082491800423577667 0.00084780100101070435 0 0.0082948885417953849 0.00090876902296390272 0 0.008316735521146491 0.00080441967961795567 0 0.0082491800423577667 0.00084780100101070435 0 0.0082948885417953849 0.00090876902296390272 0 0.0081960593854741703 0.00096769197179941591 0 0.0082627808465409458 0.00073042943572486016 0 0.008316735521146491 0.00080441967961795567 0 0.0083494924322740256 0.00070618460372064639 0 0.0082491800423577667 0.00084780100101070435 0 0.0082627808465409458 0.00073042943572486016 0 0.008316735521146491 0.00080441967961795567 0 0.0083781995683602454 0.00078397405282385575 0 0.0083494924322740256 0.00070618460372064639 0 0.0084279973028309318 0.00072640132744061119 0 0.008316735521146491 0.00080441967961795567 0 0.0083781995683602454 0.00078397405282385575 0 0.0083494924322740256 0.00070618460372064639 0 0.0083494924322740256 0.00070618460372064639 0 0.0083072563712242569 0.00057830591358523197 0 0.0084073564570859172 0.00060781306109805773 0 0.0082627808465409458 0.00073042943572486016 0 0.0083494924322740256 0.00070618460372064639 0 0.0083072563712242569 0.00057830591358523197 0 0.0083072563712242569 0.00057830591358523197 0 0.0083165602128934882 0.00046206920175186067 0 0.008382432966495117 0.00047287960989537834 0 0.0083072563712242569 0.00057830591358523197 0 0.008382432966495117 0.00047287960989537834 0 0.0084073564570859172 0.00060781306109805773 0 0.008382432966495117 0.00047287960989537834 0 0.0084073564570859172 0.00060781306109805773 0 0.008476204854077643 0.00055940445434728874 0 0.008382432966495117 0.00047287960989537834 0 0.008476204854077643 0.00055940445434728874 0 0.0084180154052598162 0.00041659516543771796 0 0.0084073564570859172 0.00060781306109805773 0 0.008476204854077643 0.00055940445434728874 0 0.0084718402530773139 0.00063729141066463783 0 0.0084718402530773139 0.00063729141066463783 0 0.0084279973028309318 0.00072640132744061119 0 0.0085407973751713238 0.00066586493075562303 0 0.0084323360107807933 0.00086715522252429791 0 0.0084279973028309318 0.00072640132744061119 0 0.0085407973751713238 0.00066586493075562303 0 0.0083494924322740256 0.00070618460372064639 0 0.0084073564570859172 0.00060781306109805773 0 0.0084279973028309318 0.00072640132744061119 0 0.0084073564570859172 0.00060781306109805773 0 0.0084718402530773139 0.00063729141066463783 0 0.0084279973028309318 0.00072640132744061119 0 0.0084323360107807933 0.00086715522252429791 0 0.0083781995683602454 0.00078397405282385575 0 0.0084279973028309318 0.00072640132744061119 0 0.0085098007419883871 0.00071035125914434576 0 0.0085698014272620592 0.00065496285523312719 0 0.0085407973751713238 0.00066586493075562303 0 0.008476204854077643 0.00055940445434728874 0 0.0084718402530773139 0.00063729141066463783 0 0.0085407973751713238 0.00066586493075562303 0 0.008476204854077643 0.00055940445434728874 0 0.0085698014272620592 0.00065496285523312719 0 0.0085407973751713238 0.00066586493075562303 0 0.0079557988373757556 0.00040930978579389952 0 0.0076641348970258524 0.00057836913029370228 0 0.008476204854077643 0.00055940445434728874 0 0.0085698014272620592 0.00065496285523312719 0 0.0085292494839081193 0.00045645845286475673 0 0.0067832148339522893 4.3443545133525754e-05 0 0.0063041961963741493 0.00041845677099278507 0 0.0068347993683583958 0.00074644097427889803 0 0.0067832148339522893 4.3443545133525754e-05 0 0.0063041961963741493 0.00041845677099278507 0 0.0062284578827107298 -0.00019655780083603587 0 0.007383514399152461 0.0012203138476592286 0 0.0076343421342947087 0.0009518558178797246 0 0.0077077186150807343 0.0012782020315596678 0 0.007383514399152461 0.0012203138476592286 0 0.0076343421342947087 0.0009518558178797246 0 0.0072904398765665773 0.00096903923143887565 0 0.007383514399152461 0.0012203138476592286 0 0.0072904398765665773 0.00096903923143887565 0 0.0069213352936083701 0.0013747315093657173 0 0.0068088450974603662 0.00080432536182556045 0 0.006592438426216555 0.0012835925002877759 0 0.0072904398765665773 0.00096903923143887565 0 0.0072585186669009124 0.0010075418893397126 0 0.006915914280779238 0.0015665793370990488 0 0.006592438426216555 0.0012835925002877759 0 0.0072904398765665773 0.00096903923143887565 0 0.006976419906467652 0.0017036551677899383 0 0.0069006664034950279 0.0021533104177348106 0 0.006915914280779238 0.0015665793370990488 0 0.0070016931849748469 0.001946179387655929 0 0.0069213352936083701 0.0013747315093657173 0 0.0073571360909056374 0.0015925013329475585 0 0.007383514399152461 0.0012203138476592286 0 0.0069213352936083701 0.0013747315093657173 0 0.0073571360909056374 0.0015925013329475585 0 0.0077964897654699645 0.0017432729264970311 0 0.0073571360909056374 0.0015925013329475585 0 0.0077077186150807343 0.0012782020315596678 0 0.007383514399152461 0.0012203138476592286 0 0.0073571360909056374 0.0015925013329475585 0 0.0077077186150807343 0.0012782020315596678 0 0.0077964897654699645 0.0017432729264970311 0 0.0077077186150807343 0.0012782020315596678 0 0.0081224558566773183 0.0013958737565731699 0 0.0064352334893956389 0.0013149259569528965 0 0.0071696755733254907 0.0014331937470013307 0 0.0047451025296308454 0.00093320818817298071 0 0.0050297211089145076 0.00093419415257679393 0 0.0048118422547362314 0.0011649100114438217 0 0.0079755582692443497 0.0013654316945804002 0 0.0071696755733254907 0.0014331937470013307 0 0.0077077186150807343 0.0012782020315596678 0 0.0080029685933705619 0.0012650571903266388 0 0.007916551811955953 0.0010817135907240012 0 0.0046858865291228317 0.00054058169087356641 0 0.0071696755733254907 0.0014331937470013307 0 0.00827454453882576 0.0012171178699805572 0 0.0080241638096267779 0.0011762681760710473 0 0.0081700606914018609 0.0011075378347523504 0 0.0047451025296308454 0.00093320818817298071 0 0.0043702997852498211 0.0010440715325308141 0 0.0048118422547362314 0.0011649100114438217 0 0.0080241638096267779 0.0011762681760710473 0 0.0080916327723394611 0.0011241232393671289 0 0.0081700606914018609 0.0011075378347523504 0 0.0080029685933705619 0.0012650571903266388 0 0.0080916327723394611 0.0011241232393671289 0 0.007916551811955953 0.0010817135907240012 0 0.0071696755733254907 0.0014331937470013307 0 0.0078182692302259382 0.001032424324112055 0 0.0080916327723394611 0.0011241232393671289 0 0.0081960593854741703 0.00096769197179941591 0 0.0080753679035277821 0.00095128401438496235 0 0.0080916327723394611 0.0011241232393671289 0 0.0081700606914018609 0.0011075378347523504 0 0.0081960593854741703 0.00096769197179941591 0 0.0080916327723394611 0.0011241232393671289 0 0.0080753679035277821 0.00095128401438496235 0 0.007916551811955953 0.0010817135907240012 0 0.0082491800423577667 0.00084780100101070435 0 0.0081960593854741703 0.00096769197179941591 0 0.0081765626408816378 0.00081323078224627521 0 0.0081960593854741703 0.00096769197179941591 0 0.0080753679035277821 0.00095128401438496235 0 0.0081765626408816378 0.00081323078224627521 0 0.0076343421342947087 0.0009518558178797246 0 0.0077077186150807343 0.0012782020315596678 0 0.007916551811955953 0.0010817135907240012 0 0.0080753679035277821 0.00095128401438496235 0 0.007916551811955953 0.0010817135907240012 0 0.0079745997501041201 0.00079774660151176032 0 0.0076343421342947087 0.0009518558178797246 0 0.007916551811955953 0.0010817135907240012 0 0.0079745997501041201 0.00079774660151176032 0 0.0076343421342947087 0.0009518558178797246 0 0.0079745997501041201 0.00079774660151176032 0 0.0077390012415685192 0.00063105628878002275 0 0.0079745997501041201 0.00079774660151176032 0 0.0077390012415685192 0.00063105628878002275 0 0.0080097757176732353 0.00058050667478887663 0 0.0082627808465409458 0.00073042943572486016 0 0.0081765626408816378 0.00081323078224627521 0 0.0081735626382360912 0.00065151488806346246 0 0.0082491800423577667 0.00084780100101070435 0 0.0082627808465409458 0.00073042943572486016 0 0.0081765626408816378 0.00081323078224627521 0 0.0079745997501041201 0.00079774660151176032 0 0.0081765626408816378 0.00081323078224627521 0 0.0081735626382360912 0.00065151488806346246 0 0.0080753679035277821 0.00095128401438496235 0 0.0079745997501041201 0.00079774660151176032 0 0.0081765626408816378 0.00081323078224627521 0 0.0079745997501041201 0.00079774660151176032 0 0.0081735626382360912 0.00065151488806346246 0 0.0080097757176732353 0.00058050667478887663 0 0.0082627808465409458 0.00073042943572486016 0 0.0083072563712242569 0.00057830591358523197 0 0.0081735626382360912 0.00065151488806346246 0 0.0083072563712242569 0.00057830591358523197 0 0.0081735626382360912 0.00065151488806346246 0 0.0082233979041623027 0.00044049891676177652 0 0.0081735626382360912 0.00065151488806346246 0 0.0082233979041623027 0.00044049891676177652 0 0.0080097757176732353 0.00058050667478887663 0 0.0083072563712242569 0.00057830591358523197 0 0.0083165602128934882 0.00046206920175186067 0 0.0082233979041623027 0.00044049891676177652 0 0.0082233979041623027 0.00044049891676177652 0 0.0080097757176732353 0.00058050667478887663 0 0.0079255050136640449 0.00041641041178111868 0 0.0082233979041623027 0.00044049891676177652 0 0.0079255050136640449 0.00041641041178111868 0 0.0082768101961718243 0.00023792524022617884 0 0.0077390012415685192 0.00063105628878002275 0 0.0080097757176732353 0.00058050667478887663 0 0.0079255050136640449 0.00041641041178111868 0 0.0077390012415685192 0.00063105628878002275 0 0.0079255050136640449 0.00041641041178111868 0 0.0074694521001709658 0.00041498511289075023 0 0.0074694521001709658 0.00041498511289075023 0 0.0070897857843419234 0.0002283865457302372 0 0.0076231909162211694 0.00015051040138047624 0 0.0079255050136640449 0.00041641041178111868 0 0.0074694521001709658 0.00041498511289075023 0 0.0076231909162211694 0.00015051040138047624 0 0.0077390012415685192 0.00063105628878002275 0 0.0074694521001709658 0.00041498511289075023 0 0.0073705020538702348 0.00067832954044171848 0 0.0076343421342947087 0.0009518558178797246 0 0.0077390012415685192 0.00063105628878002275 0 0.0073705020538702348 0.00067832954044171848 0 0.0076343421342947087 0.0009518558178797246 0 0.0072904398765665773 0.00096903923143887565 0 0.0073705020538702348 0.00067832954044171848 0 0.0068088450974603662 0.00080432536182556045 0 0.0073705020538702348 0.00067832954044171848 0 0.0071453399080122718 0.00043254069497699623 0 0.0068088450974603662 0.00080432536182556045 0 0.0072904398765665773 0.00096903923143887565 0 0.0073705020538702348 0.00067832954044171848 0 0.0074694521001709658 0.00041498511289075023 0 0.0073705020538702348 0.00067832954044171848 0 0.0071453399080122718 0.00043254069497699623 0 0.0074694521001709658 0.00041498511289075023 0 0.0071453399080122718 0.00043254069497699623 0 0.0070897857843419234 0.0002283865457302372 0 0.0088882666348427883 0.00012462952417349924 0 0.0088182703606622306 0.00024250171861501954 0 0.0090115365700914017 0.00025013244018175923 0 0.0088882666348427883 0.00012462952417349924 0 0.0088182703606622306 0.00024250171861501954 0 0.0086338424927470334 0.00013841288517655204 0 0.0080794079785281997 0.00015442138562298774 0 0.0081033220918673397 0.00017010201740792812 0 0.0088182703606622306 0.00024250171861501954 0 0.0088696158650214511 0.00036702920879088573 0 0.0090115365700914017 0.00025013244018175923 0 0.0088182703606622306 0.00024250171861501954 0 0.0088696158650214511 0.00036702920879088573 0 0.0086662513429292352 0.00033193409950377673 0 0.0088696158650214511 0.00036702920879088573 0 0.0086662513429292352 0.00033193409950377673 0 0.0088078261993481313 0.00060957747524817245 0 0.0088696158650214511 0.00036702920879088573 0 0.0088078261993481313 0.00060957747524817245 0 0.0091071497144156917 0.00043464954905612739 0 0.0086662513429292352 0.00033193409950377673 0 0.0085318560581606039 0.00038014017864529669 0 0.0088078261993481313 0.00060957747524817245 0 0.0088182703606622306 0.00024250171861501954 0 0.0086662513429292352 0.00033193409950377673 0 0.0086338424927470334 0.00013841288517655204 0 0.0086662513429292352 0.00033193409950377673 0 0.0086338424927470334 0.00013841288517655204 0 0.0082768101961718243 0.00023792524022617884 0 0.0081033220918673397 0.00017010201740792812 0 0.008248116426479133 0.0002087950915724508 0 0.0079255050136640449 0.00041641041178111868 0 0.0076231909162211694 0.00015051040138047624 0 0.0082768101961718243 0.00023792524022617884 0 0.0082233979041623027 0.00044049891676177652 0 0.0082768101961718243 0.00023792524022617884 0 0.0083374430871906852 0.00036270960782782454 0 0.0082768101961718243 0.00023792524022617884 0 0.0083922893556852545 0.00034652981531299587 0 0.0083374430871906852 0.00036270960782782454 0 0.0083165602128934882 0.00046206920175186067 0 0.0082233979041623027 0.00044049891676177652 0 0.0083374430871906852 0.00036270960782782454 0 0.0086662513429292352 0.00033193409950377673 0 0.0082768101961718243 0.00023792524022617884 0 0.0085318560581606039 0.00038014017864529669 0 0.0082768101961718243 0.00023792524022617884 0 0.0083922893556852545 0.00034652981531299587 0 0.0085318560581606039 0.00038014017864529669 0 0.0085318560581606039 0.00038014017864529669 0 0.0085633172099730658 0.00046431842809222987 0 0.0089493743915248 0.00042066403833330285 0 0.0085633172099730658 0.00046431842809222987 0 0.0089493743915248 0.00042066403833330285 0 0.008693584765234387 0.00060927707645181859 0 0.0083922893556852545 0.00034652981531299587 0 0.0085318560581606039 0.00038014017864529669 0 0.0085633172099730658 0.00046431842809222987 0 0.0083922893556852545 0.00034652981531299587 0 0.0085633172099730658 0.00046431842809222987 0 0.0084237097663688188 0.0004164682131514369 0 0.0085633172099730658 0.00046431842809222987 0 0.0084237097663688188 0.0004164682131514369 0 0.0085000150251146288 0.00053285091381506102 0 0.0085633172099730658 0.00046431842809222987 0 0.0085000150251146288 0.00053285091381506102 0 0.008693584765234387 0.00060927707645181859 0 0.0089493743915248 0.00042066403833330285 0 0.0090689595550920623 0.00064349372154828919 0 0.008693584765234387 0.00060927707645181859 0 0.0089493743915248 0.00042066403833330285 0 0.0090689595550920623 0.00064349372154828919 0 0.009333457463173208 0.00059116305061440852 0 0.0088797440711291236 0.00051846577936866972 0 0.0092322995991588018 0.00067873200484109804 0 0.0085613684434489405 0.00038732176889136501 0 0.0088797440711291236 0.00051846577936866972 0 0.0063041961963741493 0.00041845677099278507 0 0.0068347993683583958 0.00074644097427889803 0 0.0062363888344790447 0.00084411330701330591 0 0.0064838563372612698 0.0012251676993633282 0 0.0068347993683583958 0.00074644097427889803 0 0.0062363888344790447 0.00084411330701330591 0 0.008476204854077643 0.00055940445434728874 0 0.0085292494839081193 0.00045645845286475673 0 0.0084180154052598162 0.00041659516543771796 0 0.0085292494839081193 0.00045645845286475673 0 0.0084180154052598162 0.00041659516543771796 0 0.0084680606541999385 0.00034862123931922684 0 0.0064838563372612698 0.0012251676993633282 0 0.0068347993683583958 0.00074644097427889803 0 0.0069026805585959538 0.0014022175582042785 0 0.0076641348970258524 0.00057836913029370228 0 0.0075457009479642598 0.0009349702071887009 0 0.008395718316331539 0.00036624644125625921 0 0.0084180154052598162 0.00041659516543771796 0 0.0083748137809461776 0.00035929434777068824 0 0.008395718316331539 0.00036624644125625921 0 0.0084180154052598162 0.00041659516543771796 0 0.0084680606541999385 0.00034862123931922684 0 0.0084180154052598162 0.00041659516543771796 0 0.0083374430871906852 0.00036270960782782454 0 0.0083748137809461776 0.00035929434777068824 0 0.008382432966495117 0.00047287960989537834 0 0.0084180154052598162 0.00041659516543771796 0 0.0083374430871906852 0.00036270960782782454 0 0.0083165602128934882 0.00046206920175186067 0 0.008382432966495117 0.00047287960989537834 0 0.0083374430871906852 0.00036270960782782454 0 0.0083922893556852545 0.00034652981531299587 0 0.0084237097663688188 0.0004164682131514369 0 0.0083748137809461776 0.00035929434777068824 0 0.0083922893556852545 0.00034652981531299587 0 0.0083374430871906852 0.00036270960782782454 0 0.0083748137809461776 0.00035929434777068824 0 0.008395718316331539 0.00036624644125625921 0 0.0083748137809461776 0.00035929434777068824 0 0.0083739480093080916 0.00041731096112096141 0 0.0084237097663688188 0.0004164682131514369 0 0.0083739480093080916 0.00041731096112096141 0 0.0083981789583646091 0.0005367304150502893 0 0.0084237097663688188 0.0004164682131514369 0 0.0083748137809461776 0.00035929434777068824 0 0.0083739480093080916 0.00041731096112096141 0 0.0083739480093080916 0.00041731096112096141 0 0.0083981789583646091 0.0005367304150502893 0 0.0083329668970598455 0.00051018045739958733 0 0.0084237097663688188 0.0004164682131514369 0 0.0085000150251146288 0.00053285091381506102 0 0.0083981789583646091 0.0005367304150502893 0 0.0083384993005868793 0.0003904601590557379 0 0.0095189353117756236 0.00061196348063721295 0 0.0084300826086079472 0.00031899820833126969 0 0.008459057397074414 0.00029860569279707201 0 0.0084482991295395278 0.00029195499525943723 0 0.0083329668970598455 0.00051018045739958733 0 0.0083122249825166878 0.00044563559436772761 0 0.0082709605757836941 0.00057908708633831762 0 0.0083981789583646091 0.0005367304150502893 0 0.0083329668970598455 0.00051018045739958733 0 0.0082709605757836941 0.00057908708633831762 0 0.008395718316331539 0.00036624644125625921 0 0.0083739480093080916 0.00041731096112096141 0 0.0083122249825166878 0.00044563559436772761 0 0.0083903599049080548 0.00037042281989327212 0 0.0083384993005868793 0.0003904601590557379 0 0.008395718316331539 0.00036624644125625921 0 0.0084300826086079472 0.00031899820833126969 0 0.0084680606541999385 0.00034862123931922684 0 0.0083739480093080916 0.00041731096112096141 0 0.0083329668970598455 0.00051018045739958733 0 0.0083122249825166878 0.00044563559436772761 0 0.0075457009479642598 0.0009349702071887009 0 0.008933792105750623 0.00089641842982488397 0 0.0084300826086079472 0.00031899820833126969 0 0.0084680606541999385 0.00034862123931922684 0 0.008459057397074414 0.00029860569279707201 0 0.0069026805585959538 0.0014022175582042785 0 0.0069831230965971729 0.0020577615304863818 0 0.0063717004786801711 0.0017050072528844208 0 0.008933792105750623 0.00089641842982488397 0 0.0095189353117756236 0.00061196348063721295 0 0.010479921816477167 0.00028567853527035889 0 0.01055768125617086 0.00046994023472078373 0 0.010406236543589147 0.00042226615913789982 0 0.008933792105750623 0.00089641842982488397 0 0.0084641044668510128 0.0010962166230614704 0 0.010659541594492618 0.00040654894090858592 0 0.010479921816477167 0.00028567853527035889 0 0.01055768125617086 0.00046994023472078373 0 0.0064838563372612698 0.0012251676993633282 0 0.0069026805585959538 0.0014022175582042785 0 0.0063717004786801711 0.0017050072528844208 0 0.010505559912473785 0.00065420773406375246 0 0.010557243606296032 0.00058160937639883221 0 0.010468505083651394 0.00053791688167675541 0 0.010505559912473785 0.00065420773406375246 0 0.010601436957678038 0.00066897146344293136 0 0.010557243606296032 0.00058160937639883221 0 0.010601436957678038 0.00066897146344293136 0 0.010557243606296032 0.00058160937639883221 0 0.010630925584379914 0.00057307608025637311 0 0.010557243606296032 0.00058160937639883221 0 0.01055768125617086 0.00046994023472078373 0 0.010468505083651394 0.00053791688167675541 0 0.010557243606296032 0.00058160937639883221 0 0.01055768125617086 0.00046994023472078373 0 0.010630925584379914 0.00057307608025637311 0 0.010804761710895245 0.00074607375387614064 0 0.0095189353117756236 0.00061196348063721295 0 0.010673443059427707 0.00051315199170375394 0 0.010709023797910474 0.00061589682102402882 0 0.010710957817032199 0.00045193406416975981 0 0.010659541594492618 0.00040654894090858592 0 0.01055768125617086 0.00046994023472078373 0 0.010673443059427707 0.00051315199170375394 0 0.01055768125617086 0.00046994023472078373 0 0.010673443059427707 0.00051315199170375394 0 0.010630925584379914 0.00057307608025637311 0 0.010648233774440408 0.00041813936303638778 0 0.010673443059427707 0.00051315199170375394 0 0.010710957817032199 0.00045193406416975981 0 0.008933792105750623 0.00089641842982488397 0 0.010400733780481893 0.00042837598155212933 0 0.010673443059427707 0.00051315199170375394 0 0.010630925584379914 0.00057307608025637311 0 0.010709023797910474 0.00061589682102402882 0 0.010601436957678038 0.00066897146344293136 0 0.010630925584379914 0.00057307608025637311 0 0.010709023797910474 0.00061589682102402882 0 0.010685760297320166 0.00089749218316711728 0 0.010672896218229049 0.0009029161913030728 0 0.010677181404738726 0.00088914961643399857 0 0.010672896218229049 0.0009029161913030728 0 0.01067177348457656 0.00090824902746802067 0 0.010656647401679096 0.00091699153971541985 0 0.010685760297320166 0.00089749218316711728 0 0.010672896218229049 0.0009029161913030728 0 0.01067177348457656 0.00090824902746802067 0 0.010685760297320166 0.00089749218316711728 0 0.010669183304589144 0.00091547662157580886 0 0.01067177348457656 0.00090824902746802067 0 0.0095189353117756236 0.00061196348063721295 0 0.0095425961503500401 0.00083715238403713095 0 0.010669183304589144 0.00091547662157580886 0 0.01067177348457656 0.00090824902746802067 0 0.010656647401679096 0.00091699153971541985 0 0.0083981789583646091 0.0005367304150502893 0 0.0082709605757836941 0.00057908708633831762 0 0.0084334834745244946 0.00071766962566470005 0 0.0085000150251146288 0.00053285091381506102 0 0.0083981789583646091 0.0005367304150502893 0 0.0084334834745244946 0.00071766962566470005 0 0.010672896218229049 0.0009029161913030728 0 0.010656647401679096 0.00091699153971541985 0 0.010677181404738726 0.00088914961643399857 0 0.010656647401679096 0.00091699153971541985 0 0.010677181404738726 0.00088914961643399857 0 0.010660641710177717 0.00091693367665759149 0 0.010677181404738726 0.00088914961643399857 0 0.010685837559212669 0.00089445266805125766 0 0.010660641710177717 0.00091693367665759149 0 0.010677181404738726 0.00088914961643399857 0 0.010685837559212669 0.00089445266805125766 0 0.010712992442816665 0.00087754309221253735 0 0.010677181404738726 0.00088914961643399857 0 0.010688802132874608 0.00082635999940608321 0 0.010712992442816665 0.00087754309221253735 0 0.010685760297320166 0.00089749218316711728 0 0.010677181404738726 0.00088914961643399857 0 0.010688802132874608 0.00082635999940608321 0 0.010804761710895245 0.00074607375387614064 0 0.010667832575308393 0.00083268795051283275 0 0.010601436957678038 0.00066897146344293136 0 0.010709023797910474 0.00061589682102402882 0 0.010688802132874608 0.00082635999940608321 0 0.010688802132874608 0.00082635999940608321 0 0.01058402817128953 0.00086478840920011511 0 0.01071492598239678 0.00089856124899951857 0 0.010688802132874608 0.00082635999940608321 0 0.01071492598239678 0.00089856124899951857 0 0.010712992442816665 0.00087754309221253735 0 0.010688802132874608 0.00082635999940608321 0 0.01053974422983499 0.00076228522379067243 0 0.01058402817128953 0.00086478840920011511 0 0.010601436957678038 0.00066897146344293136 0 0.010688802132874608 0.00082635999940608321 0 0.01053974422983499 0.00076228522379067243 0 0.010505559912473785 0.00065420773406375246 0 0.010601436957678038 0.00066897146344293136 0 0.01053974422983499 0.00076228522379067243 0 0.0089937608229762687 0.00083803972468984552 0 0.0090689595550920623 0.00064349372154828919 0 0.008693584765234387 0.00060927707645181859 0 0.0091619620499740866 0.00069449653837833569 0 0.0087026110231480137 0.00088093425712580773 0 0.0091404914653840704 0.0010281540967435362 0 0.0090778376038677198 0.00076812363761932898 0 0.0094609194322247143 0.00090752441449276427 0 0.0089937608229762687 0.00083803972468984552 0 0.0090689595550920623 0.00064349372154828919 0 0.0093841372916136472 0.00080517161351469329 0 0.0090778376038677198 0.00076812363761932898 0 0.0087264038067517025 0.00061565451730407467 0 0.0085000150251146288 0.00053285091381506102 0 0.0084334834745244946 0.00071766962566470005 0 0.008693584765234387 0.00060927707645181859 0 0.010656647401679096 0.00091699153971541985 0 0.010634711902371989 0.00094754686270343317 0 0.010660641710177717 0.00091693367665759149 0 0.0095425961503500401 0.00083715238403713095 0 0.0096662890856600518 0.00090765399893418658 0 0.0084334834745244946 0.00071766962566470005 0 0.008693584765234387 0.00060927707645181859 0 0.0087026110231480137 0.00088093425712580773 0 0.0091619620499740866 0.00069449653837833569 0 0.008693584765234387 0.00060927707645181859 0 0.0087026110231480137 0.00088093425712580773 0 0.0096662890856600518 0.00090765399893418658 0 0.0098384759863634763 0.0010082771380364845 0 0.010634711902371989 0.00094754686270343317 0 0.01064094436518157 0.00093280920772241841 0 0.010557115622481416 0.0010029659102599381 0 0.010634711902371989 0.00094754686270343317 0 0.010660641710177717 0.00091693367665759149 0 0.01064094436518157 0.00093280920772241841 0 0.010685837559212669 0.00089445266805125766 0 0.010660641710177717 0.00091693367665759149 0 0.01064094436518157 0.00093280920772241841 0 0.010685837559212669 0.00089445266805125766 0 0.01064094436518157 0.00093280920772241841 0 0.01064773233078862 0.00088599395445353396 0 0.01064094436518157 0.00093280920772241841 0 0.01058318185387851 0.00094449916706088413 0 0.01064773233078862 0.00088599395445353396 0 0.01064094436518157 0.00093280920772241841 0 0.01058318185387851 0.00094449916706088413 0 0.010557115622481416 0.0010029659102599381 0 0.01058318185387851 0.00094449916706088413 0 0.010557115622481416 0.0010029659102599381 0 0.010375411865342682 0.001048449978847112 0 0.0091619620499740866 0.00069449653837833569 0 0.0091404914653840704 0.0010281540967435362 0 0.0095699818145089949 0.00085936883795219635 0 0.0091404914653840704 0.0010281540967435362 0 0.0095693056744168663 0.001059269192836734 0 0.0095699818145089949 0.00085936883795219635 0 0.0098384759863634763 0.0010082771380364845 0 0.0099545384083251608 0.0010367151797864265 0 0.0095693056744168663 0.001059269192836734 0 0.0095699818145089949 0.00085936883795219635 0 0.009727800277195742 0.00095814671062806344 0 0.0093568663086322917 0.00096905659408572954 0 0.0096245477861814557 0.00090414822586922221 0 0.009727800277195742 0.00095814671062806344 0 0.0095693056744168663 0.001059269192836734 0 0.009727800277195742 0.00095814671062806344 0 0.0099387450931978996 0.00094414108960524923 0 0.0094609194322247143 0.00090752441449276427 0 0.0097000381595852021 0.00096143486065772775 0 0.0093568663086322917 0.00096905659408572954 0 0.0093841372916136472 0.00080517161351469329 0 0.0096245477861814557 0.00090414822586922221 0 0.0089937608229762687 0.00083803972468984552 0 0.0093568663086322917 0.00096905659408572954 0 0.0093841372916136472 0.00080517161351469329 0 0.0093841372916136472 0.00080517161351469329 0 0.0095123977693954333 0.00082616132760263464 0 0.0096245477861814557 0.00090414822586922221 0 0.0094883772239674601 0.00081306204125835939 0 0.0092322995991588018 0.00067873200484109804 0 0.0093841372916136472 0.00080517161351469329 0 0.0095123977693954333 0.00082616132760263464 0 0.009333457463173208 0.00059116305061440852 0 0.0090689595550920623 0.00064349372154828919 0 0.0093841372916136472 0.00080517161351469329 0 0.009333457463173208 0.00059116305061440852 0 0.0095123977693954333 0.00082616132760263464 0 0.0096211254072938214 0.00090370702657802658 0 0.0095409255215193629 0.00075947053541076243 0 0.0095123977693954333 0.00082616132760263464 0 0.0096245477861814557 0.00090414822586922221 0 0.0096211254072938214 0.00090370702657802658 0 0.0096245477861814557 0.00090414822586922221 0 0.0096891944270449913 0.00091979165957883891 0 0.0096211254072938214 0.00090370702657802658 0 0.0096245477861814557 0.00090414822586922221 0 0.0096891944270449913 0.00091979165957883891 0 0.009727800277195742 0.00095814671062806344 0 0.0096891944270449913 0.00091979165957883891 0 0.009727800277195742 0.00095814671062806344 0 0.0097775813037438587 0.00090243896998333951 0 0.009727800277195742 0.00095814671062806344 0 0.0097775813037438587 0.00090243896998333951 0 0.0099387450931978996 0.00094414108960524923 0 0.0096891944270449913 0.00091979165957883891 0 0.009700207973736311 0.00086211750649363645 0 0.0097775813037438587 0.00090243896998333951 0 0.0096891944270449913 0.00091979165957883891 0 0.0096148124673183944 0.00090551523829262171 0 0.009700207973736311 0.00086211750649363645 0 0.0096148124673183944 0.00090551523829262171 0 0.0096211254072938214 0.00090370702657802658 0 0.0095750255141165436 0.0009260468029440444 0 0.0096891944270449913 0.00091979165957883891 0 0.0096148124673183944 0.00090551523829262171 0 0.0096211254072938214 0.00090370702657802658 0 0.0094165307277777662 0.00082423377345756965 0 0.0092033791386692994 0.00080659714363714324 0 0.0093121396122730175 0.00098286490466489959 0 0.009485893004464346 0.00093756968674468561 0 0.0094165307277777662 0.00082423377345756965 0 0.0093121396122730175 0.00098286490466489959 0 0.0096148124673183944 0.00090551523829262171 0 0.009485893004464346 0.00093756968674468561 0 0.0094165307277777662 0.00082423377345756965 0 0.0096148124673183944 0.00090551523829262171 0 0.009485893004464346 0.00093756968674468561 0 0.0095750255141165436 0.0009260468029440444 0 0.009485893004464346 0.00093756968674468561 0 0.0095172297746992721 0.00095390947702354075 0 0.0093121396122730175 0.00098286490466489959 0 0.0095172297746992721 0.00095390947702354075 0 0.0096104881946382816 0.00087068799217675838 0 0.0096050232656779144 0.00084897032112830244 0 0.0095172297746992721 0.00095390947702354075 0 0.0095750255141165436 0.0009260468029440444 0 0.0096104881946382816 0.00087068799217675838 0 0.009485893004464346 0.00093756968674468561 0 0.0095172297746992721 0.00095390947702354075 0 0.0095750255141165436 0.0009260468029440444 0 0.0087661671972864529 0.00087397623344320492 0 0.008858524776981333 0.00089617967208546116 0 0.0080500317144148823 0.00084017347263257364 0 0.008008634134752491 0.00083928278823083889 0 0.0080220007210086951 0.0008387256635164291 0 0.0096211254072938214 0.00090370702657802658 0 0.0095750255141165436 0.0009260468029440444 0 0.0096104881946382816 0.00087068799217675838 0 0.0096211254072938214 0.00090370702657802658 0 0.0096104881946382816 0.00087068799217675838 0 0.0095409255215193629 0.00075947053541076243 0 0.0096104881946382816 0.00087068799217675838 0 0.0096163631538701885 0.00075021363684439255 0 0.0095409255215193629 0.00075947053541076243 0 0.0096104881946382816 0.00087068799217675838 0 0.0096163631538701885 0.00075021363684439255 0 0.0096050232656779144 0.00084897032112830244 0 0.0096163631538701885 0.00075021363684439255 0 0.0097813648832624049 0.00058249302889417829 0 0.0095664472127327 0.00051983320320200409 0 0.009976592497438333 0.00062694178856929233 0 0.0084708260646857315 0.00060190403080096139 0 0.0096163631538701885 0.00075021363684439255 0 0.009607199392464922 0.00077698161571358845 0 0.0096050232656779144 0.00084897032112830244 0 0.0096163631538701885 0.00075021363684439255 0 0.0095664472127327 0.00051983320320200409 0 0.0095409255215193629 0.00075947053541076243 0 0.008008634134752491 0.00083928278823083889 0 0.0079926193467054103 0.00083756974392105554 0 0.0080220007210086951 0.0008387256635164291 0 0.0084708260646857315 0.00060190403080096139 0 0.008858524776981333 0.00089617967208546116 0 0.0079869057368610157 0.00083528394223225558 0 0.008008634134752491 0.00083928278823083889 0 0.0079926193467054103 0.00083756974392105554 0 0.0079869057368610157 0.00083528394223225558 0 0.0079926193467054103 0.00083756974392105554 0 0.0079668615626619418 0.00083455925132833685 0 0.0084708260646857315 0.00060190403080096139 0 0.0048482604547333812 0.00029707781656256808 0 0.0060373471753572654 2.0975700726199526e-05 0 0.0059197710589482273 0.00063598756186161471 0 0.0054304589962906897 0.00053437788503882169 0 0.0022752373775684542 0.00089654182693664909 0 0.0018512203103255556 0.00092893821845925083 0 0.0021119434551264637 0.00059277002583652634 0 0.0035301205938370922 0.00051378164549296934 0 0.0048482604547333812 0.00029707781656256808 0 0.0018512203103255556 0.00092893821845925083 0 0.0021119434551264637 0.00059277002583652634 0 0.001733654155065024 0.00049757712080113637 0 0.0018512203103255556 0.00092893821845925083 0 0.001733654155065024 0.00049757712080113637 0 0.0013588685650990772 0.00079736260230701939 0 0.0048482604547333812 0.00029707781656256808 0 0.0017278567719242819 0.00071410812345786326 0 0.0097813648832624049 0.00058249302889417829 0 0.0095664472127327 0.00051983320320200409 0 0.0096596259215223895 0.0003451545027577306 0 0.0084708260646857315 0.00060190403080096139 0 0.0062866127880869607 0.00048967903556812096 0 0.0060373471753572654 2.0975700726199526e-05 0 0.0059197710589482273 0.00063598756186161471 0 0.0064047403646226644 0.00073581098240458069 0 0.0022752373775684542 0.00089654182693664909 0 0.0021119434551264637 0.00059277002583652634 0 0.0024821665049589102 0.00068387692995652101 0 0.0035301205938370922 0.00051378164549296934 0 0.0062866127880869607 0.00048967903556812096 0 0.0062866127880869607 0.00048967903556812096 0 0.0082199260693916181 0.00029625138759539228 0 0.0095664472127327 0.00051983320320200409 0 0.0096596259215223895 0.0003451545027577306 0 0.0094956301312232646 0.00028804796219201626 0 0.0060225821607557718 0.00056680049754528601 0 0.0058072385134056723 0.00015534554731681441 0 0.0064563164381202911 0.00028585851304052895 0 0.00932256829849612 0.00020071591297610996 0 0.0094956301312232646 0.00028804796219201626 0 0.0094388885883060786 0.00040861206362997329 0 0.0095664472127327 0.00051983320320200409 0 0.0094956301312232646 0.00028804796219201626 0 0.0094388885883060786 0.00040861206362997329 0 0.0095664472127327 0.00051983320320200409 0 0.0094388885883060786 0.00040861206362997329 0 0.009430391621412253 0.00054784910661996459 0 0.0094388885883060786 0.00040861206362997329 0 0.0093005618500766104 0.00040317053136560717 0 0.009430391621412253 0.00054784910661996459 0 0.0093005618500766104 0.00040317053136560717 0 0.0093007301671360967 0.0006138343880508812 0 0.009430391621412253 0.00054784910661996459 0 0.00932256829849612 0.00020071591297610996 0 0.0094388885883060786 0.00040861206362997329 0 0.0093005618500766104 0.00040317053136560717 0 0.00932256829849612 0.00020071591297610996 0 0.0093005618500766104 0.00040317053136560717 0 0.009179043138899683 0.000270957746884231 0 0.009179043138899683 0.000270957746884231 0 0.0090115365700914017 0.00025013244018175923 0 0.0091071497144156917 0.00043464954905612739 0 0.009103327995083817 0.00010729668085261026 0 0.0088882666348427883 0.00012462952417349924 0 0.0090115365700914017 0.00025013244018175923 0 0.009103327995083817 0.00010729668085261026 0 0.009179043138899683 0.000270957746884231 0 0.0090115365700914017 0.00025013244018175923 0 0.0088696158650214511 0.00036702920879088573 0 0.0090115365700914017 0.00025013244018175923 0 0.0091071497144156917 0.00043464954905612739 0 0.0093005618500766104 0.00040317053136560717 0 0.009179043138899683 0.000270957746884231 0 0.0091071497144156917 0.00043464954905612739 0 0.0093005618500766104 0.00040317053136560717 0 0.0091071497144156917 0.00043464954905612739 0 0.0093007301671360967 0.0006138343880508812 0 0.0088078261993481313 0.00060957747524817245 0 0.0091071497144156917 0.00043464954905612739 0 0.009138921126390075 0.00076707330812544557 0 0.0091071497144156917 0.00043464954905612739 0 0.0093007301671360967 0.0006138343880508812 0 0.009138921126390075 0.00076707330812544557 0 0.0095123977693954333 0.00082616132760263464 0 0.0093007301671360967 0.0006138343880508812 0 0.009138921126390075 0.00076707330812544557 0 0.0095123977693954333 0.00082616132760263464 0 0.0093007301671360967 0.0006138343880508812 0 0.0095409255215193629 0.00075947053541076243 0 0.0095664472127327 0.00051983320320200409 0 0.0095409255215193629 0.00075947053541076243 0 0.009430391621412253 0.00054784910661996459 0 0.0093007301671360967 0.0006138343880508812 0 0.0095409255215193629 0.00075947053541076243 0 0.009430391621412253 0.00054784910661996459 0 0.0035389090584613081 -0.00088975810342290407 0 0.0024866183207862928 -0.000715769730113936 0 0.0018342114405045038 -0.0010309863290847456 0 0.001486187960257596 -0.00072044632605968351 0 0.0018146259021779693 -0.00067875515842957443 0 0.0038745744716237674 -0.00082195265319246705 0 0.0040222860019887112 -0.00074762339038388006 0 0.0040760461923694015 -0.00085013004386953761 0 0.0038745744716237674 -0.00082195265319246705 0 0.0040760461923694015 -0.00085013004386953761 0 0.0040547561316341962 -0.00098595721375668377 0 0.0029282898637588146 -1.1304853432380374e-07 0 0.003210514667693795 -1.2828006939896474e-05 0 0.0036628983178460697 -2.678178361921327e-05 0 0.0018342114405045038 -0.0010309863290847456 0 0.0020174242095841117 -0.00093299060494228525 0 0.0018146259021779693 -0.00067875515842957443 0 0.0029279080567432489 -2.4380123918165219e-07 0 0.0028816530024647026 -0.00047604649936975219 0 0.0035389090584613081 -0.00088975810342290407 0 0.0028816530024647026 -0.00047604649936975219 0 0.0028816530024647026 -0.00047604649936975219 0 0.0038362954160438795 -0.0006132456473489326 0 0.003434165336267015 -0.00065489631936698845 0 0.0033899323465725593 -0.00067626923647169657 0 0.003400540913584652 -0.00062270023559595075 0 0.0038362954160438795 -0.0006132456473489326 0 0.0045519492205065657 -0.00038416518982652815 0 0.0029282898637588146 -1.1304853432380374e-07 0 0.0036628983178460697 -2.678178361921327e-05 0 0.0038085015171292398 -1.9659814338432332e-07 0 0.0035389090584613081 -0.00088975810342290407 0 0.0038362954160438795 -0.0006132456473489326 0 0.0047932159516420134 -0.0013512769783120141 0 0.0052216152265451435 -0.0010675907307263737 0 0.0048730171129922704 -0.000815905745741336 0 0.003210514667693795 -1.2828006939896474e-05 0 0.0034720235255304255 -2.8936731344883097e-05 0 0.0036628983178460697 -2.678178361921327e-05 0 0.003776141741496734 -0.00013630512695910927 0 0.0036628983178460697 -2.678178361921327e-05 0 0.0041762941086702582 -2.6854447526620899e-05 0 0.0038362954160438795 -0.0006132456473489326 0 0.0035465469145223743 -0.00016436126463440713 0 0.0050533663499543737 -0.0015916892096851125 0 0.0047932159516420134 -0.0013512769783120141 0 0.0052216152265451435 -0.0010675907307263737 0 0.0050533663499543737 -0.0015916892096851125 0 0.0052216152265451435 -0.0010675907307263737 0 0.0055185903962609749 -0.0013551073613938622 0 0.0035389090584613081 -0.00088975810342290407 0 0.0048088510750907811 -0.0010086214080660351 0 0.0052216152265451435 -0.0010675907307263737 0 0.0055185903962609749 -0.0013551073613938622 0 0.0056343184170350533 -0.00097842594824488669 0 0.0054183392069836632 -0.00088343337950081433 0 0.0048088510750907811 -0.0010086214080660351 0 0.0059708597093793151 -0.0011102342530672324 0 0.0055185903962609749 -0.0013551073613938622 0 0.0056343184170350533 -0.00097842594824488669 0 0.0041724409478861935 -0.0006757178006937582 0 0.0040222860019887112 -0.00074762339038388006 0 0.0040760461923694015 -0.00085013004386953761 0 0.0062145555643195157 -0.0012859381508068619 0 0.0063088854178271307 -0.0013379516418350211 0 0.0062380631655060649 -0.0014510749372106898 0 0.0054183392069836632 -0.00088343337950081433 0 0.0053474292149715595 -0.0012784185600320129 0 0.0063088854178271307 -0.0013379516418350211 0 0.0064289935743490215 -0.001298963389198507 0 0.006302524484221742 -0.0012560693972624498 0 0.0063508224608371036 -0.0013552949943391413 0 0.0064090775840024887 -0.0010240522656025143 0 0.0062145555643195157 -0.0012859381508068619 0 0.0063088854178271307 -0.0013379516418350211 0 0.0062936379101730354 -0.0012444338240784605 0 0.0054183392069836632 -0.00088343337950081433 0 0.0064090775840024887 -0.0010240522656025143 0 0.0063088854178271307 -0.0013379516418350211 0 0.0062380631655060649 -0.0014510749372106898 0 0.0063749022160377016 -0.0014517282000438587 0 0.0041724409478861935 -0.0006757178006937582 0 0.0041986602319948 -0.00091640647198000362 0 0.0040760461923694015 -0.00085013004386953761 0 0.0041986602319948 -0.00091640647198000362 0 0.0040760461923694015 -0.00085013004386953761 0 0.0040547561316341962 -0.00098595721375668377 0 0.0041986602319948 -0.00091640647198000362 0 0.0040547561316341962 -0.00098595721375668377 0 0.0042266398602852943 -0.001145704350561809 0 0.001486187960257596 -0.00072044632605968351 0 0.0011670390998387305 -0.00040171140755777823 0 0.0013048002971717367 -0.00038359275963061913 0 0.0024866183207862928 -0.000715769730113936 0 0.0037454930955545525 -0.0011079264433079418 0 0.0053474292149715595 -0.0012784185600320129 0 0.0037454930955545525 -0.0011079264433079418 0 0.0062380631655060649 -0.0014510749372106898 0 0.0062420099275183596 -0.0016009628151523372 0 0.0063749022160377016 -0.0014517282000438587 0 0.0011670390998387305 -0.00040171140755777823 0 0.001122093693901492 -0.00018960567884685923 0 0.00096721890784134447 -0.00015258596095309342 0 0.0011670390998387305 -0.00040171140755777823 0 0.0012120598213894308 -0.00026516101934434853 0 0.0013048002971717367 -0.00038359275963061913 0 0.0011670390998387305 -0.00040171140755777823 0 0.0012120598213894308 -0.00026516101934434853 0 0.001122093693901492 -0.00018960567884685923 0 0.0013048002971717367 -0.00038359275963061913 0 0.0012929495180402355 -0.00022331223298257695 0 0.001659944014370477 -0.00023660110570357471 0 0.001486187960257596 -0.00072044632605968351 0 0.0013048002971717367 -0.00038359275963061913 0 0.001659944014370477 -0.00023660110570357471 0 0.0012120598213894308 -0.00026516101934434853 0 0.0013048002971717367 -0.00038359275963061913 0 0.0012929495180402355 -0.00022331223298257695 0 0.001659944014370477 -0.00023660110570357471 0 0.0018146259021779693 -0.00067875515842957443 0 0.0020766393418761944 -0.00047642934700512548 0 0.001486187960257596 -0.00072044632605968351 0 0.001659944014370477 -0.00023660110570357471 0 0.0018146259021779693 -0.00067875515842957443 0 0.0028816530024647026 -0.00047604649936975219 0 0.0019899930920232239 -0.00018673043567695358 0 0.0020174242095841117 -0.00093299060494228525 0 0.0018146259021779693 -0.00067875515842957443 0 0.0020766393418761944 -0.00047642934700512548 0 0.0029265400578702299 -1.0624578823099079e-08 0 0.0024126563161819274 2.7398222887782028e-09 0 0.0024339669725913803 1.1247332319227787e-05 0 0.0029265400578702299 -1.0624578823099079e-08 0 0.0029313565009467407 -1.4545570146902779e-05 0 0.0024339669725913803 1.1247332319227787e-05 0 0.0024110539197426946 -4.6497142254048514e-07 0 0.0019899930920232239 -0.00018673043567695358 0 0.0013637754924643603 -0.0003629875269369916 0 0.0013171134410633217 -0.00014960872100182245 0 0.0015416373855091461 -1.0247859062268388e-07 0 0.0019899930920232239 -0.00018673043567695358 0 0.0015732963875614129 4.0445181358286011e-05 0 0.0013700502204839356 -0.00020285043014612455 0 0.0019899930920232239 -0.00018673043567695358 0 0.0024113540853787185 -1.1968151517570833e-09 0 0.0023281538774265415 -1.8921537053091182e-07 0 0.0016884907272054995 -5.2576270722596247e-10 0 0.0011455982080586843 -0.00011687267704651209 0 0.0013637754924643603 -0.0003629875269369916 0 0.0013171134410633217 -0.00014960872100182245 0 0.0023281538774265415 -1.8921537053091182e-07 0 0.0016884907272054995 -5.2576270722596247e-10 0 0.0015428076146616371 7.4547191563490647e-10 0 0.0013171134410633217 -0.00014960872100182245 0 0.0013434929200708083 -3.4704527825896853e-05 0 0.0015416373855091461 -1.0247859062268388e-07 0 0.0013171134410633217 -0.00014960872100182245 0 0.0012328182090448761 -2.4297275228529195e-05 0 0.0013434929200708083 -3.4704527825896853e-05 0 0.0012328182090448761 -2.4297275228529195e-05 0 0.0013434929200708083 -3.4704527825896853e-05 0 0.001262631469712044 2.4583163289902123e-05 0 0.0013434929200708083 -3.4704527825896853e-05 0 0.0015416373855091461 -1.0247859062268388e-07 0 0.001262631469712044 2.4583163289902123e-05 0 0.0011455982080586843 -0.00011687267704651209 0 0.0013171134410633217 -0.00014960872100182245 0 0.0012328182090448761 -2.4297275228529195e-05 0 0.0011455982080586843 -0.00011687267704651209 0 0.0011697613664885754 -2.3314377390493019e-05 0 0.0011683252882450671 -3.2041668440187845e-05 0 0.0011455982080586843 -0.00011687267704651209 0 0.0012328182090448761 -2.4297275228529195e-05 0 0.0011697613664885754 -2.3314377390493019e-05 0 0.0012328182090448761 -2.4297275228529195e-05 0 0.0011697613664885754 -2.3314377390493019e-05 0 0.0011489120321681449 1.1787748937017833e-05 0 0.0011562200022586233 3.1138128124125309e-06 0 0.0011727271037737371 -2.1385276388012177e-05 0 0.0011683252882450671 -3.2041668440187845e-05 0 0.0011697613664885754 -2.3314377390493019e-05 0 0.0011562200022586233 3.1138128124125309e-06 0 0.0011683252882450671 -3.2041668440187845e-05 0 0.0011697613664885754 -2.3314377390493019e-05 0 0.0011489120321681449 1.1787748937017833e-05 0 0.0011562200022586233 3.1138128124125309e-06 0 0.0011489120321681449 1.1787748937017833e-05 0 0.0010982774519851012 1.8296199432748235e-05 0 0.0011290851799493611 3.3366465313196942e-05 0 0.0011489120321681449 1.1787748937017833e-05 0 0.0010982774519851012 1.8296199432748235e-05 0 0.0011562200022586233 3.1138128124125309e-06 0 0.0010982774519851012 1.8296199432748235e-05 0 0.0011562200022586233 3.1138128124125309e-06 0 0.0011006536394182833 -6.4070805285406596e-05 0 0.0011562200022586233 3.1138128124125309e-06 0 0.0011006536394182833 -6.4070805285406596e-05 0 0.0012067172700996008 -1.7435245329303115e-05 0 0.0010969432226241881 -0.0002085283274623642 0 0.00096312115078968146 -0.00042118335872322208 0 0.0015416373855091461 -1.0247859062268388e-07 0 0.001262631469712044 2.4583163289902123e-05 0 0.00096570084055584552 7.731773452640262e-08 0 0.001262631469712044 2.4583163289902123e-05 0 0.0011290851799493611 3.3366465313196942e-05 0 0.00096570084055584552 7.731773452640262e-08 0 0.0012328182090448761 -2.4297275228529195e-05 0 0.001262631469712044 2.4583163289902123e-05 0 0.0011290851799493611 3.3366465313196942e-05 0 0.0012328182090448761 -2.4297275228529195e-05 0 0.0011489120321681449 1.1787748937017833e-05 0 0.0011290851799493611 3.3366465313196942e-05 0 0.0010982774519851012 1.8296199432748235e-05 0 0.0011290851799493611 3.3366465313196942e-05 0 0.0008372104865266843 -1.4383342791788129e-06 0 0.0011290851799493611 3.3366465313196942e-05 0 0.00096570084055584552 7.731773452640262e-08 0 0.0008372104865266843 -1.4383342791788129e-06 0 0.00096570084055584552 7.731773452640262e-08 0 0.00047585654318521396 -3.1424699136977264e-05 0 0.0008372104865266843 -1.4383342791788129e-06 0 0.00096570084055584552 7.731773452640262e-08 0 0.00047585654318521396 -3.1424699136977264e-05 0 0.00024199967013494161 4.0355107209775515e-08 0 0.00054477755471504818 -4.1663697705054942e-05 0 0.0006249918467981651 -6.9995479320424101e-05 0 0.00047585654318521396 -3.1424699136977264e-05 0 0.0008372104865266843 -1.4383342791788129e-06 0 0.0011006536394182833 -6.4070805285406596e-05 0 0.00047585654318521396 -3.1424699136977264e-05 0 0.00017876796025353945 -0.00012023891280794407 0 0.00019937150573479006 -2.4822249619530433e-05 0 0.0010982774519851012 1.8296199432748235e-05 0 0.0008372104865266843 -1.4383342791788129e-06 0 0.0011006536394182833 -6.4070805285406596e-05 0 0.0006249918467981651 -6.9995479320424101e-05 0 0.00096312115078968146 -0.00042118335872322208 0 0.00017876796025353945 -0.00012023891280794407 0 0.00013742716860539494 -8.0518914204104146e-05 0 0.00013388367558197253 -0.00012020519837838038 0 0.00019937150573479006 -2.4822249619530433e-05 0 0.00015967860899141251 -7.661613476276645e-06 0 0.00013742716860539494 -8.0518914204104146e-05 0 0.00017876796025353945 -0.00012023891280794407 0 0.00019937150573479006 -2.4822249619530433e-05 0 0.00013742716860539494 -8.0518914204104146e-05 0 0.00016738288663181836 -2.4431905739364607e-05 0 0.00015967860899141251 -7.661613476276645e-06 0 0.00013019849845120771 5.6082524788937637e-05 0 0.00016738288663181836 -2.4431905739364607e-05 0 0.00015967860899141251 -7.661613476276645e-06 0 0.00012247239032598509 -4.4376602575847391e-05 0 0.00019937150573479006 -2.4822249619530433e-05 0 0.00015967860899141251 -7.661613476276645e-06 0 0.00013019849845120771 5.6082524788937637e-05 0 0.00047585654318521396 -3.1424699136977264e-05 0 0.00013019849845120771 5.6082524788937637e-05 0 0.00024199967013494161 4.0355107209775515e-08 0 0.00047585654318521396 -3.1424699136977264e-05 0 0.00019937150573479006 -2.4822249619530433e-05 0 0.00013019849845120771 5.6082524788937637e-05 0 9.7300893882084841e-05 -2.2194886712874436e-05 0 7.3992041802905991e-05 -6.0008541968966293e-05 0 3.3195630423254429e-05 -4.69434921164697e-05 0 9.7300893882084841e-05 -2.2194886712874436e-05 0 7.3992041802905991e-05 -6.0008541968966293e-05 0 0.00012247239032598509 -4.4376602575847391e-05 0 0.00015967860899141251 -7.661613476276645e-06 0 0.00012247239032598509 -4.4376602575847391e-05 0 0.00013742716860539494 -8.0518914204104146e-05 0 0.00079083782335734082 -0.00071427734601311912 0 0.00096312115078968146 -0.00042118335872322208 0 0.00013742716860539494 -8.0518914204104146e-05 0 8.4895674360061492e-05 -9.9193617125986229e-05 0 0.00013388367558197253 -0.00012020519837838038 0 0.00012247239032598509 -4.4376602575847391e-05 0 0.00013742716860539494 -8.0518914204104146e-05 0 8.4895674360061492e-05 -9.9193617125986229e-05 0 7.3992041802905991e-05 -6.0008541968966293e-05 0 0.00012247239032598509 -4.4376602575847391e-05 0 8.4895674360061492e-05 -9.9193617125986229e-05 0 0.0016482706898966822 -0.0013222282435703318 0 0.0016099121645718009 -0.0010969470513143612 0 0.0018234814633670009 -0.0011520195293264865 0 0.0016482706898966822 -0.0013222282435703318 0 0.0016099121645718009 -0.0010969470513143612 0 0.0013808674995493891 -0.0012231384615366313 0 0.0011808680140502107 -2.6860321356687961e-05 0 0.0011727271037737371 -2.1385276388012177e-05 0 0.0012086343395436461 -4.7515028108191808e-05 0 0.0011296754465443444 -0.00063803021740732027 0 0.00096312115078968146 -0.00042118335872322208 0 0.0011727271037737371 -2.1385276388012177e-05 0 0.0011683252882450671 -3.2041668440187845e-05 0 0.0012086343395436461 -4.7515028108191808e-05 0 0.0013700502204839356 -0.00020285043014612455 0 0.0012385460175495118 -5.8073173711944783e-05 0 0.0012929495180402355 -0.00022331223298257695 0 0.001659944014370477 -0.00023660110570357471 0 0.0012086343395436461 -4.7515028108191808e-05 0 0.0011455982080586843 -0.00011687267704651209 0 0.0011683252882450671 -3.2041668440187845e-05 0 0.0012086343395436461 -4.7515028108191808e-05 0 0.0011296754465443444 -0.00063803021740732027 0 0.0034414682283705218 -0.0010103690323570308 0 0.0011808680140502107 -2.6860321356687961e-05 0 0.001122093693901492 -0.00018960567884685923 0 0.00096721890784134447 -0.00015258596095309342 0 0.0011808680140502107 -2.6860321356687961e-05 0 0.0011934364115199678 -0.00013679776065498214 0 0.001122093693901492 -0.00018960567884685923 0 0.0011808680140502107 -2.6860321356687961e-05 0 0.0012086343395436461 -4.7515028108191808e-05 0 0.0011934364115199678 -0.00013679776065498214 0 0.0012929495180402355 -0.00022331223298257695 0 0.0012086343395436461 -4.7515028108191808e-05 0 0.0011934364115199678 -0.00013679776065498214 0 0.0012120598213894308 -0.00026516101934434853 0 0.0011934364115199678 -0.00013679776065498214 0 0.001122093693901492 -0.00018960567884685923 0 0.0012120598213894308 -0.00026516101934434853 0 0.0012929495180402355 -0.00022331223298257695 0 0.0011934364115199678 -0.00013679776065498214 0 0.0016099121645718009 -0.0010969470513143612 0 0.0018315141805930917 -0.00097898521743125131 0 0.0018234814633670009 -0.0011520195293264865 0 0.0018315141805930917 -0.00097898521743125131 0 0.0019221510922592655 -0.0010788292919329476 0 0.0018234814633670009 -0.0011520195293264865 0 0.0018315141805930917 -0.00097898521743125131 0 0.002031056563307963 -0.00099369164095718977 0 0.0021464909174047685 -0.00075404819605887443 0 0.002031056563307963 -0.00099369164095718977 0 0.0019221510922592655 -0.0010788292919329476 0 0.0020017881744135444 -0.0011867587166166057 0 0.0018315141805930917 -0.00097898521743125131 0 0.002031056563307963 -0.00099369164095718977 0 0.0019221510922592655 -0.0010788292919329476 0 0.002031056563307963 -0.00099369164095718977 0 0.0020017881744135444 -0.0011867587166166057 0 0.002159218550644249 -0.0011703083305383839 0 0.0020017881744135444 -0.0011867587166166057 0 0.0018234814633670009 -0.0011520195293264865 0 0.0019042495893482995 -0.0014063741476402489 0 0.0019221510922592655 -0.0010788292919329476 0 0.0020017881744135444 -0.0011867587166166057 0 0.0018234814633670009 -0.0011520195293264865 0 7.3992041802905991e-05 -6.0008541968966293e-05 0 8.4895674360061492e-05 -9.9193617125986229e-05 0 3.0170873287021592e-05 -8.7108020614788515e-05 0 0.0016482706898966822 -0.0013222282435703318 0 0.0018234814633670009 -0.0011520195293264865 0 0.0019042495893482995 -0.0014063741476402489 0 0.00079083782335734082 -0.00071427734601311912 0 0.0012024330392352532 -0.00079385124565481847 0 0.0019042495893482995 -0.0014063741476402489 0 0.0021247301382837504 -0.0014688658759920616 0 0.0021023964621898149 -0.001315485005152553 0 0.0020017881744135444 -0.0011867587166166057 0 0.0019042495893482995 -0.0014063741476402489 0 0.0021023964621898149 -0.001315485005152553 0 -0.0019242779661426306 -0.00031997139775594347 0 -0.0017813171149938189 -0.00043746622091584152 0 -0.0020425263719726573 -0.00051212635876543425 0 -0.001052274821651342 -0.00020937154359655272 0 -0.00014076119123316463 -0.00075376405276795654 0 0.0012024330392352532 -0.00079385124565481847 0 -0.00014076119123316463 -0.00075376405276795654 0 3.0170873287021592e-05 -8.7108020614788515e-05 0 3.3195630423254429e-05 -4.69434921164697e-05 0 -2.9790452865833271e-05 -7.4296587327655404e-05 0 7.3992041802905991e-05 -6.0008541968966293e-05 0 3.0170873287021592e-05 -8.7108020614788515e-05 0 3.3195630423254429e-05 -4.69434921164697e-05 0 -0.00066787048904260783 -0.00018961285817370303 0 -0.001052274821651342 -0.00020937154359655272 0 -0.0014095411628628866 -0.0010167664309422143 0 -0.0013252592291697995 -0.00089251036207554663 0 -0.00092488997408717109 -0.0010324373360171897 0 -0.00014076119123316463 -0.00075376405276795654 0 0.0002335964139750034 -0.0010227188980986102 0 -0.0014095411628628866 -0.0010167664309422143 0 -0.00092488997408717109 -0.0010324373360171897 0 -0.0014427906394366588 -0.0011585980019615844 0 -0.0014095411628628866 -0.0010167664309422143 0 -0.0014427906394366588 -0.0011585980019615844 0 -0.0014881300221466882 -0.00088671260648945436 0 -0.0014095411628628866 -0.0010167664309422143 0 -0.0013252592291697995 -0.00089251036207554663 0 -0.001400312518990374 -0.00087342799448235906 0 -0.0014095411628628866 -0.0010167664309422143 0 -0.001400312518990374 -0.00087342799448235906 0 -0.0014881300221466882 -0.00088671260648945436 0 -0.0019180337897045257 -0.00058044473629992213 0 -0.0017173023511278022 -0.00066540762932662816 0 -0.0019180337897045257 -0.00058044473629992213 0 -0.00014076119123316463 -0.00075376405276795654 0 -0.0021108284043830773 -0.00033234279889558517 0 -0.0022326629447720929 -0.00044504089742717289 0 -0.0020425263719726573 -0.00051212635876543425 0 0.0021247301382837504 -0.0014688658759920616 0 0.0021903009158963805 -0.0013724228542300149 0 0.0021023964621898149 -0.001315485005152553 0 0.0021903009158963805 -0.0013724228542300149 0 0.0021023964621898149 -0.001315485005152553 0 0.0022059503516100431 -0.0012790578194646182 0 0.0021903009158963805 -0.0013724228542300149 0 0.0022059503516100431 -0.0012790578194646182 0 0.0022677268398556862 -0.0013374125335877554 0 0.0022677268398556862 -0.0013374125335877554 0 0.0023189606790852851 -0.0013644595620460479 0 0.0022703466492100285 -0.0012027424008566765 0 0.0021247301382837504 -0.0014688658759920616 0 0.0021903009158963805 -0.0013724228542300149 0 0.0023335582488466242 -0.0013998883568430423 0 0.0017583052846335408 -0.0015419036066089821 0 0.0023982842491857659 -0.0012865231145203961 0 0.0021903009158963805 -0.0013724228542300149 0 0.0022677268398556862 -0.0013374125335877554 0 0.0023335582488466242 -0.0013998883568430423 0 0.0022677268398556862 -0.0013374125335877554 0 0.0023335582488466242 -0.0013998883568430423 0 0.0023162120791357316 -0.0013612536363306264 0 0.00092357654271698632 -0.00091207921866208995 0 0.0010809536246569721 -0.001225607051265464 0 0.00057742085152649551 -0.0010040668710647629 0 0.0021311838219310541 -0.0015470534089670493 0 0.0017583052846335408 -0.0015419036066089821 0 0.0002335964139750034 -0.0010227188980986102 0 0.0017583052846335408 -0.0015419036066089821 0 0.0026018436413520639 -0.001542848346793723 0 0.0024558513555180462 -0.0013358968366126958 0 0.002650872301693084 -0.0013593388445773409 0 0.0024558513555180462 -0.0013358968366126958 0 0.0026239865244265192 -0.0011268834766889231 0 0.002650872301693084 -0.0013593388445773409 0 0.0022059503516100431 -0.0012790578194646182 0 0.0022677268398556862 -0.0013374125335877554 0 0.0022703466492100285 -0.0012027424008566765 0 0.0022703466492100285 -0.0012027424008566765 0 0.002159218550644249 -0.0011703083305383839 0 0.0022515832661234476 -0.0010249318581852509 0 0.0021023964621898149 -0.001315485005152553 0 0.0022059503516100431 -0.0012790578194646182 0 0.002159218550644249 -0.0011703083305383839 0 0.0020017881744135444 -0.0011867587166166057 0 0.0021023964621898149 -0.001315485005152553 0 0.002159218550644249 -0.0011703083305383839 0 0.0022059503516100431 -0.0012790578194646182 0 0.0022703466492100285 -0.0012027424008566765 0 0.002159218550644249 -0.0011703083305383839 0 0.002031056563307963 -0.00099369164095718977 0 0.002159218550644249 -0.0011703083305383839 0 0.0022515832661234476 -0.0010249318581852509 0 0.002031056563307963 -0.00099369164095718977 0 0.0022515832661234476 -0.0010249318581852509 0 0.0021464909174047685 -0.00075404819605887443 0 0.0023982842491857659 -0.0012865231145203961 0 0.0022496425444767433 -0.0010306053111193915 0 0.0024558513555180462 -0.0013358968366126958 0 0.0022515832661234476 -0.0010249318581852509 0 0.0026239865244265192 -0.0011268834766889231 0 0.0022515832661234476 -0.0010249318581852509 0 0.0026239865244265192 -0.0011268834766889231 0 0.0024691461662915749 -0.00082719761112043323 0 0.0024691461662915749 -0.00082719761112043323 0 0.0025911471342173506 -0.00039485452043520018 0 0.0027738312148196781 -0.00080801226812220477 0 0.0026239865244265192 -0.0011268834766889231 0 0.0024691461662915749 -0.00082719761112043323 0 0.0027738312148196781 -0.00080801226812220477 0 0.0024691461662915749 -0.00082719761112043323 0 0.0025911471342173506 -0.00039485452043520018 0 0.0021464909174047685 -0.00075404819605887443 0 0.0046387942556924654 -0.00094007636414058897 0 0.0044717525755366937 -0.0012103287159525267 0 0.0067297262716337417 -0.0014885707509548966 0 0.0065491405299677998 -0.0016121355327542355 0 0.0065435386533206647 -0.0014830061232611225 0 0.0022515832661234476 -0.0010249318581852509 0 0.0024691461662915749 -0.00082719761112043323 0 0.0021464909174047685 -0.00075404819605887443 0 0.0034414682283705218 -0.0010103690323570308 0 0.0044717525755366937 -0.0012103287159525267 0 0.0063495867538940192 -0.0017151682697293027 0 0.0065491405299677998 -0.0016121355327542355 0 0.0064022598362370557 -0.0015769731776147284 0 0.0037454930955545525 -0.0011079264433079418 0 0.0034414682283705218 -0.0010103690323570308 0 0.0062420099275183596 -0.0016009628151523372 0 0.0063495867538940192 -0.0017151682697293027 0 0.0064022598362370557 -0.0015769731776147284 0 0.0062420099275183596 -0.0016009628151523372 0 0.0064022598362370557 -0.0015769731776147284 0 0.0063749022160377016 -0.0014517282000438587 0 0.0064022598362370557 -0.0015769731776147284 0 0.0065435386533206647 -0.0014830061232611225 0 0.0063749022160377016 -0.0014517282000438587 0 0.0065491405299677998 -0.0016121355327542355 0 0.0064022598362370557 -0.0015769731776147284 0 0.0065435386533206647 -0.0014830061232611225 0 0.0065435386533206647 -0.0014830061232611225 0 0.0065240026738634686 -0.0013860626514566091 0 0.0063749022160377016 -0.0014517282000438587 0 0.0065240026738634686 -0.0013860626514566091 0 0.0063749022160377016 -0.0014517282000438587 0 0.0064289935743490215 -0.001298963389198507 0 0.0063088854178271307 -0.0013379516418350211 0 0.0063749022160377016 -0.0014517282000438587 0 0.0064289935743490215 -0.001298963389198507 0 0.0065240026738634686 -0.0013860626514566091 0 0.0064289935743490215 -0.001298963389198507 0 0.0066010437484910313 -0.0012853398087051564 0 0.0066575992957536899 -0.0013822792454474514 0 0.0067222270547407032 -0.0012781098305785421 0 0.0066010437484910313 -0.0012853398087051564 0 0.0065240026738634686 -0.0013860626514566091 0 0.0066575992957536899 -0.0013822792454474514 0 0.0066010437484910313 -0.0012853398087051564 0 0.0066575992957536899 -0.0013822792454474514 0 0.0067919730123903567 -0.0013265028534320141 0 0.0067222270547407032 -0.0012781098305785421 0 0.0067297262716337417 -0.0014885707509548966 0 0.0066575992957536899 -0.0013822792454474514 0 0.0067919730123903567 -0.0013265028534320141 0 0.0065435386533206647 -0.0014830061232611225 0 0.0065240026738634686 -0.0013860626514566091 0 0.0066575992957536899 -0.0013822792454474514 0 0.0067297262716337417 -0.0014885707509548966 0 0.0065435386533206647 -0.0014830061232611225 0 0.0066575992957536899 -0.0013822792454474514 0 0.0067297262716337417 -0.0014885707509548966 0 0.0068527041766851217 -0.0013676342902356141 0 0.0067919730123903567 -0.0013265028534320141 0 0.0046387942556924654 -0.00094007636414058897 0 0.0050377563137282205 -0.0006376077870810788 0 0.0067919730123903567 -0.0013265028534320141 0 0.0068501872254762971 -0.0013122588161292284 0 0.0068587816496961437 -0.0012713565215160369 0 0.0068527041766851217 -0.0013676342902356141 0 0.0068501872254762971 -0.0013122588161292284 0 0.0068755525290237042 -0.0012905004490564352 0 0.0068527041766851217 -0.0013676342902356141 0 0.0067919730123903567 -0.0013265028534320141 0 0.0068501872254762971 -0.0013122588161292284 0 0.0068501872254762971 -0.0013122588161292284 0 0.0068755525290237042 -0.0012905004490564352 0 0.0068587816496961437 -0.0012713565215160369 0 0.0068527041766851217 -0.0013676342902356141 0 0.0068755525290237042 -0.0012905004490564352 0 0.0068869356189572763 -0.0012836725414713264 0 0.0050377563137282205 -0.0006376077870810788 0 0.0054357360036035767 -0.00041815398816837541 0 0.0039590191752489267 0.00056788620683739571 0 0.004238055046561333 0.00010141363008495605 0 0.0047296999779757234 0.00039753118178640842 0 0.004238055046561333 0.00010141363008495605 0 0.004061058972760807 -0.00027546883576657889 0 0.0045686195389891878 -0.00038672775505552728 0 0.0039590191752489267 0.00056788620683739571 0 0.004238055046561333 0.00010141363008495605 0 0.0038122527324320433 3.5002941231494601e-05 0 0.004238055046561333 0.00010141363008495605 0 0.0038122527324320433 3.5002941231494601e-05 0 0.004061058972760807 -0.00027546883576657889 0 0.0032134440033954556 7.3898383432525344e-05 0 0.0038122527324320433 3.5002941231494601e-05 0 0.003578955612706929 -0.00037066385704274924 0 0.0038122527324320433 3.5002941231494601e-05 0 0.003578955612706929 -0.00037066385704274924 0 0.004061058972760807 -0.00027546883576657889 0 0.0032134440033954556 7.3898383432525344e-05 0 0.0039590191752489267 0.00056788620683739571 0 0.0038122527324320433 3.5002941231494601e-05 0 0.003578955612706929 -0.00037066385704274924 0 0.004061058972760807 -0.00027546883576657889 0 0.0039698398070305545 -0.0007426447540947763 0 0.004061058972760807 -0.00027546883576657889 0 0.0039698398070305545 -0.0007426447540947763 0 0.0045686195389891878 -0.00038672775505552728 0 0.0031509358560942763 -0.0010928492616701527 0 0.0033145339730988451 -0.0010361389209699321 0 0.0039698398070305545 -0.0007426447540947763 0 0.0037144442501726486 -0.0011831924699132132 0 0.0044829603255102527 -0.001087139466015785 0 0.0039698398070305545 -0.0007426447540947763 0 0.0044829603255102527 -0.001087139466015785 0 0.0045686195389891878 -0.00038672775505552728 0 0.0039698398070305545 -0.0007426447540947763 0 0.0034605885078799635 -0.00084572212666212039 0 0.0037144442501726486 -0.0011831924699132132 0 0.003578955612706929 -0.00037066385704274924 0 0.0039698398070305545 -0.0007426447540947763 0 0.0034605885078799635 -0.00084572212666212039 0 0.0034885316138434652 -0.0010215148501005297 0 0.0031509358560942763 -0.0010928492616701527 0 0.0034605885078799635 -0.00084572212666212039 0 0.0027738312148196781 -0.00080801226812220477 0 0.0029305141179785596 -0.0011327009994935653 0 0.0034605885078799635 -0.00084572212666212039 0 0.0031105598042494216 -0.00047219570953848348 0 0.0027738312148196781 -0.00080801226812220477 0 0.0032134440033954556 7.3898383432525344e-05 0 0.003578955612706929 -0.00037066385704274924 0 0.0031105598042494216 -0.00047219570953848348 0 0.003578955612706929 -0.00037066385704274924 0 0.0034605885078799635 -0.00084572212666212039 0 0.0031105598042494216 -0.00047219570953848348 0 0.0025911471342173506 -0.00039485452043520018 0 0.0032134440033954556 7.3898383432525344e-05 0 0.0031105598042494216 -0.00047219570953848348 0 0.0025911471342173506 -0.00039485452043520018 0 0.0031105598042494216 -0.00047219570953848348 0 0.0027738312148196781 -0.00080801226812220477 0 0.0026239865244265192 -0.0011268834766889231 0 0.0027738312148196781 -0.00080801226812220477 0 0.0029305141179785596 -0.0011327009994935653 0 0.0026239865244265192 -0.0011268834766889231 0 0.0029305141179785596 -0.0011327009994935653 0 0.0028273410038807262 -0.0013049792698083072 0 0.0034605885078799635 -0.00084572212666212039 0 0.0029305141179785596 -0.0011327009994935653 0 0.003664353066351655 -0.0011002292073992444 0 0.0030455213384974512 -0.0011443884613444666 0 0.0031509358560942763 -0.0010928492616701527 0 0.0029305141179785596 -0.0011327009994935653 0 0.0030080272875980659 -0.0012658956782128947 0 0.0030707852510407714 -0.0011656221939855297 0 0.0029305141179785596 -0.0011327009994935653 0 0.0030080272875980659 -0.0012658956782128947 0 0.0028273410038807262 -0.0013049792698083072 0 0.0030080272875980659 -0.0012658956782128947 0 0.0028273410038807262 -0.0013049792698083072 0 0.0029305380428219794 -0.0014650948951195864 0 0.0026239865244265192 -0.0011268834766889231 0 0.0028273410038807262 -0.0013049792698083072 0 0.002650872301693084 -0.0013593388445773409 0 0.0028273410038807262 -0.0013049792698083072 0 0.002650872301693084 -0.0013593388445773409 0 0.0027415795457135716 -0.0014517994111090996 0 0.0026018436413520639 -0.001542848346793723 0 0.002650872301693084 -0.0013593388445773409 0 0.0027415795457135716 -0.0014517994111090996 0 0.0027415795457135716 -0.0014517994111090996 0 0.0027007382567039787 -0.0015728359737850412 0 0.0029305380428219794 -0.0014650948951195864 0 0.00064190221405887552 -0.00097235141179690776 0 0.0016753222456504736 -0.0011411123119252555 0 0.0028273410038807262 -0.0013049792698083072 0 0.0027415795457135716 -0.0014517994111090996 0 0.0029305380428219794 -0.0014650948951195864 0 0.0026018436413520639 -0.001542848346793723 0 0.0027415795457135716 -0.0014517994111090996 0 0.0027007382567039787 -0.0015728359737850412 0 0.0017583052846335408 -0.0015419036066089821 0 0.00064190221405887552 -0.00097235141179690776 0 0.0002335964139750034 -0.0010227188980986102 0 0.00064190221405887552 -0.00097235141179690776 0 5.8392387117807542e-05 -0.00087304202966082185 0 -0.00012993146748356928 -0.00030014859714285494 0 -0.00035755205347581581 -0.00068508462878694924 0 0.00075940066697944089 -0.00068941906231356732 0 5.8392387117807542e-05 -0.00087304202966082185 0 -0.00012993146748356928 -0.00030014859714285494 0 -0.0018305307554319862 -0.00072972900928308421 0 -0.0018468762605769247 -0.00097538366833425157 0 -0.0017010246180345595 -0.00085775383094635149 0 0.00064190221405887552 -0.00097235141179690776 0 -0.0011380367240109779 -0.00059401429191693856 0 -0.0018468762605769247 -0.00097538366833425157 0 -0.0017010246180345595 -0.00085775383094635149 0 -0.0015401387971482172 -0.00098623427111214196 0 -0.0014149521708421036 -0.0011724207113893747 0 -0.0018468762605769247 -0.00097538366833425157 0 -0.0015401387971482172 -0.00098623427111214196 0 -0.001789221961088217 -0.00069861636808748269 0 0.0002335964139750034 -0.0010227188980986102 0 -0.0015397860088248664 -0.00077528072185514461 0 -0.0017010246180345595 -0.00085775383094635149 0 -0.0015401387971482172 -0.00098623427111214196 0 -0.0016489838949059281 -0.00072480184954306021 0 -0.0014427906394366588 -0.0011585980019615844 0 -0.0014881300221466882 -0.00088671260648945436 0 -0.0015397860088248664 -0.00077528072185514461 0 -0.0013191796414239688 -0.0011455559083464902 0 -0.0015401387971482172 -0.00098623427111214196 0 -0.0013191796414239688 -0.0011455559083464902 0 -0.0014149521708421036 -0.0011724207113893747 0 -0.0015401387971482172 -0.00098623427111214196 0 -0.0014000854782921881 -0.00055803931110444535 0 -0.00144386895821679 -0.00069718655981343641 0 -0.0015780636051393668 -0.00068587303770732667 0 -0.001232880372588801 -0.00041883443058639362 0 -0.00075265653282553585 -0.00042828233844249077 0 -0.0010274159835823268 -0.00081045852711861103 0 -0.0018410762591956602 -0.0004668916212468705 0 -0.0013253766091011587 -0.00049793514923820027 0 -0.0010091089650502748 7.387484315277563e-05 0 -0.001232880372588801 -0.00041883443058639362 0 -0.00075265653282553585 -0.00042828233844249077 0 -0.00012993146748356928 -0.00030014859714285494 0 -0.00075265653282553585 -0.00042828233844249077 0 -0.00035755205347581581 -0.00068508462878694924 0 -0.0018410762591956602 -0.0004668916212468705 0 -0.0011380367240109779 -0.00059401429191693856 0 -0.0010091089650502748 7.387484315277563e-05 0 -0.00012993146748356928 -0.00030014859714285494 0 -0.00075265653282553585 -0.00042828233844249077 0 0.0016753222456504736 -0.0011411123119252555 0 0.0012282946847832906 -0.0012210196541151898 0 -0.00064200930711216233 -0.0010505551138028208 0 -0.00035755205347581581 -0.00068508462878694924 0 -0.0010274159835823268 -0.00081045852711861103 0 -0.00075265653282553585 -0.00042828233844249077 0 -0.00035755205347581581 -0.00068508462878694924 0 -0.0010274159835823268 -0.00081045852711861103 0 5.8392387117807542e-05 -0.00087304202966082185 0 -0.00064200930711216233 -0.0010505551138028208 0 -0.00035755205347581581 -0.00068508462878694924 0 -0.00064200930711216233 -0.0010505551138028208 0 -0.0010274159835823268 -0.00081045852711861103 0 -0.0013418210605805057 -0.0011955239454630282 0 -0.001232880372588801 -0.00041883443058639362 0 -0.0010274159835823268 -0.00081045852711861103 0 -0.0014528457754935055 -0.00091159898333812437 0 -0.0010274159835823268 -0.00081045852711861103 0 -0.0013418210605805057 -0.0011955239454630282 0 -0.0014528457754935055 -0.00091159898333812437 0 0.0030735282219362088 -0.0013737318329761169 0 0.0031220840461184643 -0.0012537002838046748 0 0.003156756945073432 -0.001327628703585045 0 0.0012282946847832906 -0.0012210196541151898 0 0.00060112367374511369 -0.0010694952328022291 0 0.0021895741968754445 -0.0010494551608969597 0 0.0022620912499701808 -0.0010348714571504075 0 0.0022150286409319394 -0.0011046059502710325 0 0.0027553895156652579 -0.0012951673057607566 0 0.00060112367374511369 -0.0010694952328022291 0 0.0030080272875980659 -0.0012658956782128947 0 0.0030735282219362088 -0.0013737318329761169 0 0.0031220840461184643 -0.0012537002838046748 0 0.0030080272875980659 -0.0012658956782128947 0 0.0029305380428219794 -0.0014650948951195864 0 0.0030735282219362088 -0.0013737318329761169 0 0.0030080272875980659 -0.0012658956782128947 0 0.0030707852510407714 -0.0011656221939855297 0 0.0031220840461184643 -0.0012537002838046748 0 0.0031509358560942763 -0.0010928492616701527 0 0.0027553895156652579 -0.0012951673057607566 0 0.0021634076345353396 -0.0010030770767494642 0 0.0021895741968754445 -0.0010494551608969597 0 0.0022449132100341961 -0.00097737728959217769 0 0.0021895741968754445 -0.0010494551608969597 0 0.0022620912499701808 -0.0010348714571504075 0 0.0022449132100341961 -0.00097737728959217769 0 0.0022620912499701808 -0.0010348714571504075 0 0.0023634492258470187 -0.00093350125276430026 0 0.0022449132100341961 -0.00097737728959217769 0 0.0022620912499701808 -0.0010348714571504075 0 0.0023305628432241285 -0.0010884417672729679 0 0.0023634492258470187 -0.00093350125276430026 0 -0.0017048855223727177 -0.00079870466981530361 0 -0.0017150861493360333 -0.00071320671550365023 0 -0.0017719613760829446 -0.0007410918144401588 0 0.00028479826697218319 -0.00092449115765194992 0 0.00060112367374511369 -0.0010694952328022291 0 0.0022620912499701808 -0.0010348714571504075 0 0.0023305628432241285 -0.0010884417672729679 0 0.0022150286409319394 -0.0011046059502710325 0 -0.0017048855223727177 -0.00079870466981530361 0 -0.0015506809542377936 -0.00077757623626809557 0 -0.00162518302493505 -0.00070826824249808548 0 0.00060112367374511369 -0.0010694952328022291 0 -0.0016997699307517841 -0.00058492880413765075 0 -0.0013418210605805057 -0.0011955239454630282 0 -0.0014528457754935055 -0.00091159898333812437 0 -0.0015998794293986089 -0.0008435736723934942 0 -0.00144386895821679 -0.00069718655981343641 0 -0.0014528457754935055 -0.00091159898333812437 0 -0.0015780636051393668 -0.00068587303770732667 0 -0.0013253766091011587 -0.00049793514923820027 0 -0.0014594484972314534 -0.00088107000300807542 0 -0.0014528457754935055 -0.00091159898333812437 0 -0.0015998794293986089 -0.0008435736723934942 0 -0.0015780636051393668 -0.00068587303770732667 0 -0.0016997699307517841 -0.00058492880413765075 0 -0.0016388616058240738 -0.00073227168072048134 0 -0.0017048855223727177 -0.00079870466981530361 0 -0.00162518302493505 -0.00070826824249808548 0 -0.0017150861493360333 -0.00071320671550365023 0 -0.0017150861493360333 -0.00071320671550365023 0 -0.001694223602586133 -0.00066613439615097268 0 -0.0017814883827635944 -0.00067340644628151541 0 -0.00162518302493505 -0.00070826824249808548 0 -0.0017150861493360333 -0.00071320671550365023 0 -0.001694223602586133 -0.00066613439615097268 0 -0.001694223602586133 -0.00066613439615097268 0 -0.0017836660924793327 -0.00059901463160460513 0 -0.0017814883827635944 -0.00067340644628151541 0 -0.0016780098093188932 -0.00048402541882659533 0 -0.001694223602586133 -0.00066613439615097268 0 -0.0015780636051393668 -0.00068587303770732667 0 -0.0015998794293986089 -0.0008435736723934942 0 -0.001694223602586133 -0.00066613439615097268 0 -0.0015780636051393668 -0.00068587303770732667 0 -0.001866558791438001 -0.00065043320081622472 0 -0.001861189716709868 -0.00060274973552235751 0 -0.0018352899265702792 -0.00065481108934553991 0 -0.001866558791438001 -0.00065043320081622472 0 -0.0018919341492111788 -0.00065967064678686669 0 -0.0019005251427903168 -0.00059294847918382797 0 -0.001866558791438001 -0.00065043320081622472 0 -0.0019005251427903168 -0.00059294847918382797 0 -0.001861189716709868 -0.00060274973552235751 0 -0.001861189716709868 -0.00060274973552235751 0 -0.0017836660924793327 -0.00059901463160460513 0 -0.0017814883827635944 -0.00067340644628151541 0 -0.001861189716709868 -0.00060274973552235751 0 -0.0017814883827635944 -0.00067340644628151541 0 -0.0018352899265702792 -0.00065481108934553991 0 -0.0017814883827635944 -0.00067340644628151541 0 -0.0018352899265702792 -0.00065481108934553991 0 -0.0018313750078250155 -0.00071162054873668342 0 -0.0017150861493360333 -0.00071320671550365023 0 -0.0017814883827635944 -0.00067340644628151541 0 -0.0017719613760829446 -0.0007410918144401588 0 -0.0017814883827635944 -0.00067340644628151541 0 -0.0017719613760829446 -0.0007410918144401588 0 -0.0018313750078250155 -0.00071162054873668342 0 -0.001866558791438001 -0.00065043320081622472 0 -0.0018352899265702792 -0.00065481108934553991 0 -0.0018313750078250155 -0.00071162054873668342 0 -0.0018879912804823187 -0.00069323520467004377 0 -0.001866558791438001 -0.00065043320081622472 0 -0.0018919341492111788 -0.00065967064678686669 0 -0.0018879912804823187 -0.00069323520467004377 0 -0.001866558791438001 -0.00065043320081622472 0 -0.0018313750078250155 -0.00071162054873668342 0 -0.0018879912804823187 -0.00069323520467004377 0 -0.0018313750078250155 -0.00071162054873668342 0 -0.0018639471390142479 -0.00075661587675395045 0 -0.0018313750078250155 -0.00071162054873668342 0 -0.0018639471390142479 -0.00075661587675395045 0 -0.0018169150614039829 -0.0008001072111268959 0 -0.0017048855223727177 -0.00079870466981530361 0 -0.0017719613760829446 -0.0007410918144401588 0 -0.0018169150614039829 -0.0008001072111268959 0 -0.0017719613760829446 -0.0007410918144401588 0 -0.0018313750078250155 -0.00071162054873668342 0 -0.0018169150614039829 -0.0008001072111268959 0 0.00028479826697218319 -0.00092449115765194992 0 0.00024222611706048856 -0.00097678819169444539 0 0.0023305628432241285 -0.0010884417672729679 0 0.002491964492012568 -0.0010578652320920227 0 0.0023634492258470187 -0.00093350125276430026 0 0.0026952282377721419 -0.0010098147454629073 0 0.002491964492012568 -0.0010578652320920227 0 0.0025301656660483818 -0.00088553361825692198 0 0.0060003336902665644 -0.00084928872003244037 0 0.0057068370665823258 -0.00043379408457059932 0 0.0062284578827107298 -0.00019655780083603587 0 0.0057068370665823258 -0.00043379408457059932 0 0.0052497189182814305 -0.00097992151979357659 0 0.0052290921215004636 -0.00020630529460222101 0 0.0060003336902665644 -0.00084928872003244037 0 0.0057068370665823258 -0.00043379408457059932 0 0.0052497189182814305 -0.00097992151979357659 0 0.0041249546817258408 -0.00094533807587464369 0 0.003848941956460373 -0.00094339477241812476 0 0.002491964492012568 -0.0010578652320920227 0 0.0025301656660483818 -0.00088553361825692198 0 0.0023634492258470187 -0.00093350125276430026 0 0.003848941956460373 -0.00094339477241812476 0 0.0033145339730988451 -0.0010361389209699321 0 0.0052497189182814305 -0.00097992151979357659 0 0.0044829603255102527 -0.001087139466015785 0 0.0045686195389891878 -0.00038672775505552728 0 0.0052497189182814305 -0.00097992151979357659 0 0.0045686195389891878 -0.00038672775505552728 0 0.0052290921215004636 -0.00020630529460222101 0 0.0052290921215004636 -0.00020630529460222101 0 0.0047296999779757234 0.00039753118178640842 0 0.0052607554712679385 0.00032537910085973695 0 0.0045686195389891878 -0.00038672775505552728 0 0.0052290921215004636 -0.00020630529460222101 0 0.0047296999779757234 0.00039753118178640842 0 0.004238055046561333 0.00010141363008495605 0 0.0045686195389891878 -0.00038672775505552728 0 0.0047296999779757234 0.00039753118178640842 0 0.0039590191752489267 0.00056788620683739571 0 0.0047296999779757234 0.00039753118178640842 0 0.0047359981957852326 0.0010394791496303026 0 0.0047296999779757234 0.00039753118178640842 0 0.0052607554712679385 0.00032537910085973695 0 0.0053024877214061291 0.00075725896054779388 0 0.0058180851309898732 0.00035088323136509274 0 0.0052471197979765804 0.00082316571407501575 0 0.0057952404652429354 0.00036146786818934466 0 0.0059236833366113888 0.0006428461410754523 0 0.0054921177462936357 0.00065823420697954554 0 0.0052607554712679385 0.00032537910085973695 0 0.0057952404652429354 0.00036146786818934466 0 0.0053024877214061291 0.00075725896054779388 0 0.0063041961963741493 0.00041845677099278507 0 0.0057952404652429354 0.00036146786818934466 0 0.0059236833366113888 0.0006428461410754523 0 0.0063041961963741493 0.00041845677099278507 0 0.0057952404652429354 0.00036146786818934466 0 0.0062284578827107298 -0.00019655780083603587 0 0.0057068370665823258 -0.00043379408457059932 0 0.0057952404652429354 0.00036146786818934466 0 0.0062284578827107298 -0.00019655780083603587 0 0.0052290921215004636 -0.00020630529460222101 0 0.0052607554712679385 0.00032537910085973695 0 0.0057952404652429354 0.00036146786818934466 0 0.0057068370665823258 -0.00043379408457059932 0 0.0052290921215004636 -0.00020630529460222101 0 0.0057952404652429354 0.00036146786818934466 0 0.0058109225453620338 0.0011466996100602223 0 0.0060873493475276643 0.001116382011318764 0 0.0058270807820954319 0.00089506588933215697 0 0.0058109225453620338 0.0011466996100602223 0 0.0058270807820954319 0.00089506588933215697 0 0.0056065140652200099 0.00099320207886092549 0 0.0058109225453620338 0.0011466996100602223 0 0.0057587643985887779 0.0013315952778439103 0 0.0056065140652200099 0.00099320207886092549 0 0.0057970226189061448 0.0013132778181229778 0 0.0057593903826598999 0.0013343730009767131 0 0.0060791495638910188 0.0013224816339698655 0 0.0076111866903863208 0.00053623815689483271 0 0.0078320827187769101 0.0004223143666370313 0 0.0058109225453620338 0.0011466996100602223 0 0.0057970226189061448 0.0013132778181229778 0 0.0057587643985887779 0.0013315952778439103 0 0.0058109225453620338 0.0011466996100602223 0 0.0057970226189061448 0.0013132778181229778 0 0.0059784079662560689 0.0012401059889195134 0 0.0060791495638910188 0.0013224816339698655 0 0.0059784079662560689 0.0012401059889195134 0 0.0060873493475276643 0.001116382011318764 0 0.0064838563372612698 0.0012251676993633282 0 0.0060791495638910188 0.0013224816339698655 0 0.0060873493475276643 0.001116382011318764 0 0.0057970226189061448 0.0013132778181229778 0 0.0060791495638910188 0.0013224816339698655 0 0.0059784079662560689 0.0012401059889195134 0 0.0064838563372612698 0.0012251676993633282 0 0.0060873493475276643 0.001116382011318764 0 0.0062363888344790447 0.00084411330701330591 0 0.0058109225453620338 0.0011466996100602223 0 0.0059784079662560689 0.0012401059889195134 0 0.0060873493475276643 0.001116382011318764 0 0.0063041961963741493 0.00041845677099278507 0 0.0059236833366113888 0.0006428461410754523 0 0.0062363888344790447 0.00084411330701330591 0 0.0059236833366113888 0.0006428461410754523 0 0.0062363888344790447 0.00084411330701330591 0 0.0058270807820954319 0.00089506588933215697 0 0.0060873493475276643 0.001116382011318764 0 0.0062363888344790447 0.00084411330701330591 0 0.0058270807820954319 0.00089506588933215697 0 0.0059236833366113888 0.0006428461410754523 0 0.0058270807820954319 0.00089506588933215697 0 0.0054921177462936357 0.00065823420697954554 0 0.0058270807820954319 0.00089506588933215697 0 0.0056065140652200099 0.00099320207886092549 0 0.0054921177462936357 0.00065823420697954554 0 0.0047296999779757234 0.00039753118178640842 0 0.0053024877214061291 0.00075725896054779388 0 0.004740126546853133 0.0010570621954242314 0 0.0053024877214061291 0.00075725896054779388 0 0.0048440825695245807 0.0011205564446220616 0 0.004740126546853133 0.0010570621954242314 0 0.0056065140652200099 0.00099320207886092549 0 0.0054921177462936357 0.00065823420697954554 0 0.0051453024759322138 0.00094058274641445978 0 0.0052471197979765804 0.00082316571407501575 0 0.0058172814215196886 0.00040561670939449131 0 0.0069040934176421275 -0.0012488234930720572 0 0.0069050332446697216 -0.001246355218632741 0 0.0068932701288580006 -0.0012552980659208 0 0.0046030718914312685 0.00075159529363993613 0 0.0056829947515640977 0.00026333169419636983 0 0.0061197103182070488 0.00024106245834196204 0 0.0060688736747242841 0.00020959690363607595 0 0.0060701992810663977 0.00028058128757110968 0 0.0058172814215196886 0.00040561670939449131 0 0.006715117748779747 -0.00048239099759743225 0 0.0058172814215196886 0.00040561670939449131 0 0.0056829947515640977 0.00026333169419636983 0 0.0056829947515640977 0.00026333169419636983 0 0.006715117748779747 -0.00048239099759743225 0 0.0075374605767803866 -0.00028075802550924037 0 0.0075912829548521483 -0.00023748719997016004 0 0.0075579832809629282 -0.00014624234640883241 0 0.0074071497725064434 -0.00069071615957520631 0 0.0074177420515369723 -0.0006262735409096813 0 0.0073675392728127726 -0.00065867817648679469 0 0.006715117748779747 -0.00048239099759743225 0 0.0082160824925942028 -0.00051906577561287588 0 0.006715117748779747 -0.00048239099759743225 0 0.0072591800280479906 -0.0011153124275885362 0 0.0075530761347355159 -0.00029439922219360025 0 0.0075374605767803866 -0.00028075802550924037 0 0.0075912829548521483 -0.00023748719997016004 0 0.0057587643985887779 0.0013315952778439103 0 0.0056065140652200099 0.00099320207886092549 0 0.0051453024759322138 0.00094058274641445978 0 0.0078320827187769101 0.0004223143666370313 0 0.0058172814215196886 0.00040561670939449131 0 0.0076916949744683504 -0.00021200253485902717 0 0.0075912829548521483 -0.00023748719997016004 0 0.0076224624625513323 -0.00017935221775830027 0 0.0076916949744683504 -0.00021200253485902717 0 0.0075530761347355159 -0.00029439922219360025 0 0.0075912829548521483 -0.00023748719997016004 0 0.0075912829548521483 -0.00023748719997016004 0 0.0076224624625513323 -0.00017935221775830027 0 0.0075579832809629282 -0.00014624234640883241 0 0.010158536644376309 0.00020010931711922627 0 0.010008942067418737 0.00026110559741050515 0 0.010099704054749348 0.00031765046251830056 0 0.0090715620475989491 -0.00011908171753865567 0 0.0082160824925942028 -0.00051906577561287588 0 0.010158536644376309 0.00020010931711922627 0 0.010200959766676992 0.00029581060617688259 0 0.010099704054749348 0.00031765046251830056 0 0.010158536644376309 0.00020010931711922627 0 0.010200959766676992 0.00029581060617688259 0 0.01026186312370443 0.00026674526197170641 0 0.0077248428282591947 -0.001008506237533503 0 0.0075544802119303592 -0.0010135998125054904 0 0.0074763967659031783 -0.0011736500406016362 0 0.0082160824925942028 -0.00051906577561287588 0 0.0072591800280479906 -0.0011153124275885362 0 0.0077151494111405705 -0.0011581525354285617 0 0.0077104191381429906 -0.0010418584666021008 0 0.0076619431042903672 -0.0010902127384227822 0 0.0082160824925942028 -0.00051906577561287588 0 0.0097310120506489649 7.3072239355109742e-05 0 0.0077248428282591947 -0.001008506237533503 0 0.0074648834046997289 -0.00087631751559002363 0 0.0075544802119303592 -0.0010135998125054904 0 0.0082160824925942028 -0.00051906577561287588 0 0.0074867090924453815 -0.0010281596345043714 0 0.0099835847293354603 0.00024162721641323671 0 0.010099704054749348 0.00031765046251830056 0 0.0099707461336587221 0.00062962751925927361 0 0.0077151494111405705 -0.0011581525354285617 0 0.0076619431042903672 -0.0010902127384227822 0 0.0076246019129349481 -0.001120219203918517 0 0.010099704054749348 0.00031765046251830056 0 0.010208654166193574 0.00038124732803695901 0 0.0099707461336587221 0.00062962751925927361 0 0.010200959766676992 0.00029581060617688259 0 0.010099704054749348 0.00031765046251830056 0 0.010208654166193574 0.00038124732803695901 0 0.0082160824925942028 -0.00051906577561287588 0 0.01014911889848584 0.00051468565524276312 0 0.010208654166193574 0.00038124732803695901 0 0.010294946613852576 0.00036072961026370655 0 0.010295280170599368 0.00044968860244906433 0 0.010294946613852576 0.00036072961026370655 0 0.010406236543589147 0.00042226615913789982 0 0.010295280170599368 0.00044968860244906433 0 0.010294946613852576 0.00036072961026370655 0 0.01035449765186402 0.0003073785298414367 0 0.010406236543589147 0.00042226615913789982 0 0.010294946613852576 0.00036072961026370655 0 0.01026186312370443 0.00026674526197170641 0 0.01035449765186402 0.0003073785298414367 0 0.010200959766676992 0.00029581060617688259 0 0.010294946613852576 0.00036072961026370655 0 0.01026186312370443 0.00026674526197170641 0 0.010200959766676992 0.00029581060617688259 0 0.010208654166193574 0.00038124732803695901 0 0.010294946613852576 0.00036072961026370655 0 0.010277788190662558 0.00014642404261055886 0 0.01026186312370443 0.00026674526197170641 0 0.01035449765186402 0.0003073785298414367 0 0.010277788190662558 0.00014642404261055886 0 0.010158536644376309 0.00020010931711922627 0 0.01026186312370443 0.00026674526197170641 0 0.0078320827187769101 0.0004223143666370313 0 0.0090715620475989491 -0.00011908171753865567 0 0.010479921816477167 0.00028567853527035889 0 0.010277788190662558 0.00014642404261055886 0 0.01035449765186402 0.0003073785298414367 0 0.0084641044668510128 0.0010962166230614704 0 0.0078320827187769101 0.0004223143666370313 0 0.0063717004786801711 0.0017050072528844208 0 0.0057593903826598999 0.0013343730009767131 0 0.0060791495638910188 0.0013224816339698655 0 0.0064838563372612698 0.0012251676993633282 0 0.0063717004786801711 0.0017050072528844208 0 0.0060791495638910188 0.0013224816339698655 0 0.010479921816477167 0.00028567853527035889 0 0.01035449765186402 0.0003073785298414367 0 0.010406236543589147 0.00042226615913789982 0 0.01055768125617086 0.00046994023472078373 0 0.010406236543589147 0.00042226615913789982 0 0.010468505083651394 0.00053791688167675541 0 0.010406236543589147 0.00042226615913789982 0 0.010468505083651394 0.00053791688167675541 0 0.010368464553768469 0.00052532250839114347 0 0.010295280170599368 0.00044968860244906433 0 0.010284997190319778 0.00052495103434557582 0 0.010231469090527214 0.00049439957018760619 0 0.010406236543589147 0.00042226615913789982 0 0.010295280170599368 0.00044968860244906433 0 0.010368464553768469 0.00052532250839114347 0 0.010295280170599368 0.00044968860244906433 0 0.010368464553768469 0.00052532250839114347 0 0.010284997190319778 0.00052495103434557582 0 0.010284997190319778 0.00052495103434557582 0 0.010338337361178637 0.00060393442172627259 0 0.010234146720509655 0.00058787501405641648 0 0.010368464553768469 0.00052532250839114347 0 0.010338337361178637 0.00060393442172627259 0 0.010422344811311542 0.00061214932191533042 0 0.010368464553768469 0.00052532250839114347 0 0.010284997190319778 0.00052495103434557582 0 0.010338337361178637 0.00060393442172627259 0 0.010338337361178637 0.00060393442172627259 0 0.010422344811311542 0.00061214932191533042 0 0.010409900762084966 0.0007050769830543737 0 0.010338337361178637 0.00060393442172627259 0 0.010312578326484887 0.00067313156766146524 0 0.010234146720509655 0.00058787501405641648 0 0.010505559912473785 0.00065420773406375246 0 0.010468505083651394 0.00053791688167675541 0 0.010422344811311542 0.00061214932191533042 0 0.010468505083651394 0.00053791688167675541 0 0.010368464553768469 0.00052532250839114347 0 0.010422344811311542 0.00061214932191533042 0 0.010505559912473785 0.00065420773406375246 0 0.010422344811311542 0.00061214932191533042 0 0.010409900762084966 0.0007050769830543737 0 0.010505559912473785 0.00065420773406375246 0 0.01053974422983499 0.00076228522379067243 0 0.010409900762084966 0.0007050769830543737 0 0.010338337361178637 0.00060393442172627259 0 0.010409900762084966 0.0007050769830543737 0 0.010312578326484887 0.00067313156766146524 0 0.010409900762084966 0.0007050769830543737 0 0.010312578326484887 0.00067313156766146524 0 0.010323959292431783 0.0007814904088902329 0 0.010323959292431783 0.0007814904088902329 0 0.010435442975110343 0.00083466219184042312 0 0.010330454214904578 0.00086298582239576664 0 0.010409900762084966 0.0007050769830543737 0 0.010323959292431783 0.0007814904088902329 0 0.010435442975110343 0.00083466219184042312 0 0.01053974422983499 0.00076228522379067243 0 0.010435442975110343 0.00083466219184042312 0 0.01058402817128953 0.00086478840920011511 0 0.01053974422983499 0.00076228522379067243 0 0.010409900762084966 0.0007050769830543737 0 0.010435442975110343 0.00083466219184042312 0 0.011985682105042252 -0.0006244525748587041 0 0.01179026333910938 5.2422199945367318e-05 0 0.013219255867150052 -0.0016245034178554519 0 0.01302450152377866 -0.0013278729819649433 0 0.013273285215214259 -0.0012627896109655404 0 0.013219255867150052 -0.0016245034178554519 0 0.012969938683240645 -0.0016235124886722037 0 0.01302450152377866 -0.0013278729819649433 0 0.011985682105042252 -0.0006244525748587041 0 0.013336980556688447 -0.0012485783653947262 0 0.013267097888179608 -0.0010500111495938868 0 0.013342902624424091 -0.00095754985298647944 0 0.01329710753677224 -0.00096752112344502075 0 0.010182545569700023 0.00074840621382799553 0 0.010269028031124422 0.00079960570220349023 0 0.010255785679917121 0.00088949136852839439 0 0.010323959292431783 0.0007814904088902329 0 0.010269028031124422 0.00079960570220349023 0 0.010330454214904578 0.00086298582239576664 0 0.010323959292431783 0.0007814904088902329 0 0.010269028031124422 0.00079960570220349023 0 0.010250589130033091 0.00071185893699598829 0 0.010182545569700023 0.00074840621382799553 0 0.010269028031124422 0.00079960570220349023 0 0.010250589130033091 0.00071185893699598829 0 0.010312578326484887 0.00067313156766146524 0 0.010250589130033091 0.00071185893699598829 0 0.010234146720509655 0.00058787501405641648 0 0.010312578326484887 0.00067313156766146524 0 0.010323959292431783 0.0007814904088902329 0 0.010250589130033091 0.00071185893699598829 0 0.010182545569700023 0.00074840621382799553 0 0.010250589130033091 0.00071185893699598829 0 0.010161401453681098 0.00063534631296339517 0 0.013219255867150052 -0.0016245034178554519 0 0.013020514577071148 -0.0020379215522861932 0 0.012996571098208377 -0.0017880250591853382 0 0.010737353264312233 -0.00050642613034364357 0 0.010720497392199053 -0.00032483248170100688 0 0.010806178948856354 -0.00024818100553636335 0 0.011985682105042252 -0.0006244525748587041 0 0.010432448223841378 0.00030290448587890823 0 0.011985682105042252 -0.0006244525748587041 0 0.010524098201771774 -0.00096934247804497198 0 0.013219255867150052 -0.0016245034178554519 0 0.012996571098208377 -0.0017880250591853382 0 0.012969938683240645 -0.0016235124886722037 0 0.010432448223841378 0.00030290448587890823 0 0.0097310120506489649 7.3072239355109742e-05 0 0.010161401453681098 0.00063534631296339517 0 0.010234146720509655 0.00058787501405641648 0 0.010144145699143127 0.00052199614355719905 0 0.010720497392199053 -0.00032483248170100688 0 0.010806178948856354 -0.00024818100553636335 0 0.010705643955299713 -0.00014247360304118058 0 0.0076584944321103831 -0.0010123958897270465 0 0.007663434233168176 -0.0010037808722769431 0 0.0077104191381429906 -0.0010418584666021008 0 0.010524098201771774 -0.00096934247804497198 0 0.0097310120506489649 7.3072239355109742e-05 0 0.010384357125343377 -0.0010657713865685127 0 0.010524098201771774 -0.00096934247804497198 0 0.010250589130033091 0.00071185893699598829 0 0.010161401453681098 0.00063534631296339517 0 0.010234146720509655 0.00058787501405641648 0 0.01026212369230568 0.00052932297478321371 0 0.0097310120506489649 7.3072239355109742e-05 0 0.010234146720509655 0.00058787501405641648 0 0.010231469090527214 0.00049439957018760619 0 0.010144145699143127 0.00052199614355719905 0 0.010208654166193574 0.00038124732803695901 0 0.010231469090527214 0.00049439957018760619 0 0.010144145699143127 0.00052199614355719905 0 0.010208654166193574 0.00038124732803695901 0 0.010295280170599368 0.00044968860244906433 0 0.010231469090527214 0.00049439957018760619 0 0.010284997190319778 0.00052495103434557582 0 0.010234146720509655 0.00058787501405641648 0 0.010231469090527214 0.00049439957018760619 0 0.0077104191381429906 -0.0010418584666021008 0 0.0076619431042903672 -0.0010902127384227822 0 0.0076551512729331195 -0.0010490384042701197 0 0.0076584944321103831 -0.0010123958897270465 0 0.0077104191381429906 -0.0010418584666021008 0 0.0076551512729331195 -0.0010490384042701197 0 0.0076619431042903672 -0.0010902127384227822 0 0.0076179694341313867 -0.0010713042550330417 0 0.0076551512729331195 -0.0010490384042701197 0 0.0076179694341313867 -0.0010713042550330417 0 0.0075942976152785207 -0.001049324167741862 0 0.0076261478312583302 -0.0010308417161641933 0 0.0076179694341313867 -0.0010713042550330417 0 0.0076551512729331195 -0.0010490384042701197 0 0.0076261478312583302 -0.0010308417161641933 0 0.0076179694341313867 -0.0010713042550330417 0 0.0075487840362183489 -0.0010870829725289758 0 0.0076246019129349481 -0.001120219203918517 0 0.0076179694341313867 -0.0010713042550330417 0 0.0075487840362183489 -0.0010870829725289758 0 0.0075942976152785207 -0.001049324167741862 0 0.0075487840362183489 -0.0010870829725289758 0 0.0075235571705359605 -0.0010344148635852808 0 0.0075740924903616473 -0.0010397307985260712 0 0.0073203306557043518 -0.0010756093472290161 0 0.0075431588899564934 -0.0011275500550253889 0 0.0075487840362183489 -0.0010870829725289758 0 0.0075942976152785207 -0.001049324167741862 0 0.0075740924903616473 -0.0010397307985260712 0 0.0075235571705359605 -0.0010344148635852808 0 0.0075740924903616473 -0.0010397307985260712 0 0.0075956863423403929 -0.0010005295263564831 0 0.0075942976152785207 -0.001049324167741862 0 0.0075740924903616473 -0.0010397307985260712 0 0.0075983744885402965 -0.0010170394858683969 0 0.0075740924903616473 -0.0010397307985260712 0 0.0075956863423403929 -0.0010005295263564831 0 0.0075983744885402965 -0.0010170394858683969 0 0.0075956863423403929 -0.0010005295263564831 0 0.0075845285286737125 -0.001007742401810229 0 0.0076247981704880893 -0.00094246663953244261 0 0.0075956863423403929 -0.0010005295263564831 0 0.0075983744885402965 -0.0010170394858683969 0 0.0075845285286737125 -0.001007742401810229 0 0.0075235571705359605 -0.0010344148635852808 0 0.0075956863423403929 -0.0010005295263564831 0 0.0076247981704880893 -0.00094246663953244261 0 0.0076570936520602064 -0.0010038564487490228 0 0.0075845285286737125 -0.001007742401810229 0 0.0075433182669431276 -0.0010474537010967673 0 0.010524098201771774 -0.00096934247804497198 0 0.010096682787997411 -0.0014690513910699367 0 0.0076584944321103831 -0.0010123958897270465 0 0.0076570936520602064 -0.0010038564487490228 0 0.0076261478312583302 -0.0010308417161641933 0 0.0076570936520602064 -0.0010038564487490228 0 0.0076261478312583302 -0.0010308417161641933 0 0.0075983744885402965 -0.0010170394858683969 0 0.0076584944321103831 -0.0010123958897270465 0 0.0076551512729331195 -0.0010490384042701197 0 0.0076261478312583302 -0.0010308417161641933 0 0.0075942976152785207 -0.001049324167741862 0 0.0076261478312583302 -0.0010308417161641933 0 0.0075983744885402965 -0.0010170394858683969 0 0.0076570936520602064 -0.0010038564487490228 0 0.0075983744885402965 -0.0010170394858683969 0 0.0075845285286737125 -0.001007742401810229 0 0.013020514577071148 -0.0020379215522861932 0 0.012996571098208377 -0.0017880250591853382 0 0.01279032974870321 -0.0017788513238738218 0 0.012996571098208377 -0.0017880250591853382 0 0.01279032974870321 -0.0017788513238738218 0 0.012969938683240645 -0.0016235124886722037 0 0.0075845285286737125 -0.001007742401810229 0 0.0075433182669431276 -0.0010474537010967673 0 0.0076247981704880893 -0.00094246663953244261 0 0.0075433182669431276 -0.0010474537010967673 0 0.0076247981704880893 -0.00094246663953244261 0 0.0076953355026013106 -0.0011660426585906511 0 0.0075433182669431276 -0.0010474537010967673 0 0.0076953355026013106 -0.0011660426585906511 0 0.0077311249405339752 -0.0014537526480171833 0 0.0076247981704880893 -0.00094246663953244261 0 0.0076953355026013106 -0.0011660426585906511 0 0.0079421673439449333 -0.0011022429875790693 0 0.012464796990415935 -0.0015546772034524604 0 0.012812651025471146 -0.0014851996225355314 0 0.012607295574083409 -0.0013136957139361363 0 0.01279032974870321 -0.0017788513238738218 0 0.012518766746839468 -0.0015039957228203114 0 0.012812651025471146 -0.0014851996225355314 0 0.010885785905662219 -0.0013286784453715027 0 0.013241845177500967 -0.0014314488973171976 0 0.010096682787997411 -0.0014690513910699367 0 0.010885785905662219 -0.0013286784453715027 0 0.0076953355026013106 -0.0011660426585906511 0 0.0077311249405339752 -0.0014537526480171833 0 0.0079405900773951658 -0.0012766973420625318 0 0.012464796990415935 -0.0015546772034524604 0 0.01232466013499591 -0.0014237067793749013 0 0.012607295574083409 -0.0013136957139361363 0 0.010885785905662219 -0.0013286784453715027 0 0.011981598347617745 -0.0018045710872068561 0 0.012812651025471146 -0.0014851996225355314 0 0.012969938683240645 -0.0016235124886722037 0 0.01302450152377866 -0.0013278729819649433 0 0.01279032974870321 -0.0017788513238738218 0 0.012812651025471146 -0.0014851996225355314 0 0.012969938683240645 -0.0016235124886722037 0 0.011779721377913104 -0.0016397718840756197 0 0.01232466013499591 -0.0014237067793749013 0 0.011950086061351782 -0.0012375376232339904 0 0.01245699535151437 -0.0015750058434129837 0 0.011779721377913104 -0.0016397718840756197 0 0.01232466013499591 -0.0014237067793749013 0 0.0077311249405339752 -0.0014537526480171833 0 0.0084181025715270811 -0.0014897005391784005 0 0.0079405900773951658 -0.0012766973420625318 0 0.010885785905662219 -0.0013286784453715027 0 0.009920225383704552 -0.0015949479881782953 0 0.0076247981704880893 -0.00094246663953244261 0 0.0079421673439449333 -0.0011022429875790693 0 0.0083937582885471058 -0.00088944965147272229 0 0.0081029996198321956 -0.0011959659186562082 0 0.0079421673439449333 -0.0011022429875790693 0 0.0083937582885471058 -0.00088944965147272229 0 0.0081029996198321956 -0.0011959659186562082 0 0.0079405900773951658 -0.0012766973420625318 0 0.0079421673439449333 -0.0011022429875790693 0 0.0084181025715270811 -0.0014897005391784005 0 0.0081029996198321956 -0.0011959659186562082 0 0.0079405900773951658 -0.0012766973420625318 0 0.0076953355026013106 -0.0011660426585906511 0 0.0079405900773951658 -0.0012766973420625318 0 0.0079421673439449333 -0.0011022429875790693 0 0.0084181025715270811 -0.0014897005391784005 0 0.0083937582885471058 -0.00088944965147272229 0 0.0087412435103059322 -0.001215335338003102 0 0.0084181025715270811 -0.0014897005391784005 0 0.0081029996198321956 -0.0011959659186562082 0 0.0083937582885471058 -0.00088944965147272229 0 0.0069491514861532901 -0.00093211793388285418 0 0.0070197169147823537 -0.0011314032378564563 0 0.006858089900047379 -0.0010681402845746056 0 0.0076171658946377159 -0.00093707487310419287 0 0.0076769732026831169 -0.00091862937831142571 0 0.0075235571705359605 -0.0010344148635852808 0 0.0076247981704880893 -0.00094246663953244261 0 0.0069491514861532901 -0.00093211793388285418 0 0.0075235571705359605 -0.0010344148635852808 0 0.0069491514861532901 -0.00093211793388285418 0 0.0070197169147823537 -0.0011314032378564563 0 0.0075362252614065055 -0.0014562380355438015 0 0.0075235571705359605 -0.0010344148635852808 0 0.0070197169147823537 -0.0011314032378564563 0 0.0069502461803325425 -0.0011277380315577517 0 0.0070197169147823537 -0.0011314032378564563 0 0.0069324363567968396 -0.0011298127485616844 0 0.0073203306557043518 -0.0010756093472290161 0 0.0070243071751193795 -0.001190117208528996 0 0.0070197169147823537 -0.0011314032378564563 0 0.0069234637947977618 -0.0011222933080611967 0 0.0069324363567968396 -0.0011298127485616844 0 0.0070197169147823537 -0.0011314032378564563 0 0.0069234637947977618 -0.0011222933080611967 0 0.006858089900047379 -0.0010681402845746056 0 0.0068758382016910471 -0.0011778010208582509 0 0.0069324363567968396 -0.0011298127485616844 0 0.0068522911794293871 -0.0011364992831447913 0 0.0069234637947977618 -0.0011222933080611967 0 0.0069324363567968396 -0.0011298127485616844 0 0.0068522911794293871 -0.0011364992831447913 0 0.0068758382016910471 -0.0011778010208582509 0 0.0068006168200335304 -0.0011693201092742151 0 0.0068522911794293871 -0.0011364992831447913 0 0.0068758382016910471 -0.0011778010208582509 0 0.0069324363567968396 -0.0011298127485616844 0 0.0069461573640013799 -0.0011507073456073237 0 0.0068758382016910471 -0.0011778010208582509 0 0.0069461573640013799 -0.0011507073456073237 0 0.0069429641736582313 -0.0012250394027247618 0 0.0069502461803325425 -0.0011277380315577517 0 0.0069324363567968396 -0.0011298127485616844 0 0.0069461573640013799 -0.0011507073456073237 0 0.007228920969975885 -0.00075498440820358464 0 0.0072437750805048389 -0.0010300184974575168 0 0.0072713283008975088 -0.0010084984879374138 0 0.0073203306557043518 -0.0010756093472290161 0 0.0074867090924453815 -0.0010281596345043714 0 0.0073203306557043518 -0.0010756093472290161 0 0.007082477522573437 -0.0010579280499178614 0 0.007228920969975885 -0.00075498440820358464 0 0.0074648834046997289 -0.00087631751559002363 0 0.0072713283008975088 -0.0010084984879374138 0 0.0074648834046997289 -0.00087631751559002363 0 0.0074321303465372029 -0.0010125873185673167 0 0.0072713283008975088 -0.0010084984879374138 0 0.0076619431042903672 -0.0010902127384227822 0 0.0076179694341313867 -0.0010713042550330417 0 0.0076246019129349481 -0.001120219203918517 0 0.0074648834046997289 -0.00087631751559002363 0 0.0075544802119303592 -0.0010135998125054904 0 0.0074321303465372029 -0.0010125873185673167 0 0.0074321303465372029 -0.0010125873185673167 0 0.0072713283008975088 -0.0010084984879374138 0 0.0074763967659031783 -0.0011736500406016362 0 0.0075544802119303592 -0.0010135998125054904 0 0.0074321303465372029 -0.0010125873185673167 0 0.0074763967659031783 -0.0011736500406016362 0 0.007346962367772554 -0.0010550420904283076 0 0.0072591800280479906 -0.0011153124275885362 0 0.0072437750805048389 -0.0010300184974575168 0 0.0072713283008975088 -0.0010084984879374138 0 0.0074364302271971361 -0.0011472955426750041 0 0.007082477522573437 -0.0010579280499178614 0 0.0069912474360832371 -0.0012686047794517341 0 0.0072437750805048389 -0.0010300184974575168 0 0.0072531160967213683 -0.001268198821231083 0 0.0074364302271971361 -0.0011472955426750041 0 0.0069912474360832371 -0.0012686047794517341 0 0.0072591800280479906 -0.0011153124275885362 0 0.0069050332446697216 -0.001246355218632741 0 0.0068934120693927544 -0.0012354889258309216 0 0.0068932701288580006 -0.0012552980659208 0 0.0068714543575056908 -0.0012494145442816405 0 0.0068934120693927544 -0.0012354889258309216 0 0.0068932701288580006 -0.0012552980659208 0 0.0068869356189572763 -0.0012836725414713264 0 0.0069040934176421275 -0.0012488234930720572 0 0.0068932701288580006 -0.0012552980659208 0 0.0054357360036035767 -0.00041815398816837541 0 0.0056829947515640977 0.00026333169419636983 0 0.0068869356189572763 -0.0012836725414713264 0 0.0068932701288580006 -0.0012552980659208 0 0.0068828848259675293 -0.0012681661127707522 0 0.0068755525290237042 -0.0012905004490564352 0 0.0068714543575056908 -0.0012494145442816405 0 0.0068828848259675293 -0.0012681661127707522 0 0.0068714543575056908 -0.0012494145442816405 0 0.0068932701288580006 -0.0012552980659208 0 0.0068828848259675293 -0.0012681661127707522 0 0.0068585466556736058 -0.0012809893388678779 0 0.0069912474360832371 -0.0012686047794517341 0 0.0068755525290237042 -0.0012905004490564352 0 0.0068869356189572763 -0.0012836725414713264 0 0.0068828848259675293 -0.0012681661127707522 0 0.0068755525290237042 -0.0012905004490564352 0 0.0068773527756445813 -0.0012621186442375333 0 0.0068587816496961437 -0.0012713565215160369 0 0.0069912474360832371 -0.0012686047794517341 0 0.006840810315849404 -0.0012737268217409363 0 0.0067919730123903567 -0.0013265028534320141 0 0.0068587816496961437 -0.0012713565215160369 0 0.0068010139692683737 -0.0012296513179403887 0 0.0068758382016910471 -0.0011778010208582509 0 0.0068010139692683737 -0.0012296513179403887 0 0.0068006168200335304 -0.0011693201092742151 0 0.0068758382016910471 -0.0011778010208582509 0 0.0068587816496961437 -0.0012713565215160369 0 0.0068010139692683737 -0.0012296513179403887 0 0.0068758382016910471 -0.0011778010208582509 0 0.0069429641736582313 -0.0012250394027247618 0 0.0068587816496961437 -0.0012713565215160369 0 0.0068010139692683737 -0.0012296513179403887 0 0.0067150310559692117 -0.0011668252372805568 0 0.0068006168200335304 -0.0011693201092742151 0 0.0067919730123903567 -0.0013265028534320141 0 0.0068010139692683737 -0.0012296513179403887 0 0.0067222270547407032 -0.0012781098305785421 0 0.0068010139692683737 -0.0012296513179403887 0 0.0067150310559692117 -0.0011668252372805568 0 0.0067222270547407032 -0.0012781098305785421 0 0.0067150310559692117 -0.0011668252372805568 0 0.0067222270547407032 -0.0012781098305785421 0 0.0066010437484910313 -0.0012853398087051564 0 0.0067150310559692117 -0.0011668252372805568 0 0.0066010437484910313 -0.0012853398087051564 0 0.0064890170115595109 -0.0011923261848770009 0 0.0064289935743490215 -0.001298963389198507 0 0.0066010437484910313 -0.0012853398087051564 0 0.0064890170115595109 -0.0011923261848770009 0 0.0064289935743490215 -0.001298963389198507 0 0.0064890170115595109 -0.0011923261848770009 0 0.006302524484221742 -0.0012560693972624498 0 0.0066064003154121184 -0.0012071194036998184 0 0.0064090775840024887 -0.0010240522656025143 0 0.006708970473141544 -0.0011680408859466019 0 0.006689547600604008 -0.0011628061962618073 0 0.0066772695048953603 -0.0011829765033162789 0 0.006708970473141544 -0.0011680408859466019 0 0.0066987410958816752 -0.0011510517746181124 0 0.0067207696384970778 -0.0011477041542211611 0 0.006708970473141544 -0.0011680408859466019 0 0.006689547600604008 -0.0011628061962618073 0 0.0066987410958816752 -0.0011510517746181124 0 0.0067150310559692117 -0.0011668252372805568 0 0.006708970473141544 -0.0011680408859466019 0 0.0067207696384970778 -0.0011477041542211611 0 0.0067007471589804798 -0.0011587229261386827 0 0.0066064003154121184 -0.0012071194036998184 0 0.0067207696384970778 -0.0011477041542211611 0 0.0067453774887880234 -0.0011167564989479149 0 0.0067649290954294701 -0.0011425851971101901 0 0.0067207696384970778 -0.0011477041542211611 0 0.0067000762328428233 -0.0011279566540876491 0 0.0067175597385280179 -0.0011073910580028563 0 0.0066987410958816752 -0.0011510517746181124 0 0.0067000762328428233 -0.0011279566540876491 0 0.0066877526614450098 -0.0011361851942310985 0 0.0066987410958816752 -0.0011510517746181124 0 0.0067207696384970778 -0.0011477041542211611 0 0.0067000762328428233 -0.0011279566540876491 0 0.0067000762328428233 -0.0011279566540876491 0 0.0066804308877118825 -0.0011163570613146444 0 0.0066877526614450098 -0.0011361851942310985 0 0.0067000762328428233 -0.0011279566540876491 0 0.006698875693214929 -0.001100975922633411 0 0.0066804308877118825 -0.0011163570613146444 0 0.0067000762328428233 -0.0011279566540876491 0 0.0067175597385280179 -0.0011073910580028563 0 0.006698875693214929 -0.001100975922633411 0 0.0067175597385280179 -0.0011073910580028563 0 0.006698875693214929 -0.001100975922633411 0 0.0067196748550831685 -0.0010798934836133765 0 0.006698875693214929 -0.001100975922633411 0 0.0067005720928981129 -0.0010784045639145917 0 0.0066819712214100449 -0.0010909952430556411 0 0.0067207696384970778 -0.0011477041542211611 0 0.0067175597385280179 -0.0011073910580028563 0 0.0067453774887880234 -0.0011167564989479149 0 0.0067175597385280179 -0.0011073910580028563 0 0.0067453774887880234 -0.0011167564989479149 0 0.0067390465289259112 -0.0010839387321093198 0 0.0067453774887880234 -0.0011167564989479149 0 0.0067649290954294701 -0.0011425851971101901 0 0.0067853935836548179 -0.0010868731076778639 0 0.0067649290954294701 -0.0011425851971101901 0 0.0068522911794293871 -0.0011364992831447913 0 0.0067853935836548179 -0.0010868731076778639 0 0.0067150310559692117 -0.0011668252372805568 0 0.0067207696384970778 -0.0011477041542211611 0 0.0067649290954294701 -0.0011425851971101901 0 0.0067150310559692117 -0.0011668252372805568 0 0.0067649290954294701 -0.0011425851971101901 0 0.0068006168200335304 -0.0011693201092742151 0 0.0067649290954294701 -0.0011425851971101901 0 0.0068006168200335304 -0.0011693201092742151 0 0.0068522911794293871 -0.0011364992831447913 0 0.0069234637947977618 -0.0011222933080611967 0 0.0068522911794293871 -0.0011364992831447913 0 0.006858089900047379 -0.0010681402845746056 0 0.0068522911794293871 -0.0011364992831447913 0 0.006858089900047379 -0.0010681402845746056 0 0.0067853935836548179 -0.0010868731076778639 0 0.0067853935836548179 -0.0010868731076778639 0 0.0067837228287467482 -0.0010150950744590146 0 0.0067495102350592258 -0.0010509850636761233 0 0.006858089900047379 -0.0010681402845746056 0 0.0067853935836548179 -0.0010868731076778639 0 0.0067837228287467482 -0.0010150950744590146 0 0.0076769732026831169 -0.00091862937831142571 0 0.0079745913979370857 -0.0009358861013713753 0 0.0069491514861532901 -0.00093211793388285418 0 0.006858089900047379 -0.0010681402845746056 0 0.0067837228287467482 -0.0010150950744590146 0 0.0083937582885471058 -0.00088944965147272229 0 0.0091798513079255663 -0.00086840293551629887 0 0.0087412435103059322 -0.001215335338003102 0 0.0091798513079255663 -0.00086840293551629887 0 0.0087412435103059322 -0.001215335338003102 0 0.0090964913588242307 -0.0014866232495846685 0 0.0091798513079255663 -0.00086840293551629887 0 0.0090964913588242307 -0.0014866232495846685 0 0.0095147843983057791 -0.0011651498959212271 0 0.011045606917747405 -0.0016963536334204591 0 0.010660554335450427 -0.0013169515204710953 0 0.011318840282388266 -0.0011745968694982735 0 0.009920225383704552 -0.0015949479881782953 0 0.010121215822922839 -0.001574951458346908 0 0.0084181025715270811 -0.0014897005391784005 0 0.0087412435103059322 -0.001215335338003102 0 0.0090964913588242307 -0.0014866232495846685 0 0.011779721377913104 -0.0016397718840756197 0 0.011045606917747405 -0.0016963536334204591 0 0.011318840282388266 -0.0011745968694982735 0 0.010004551872183895 -0.0015190141837142155 0 0.010116247911129701 -0.0015140820614302592 0 0.010221627924420024 -0.001303711962030275 0 0.011045606917747405 -0.0016963536334204591 0 0.010004551872183895 -0.0015190141837142155 0 0.010660554335450427 -0.0013169515204710953 0 0.010004551872183895 -0.0015190141837142155 0 0.010660554335450427 -0.0013169515204710953 0 0.010221627924420024 -0.001303711962030275 0 0.010121215822922839 -0.001574951458346908 0 0.010010594721332953 -0.0015341806687237107 0 0.010004551872183895 -0.0015190141837142155 0 0.0095147843983057791 -0.0011651498959212271 0 0.0098074270197410912 -0.0012434223704065178 0 0.0090964913588242307 -0.0014866232495846685 0 0.010004551872183895 -0.0015190141837142155 0 0.0095147843983057791 -0.0011651498959212271 0 0.0095147843983057791 -0.0011651498959212271 0 0.0098074270197410912 -0.0012434223704065178 0 0.0095595238330312537 -0.0009801793898203074 0 0.0098074270197410912 -0.0012434223704065178 0 0.0097829009298054624 -0.0011565824353809203 0 0.0095595238330312537 -0.0009801793898203074 0 0.0092752858791248522 -0.00065414409196480562 0 0.0095785153107183531 -0.00091919819299955978 0 0.010116247911129701 -0.0015140820614302592 0 0.0097829009298054624 -0.0011565824353809203 0 0.0096087227516543326 -0.00087314884651631941 0 0.0083821106358414697 0.00026080860289954763 0 0.0087634962883311913 -0.0003144076540896087 0 0.0096087227516543326 -0.00087314884651631941 0 0.010116247911129701 -0.0015140820614302592 0 0.0098074270197410912 -0.0012434223704065178 0 0.0097829009298054624 -0.0011565824353809203 0 0.010004551872183895 -0.0015190141837142155 0 0.010116247911129701 -0.0015140820614302592 0 0.0098074270197410912 -0.0012434223704065178 0 0.0087634962883311913 -0.0003144076540896087 0 0.0089417124584894956 -0.00066018494807372073 0 0.0086658979773597215 -0.00049244547709762052 0 0.0089079879946103082 -0.00075860220625704859 0 0.0092006675847947691 -0.00073672560653943373 0 0.0096084800533340117 -0.00090821004408916928 0 0.0087634962883311913 -0.0003144076540896087 0 0.0089417124584894956 -0.00066018494807372073 0 0.0092006675847947691 -0.00073672560653943373 0 0.0087634962883311913 -0.0003144076540896087 0 0.0092006675847947691 -0.00073672560653943373 0 0.0096087227516543326 -0.00087314884651631941 0 0.0089417124584894956 -0.00066018494807372073 0 0.0089079879946103082 -0.00075860220625704859 0 0.0086586886567618822 -0.00064285651176318372 0 0.0089417124584894956 -0.00066018494807372073 0 0.0089079879946103082 -0.00075860220625704859 0 0.0092006675847947691 -0.00073672560653943373 0 0.0097829009298054624 -0.0011565824353809203 0 0.0096087227516543326 -0.00087314884651631941 0 0.0095595238330312537 -0.0009801793898203074 0 0.0096087227516543326 -0.00087314884651631941 0 0.0096084800533340117 -0.00090821004408916928 0 0.0095595238330312537 -0.0009801793898203074 0 0.0092006675847947691 -0.00073672560653943373 0 0.0096087227516543326 -0.00087314884651631941 0 0.0096084800533340117 -0.00090821004408916928 0 0.0067193526626361808 -0.0010409889903016055 0 0.0067172546856940196 -0.0010536431499748645 0 0.0067280888830450001 -0.0010574588964252626 0 0.0067193526626361808 -0.0010409889903016055 0 0.0067136754942160991 -0.0010494101505060568 0 0.0067081345998624663 -0.0010488932077944064 0 0.0067193526626361808 -0.0010409889903016055 0 0.0067136754942160991 -0.0010494101505060568 0 0.0067172546856940196 -0.0010536431499748645 0 0.0067136754942160991 -0.0010494101505060568 0 0.0067172546856940196 -0.0010536431499748645 0 0.0067096712380027733 -0.0010539818418616299 0 0.0067136754942160991 -0.0010494101505060568 0 0.0067096712380027733 -0.0010539818418616299 0 0.0067081345998624663 -0.0010488932077944064 0 0.0067193526626361808 -0.0010409889903016055 0 0.0067081345998624663 -0.0010488932077944064 0 0.006698913554038767 -0.0010496151387272012 0 0.0089079879946103082 -0.00075860220625704859 0 0.0096084800533340117 -0.00090821004408916928 0 0.0084306734379342545 -0.0008438008324500874 0 0.0067193526626361808 -0.0010409889903016055 0 0.006698913554038767 -0.0010496151387272012 0 0.0066856039278127572 -0.0010487009836745523 0 0.0067096712380027733 -0.0010539818418616299 0 0.0067081345998624663 -0.0010488932077944064 0 0.0067020371297205894 -0.0010557381155740482 0 0.0067081345998624663 -0.0010488932077944064 0 0.006698913554038767 -0.0010496151387272012 0 0.0067020371297205894 -0.0010557381155740482 0 0.0067837228287467482 -0.0010150950744590146 0 0.0067193526626361808 -0.0010409889903016055 0 0.0067495102350592258 -0.0010509850636761233 0 0.0067193526626361808 -0.0010409889903016055 0 0.0067495102350592258 -0.0010509850636761233 0 0.0067280888830450001 -0.0010574588964252626 0 0.0091798513079255663 -0.00086840293551629887 0 0.0095147843983057791 -0.0011651498959212271 0 0.0095595238330312537 -0.0009801793898203074 0 0.0079745913979370857 -0.0009358861013713753 0 0.0081712261911216326 -0.0010061151414858611 0 0.0091798513079255663 -0.00086840293551629887 0 0.0096084800533340117 -0.00090821004408916928 0 0.0095595238330312537 -0.0009801793898203074 0 0.0067853935836548179 -0.0010868731076778639 0 0.0067495102350592258 -0.0010509850636761233 0 0.0067390465289259112 -0.0010839387321093198 0 0.0067453774887880234 -0.0011167564989479149 0 0.0067853935836548179 -0.0010868731076778639 0 0.0067390465289259112 -0.0010839387321093198 0 0.0067495102350592258 -0.0010509850636761233 0 0.0067280888830450001 -0.0010574588964252626 0 0.0067390465289259112 -0.0010839387321093198 0 0.0067175597385280179 -0.0011073910580028563 0 0.0067390465289259112 -0.0010839387321093198 0 0.0067196748550831685 -0.0010798934836133765 0 0.0067280888830450001 -0.0010574588964252626 0 0.0067390465289259112 -0.0010839387321093198 0 0.0067196748550831685 -0.0010798934836133765 0 0.0067071448681905012 -0.0010623006707671525 0 0.0067162539610308098 -0.0010665033016094595 0 0.0067005720928981129 -0.0010784045639145917 0 0.0066972207186738577 -0.0010668944324659019 0 0.0067071448681905012 -0.0010623006707671525 0 0.0067005720928981129 -0.0010784045639145917 0 0.0066972207186738577 -0.0010668944324659019 0 0.0067020371297205894 -0.0010557381155740482 0 0.0067071448681905012 -0.0010623006707671525 0 0.006698913554038767 -0.0010496151387272012 0 0.0067020371297205894 -0.0010557381155740482 0 0.0066928157868775427 -0.0010585894911064777 0 0.0066972207186738577 -0.0010668944324659019 0 0.0067020371297205894 -0.0010557381155740482 0 0.0066928157868775427 -0.0010585894911064777 0 0.0067172546856940196 -0.0010536431499748645 0 0.0067096712380027733 -0.0010539818418616299 0 0.0067071448681905012 -0.0010623006707671525 0 0.0067096712380027733 -0.0010539818418616299 0 0.0067020371297205894 -0.0010557381155740482 0 0.0067071448681905012 -0.0010623006707671525 0 0.0067280888830450001 -0.0010574588964252626 0 0.0067162539610308098 -0.0010665033016094595 0 0.0067196748550831685 -0.0010798934836133765 0 0.0067172546856940196 -0.0010536431499748645 0 0.0067071448681905012 -0.0010623006707671525 0 0.0067162539610308098 -0.0010665033016094595 0 0.0067172546856940196 -0.0010536431499748645 0 0.0067280888830450001 -0.0010574588964252626 0 0.0067162539610308098 -0.0010665033016094595 0 0.0067162539610308098 -0.0010665033016094595 0 0.0067196748550831685 -0.0010798934836133765 0 0.0067005720928981129 -0.0010784045639145917 0 0.0066972207186738577 -0.0010668944324659019 0 0.0067005720928981129 -0.0010784045639145917 0 0.0066849522682128435 -0.0010713586753715078 0 0.006698875693214929 -0.001100975922633411 0 0.0067196748550831685 -0.0010798934836133765 0 0.0067005720928981129 -0.0010784045639145917 0 0.0067005720928981129 -0.0010784045639145917 0 0.0066849522682128435 -0.0010713586753715078 0 0.0066819712214100449 -0.0010909952430556411 0 0.0066849522682128435 -0.0010713586753715078 0 0.006668047702364302 -0.001075345589886044 0 0.0066819712214100449 -0.0010909952430556411 0 0.006668047702364302 -0.001075345589886044 0 0.0066552948701248463 -0.0010459356704224339 0 0.0066602030735696026 -0.0011021404169290843 0 0.0066849522682128435 -0.0010713586753715078 0 0.006668047702364302 -0.001075345589886044 0 0.0066772905802424485 -0.0010659020835393567 0 0.006668047702364302 -0.001075345589886044 0 0.0066731998326825985 -0.0010560783033269697 0 0.0066552948701248463 -0.0010459356704224339 0 0.006668047702364302 -0.001075345589886044 0 0.0066772905802424485 -0.0010659020835393567 0 0.0066731998326825985 -0.0010560783033269697 0 0.0066772905802424485 -0.0010659020835393567 0 0.0066731998326825985 -0.0010560783033269697 0 0.0066830462862384208 -0.0010607331528568473 0 0.0066731998326825985 -0.0010560783033269697 0 0.0066825089600503484 -0.0010549561638658188 0 0.0066830462862384208 -0.0010607331528568473 0 0.0066825089600503484 -0.0010549561638658188 0 0.0066830462862384208 -0.0010607331528568473 0 0.0066881428696093552 -0.0010543040317491331 0 0.0066830462862384208 -0.0010607331528568473 0 0.0066881428696093552 -0.0010543040317491331 0 0.0066928157868775427 -0.0010585894911064777 0 0.0066972207186738577 -0.0010668944324659019 0 0.0066849522682128435 -0.0010713586753715078 0 0.0066928157868775427 -0.0010585894911064777 0 0.0066849522682128435 -0.0010713586753715078 0 0.0066830462862384208 -0.0010607331528568473 0 0.0066928157868775427 -0.0010585894911064777 0 0.0066849522682128435 -0.0010713586753715078 0 0.0066772905802424485 -0.0010659020835393567 0 0.0066830462862384208 -0.0010607331528568473 0 0.0068630004828902297 -0.0007361201443269183 0 0.0063014261719190473 -0.00051325947602510644 0 0.0062349223945311 -0.00012226969413319975 0 0.0063353115824319687 -0.00038106207072728692 0 0.0060119569339247021 6.5342402112270224e-05 0 0.0062349223945311 -0.00012226969413319975 0 0.0064565135798316025 -0.00020244434787923687 0 0.0061159817524056269 -4.3999127544077001e-05 0 0.0062349223945311 -0.00012226969413319975 0 0.0064574472368837902 -0.00024695473544359358 0 0.0063353115824319687 -0.00038106207072728692 0 0.0062349223945311 -0.00012226969413319975 0 0.0064574472368837902 -0.00024695473544359358 0 0.0064565135798316025 -0.00020244434787923687 0 0.0064574472368837902 -0.00024695473544359358 0 0.0067298393448280112 -0.00043255165118263634 0 0.0064565135798316025 -0.00020244434787923687 0 0.0067298393448280112 -0.00043255165118263634 0 0.007175507534830353 -0.00028590222465973145 0 0.0067952939733417553 -0.0002404660058605433 0 0.0067298393448280112 -0.00043255165118263634 0 0.0067952939733417553 -0.0002404660058605433 0 0.0064565135798316025 -0.00020244434787923687 0 0.0064574472368837902 -0.00024695473544359358 0 0.0067298393448280112 -0.00043255165118263634 0 0.0063353115824319687 -0.00038106207072728692 0 0.0067298393448280112 -0.00043255165118263634 0 0.0073091773101269433 -0.00058617256297385377 0 0.0073642035445186139 -0.00043046434221641219 0 0.0067298393448280112 -0.00043255165118263634 0 0.0073091773101269433 -0.00058617256297385377 0 0.0073009177273893992 -0.00070080937052320515 0 0.0069040747072383083 -0.00072923803215387646 0 0.0068630004828902297 -0.0007361201443269183 0 0.0068560005006430202 -0.00063915958493419172 0 0.0068630004828902297 -0.0007361201443269183 0 0.0073091773101269433 -0.00058617256297385377 0 0.0073713587514282804 -0.00098058952937175436 0 0.0074790631967686693 -0.00072399514132087206 0 0.0073713587514282804 -0.00098058952937175436 0 0.0076628077675467933 -0.00078776620772287229 0 0.0074790631967686693 -0.00072399514132087206 0 0.0073091773101269433 -0.00058617256297385377 0 0.0074790631967686693 -0.00072399514132087206 0 0.0075505882349353173 -0.00059751289833230125 0 0.0076628077675467933 -0.00078776620772287229 0 0.0074790631967686693 -0.00072399514132087206 0 0.0075505882349353173 -0.00059751289833230125 0 0.0077020525821471994 -0.00029195170849288831 0 0.0073642035445186139 -0.00043046434221641219 0 0.007175507534830353 -0.00028590222465973145 0 0.0075505882349353173 -0.00059751289833230125 0 0.0076494341866196296 -0.00046751434474282552 0 0.0073642035445186139 -0.00043046434221641219 0 0.0075505882349353173 -0.00059751289833230125 0 0.0076494341866196296 -0.00046751434474282552 0 0.0078227427741339103 -0.00062541077663630146 0 0.0073091773101269433 -0.00058617256297385377 0 0.0075505882349353173 -0.00059751289833230125 0 0.0073642035445186139 -0.00043046434221641219 0 0.0076494341866196296 -0.00046751434474282552 0 0.0077020525821471994 -0.00029195170849288831 0 0.0073642035445186139 -0.00043046434221641219 0 0.0067298393448280112 -0.00043255165118263634 0 0.0073642035445186139 -0.00043046434221641219 0 0.007175507534830353 -0.00028590222465973145 0 0.007175507534830353 -0.00028590222465973145 0 0.0072425318056924329 -0.00010102622589712047 0 0.0067952939733417553 -0.0002404660058605433 0 0.0096084800533340117 -0.00090821004408916928 0 0.0073713587514282804 -0.00098058952937175436 0 0.0084306734379342545 -0.0008438008324500874 0 0.0067193526626361808 -0.0010409889903016055 0 0.0066552948701248463 -0.0010459356704224339 0 0.0066856039278127572 -0.0010487009836745523 0 0.0081712261911216326 -0.0010061151414858611 0 0.0068630004828902297 -0.0007361201443269183 0 0.006698913554038767 -0.0010496151387272012 0 0.0066881428696093552 -0.0010543040317491331 0 0.0066856039278127572 -0.0010487009836745523 0 0.006698913554038767 -0.0010496151387272012 0 0.0066881428696093552 -0.0010543040317491331 0 0.0066928157868775427 -0.0010585894911064777 0 0.0066731998326825985 -0.0010560783033269697 0 0.0066825089600503484 -0.0010549561638658188 0 0.0066856039278127572 -0.0010487009836745523 0 0.0066825089600503484 -0.0010549561638658188 0 0.0066881428696093552 -0.0010543040317491331 0 0.0066856039278127572 -0.0010487009836745523 0 0.0073713587514282804 -0.00098058952937175436 0 0.0084306734379342545 -0.0008438008324500874 0 0.0080060153020584113 -0.00082071507447576319 0 0.0073713587514282804 -0.00098058952937175436 0 0.0076628077675467933 -0.00078776620772287229 0 0.0080060153020584113 -0.00082071507447576319 0 0.0066731998326825985 -0.0010560783033269697 0 0.0066552948701248463 -0.0010459356704224339 0 0.0066856039278127572 -0.0010487009836745523 0 0.0076628077675467933 -0.00078776620772287229 0 0.0080060153020584113 -0.00082071507447576319 0 0.0078227427741339103 -0.00062541077663630146 0 0.0076628077675467933 -0.00078776620772287229 0 0.0075505882349353173 -0.00059751289833230125 0 0.0078227427741339103 -0.00062541077663630146 0 0.0084306734379342545 -0.0008438008324500874 0 0.0080060153020584113 -0.00082071507447576319 0 0.0082474562477833739 -0.00067237535561735621 0 0.0080124546470316336 -0.00048550399793125275 0 0.0084204187582725531 -0.0005192760431256356 0 0.0082474562477833739 -0.00067237535561735621 0 0.0080060153020584113 -0.00082071507447576319 0 0.0080329003177331982 -0.00064439452922545552 0 0.0082474562477833739 -0.00067237535561735621 0 0.0080329003177331982 -0.00064439452922545552 0 0.0080124546470316336 -0.00048550399793125275 0 0.0082474562477833739 -0.00067237535561735621 0 0.0076494341866196296 -0.00046751434474282552 0 0.0078227427741339103 -0.00062541077663630146 0 0.0080124546470316336 -0.00048550399793125275 0 0.0080060153020584113 -0.00082071507447576319 0 0.0080329003177331982 -0.00064439452922545552 0 0.0078227427741339103 -0.00062541077663630146 0 0.0080329003177331982 -0.00064439452922545552 0 0.0078227427741339103 -0.00062541077663630146 0 0.0080124546470316336 -0.00048550399793125275 0 0.0076494341866196296 -0.00046751434474282552 0 0.0077020525821471994 -0.00029195170849288831 0 0.0080124546470316336 -0.00048550399793125275 0 0.0077020525821471994 -0.00029195170849288831 0 0.0080124546470316336 -0.00048550399793125275 0 0.0081347287218521518 -0.00027447615254441634 0 0.0080124546470316336 -0.00048550399793125275 0 0.0084204187582725531 -0.0005192760431256356 0 0.0081347287218521518 -0.00027447615254441634 0 0.0084204187582725531 -0.0005192760431256356 0 0.0084630611867408979 -0.00068038909243235105 0 0.0082474562477833739 -0.00067237535561735621 0 0.0084306734379342545 -0.0008438008324500874 0 0.0084630611867408979 -0.00068038909243235105 0 0.0086162925932237594 -0.00074289497995432355 0 0.0084306734379342545 -0.0008438008324500874 0 0.0084630611867408979 -0.00068038909243235105 0 0.0082474562477833739 -0.00067237535561735621 0 0.0089079879946103082 -0.00075860220625704859 0 0.0086162925932237594 -0.00074289497995432355 0 0.0086586886567618822 -0.00064285651176318372 0 0.0089079879946103082 -0.00075860220625704859 0 0.0084306734379342545 -0.0008438008324500874 0 0.0086162925932237594 -0.00074289497995432355 0 0.0084630611867408979 -0.00068038909243235105 0 0.0086162925932237594 -0.00074289497995432355 0 0.0086586886567618822 -0.00064285651176318372 0 0.0084204187582725531 -0.0005192760431256356 0 0.0084630611867408979 -0.00068038909243235105 0 0.0086586886567618822 -0.00064285651176318372 0 0.0084204187582725531 -0.0005192760431256356 0 0.0086658979773597215 -0.00049244547709762052 0 0.0084577377221407759 -0.00033031429021102585 0 0.0089417124584894956 -0.00066018494807372073 0 0.0086586886567618822 -0.00064285651176318372 0 0.0086658979773597215 -0.00049244547709762052 0 0.0084204187582725531 -0.0005192760431256356 0 0.0086586886567618822 -0.00064285651176318372 0 0.0086658979773597215 -0.00049244547709762052 0 0.0087634962883311913 -0.0003144076540896087 0 0.0086658979773597215 -0.00049244547709762052 0 0.0084577377221407759 -0.00033031429021102585 0 0.0084204187582725531 -0.0005192760431256356 0 0.0084577377221407759 -0.00033031429021102585 0 0.0081347287218521518 -0.00027447615254441634 0 0.0084577377221407759 -0.00033031429021102585 0 0.0082873960055783891 -4.1689830552935075e-05 0 0.0081347287218521518 -0.00027447615254441634 0 0.0087634962883311913 -0.0003144076540896087 0 0.0084577377221407759 -0.00033031429021102585 0 0.0082873960055783891 -4.1689830552935075e-05 0 0.0083821106358414697 0.00026080860289954763 0 0.0082873960055783891 -4.1689830552935075e-05 0 0.0081249812487016113 0.00016735909814238198 0 0.0083821106358414697 0.00026080860289954763 0 0.0087634962883311913 -0.0003144076540896087 0 0.0082873960055783891 -4.1689830552935075e-05 0 0.0082873960055783891 -4.1689830552935075e-05 0 0.0079043824435708569 -5.8405997578250048e-05 0 0.0081249812487016113 0.00016735909814238198 0 0.0077020525821471994 -0.00029195170849288831 0 0.0079043824435708569 -5.8405997578250048e-05 0 0.0081347287218521518 -0.00027447615254441634 0 0.0082873960055783891 -4.1689830552935075e-05 0 0.0079043824435708569 -5.8405997578250048e-05 0 0.0081347287218521518 -0.00027447615254441634 0 0.0077020525821471994 -0.00029195170849288831 0 0.0079043824435708569 -5.8405997578250048e-05 0 0.0075264016772987538 -0.00012754308159525801 0 0.0077020525821471994 -0.00029195170849288831 0 0.007175507534830353 -0.00028590222465973145 0 0.0075264016772987538 -0.00012754308159525801 0 0.0075264016772987538 -0.00012754308159525801 0 0.0077031834175105163 2.8420103815262124e-05 0 0.0072425318056924329 -0.00010102622589712047 0 0.007175507534830353 -0.00028590222465973145 0 0.0075264016772987538 -0.00012754308159525801 0 0.0072425318056924329 -0.00010102622589712047 0 0.0077031834175105163 2.8420103815262124e-05 0 0.0075343028046747631 3.1650485231361287e-05 0 0.0072425318056924329 -0.00010102622589712047 0 0.0079043824435708569 -5.8405997578250048e-05 0 0.0075264016772987538 -0.00012754308159525801 0 0.0077031834175105163 2.8420103815262124e-05 0 0.0079043824435708569 -5.8405997578250048e-05 0 0.0077031834175105163 2.8420103815262124e-05 0 0.0081249812487016113 0.00016735909814238198 0 0.0077031834175105163 2.8420103815262124e-05 0 0.0079991456471231737 0.00013148765180826533 0 0.0081249812487016113 0.00016735909814238198 0 0.0077031834175105163 2.8420103815262124e-05 0 0.0079991456471231737 0.00013148765180826533 0 0.0075343028046747631 3.1650485231361287e-05 0 0.0083821106358414697 0.00026080860289954763 0 0.0081249812487016113 0.00016735909814238198 0 0.0083945679921755712 9.1406206138655582e-05 0 0.0092752858791248522 -0.00065414409196480562 0 0.0091527707752919619 -0.0004800028375113393 0 0.0079991456471231737 0.00013148765180826533 0 0.0081249812487016113 0.00016735909814238198 0 0.0083945679921755712 9.1406206138655582e-05 0 0.0073313302671179619 1.1734538206712142e-07 0 0.0075343028046747631 3.1650485231361287e-05 0 0.0069184129852111085 -6.7594734164372745e-05 0 0.0073313302671179619 1.1734538206712142e-07 0 0.0075343028046747631 3.1650485231361287e-05 0 0.0081082886401067696 5.1748954036000048e-05 0 0.0079991456471231737 0.00013148765180826533 0 0.0075343028046747631 3.1650485231361287e-05 0 0.0081082886401067696 5.1748954036000048e-05 0 0.0075343028046747631 3.1650485231361287e-05 0 0.0072425318056924329 -0.00010102622589712047 0 0.0069184129852111085 -6.7594734164372745e-05 0 0.0072425318056924329 -0.00010102622589712047 0 0.0069184129852111085 -6.7594734164372745e-05 0 0.0067952939733417553 -0.0002404660058605433 0 0.0073313302671179619 1.1734538206712142e-07 0 0.0069184129852111085 -6.7594734164372745e-05 0 0.0064506519913360687 -2.3022131967401916e-07 0 0.0069184129852111085 -6.7594734164372745e-05 0 0.0064506519913360687 -2.3022131967401916e-07 0 0.0063329548754682448 -0.00010241220845613588 0 0.0069184129852111085 -6.7594734164372745e-05 0 0.0067952939733417553 -0.0002404660058605433 0 0.0063329548754682448 -0.00010241220845613588 0 0.0067952939733417553 -0.0002404660058605433 0 0.0064565135798316025 -0.00020244434787923687 0 0.0063329548754682448 -0.00010241220845613588 0 0.0063329548754682448 -0.00010241220845613588 0 0.0058005982281326878 -9.7034491088555278e-06 0 0.0061159817524056269 -4.3999127544077001e-05 0 0.0064565135798316025 -0.00020244434787923687 0 0.0063329548754682448 -0.00010241220845613588 0 0.0061159817524056269 -4.3999127544077001e-05 0 0.0064506519913360687 -2.3022131967401916e-07 0 0.0063329548754682448 -0.00010241220845613588 0 0.0055700752957789845 3.0167566152870279e-08 0 0.0063329548754682448 -0.00010241220845613588 0 0.0055700752957789845 3.0167566152870279e-08 0 0.0058005982281326878 -9.7034491088555278e-06 0 0.0055700752957789845 3.0167566152870279e-08 0 0.005365363395257128 -1.5988740606949772e-06 0 0.0058005982281326878 -9.7034491088555278e-06 0 0.0046894699347908289 -1.7379622366518161e-07 0 0.005365363395257128 -1.5988740606949772e-06 0 0.0049067697663192087 -0.00016315206235021422 0 0.0055700752957789845 3.0167566152870279e-08 0 0.0046894699347908289 -1.7379622366518161e-07 0 0.005365363395257128 -1.5988740606949772e-06 0 0.005365363395257128 -1.5988740606949772e-06 0 0.0049067697663192087 -0.00016315206235021422 0 0.0055747090127765617 -0.00013456881347932099 0 0.005365363395257128 -1.5988740606949772e-06 0 0.0058088807755320958 1.4364138238101017e-05 0 0.0055747090127765617 -0.00013456881347932099 0 0.005365363395257128 -1.5988740606949772e-06 0 0.0058088807755320958 1.4364138238101017e-05 0 0.0058005982281326878 -9.7034491088555278e-06 0 0.0058088807755320958 1.4364138238101017e-05 0 0.0058005982281326878 -9.7034491088555278e-06 0 0.0061159817524056269 -4.3999127544077001e-05 0 0.0058088807755320958 1.4364138238101017e-05 0 0.0061159817524056269 -4.3999127544077001e-05 0 0.0060263652082601475 1.473266532591997e-05 0 0.0062349223945311 -0.00012226969413319975 0 0.0061159817524056269 -4.3999127544077001e-05 0 0.0060263652082601475 1.473266532591997e-05 0 0.0062349223945311 -0.00012226969413319975 0 0.0060263652082601475 1.473266532591997e-05 0 0.0060119569339247021 6.5342402112270224e-05 0 0.0060263652082601475 1.473266532591997e-05 0 0.0060119569339247021 6.5342402112270224e-05 0 0.0058952514789200093 -9.534279882548951e-06 0 0.0058088807755320958 1.4364138238101017e-05 0 0.0060263652082601475 1.473266532591997e-05 0 0.0058952514789200093 -9.534279882548951e-06 0 0.006698875693214929 -0.001100975922633411 0 0.0066819712214100449 -0.0010909952430556411 0 0.0066804308877118825 -0.0011163570613146444 0 0.006668047702364302 -0.001075345589886044 0 0.0066819712214100449 -0.0010909952430556411 0 0.0066602030735696026 -0.0011021404169290843 0 0.0066819712214100449 -0.0010909952430556411 0 0.0066602030735696026 -0.0011021404169290843 0 0.0066804308877118825 -0.0011163570613146444 0 0.0066602030735696026 -0.0011021404169290843 0 0.0066804308877118825 -0.0011163570613146444 0 0.0066708702359799263 -0.0011485810898678871 0 0.0063014261719190473 -0.00051325947602510644 0 0.0063636967180998151 -0.00064455785796541738 0 0.0066804308877118825 -0.0011163570613146444 0 0.0066877526614450098 -0.0011361851942310985 0 0.0066708702359799263 -0.0011485810898678871 0 0.0066987410958816752 -0.0011510517746181124 0 0.0066877526614450098 -0.0011361851942310985 0 0.0066708702359799263 -0.0011485810898678871 0 0.0058088807755320958 1.4364138238101017e-05 0 0.0058952514789200093 -9.534279882548951e-06 0 0.0055747090127765617 -0.00013456881347932099 0 0.0058701664215102013 -1.7570249511534361e-05 0 0.0059415564646745191 -0.00034865591803318486 0 0.0058952514789200093 -9.534279882548951e-06 0 0.0058341495586723274 -0.00036372060706729595 0 0.0055747090127765617 -0.00013456881347932099 0 0.0060119569339247021 6.5342402112270224e-05 0 0.0058952514789200093 -9.534279882548951e-06 0 0.0060533511250389794 -0.00019533654732135108 0 0.0058952514789200093 -9.534279882548951e-06 0 0.0059212018128959954 -0.00030999924844401827 0 0.0060533511250389794 -0.00019533654732135108 0 0.0058341495586723274 -0.00036372060706729595 0 0.0055747090127765617 -0.00013456881347932099 0 0.0054394133780308503 -0.00038984800375697058 0 0.0058341495586723274 -0.00036372060706729595 0 0.0054835114928427266 -0.00070117066525057716 0 0.0054394133780308503 -0.00038984800375697058 0 0.0059212018128959954 -0.00030999924844401827 0 0.0060533511250389794 -0.00019533654732135108 0 0.0061225734046127514 -0.00057803988741981019 0 0.006689547600604008 -0.0011628061962618073 0 0.0066708702359799263 -0.0011485810898678871 0 0.0066772695048953603 -0.0011829765033162789 0 0.006689547600604008 -0.0011628061962618073 0 0.0066987410958816752 -0.0011510517746181124 0 0.0066708702359799263 -0.0011485810898678871 0 0.0059706470737107961 -0.00065708428306195739 0 0.0059212018128959954 -0.00030999924844401827 0 0.0061225734046127514 -0.00057803988741981019 0 0.0063636967180998151 -0.00064455785796541738 0 0.0064090775840024887 -0.0010240522656025143 0 0.0059708597093793151 -0.0011102342530672324 0 0.0058341495586723274 -0.00036372060706729595 0 0.0056343184170350533 -0.00097842594824488669 0 0.0058341495586723274 -0.00036372060706729595 0 0.0056343184170350533 -0.00097842594824488669 0 0.0054835114928427266 -0.00070117066525057716 0 0.0054183392069836632 -0.00088343337950081433 0 0.0059415564646745191 -0.00034865591803318486 0 0.0052216152265451435 -0.0010675907307263737 0 0.0054835114928427266 -0.00070117066525057716 0 0.0051814208116022263 -0.00058524507143782795 0 0.0052216152265451435 -0.0010675907307263737 0 0.0056343184170350533 -0.00097842594824488669 0 0.0054835114928427266 -0.00070117066525057716 0 0.0051814208116022263 -0.00058524507143782795 0 0.0048730171129922704 -0.000815905745741336 0 0.0049067697663192087 -0.00016315206235021422 0 0.0054835114928427266 -0.00070117066525057716 0 0.0051814208116022263 -0.00058524507143782795 0 0.0054394133780308503 -0.00038984800375697058 0 0.0052216152265451435 -0.0010675907307263737 0 0.0051814208116022263 -0.00058524507143782795 0 0.0048730171129922704 -0.000815905745741336 0 0.0045519492205065657 -0.00038416518982652815 0 0.0047964752401307631 -0.00011645198267777451 0 0.0041762941086702582 -2.6854447526620899e-05 0 0.0038085015171292398 -1.9659814338432332e-07 0 0.0049067697663192087 -0.00016315206235021422 0 0.0036628983178460697 -2.678178361921327e-05 0 0.0041762941086702582 -2.6854447526620899e-05 0 0.0038085015171292398 -1.9659814338432332e-07 0 0.0046894699347908289 -1.7379622366518161e-07 0 0.0038085015171292398 -1.9659814338432332e-07 0 0.0049067697663192087 -0.00016315206235021422 0 0.0049067697663192087 -0.00016315206235021422 0 0.0055747090127765617 -0.00013456881347932099 0 0.0054394133780308503 -0.00038984800375697058 0 0.0051814208116022263 -0.00058524507143782795 0 0.0049067697663192087 -0.00016315206235021422 0 0.0054394133780308503 -0.00038984800375697058 0 0.010623552078727722 5.4171259678374371e-05 0 0.011171484073620471 0.00012414475906567378 0 0.010163811026359526 0.00015645033658849268 0 0.011296282025854067 0.00012181845828286715 0 0.010461759309759493 6.2035526400403449e-05 0 0.011036871076328669 -5.9430241274028519e-05 0 0.01073987753087806 2.5508590082077884e-07 0 0.0099742639906408269 -6.4620042960322597e-07 0 0.011036871076328669 -5.9430241274028519e-05 0 0.01073987753087806 2.5508590082077884e-07 0 0.011514840200904982 6.2968131456833372e-05 0 0.01073987753087806 2.5508590082077884e-07 0 0.011514840200904982 6.2968131456833372e-05 0 0.011506391747531774 9.6751340913141228e-08 0 0.011036871076328669 -5.9430241274028519e-05 0 0.011514840200904982 6.2968131456833372e-05 0 0.011296282025854067 0.00012181845828286715 0 0.011296282025854067 0.00012181845828286715 0 0.011567504428047357 7.8463849092930688e-05 0 0.011817465873344897 6.3397525975753176e-05 0 0.011514840200904982 6.2968131456833372e-05 0 0.011296282025854067 0.00012181845828286715 0 0.011817465873344897 6.3397525975753176e-05 0 0.011567504428047357 7.8463849092930688e-05 0 0.011993439481546719 3.265579771051815e-05 0 0.011817465873344897 6.3397525975753176e-05 0 0.011567504428047357 7.8463849092930688e-05 0 0.011857203134481418 2.6784902402221991e-05 0 0.011993439481546719 3.265579771051815e-05 0 0.011567504428047357 7.8463849092930688e-05 0 0.01094956133025342 8.7876201566845446e-05 0 0.011492471234948039 7.353858258661907e-05 0 0.011296282025854067 0.00012181845828286715 0 0.011567504428047357 7.8463849092930688e-05 0 0.01094956133025342 8.7876201566845446e-05 0 0.011296282025854067 0.00012181845828286715 0 0.010461759309759493 6.2035526400403449e-05 0 0.01094956133025342 8.7876201566845446e-05 0 0.010461759309759493 6.2035526400403449e-05 0 0.01094956133025342 8.7876201566845446e-05 0 0.010106883942403078 -7.512366969043265e-06 0 0.01094956133025342 8.7876201566845446e-05 0 0.011020203631105042 4.4977821974070026e-05 0 0.011492471234948039 7.353858258661907e-05 0 0.01094956133025342 8.7876201566845446e-05 0 0.010106883942403078 -7.512366969043265e-06 0 0.011020203631105042 4.4977821974070026e-05 0 0.010106883942403078 -7.512366969043265e-06 0 0.010449040403788837 -0.00016834190190560493 0 0.011020203631105042 4.4977821974070026e-05 0 0.010461759309759493 6.2035526400403449e-05 0 0.010106883942403078 -7.512366969043265e-06 0 0.0098263536013986526 7.7248597519237349e-06 0 0.010106883942403078 -7.512366969043265e-06 0 0.0098263536013986526 7.7248597519237349e-06 0 0.0093743162176424932 -8.7382196955387544e-05 0 0.010163811026359526 0.00015645033658849268 0 0.010461759309759493 6.2035526400403449e-05 0 0.0098263536013986526 7.7248597519237349e-06 0 0.010163811026359526 0.00015645033658849268 0 0.0098263536013986526 7.7248597519237349e-06 0 0.0099721345548813393 2.6235783492318084e-07 0 0.010623552078727722 5.4171259678374371e-05 0 0.0099735080639184129 4.4716431608308063e-08 0 0.0098263536013986526 7.7248597519237349e-06 0 0.0099721345548813393 2.6235783492318084e-07 0 0.0090929375305850296 -8.31192282664572e-08 0 0.0098263536013986526 7.7248597519237349e-06 0 0.0090929375305850296 -8.31192282664572e-08 0 0.0093743162176424932 -8.7382196955387544e-05 0 0.0090929375305850296 -8.31192282664572e-08 0 0.0093743162176424932 -8.7382196955387544e-05 0 0.0087836829849263273 -0.00010060568285346894 0 0.0093743162176424932 -8.7382196955387544e-05 0 0.0087836829849263273 -0.00010060568285346894 0 0.0093844653507625681 -0.00027306554928330153 0 0.0090929375305850296 -8.31192282664572e-08 0 0.0082121007592083576 -1.0224861958910237e-07 0 0.0087836829849263273 -0.00010060568285346894 0 0.0082121007592083576 -1.0224861958910237e-07 0 0.0087836829849263273 -0.00010060568285346894 0 0.0081082886401067696 5.1748954036000048e-05 0 0.0073313302671179619 1.1734538206712142e-07 0 0.0082121007592083576 -1.0224861958910237e-07 0 0.0081082886401067696 5.1748954036000048e-05 0 0.0079991456471231737 0.00013148765180826533 0 0.0081082886401067696 5.1748954036000048e-05 0 0.0083945679921755712 9.1406206138655582e-05 0 0.0087836829849263273 -0.00010060568285346894 0 0.0081082886401067696 5.1748954036000048e-05 0 0.0083945679921755712 9.1406206138655582e-05 0 0.0087836829849263273 -0.00010060568285346894 0 0.0083945679921755712 9.1406206138655582e-05 0 0.0093844653507625681 -0.00027306554928330153 0 0.0098584970728455758 -0.0011375734458782666 0 0.0093844653507625681 -0.00027306554928330153 0 0.010342188592307436 -0.00075019260380220941 0 0.0091527707752919619 -0.0004800028375113393 0 0.0093099830948572427 -0.00025816304211809103 0 0.0093844653507625681 -0.00027306554928330153 0 0.010449040403788837 -0.00016834190190560493 0 0.010342188592307436 -0.00075019260380220941 0 0.010106883942403078 -7.512366969043265e-06 0 0.0093743162176424932 -8.7382196955387544e-05 0 0.0093844653507625681 -0.00027306554928330153 0 0.010106883942403078 -7.512366969043265e-06 0 0.0093844653507625681 -0.00027306554928330153 0 0.010449040403788837 -0.00016834190190560493 0 0.010449040403788837 -0.00016834190190560493 0 0.011044300112624592 -0.00010427044593745347 0 0.010900357863183682 -0.00049341540963380613 0 0.010449040403788837 -0.00016834190190560493 0 0.010900357863183682 -0.00049341540963380613 0 0.010342188592307436 -0.00075019260380220941 0 0.010900357863183682 -0.00049341540963380613 0 0.010342188592307436 -0.00075019260380220941 0 0.010772942680051193 -0.00096169302289320449 0 0.010772942680051193 -0.00096169302289320449 0 0.010660554335450427 -0.0013169515204710953 0 0.010221627924420024 -0.001303711962030275 0 0.010116247911129701 -0.0015140820614302592 0 0.0098584970728455758 -0.0011375734458782666 0 0.010221627924420024 -0.001303711962030275 0 0.0098584970728455758 -0.0011375734458782666 0 0.010342188592307436 -0.00075019260380220941 0 0.010221627924420024 -0.001303711962030275 0 0.010342188592307436 -0.00075019260380220941 0 0.010772942680051193 -0.00096169302289320449 0 0.010221627924420024 -0.001303711962030275 0 0.010772942680051193 -0.00096169302289320449 0 0.010660554335450427 -0.0013169515204710953 0 0.011318840282388266 -0.0011745968694982735 0 0.010900357863183682 -0.00049341540963380613 0 0.010772942680051193 -0.00096169302289320449 0 0.011270642206893415 -0.00064651962854161418 0 0.010772942680051193 -0.00096169302289320449 0 0.011318840282388266 -0.0011745968694982735 0 0.011270642206893415 -0.00064651962854161418 0 0.011318840282388266 -0.0011745968694982735 0 0.011270642206893415 -0.00064651962854161418 0 0.011737291445027982 -0.00071837695198023017 0 0.011270642206893415 -0.00064651962854161418 0 0.011474960409477238 -0.00019165336937574691 0 0.011737291445027982 -0.00071837695198023017 0 0.010900357863183682 -0.00049341540963380613 0 0.011270642206893415 -0.00064651962854161418 0 0.011474960409477238 -0.00019165336937574691 0 0.011044300112624592 -0.00010427044593745347 0 0.010900357863183682 -0.00049341540963380613 0 0.011474960409477238 -0.00019165336937574691 0 0.011474960409477238 -0.00019165336937574691 0 0.01165391233561284 0.00015904247877209654 0 0.011377312570729797 8.3890059826297479e-05 0 0.012138383959142757 -6.9088666256772354e-05 0 0.011995662321749083 -1.0810764399560544e-05 0 0.01165391233561284 0.00015904247877209654 0 0.011377312570729797 8.3890059826297479e-05 0 0.011536950392823531 0.00012849275667963417 0 0.011377312570729797 8.3890059826297479e-05 0 0.011613114768317518 8.8954956530191062e-05 0 0.011536950392823531 0.00012849275667963417 0 0.011044300112624592 -0.00010427044593745347 0 0.011474960409477238 -0.00019165336937574691 0 0.011377312570729797 8.3890059826297479e-05 0 0.011044300112624592 -0.00010427044593745347 0 0.011377312570729797 8.3890059826297479e-05 0 0.011020203631105042 4.4977821974070026e-05 0 0.010449040403788837 -0.00016834190190560493 0 0.011044300112624592 -0.00010427044593745347 0 0.011020203631105042 4.4977821974070026e-05 0 0.011020203631105042 4.4977821974070026e-05 0 0.011613114768317518 8.8954956530191062e-05 0 0.011492471234948039 7.353858258661907e-05 0 0.011377312570729797 8.3890059826297479e-05 0 0.011020203631105042 4.4977821974070026e-05 0 0.011613114768317518 8.8954956530191062e-05 0 0.011613114768317518 8.8954956530191062e-05 0 0.012113639894391431 -6.8690519719271764e-05 0 0.011536950392823531 0.00012849275667963417 0 0.011613114768317518 8.8954956530191062e-05 0 0.011492471234948039 7.353858258661907e-05 0 0.011851696237211209 1.1606511244680259e-05 0 0.011567504428047357 7.8463849092930688e-05 0 0.011492471234948039 7.353858258661907e-05 0 0.011857203134481418 2.6784902402221991e-05 0 0.011492471234948039 7.353858258661907e-05 0 0.011851696237211209 1.1606511244680259e-05 0 0.011857203134481418 2.6784902402221991e-05 0 0.011851696237211209 1.1606511244680259e-05 0 0.011857203134481418 2.6784902402221991e-05 0 0.012163447894791178 -3.0648284404814127e-05 0 0.011857203134481418 2.6784902402221991e-05 0 0.012163447894791178 -3.0648284404814127e-05 0 0.011993439481546719 3.265579771051815e-05 0 0.011613114768317518 8.8954956530191062e-05 0 0.011851696237211209 1.1606511244680259e-05 0 0.012113639894391431 -6.8690519719271764e-05 0 0.012113639894391431 -6.8690519719271764e-05 0 0.012446031833299488 -0.000121690803782641 0 0.012163447894791178 -3.0648284404814127e-05 0 0.011851696237211209 1.1606511244680259e-05 0 0.012113639894391431 -6.8690519719271764e-05 0 0.012163447894791178 -3.0648284404814127e-05 0 0.012113639894391431 -6.8690519719271764e-05 0 0.012427666815398801 -1.0735678765913379e-05 0 0.012433707085572414 -0.00016746478497405386 0 0.012078101166860552 -5.342186844541135e-05 0 0.011995662321749083 -1.0810764399560544e-05 0 0.012113639894391431 -6.8690519719271764e-05 0 0.012427666815398801 -1.0735678765913379e-05 0 0.012446031833299488 -0.000121690803782641 0 0.012427666815398801 -1.0735678765913379e-05 0 0.012566211670398553 -5.8370390218208337e-05 0 0.012433707085572414 -0.00016746478497405386 0 0.012427666815398801 -1.0735678765913379e-05 0 0.012566211670398553 -5.8370390218208337e-05 0 0.012525351669398156 0.00012286312104553863 0 0.012610750374218313 -0.00028293235606159981 0 0.012566211670398553 -5.8370390218208337e-05 0 0.012433707085572414 -0.00016746478497405386 0 0.012610750374218313 -0.00028293235606159981 0 0.012764136546318708 -3.518595094057323e-05 0 0.012971273627287776 -0.00022563246336826989 0 0.012764136546318708 -3.518595094057323e-05 0 0.013033777548019617 1.6759130555559193e-06 0 0.012971273627287776 -0.00022563246336826989 0 0.012610750374218313 -0.00028293235606159981 0 0.012566211670398553 -5.8370390218208337e-05 0 0.012764136546318708 -3.518595094057323e-05 0 0.012566211670398553 -5.8370390218208337e-05 0 0.012764136546318708 -3.518595094057323e-05 0 0.012525351669398156 0.00012286312104553863 0 0.012764136546318708 -3.518595094057323e-05 0 0.012902352945827155 0.00024613658499098397 0 0.012525351669398156 0.00012286312104553863 0 0.012764136546318708 -3.518595094057323e-05 0 0.013033777548019617 1.6759130555559193e-06 0 0.012902352945827155 0.00024613658499098397 0 0.01320166028973581 0.0001316564093112931 0 0.013033777548019617 1.6759130555559193e-06 0 0.012902352945827155 0.00024613658499098397 0 0.013938006450325125 0.00015728290175427443 0 0.014031697375732233 0.00020614962587685203 0 0.01407531336252109 0.00023484743160139234 0 0.01320166028973581 0.0001316564093112931 0 0.013434720775206889 0.00012805814647141845 0 0.013277450887974575 0.00031527708144770696 0 0.013655246760185459 0.00015975639484035111 0 0.013960882402047112 0.00013419920191841417 0 0.01320166028973581 0.0001316564093112931 0 0.013273347238840874 -8.7980201425903376e-05 0 0.013434720775206889 0.00012805814647141845 0 0.01320166028973581 0.0001316564093112931 0 0.013273347238840874 -8.7980201425903376e-05 0 0.013033777548019617 1.6759130555559193e-06 0 0.013273347238840874 -8.7980201425903376e-05 0 0.013033777548019617 1.6759130555559193e-06 0 0.012971273627287776 -0.00022563246336826989 0 0.013273347238840874 -8.7980201425903376e-05 0 0.012971273627287776 -0.00022563246336826989 0 0.013197456374088489 -0.00037470489590057037 0 0.013273347238840874 -8.7980201425903376e-05 0 0.013197456374088489 -0.00037470489590057037 0 0.013489767224771517 -0.00028171160320839846 0 0.013197456374088489 -0.00037470489590057037 0 0.013191342491902874 -0.00057315855980324493 0 0.013342302838477493 -0.00044490339674186941 0 0.013197456374088489 -0.00037470489590057037 0 0.013342302838477493 -0.00044490339674186941 0 0.013489767224771517 -0.00028171160320839846 0 0.013197456374088489 -0.00037470489590057037 0 0.012995790483110076 -0.0004103737668727875 0 0.013001296283969545 -0.00059127483860901549 0 0.012971273627287776 -0.00022563246336826989 0 0.013197456374088489 -0.00037470489590057037 0 0.012995790483110076 -0.0004103737668727875 0 0.012995790483110076 -0.0004103737668727875 0 0.01281468647443576 -0.00043955063989539587 0 0.013001296283969545 -0.00059127483860901549 0 0.012610750374218313 -0.00028293235606159981 0 0.012971273627287776 -0.00022563246336826989 0 0.01281468647443576 -0.00043955063989539587 0 0.012971273627287776 -0.00022563246336826989 0 0.012995790483110076 -0.0004103737668727875 0 0.01281468647443576 -0.00043955063989539587 0 0.011474960409477238 -0.00019165336937574691 0 0.01165391233561284 0.00015904247877209654 0 0.011992755357325887 8.9745912160398011e-06 0 0.012138383959142757 -6.9088666256772354e-05 0 0.012408608415847563 -0.00021836799649470941 0 0.011474960409477238 -0.00019165336937574691 0 0.011992755357325887 8.9745912160398011e-06 0 0.011986488582900854 -0.00037530453677367387 0 0.012408608415847563 -0.00021836799649470941 0 0.012737168628498574 -0.00043084024441417958 0 0.011992755357325887 8.9745912160398011e-06 0 0.011986488582900854 -0.00037530453677367387 0 0.012464638995177559 -0.00024490770825931355 0 0.011986488582900854 -0.00037530453677367387 0 0.012507427193928956 -0.00072076264322987194 0 0.012464638995177559 -0.00024490770825931355 0 0.011986488582900854 -0.00037530453677367387 0 0.012110459746453195 -0.00084126942975523548 0 0.012507427193928956 -0.00072076264322987194 0 0.011474960409477238 -0.00019165336937574691 0 0.011986488582900854 -0.00037530453677367387 0 0.011737291445027982 -0.00071837695198023017 0 0.011986488582900854 -0.00037530453677367387 0 0.011737291445027982 -0.00071837695198023017 0 0.012110459746453195 -0.00084126942975523548 0 0.011737291445027982 -0.00071837695198023017 0 0.012110459746453195 -0.00084126942975523548 0 0.011950086061351782 -0.0012375376232339904 0 0.012110459746453195 -0.00084126942975523548 0 0.012383727729620705 -0.0010892868901501472 0 0.012507427193928956 -0.00072076264322987194 0 0.012110459746453195 -0.00084126942975523548 0 0.012383727729620705 -0.0010892868901501472 0 0.011950086061351782 -0.0012375376232339904 0 0.01232466013499591 -0.0014237067793749013 0 0.012383727729620705 -0.0010892868901501472 0 0.011950086061351782 -0.0012375376232339904 0 0.011318840282388266 -0.0011745968694982735 0 0.011737291445027982 -0.00071837695198023017 0 0.011950086061351782 -0.0012375376232339904 0 0.011779721377913104 -0.0016397718840756197 0 0.011318840282388266 -0.0011745968694982735 0 0.011950086061351782 -0.0012375376232339904 0 0.013050276596821096 -0.0010679100052236941 0 0.012859130972766638 -0.0012431190381630324 0 0.012796187009648994 -0.0010088553740772051 0 0.013050276596821096 -0.0010679100052236941 0 0.01302450152377866 -0.0013278729819649433 0 0.013163072785879623 -0.0011275556710537639 0 0.013050276596821096 -0.0010679100052236941 0 0.01302450152377866 -0.0013278729819649433 0 0.012859130972766638 -0.0012431190381630324 0 0.012812651025471146 -0.0014851996225355314 0 0.012859130972766638 -0.0012431190381630324 0 0.012607295574083409 -0.0013136957139361363 0 0.012812651025471146 -0.0014851996225355314 0 0.01302450152377866 -0.0013278729819649433 0 0.012859130972766638 -0.0012431190381630324 0 0.012383727729620705 -0.0010892868901501472 0 0.012607295574083409 -0.0013136957139361363 0 0.012796187009648994 -0.0010088553740772051 0 0.01232466013499591 -0.0014237067793749013 0 0.012383727729620705 -0.0010892868901501472 0 0.012607295574083409 -0.0013136957139361363 0 0.012859130972766638 -0.0012431190381630324 0 0.012607295574083409 -0.0013136957139361363 0 0.012796187009648994 -0.0010088553740772051 0 0.012796187009648994 -0.0010088553740772051 0 0.013030637942872406 -0.00067951836139977192 0 0.012507427193928956 -0.00072076264322987194 0 0.012383727729620705 -0.0010892868901501472 0 0.012796187009648994 -0.0010088553740772051 0 0.012507427193928956 -0.00072076264322987194 0 0.012796187009648994 -0.0010088553740772051 0 0.013121140249790976 -0.00084060290403544381 0 0.013030637942872406 -0.00067951836139977192 0 0.013050276596821096 -0.0010679100052236941 0 0.012796187009648994 -0.0010088553740772051 0 0.013121140249790976 -0.00084060290403544381 0 0.013121140249790976 -0.00084060290403544381 0 0.013030637942872406 -0.00067951836139977192 0 0.013215681985351722 -0.00068824857532090358 0 0.013030637942872406 -0.00067951836139977192 0 0.013191342491902874 -0.00057315855980324493 0 0.013215681985351722 -0.00068824857532090358 0 0.013030637942872406 -0.00067951836139977192 0 0.013001296283969545 -0.00059127483860901549 0 0.013191342491902874 -0.00057315855980324493 0 0.013015227319063167 -0.00066619217067479604 0 0.012737168628498574 -0.00043084024441417958 0 0.013030637942872406 -0.00067951836139977192 0 0.012507427193928956 -0.00072076264322987194 0 0.012464638995177559 -0.00024490770825931355 0 0.013197456374088489 -0.00037470489590057037 0 0.013001296283969545 -0.00059127483860901549 0 0.013191342491902874 -0.00057315855980324493 0 0.013191342491902874 -0.00057315855980324493 0 0.013329481922167343 -0.00054295445938990817 0 0.013342302838477493 -0.00044490339674186941 0 0.013329481922167343 -0.00054295445938990817 0 0.013407126574242773 -0.00055860340127750587 0 0.013419763250345563 -0.00049553024740142302 0 0.013329481922167343 -0.00054295445938990817 0 0.013407126574242773 -0.00055860340127750587 0 0.013313141717105686 -0.00061006663284989937 0 0.013407126574242773 -0.00055860340127750587 0 0.013583829933181449 -0.0005166296384112941 0 0.013560403320720414 -0.00049806187675823681 0 0.013364159824532613 -0.00044059911755610506 0 0.01336641093161947 -0.00029684023762582335 0 0.013407126574242773 -0.00055860340127750587 0 0.013560403320720414 -0.00049806187675823681 0 0.013419763250345563 -0.00049553024740142302 0 0.013407126574242773 -0.00055860340127750587 0 0.013313141717105686 -0.00061006663284989937 0 0.013418130797123619 -0.00060350358015207875 0 0.013191342491902874 -0.00057315855980324493 0 0.013329481922167343 -0.00054295445938990817 0 0.013313141717105686 -0.00061006663284989937 0 0.013418130797123619 -0.00060350358015207875 0 0.013501336801595359 -0.00058872504044950628 0 0.013413933832177769 -0.00053233521605361401 0 0.01173102043127144 0.00035265105139021977 0 0.01336641093161947 -0.00029684023762582335 0 0.012446458695161538 0.00032549901857203387 0 0.012463249902007896 0.00025818914213897597 0 0.01252289296048097 0.00027087702993317328 0 0.013407126574242773 -0.00055860340127750587 0 0.013418130797123619 -0.00060350358015207875 0 0.013413933832177769 -0.00053233521605361401 0 0.013418130797123619 -0.00060350358015207875 0 0.01344207406121041 -0.00078505588653688817 0 0.013501336801595359 -0.00058872504044950628 0 0.013418130797123619 -0.00060350358015207875 0 0.013344622468214608 -0.00069921786048007892 0 0.01344207406121041 -0.00078505588653688817 0 0.011897625659807063 9.0977212005941319e-05 0 0.01173102043127144 0.00035265105139021977 0 0.013191342491902874 -0.00057315855980324493 0 0.013313141717105686 -0.00061006663284989937 0 0.013215681985351722 -0.00068824857532090358 0 0.013313141717105686 -0.00061006663284989937 0 0.013418130797123619 -0.00060350358015207875 0 0.013344622468214608 -0.00069921786048007892 0 0.013313141717105686 -0.00061006663284989937 0 0.013344622468214608 -0.00069921786048007892 0 0.013215681985351722 -0.00068824857532090358 0 0.013344622468214608 -0.00069921786048007892 0 0.013215681985351722 -0.00068824857532090358 0 0.01330491453506513 -0.0008464016678088528 0 0.013121140249790976 -0.00084060290403544381 0 0.013215681985351722 -0.00068824857532090358 0 0.01330491453506513 -0.0008464016678088528 0 0.013050276596821096 -0.0010679100052236941 0 0.01330491453506513 -0.0008464016678088528 0 0.013163072785879623 -0.0011275556710537639 0 0.013050276596821096 -0.0010679100052236941 0 0.013121140249790976 -0.00084060290403544381 0 0.01330491453506513 -0.0008464016678088528 0 0.01330491453506513 -0.0008464016678088528 0 0.01344207406121041 -0.00078505588653688817 0 0.013342902624424091 -0.00095754985298647944 0 0.013344622468214608 -0.00069921786048007892 0 0.01330491453506513 -0.0008464016678088528 0 0.01344207406121041 -0.00078505588653688817 0 0.010327280564866764 0.0010155460593492625 0 0.010255785679917121 0.00088949136852839439 0 0.010343222876851861 0.00093977850285561246 0 0.011897625659807063 9.0977212005941319e-05 0 0.01179026333910938 5.2422199945367318e-05 0 0.010255785679917121 0.00088949136852839439 0 0.010330454214904578 0.00086298582239576664 0 0.010343222876851861 0.00093977850285561246 0 0.010269028031124422 0.00079960570220349023 0 0.010255785679917121 0.00088949136852839439 0 0.010330454214904578 0.00086298582239576664 0 0.01330491453506513 -0.0008464016678088528 0 0.013342902624424091 -0.00095754985298647944 0 0.01329710753677224 -0.00096752112344502075 0 0.01330491453506513 -0.0008464016678088528 0 0.013273285215214259 -0.0012627896109655404 0 0.013163072785879623 -0.0011275556710537639 0 0.013294637820737379 -0.00081830052609148168 0 0.013336980556688447 -0.0012485783653947262 0 0.01302450152377866 -0.0013278729819649433 0 0.013273285215214259 -0.0012627896109655404 0 0.013163072785879623 -0.0011275556710537639 0 0.010435442975110343 0.00083466219184042312 0 0.010394259554992707 0.00091535117997380399 0 0.010476356520553934 0.00095125801098401368 0 0.010435442975110343 0.00083466219184042312 0 0.010476356520553934 0.00095125801098401368 0 0.01058402817128953 0.00086478840920011511 0 0.010435442975110343 0.00083466219184042312 0 0.010330454214904578 0.00086298582239576664 0 0.010394259554992707 0.00091535117997380399 0 0.010330454214904578 0.00086298582239576664 0 0.010343222876851861 0.00093977850285561246 0 0.010394259554992707 0.00091535117997380399 0 0.010394259554992707 0.00091535117997380399 0 0.010405424960715512 0.0010091577117499369 0 0.010476356520553934 0.00095125801098401368 0 0.010343222876851861 0.00093977850285561246 0 0.010394259554992707 0.00091535117997380399 0 0.010405424960715512 0.0010091577117499369 0 0.010327280564866764 0.0010155460593492625 0 0.010343222876851861 0.00093977850285561246 0 0.010405424960715512 0.0010091577117499369 0 0.010449458645416238 0.0010919017217726095 0 0.010739907700660859 0.00089409452823676001 0 0.010405424960715512 0.0010091577117499369 0 0.010476356520553934 0.00095125801098401368 0 0.010465967206994548 0.0010661011522845019 0 0.010476356520553934 0.00095125801098401368 0 0.010465967206994548 0.0010661011522845019 0 0.010578661499340504 0.0009995010044205159 0 0.010855094130174591 0.00082972979553659837 0 0.010813317533653086 0.00085919025397373941 0 0.010831375817342422 0.00081214275898131981 0 0.010449458645416238 0.0010919017217726095 0 0.01173102043127144 0.00035265105139021977 0 0.010327280564866764 0.0010155460593492625 0 0.010405424960715512 0.0010091577117499369 0 0.010382631590744831 0.0011242033045229768 0 0.010405424960715512 0.0010091577117499369 0 0.010465967206994548 0.0010661011522845019 0 0.010382631590744831 0.0011242033045229768 0 0.010885385724220681 0.00080419022805614383 0 0.010853566153078188 0.00079526186249171305 0 0.010867661242822221 0.00077984202109163396 0 0.010855094130174591 0.00082972979553659837 0 0.010885385724220681 0.00080419022805614383 0 0.010853566153078188 0.00079526186249171305 0 0.010855094130174591 0.00082972979553659837 0 0.010853566153078188 0.00079526186249171305 0 0.010831375817342422 0.00081214275898131981 0 0.010853566153078188 0.00079526186249171305 0 0.010852397802575521 0.00077941104561067022 0 0.010867661242822221 0.00077984202109163396 0 0.010853566153078188 0.00079526186249171305 0 0.010852397802575521 0.00077941104561067022 0 0.010832179150868889 0.00078603417583238144 0 0.010852397802575521 0.00077941104561067022 0 0.010867661242822221 0.00077984202109163396 0 0.010859877861317192 0.00077949402387059792 0 0.010852397802575521 0.00077941104561067022 0 0.010859877861317192 0.00077949402387059792 0 0.010859600357682755 0.00078310793846713973 0 0.012449834674139014 0.00020758254267970195 0 0.012416143057151642 0.00023182066494512775 0 0.012382834321326459 0.00015218493314459892 0 0.013964835693493537 -0.00025778456032805717 0 0.014162355733263609 -1.4238793155361507e-05 0 0.013985562252435659 1.6824270690762415e-05 0 0.013314670824953703 -5.3318173800289315e-06 0 0.012064789428940804 0.00049736003403524139 0 0.011594165287538464 0.00052406666986387282 0 0.012064789428940804 0.00049736003403524139 0 0.012449834674139014 0.00020758254267970195 0 0.012416143057151642 0.00023182066494512775 0 0.012463249902007896 0.00025818914213897597 0 0.012446458695161538 0.00032549901857203387 0 0.012416143057151642 0.00023182066494512775 0 0.012463249902007896 0.00025818914213897597 0 0.01173102043127144 0.00035265105139021977 0 0.011594165287538464 0.00052406666986387282 0 0.013964835693493537 -0.00025778456032805717 0 0.013517209615007662 -0.0003987766430224088 0 0.013489767224771517 -0.00028171160320839846 0 0.012449834674139014 0.00020758254267970195 0 0.012463249902007896 0.00025818914213897597 0 0.01252289296048097 0.00027087702993317328 0 0.013964835693493537 -0.00025778456032805717 0 0.013560403320720414 -0.00049806187675823681 0 0.013517209615007662 -0.0003987766430224088 0 0.013964835693493537 -0.00025778456032805717 0 0.013595505046379056 -0.00052507579560168388 0 0.013560403320720414 -0.00049806187675823681 0 0.013314670824953703 -5.3318173800289315e-06 0 0.01336641093161947 -0.00029684023762582335 0 0.01336641093161947 -0.00029684023762582335 0 0.013403706691338835 -0.00032757157012775872 0 0.013342302838477493 -0.00044490339674186941 0 0.013419763250345563 -0.00049553024740142302 0 0.013517209615007662 -0.0003987766430224088 0 0.013329481922167343 -0.00054295445938990817 0 0.013342302838477493 -0.00044490339674186941 0 0.013419763250345563 -0.00049553024740142302 0 0.013560403320720414 -0.00049806187675823681 0 0.013419763250345563 -0.00049553024740142302 0 0.013517209615007662 -0.0003987766430224088 0 0.013342302838477493 -0.00044490339674186941 0 0.013517209615007662 -0.0003987766430224088 0 0.013489767224771517 -0.00028171160320839846 0 0.013273347238840874 -8.7980201425903376e-05 0 0.013489767224771517 -0.00028171160320839846 0 0.013693619693809538 -5.7367188681208544e-05 0 0.013964835693493537 -0.00025778456032805717 0 0.013489767224771517 -0.00028171160320839846 0 0.013693619693809538 -5.7367188681208544e-05 0 0.013964835693493537 -0.00025778456032805717 0 0.013693619693809538 -5.7367188681208544e-05 0 0.013985562252435659 1.6824270690762415e-05 0 0.013895269770902793 9.8920140659816661e-05 0 0.013693619693809538 -5.7367188681208544e-05 0 0.013985562252435659 1.6824270690762415e-05 0 0.013895269770902793 9.8920140659816661e-05 0 0.014029634439986373 0.00012715954028709355 0 0.013985562252435659 1.6824270690762415e-05 0 0.013733066721517671 -7.4618283418589022e-05 0 0.013655246760185459 0.00015975639484035111 0 0.013895269770902793 9.8920140659816661e-05 0 0.013693619693809538 -5.7367188681208544e-05 0 0.013938006450325125 0.00015728290175427443 0 0.013273347238840874 -8.7980201425903376e-05 0 0.013693619693809538 -5.7367188681208544e-05 0 0.013434720775206889 0.00012805814647141845 0 0.013895269770902793 9.8920140659816661e-05 0 0.013938006450325125 0.00015728290175427443 0 0.013982560077863441 0.00017118667367967794 0 0.013938006450325125 0.00015728290175427443 0 0.013982560077863441 0.00017118667367967794 0 0.014031697375732233 0.00020614962587685203 0 0.013895269770902793 9.8920140659816661e-05 0 0.014029634439986373 0.00012715954028709355 0 0.0140012789277987 0.00016276426439792207 0 0.013895269770902793 9.8920140659816661e-05 0 0.013982560077863441 0.00017118667367967794 0 0.0140012789277987 0.00016276426439792207 0 0.013982560077863441 0.00017118667367967794 0 0.0140012789277987 0.00016276426439792207 0 0.014037546680523575 0.00019415705927786688 0 0.0140012789277987 0.00016276426439792207 0 0.014055677844565975 0.00018851420210067306 0 0.014037546680523575 0.00019415705927786688 0 0.0140012789277987 0.00016276426439792207 0 0.014049252587412478 0.00016572770396552111 0 0.014055677844565975 0.00018851420210067306 0 0.014029634439986373 0.00012715954028709355 0 0.0140012789277987 0.00016276426439792207 0 0.014049252587412478 0.00016572770396552111 0 0.014049252587412478 0.00016572770396552111 0 0.014080054868169489 0.00018482782779822134 0 0.014055677844565975 0.00018851420210067306 0 0.014029634439986373 0.00012715954028709355 0 0.014049252587412478 0.00016572770396552111 0 0.014087159384545087 0.00016435693698949684 0 0.014049252587412478 0.00016572770396552111 0 0.014087159384545087 0.00016435693698949684 0 0.014080054868169489 0.00018482782779822134 0 0.014029634439986373 0.00012715954028709355 0 0.014087159384545087 0.00016435693698949684 0 0.014116584620000981 0.00013102690443408363 0 0.014029634439986373 0.00012715954028709355 0 0.014116584620000981 0.00013102690443408363 0 0.014105263031822088 8.9159684179225012e-05 0 0.014121841917569841 0.00016467778730747562 0 0.014141844350688503 0.00014012894846315732 0 0.0141407194312386 0.00019012979840994648 0 0.014087159384545087 0.00016435693698949684 0 0.014116584620000981 0.00013102690443408363 0 0.014121841917569841 0.00016467778730747562 0 0.014116584620000981 0.00013102690443408363 0 0.014121841917569841 0.00016467778730747562 0 0.014141844350688503 0.00014012894846315732 0 0.014138144570551493 0.00011671804254411995 0 0.014141844350688503 0.00014012894846315732 0 0.014144371879924849 0.00016201560368402893 0 0.014116584620000981 0.00013102690443408363 0 0.014141844350688503 0.00014012894846315732 0 0.014144371879924849 0.00016201560368402893 0 0.011017610408687588 0.00078078712184252361 0 0.011104200819473505 0.00097287415835557744 0 0.010889232309586721 0.00077648778146084609 0 0.014138144570551493 0.00011671804254411995 0 0.014144371879924849 0.00016201560368402893 0 0.014047866452895873 2.7422822128571946e-05 0 0.014116584620000981 0.00013102690443408363 0 0.014144371879924849 0.00016201560368402893 0 0.014105263031822088 8.9159684179225012e-05 0 0.012064789428940804 0.00049736003403524139 0 0.010540010792557531 0.00082668825902865617 0 0.014144371879924849 0.00016201560368402893 0 0.014162355733263609 -1.4238793155361507e-05 0 0.014105263031822088 8.9159684179225012e-05 0 0.012597045990557401 0.00050576255455582508 0 0.012064789428940804 0.00049736003403524139 0 0.014162355733263609 -1.4238793155361507e-05 0 0.013985562252435659 1.6824270690762415e-05 0 0.014105263031822088 8.9159684179225012e-05 0 0.014029634439986373 0.00012715954028709355 0 0.013985562252435659 1.6824270690762415e-05 0 0.014105263031822088 8.9159684179225012e-05 0 0.014167666026873752 0.00023145916255927018 0 0.014157964967694069 0.00023266193018278364 0 0.014184316036565156 0.0002420013496182664 0 0.014167666026873752 0.00023145916255927018 0 0.014157964967694069 0.00023266193018278364 0 0.014149363317212508 0.00021846552246024427 0 0.014157964967694069 0.00023266193018278364 0 0.014128092474977384 0.0002189493854988051 0 0.014141147996894697 0.0002317478061084122 0 0.014157964967694069 0.00023266193018278364 0 0.014172405146783784 0.00024011361353713369 0 0.014141147996894697 0.0002317478061084122 0 0.014172405146783784 0.00024011361353713369 0 0.014141147996894697 0.0002317478061084122 0 0.014163858322270443 0.00024003956793375222 0 0.014172405146783784 0.00024011361353713369 0 0.014163858322270443 0.00024003956793375222 0 0.014198341644258691 0.00024531029484961417 0 0.014157964967694069 0.00023266193018278364 0 0.014172405146783784 0.00024011361353713369 0 0.014184316036565156 0.0002420013496182664 0 0.014172405146783784 0.00024011361353713369 0 0.014184316036565156 0.0002420013496182664 0 0.014198341644258691 0.00024531029484961417 0 0.014149885758511525 0.00011656232884883224 0 0.014371577611976497 0.00036322030564503335 0 0.014184316036565156 0.0002420013496182664 0 0.014178900602703768 0.00022820288080904676 0 0.014201202234054595 0.00024880094635341363 0 0.014145767177723813 8.7647713060393497e-05 0 0.0141360473251798 9.1977678529329989e-05 0 0.014150107522383285 7.9190136669417258e-05 0 0.014472585234596831 0.0008187855074326104 0 0.014474830951649025 0.0008985085392273248 0 0.014411251075507829 0.00077350516486135174 0 0.014472585234596831 0.0008187855074326104 0 0.014474830951649025 0.0008985085392273248 0 0.014528504601018623 0.00075912611229426454 0 0.014212538908468447 0.00028177391052463071 0 0.014371577611976497 0.00036322030564503335 0 0.014472585234596831 0.0008187855074326104 0 0.014461433468470552 0.00078129726278315659 0 0.014528504601018623 0.00075912611229426454 0 0.014167666026873752 0.00023145916255927018 0 0.014184316036565156 0.0002420013496182664 0 0.014178900602703768 0.00022820288080904676 0 0.014149401835573389 0.00015873741870262126 0 0.014149885758511525 0.00011656232884883224 0 0.014141844350688503 0.00014012894846315732 0 0.014178900602703768 0.00022820288080904676 0 0.0141407194312386 0.00019012979840994648 0 0.014138144570551493 0.00011671804254411995 0 0.014145767177723813 8.7647713060393497e-05 0 0.0141360473251798 9.1977678529329989e-05 0 0.012597045990557401 0.00050576255455582508 0 0.012874137002303169 7.6727740096516623e-05 0 0.014144371879924849 0.00016201560368402893 0 0.014047866452895873 2.7422822128571946e-05 0 0.01397219242812805 -2.7247882563220326e-05 0 0.014138144570551493 0.00011671804254411995 0 0.014141844350688503 0.00014012894846315732 0 0.014145767177723813 8.7647713060393497e-05 0 0.014062003335420703 -2.9207709480320081e-05 0 0.014047866452895873 2.7422822128571946e-05 0 0.013988694490340358 -4.7445725645605314e-05 0 0.014212538908468447 0.00028177391052463071 0 0.014199054899239125 0.00013147947007749043 0 0.014047866452895873 2.7422822128571946e-05 0 0.01397219242812805 -2.7247882563220326e-05 0 0.013988694490340358 -4.7445725645605314e-05 0 0.014138144570551493 0.00011671804254411995 0 0.01406554471218207 -3.6950301064392854e-05 0 0.014047866452895873 2.7422822128571946e-05 0 0.014105425626757654 4.2223533066060015e-05 0 0.014212538908468447 0.00028177391052463071 0 0.014121841917569841 0.00016467778730747562 0 0.0141407194312386 0.00019012979840994648 0 0.014116385923908847 0.00019430614554995229 0 0.0141407194312386 0.00019012979840994648 0 0.014149363317212508 0.00021846552246024427 0 0.014116385923908847 0.00019430614554995229 0 0.014167666026873752 0.00023145916255927018 0 0.014178900602703768 0.00022820288080904676 0 0.014149363317212508 0.00021846552246024427 0 0.014178900602703768 0.00022820288080904676 0 0.0141407194312386 0.00019012979840994648 0 0.014149363317212508 0.00021846552246024427 0 0.014149363317212508 0.00021846552246024427 0 0.014128092474977384 0.0002189493854988051 0 0.014116385923908847 0.00019430614554995229 0 0.014157964967694069 0.00023266193018278364 0 0.014149363317212508 0.00021846552246024427 0 0.014128092474977384 0.0002189493854988051 0 0.014128092474977384 0.0002189493854988051 0 0.014116385923908847 0.00019430614554995229 0 0.014095904130139215 0.00020460774818010011 0 0.014087159384545087 0.00016435693698949684 0 0.014116385923908847 0.00019430614554995229 0 0.014080054868169489 0.00018482782779822134 0 0.014087159384545087 0.00016435693698949684 0 0.014121841917569841 0.00016467778730747562 0 0.014116385923908847 0.00019430614554995229 0 0.014116385923908847 0.00019430614554995229 0 0.014080054868169489 0.00018482782779822134 0 0.014095904130139215 0.00020460774818010011 0 0.014080054868169489 0.00018482782779822134 0 0.014095904130139215 0.00020460774818010011 0 0.014055677844565975 0.00018851420210067306 0 0.014095904130139215 0.00020460774818010011 0 0.014076825334274373 0.00020769215671321927 0 0.014055677844565975 0.00018851420210067306 0 0.014037546680523575 0.00019415705927786688 0 0.014082983069514894 0.00021937323508782432 0 0.014043642986761943 0.0002060031975180768 0 0.014076825334274373 0.00020769215671321927 0 0.014037546680523575 0.00019415705927786688 0 0.014082983069514894 0.00021937323508782432 0 0.014076825334274373 0.00020769215671321927 0 0.014055677844565975 0.00018851420210067306 0 0.014037546680523575 0.00019415705927786688 0 0.014082983069514894 0.00021937323508782432 0 0.014115271785832082 0.00023244839858377458 0 0.014126001164671689 0.00023184812330910272 0 0.014076825334274373 0.00020769215671321927 0 0.014082983069514894 0.00021937323508782432 0 0.014109900713111917 0.00022135646545133635 0 0.014082983069514894 0.00021937323508782432 0 0.014109900713111917 0.00022135646545133635 0 0.014126001164671689 0.00023184812330910272 0 0.014128092474977384 0.0002189493854988051 0 0.014095904130139215 0.00020460774818010011 0 0.014109900713111917 0.00022135646545133635 0 0.014128092474977384 0.0002189493854988051 0 0.014109900713111917 0.00022135646545133635 0 0.014141147996894697 0.0002317478061084122 0 0.014095904130139215 0.00020460774818010011 0 0.014076825334274373 0.00020769215671321927 0 0.014109900713111917 0.00022135646545133635 0 0.014031697375732233 0.00020614962587685203 0 0.014080450541406296 0.00022631946052552112 0 0.014076487232938292 0.00023418199112717935 0 0.014031697375732233 0.00020614962587685203 0 0.014043642986761943 0.0002060031975180768 0 0.014080450541406296 0.00022631946052552112 0 0.013982560077863441 0.00017118667367967794 0 0.014031697375732233 0.00020614962587685203 0 0.014043642986761943 0.0002060031975180768 0 0.013982560077863441 0.00017118667367967794 0 0.014037546680523575 0.00019415705927786688 0 0.014043642986761943 0.0002060031975180768 0 0.014082983069514894 0.00021937323508782432 0 0.014080450541406296 0.00022631946052552112 0 0.014115271785832082 0.00023244839858377458 0 0.014082983069514894 0.00021937323508782432 0 0.014043642986761943 0.0002060031975180768 0 0.014080450541406296 0.00022631946052552112 0 0.014080450541406296 0.00022631946052552112 0 0.014127648820835937 0.00023639628072336181 0 0.014115271785832082 0.00023244839858377458 0 0.014080450541406296 0.00022631946052552112 0 0.01410516984888738 0.00023488108440560275 0 0.014076487232938292 0.00023418199112717935 0 0.014080450541406296 0.00022631946052552112 0 0.01410516984888738 0.00023488108440560275 0 0.014127648820835937 0.00023639628072336181 0 0.014127648820835937 0.00023639628072336181 0 0.014159406220571149 0.000239679516193476 0 0.014172475612571032 0.00024176957352061161 0 0.014127648820835937 0.00023639628072336181 0 0.014115271785832082 0.00023244839858377458 0 0.014159406220571149 0.000239679516193476 0 0.014115271785832082 0.00023244839858377458 0 0.014159406220571149 0.000239679516193476 0 0.014158303141211368 0.00023978342880059587 0 0.014159406220571149 0.000239679516193476 0 0.014158303141211368 0.00023978342880059587 0 0.014200459548999565 0.00024411916280269808 0 0.014159406220571149 0.000239679516193476 0 0.014207744968144649 0.00024206572279417989 0 0.014172475612571032 0.00024176957352061161 0 0.014141147996894697 0.0002317478061084122 0 0.014126001164671689 0.00023184812330910272 0 0.014163858322270443 0.00024003956793375222 0 0.014109900713111917 0.00022135646545133635 0 0.014141147996894697 0.0002317478061084122 0 0.014126001164671689 0.00023184812330910272 0 0.014115271785832082 0.00023244839858377458 0 0.014126001164671689 0.00023184812330910272 0 0.014158303141211368 0.00023978342880059587 0 0.014158303141211368 0.00023978342880059587 0 0.014163858322270443 0.00024003956793375222 0 0.014194121622725967 0.00024413535755095012 0 0.014126001164671689 0.00023184812330910272 0 0.014158303141211368 0.00023978342880059587 0 0.014163858322270443 0.00024003956793375222 0 0.014194121622725967 0.00024413535755095012 0 0.01422918071144212 0.00024419876142006903 0 0.014198341644258691 0.00024531029484961417 0 0.014163858322270443 0.00024003956793375222 0 0.014194121622725967 0.00024413535755095012 0 0.014198341644258691 0.00024531029484961417 0 0.014158303141211368 0.00023978342880059587 0 0.014194121622725967 0.00024413535755095012 0 0.014200459548999565 0.00024411916280269808 0 0.014222741074328646 0.00024509256549456928 0 0.014200459548999565 0.00024411916280269808 0 0.014241456092207319 0.00024732450451197109 0 0.014194121622725967 0.00024413535755095012 0 0.014222741074328646 0.00024509256549456928 0 0.014200459548999565 0.00024411916280269808 0 0.014194121622725967 0.00024413535755095012 0 0.014222741074328646 0.00024509256549456928 0 0.01422918071144212 0.00024419876142006903 0 0.014159406220571149 0.000239679516193476 0 0.014200459548999565 0.00024411916280269808 0 0.014207744968144649 0.00024206572279417989 0 0.014200459548999565 0.00024411916280269808 0 0.014250120980126704 0.00024740793842711065 0 0.014241456092207319 0.00024732450451197109 0 0.014200459548999565 0.00024411916280269808 0 0.014250120980126704 0.00024740793842711065 0 0.014207744968144649 0.00024206572279417989 0 0.014250120980126704 0.00024740793842711065 0 0.014241456092207319 0.00024732450451197109 0 0.014288290604673166 0.00025605642485688194 0 0.014241456092207319 0.00024732450451197109 0 0.014269488856763919 0.00025176303112585689 0 0.014288290604673166 0.00025605642485688194 0 0.014222741074328646 0.00024509256549456928 0 0.01422918071144212 0.00024419876142006903 0 0.014249909198055116 0.00024474487892265235 0 0.01422918071144212 0.00024419876142006903 0 0.014249909198055116 0.00024474487892265235 0 0.014261404366765748 0.00024087269051198285 0 0.014222741074328646 0.00024509256549456928 0 0.014241456092207319 0.00024732450451197109 0 0.014249909198055116 0.00024474487892265235 0 0.014241456092207319 0.00024732450451197109 0 0.014249909198055116 0.00024474487892265235 0 0.014269488856763919 0.00025176303112585689 0 0.014249909198055116 0.00024474487892265235 0 0.014261404366765748 0.00024087269051198285 0 0.014279470129387807 0.00024536386525400328 0 0.014249909198055116 0.00024474487892265235 0 0.014269488856763919 0.00025176303112585689 0 0.014279470129387807 0.00024536386525400328 0 0.014284268603366112 0.00024086493805957013 0 0.014261404366765748 0.00024087269051198285 0 0.014279470129387807 0.00024536386525400328 0 0.014284268603366112 0.00024086493805957013 0 0.014259305405670036 0.00023275402523737708 0 0.014319228882494015 0.00024961079284210533 0 0.014284268603366112 0.00024086493805957013 0 0.014261404366765748 0.00024087269051198285 0 0.014259305405670036 0.00023275402523737708 0 0.014261404366765748 0.00024087269051198285 0 0.014259305405670036 0.00023275402523737708 0 0.014230596816489863 0.00024361926249511707 0 0.01422918071144212 0.00024419876142006903 0 0.014261404366765748 0.00024087269051198285 0 0.014230596816489863 0.00024361926249511707 0 0.014184316036565156 0.0002420013496182664 0 0.014198341644258691 0.00024531029484961417 0 0.014201202234054595 0.00024880094635341363 0 0.014259305405670036 0.00023275402523737708 0 0.014230596816489863 0.00024361926249511707 0 0.014201202234054595 0.00024880094635341363 0 0.014230596816489863 0.00024361926249511707 0 0.014198341644258691 0.00024531029484961417 0 0.014201202234054595 0.00024880094635341363 0 0.01422918071144212 0.00024419876142006903 0 0.014230596816489863 0.00024361926249511707 0 0.014198341644258691 0.00024531029484961417 0 0.014371577611976497 0.00036322030564503335 0 0.014597561800927984 0.00042337666988889825 0 0.014434850059446738 0.00021790311618773465 0 0.014371577611976497 0.00036322030564503335 0 0.014460989123997355 0.0007490614920434176 0 0.014528504601018623 0.00075912611229426454 0 0.014441422652296219 0.00068311072522963916 0 0.014460989123997355 0.0007490614920434176 0 0.014461433468470552 0.00078129726278315659 0 0.014528504601018623 0.00075912611229426454 0 0.014528504601018623 0.00075912611229426454 0 0.01449122800081588 0.00062371769799330007 0 0.014441422652296219 0.00068311072522963916 0 0.014528504601018623 0.00075912611229426454 0 0.01449122800081588 0.00062371769799330007 0 0.014552221266707134 0.0005654623960992919 0 0.014604447357922464 0.00023449947230307127 0 0.014607944678860991 0.00022243774541595446 0 0.014614606562203702 0.00023626811580451223 0 0.014604447357922464 0.00023449947230307127 0 0.014614606562203702 0.00023626811580451223 0 0.014584799022166023 0.00028924237416409835 0 0.01449122800081588 0.00062371769799330007 0 0.014480068394494262 0.00048392062197056418 0 0.014422824451985805 0.00057744867685584496 0 0.01449122800081588 0.00062371769799330007 0 0.014552221266707134 0.0005654623960992919 0 0.014480068394494262 0.00048392062197056418 0 0.014552221266707134 0.0005654623960992919 0 0.014480068394494262 0.00048392062197056418 0 0.01459204577158568 0.00028957362161016704 0 0.014597561800927984 0.00042337666988889825 0 0.014585415689195257 0.00028197537009310222 0 0.014614606562203702 0.00023626811580451223 0 0.014584799022166023 0.00028924237416409835 0 0.01459204577158568 0.00028957362161016704 0 0.014584799022166023 0.00028924237416409835 0 0.01459204577158568 0.00028957362161016704 0 0.014636631625884754 0.00025363695955211876 0 0.014480068394494262 0.00048392062197056418 0 0.01459204577158568 0.00028957362161016704 0 0.014444096319893754 0.00033115104483170797 0 0.014259305405670036 0.00023275402523737708 0 0.014319228882494015 0.00024961079284210533 0 0.014429480348963694 0.00029172806387726692 0 0.014604447357922464 0.00023449947230307127 0 0.014584799022166023 0.00028924237416409835 0 0.014429480348963694 0.00029172806387726692 0 0.014434850059446738 0.00021790311618773465 0 0.014419708720986137 0.00031775301019237905 0 0.014319228882494015 0.00024961079284210533 0 0.014309435569997135 0.00025730319210697216 0 0.014279470129387807 0.00024536386525400328 0 0.014284268603366112 0.00024086493805957013 0 0.014319228882494015 0.00024961079284210533 0 0.014279470129387807 0.00024536386525400328 0 0.014319228882494015 0.00024961079284210533 0 0.014429480348963694 0.00029172806387726692 0 0.014309435569997135 0.00025730319210697216 0 0.014573164745940783 0.00028945976204977733 0 0.014702012088052616 0.00017950757269830967 0 0.014584799022166023 0.00028924237416409835 0 0.014725114914541846 0.00020636193213070125 0 0.014928987323769094 0.00016459583137108332 0 0.014584799022166023 0.00028924237416409835 0 0.014429480348963694 0.00029172806387726692 0 0.014292700159320923 0.00030771273225120821 0 0.014346601641385577 0.00029486369347199199 0 0.014429480348963694 0.00029172806387726692 0 0.014292700159320923 0.00030771273225120821 0 0.014346601641385577 0.00029486369347199199 0 0.014429480348963694 0.00029172806387726692 0 0.014309435569997135 0.00025730319210697216 0 0.014346601641385577 0.00029486369347199199 0 0.014315263845397483 0.00030053083672232437 0 0.014301728281949038 0.00028920862409971321 0 0.014725114914541846 0.00020636193213070125 0 0.014814102226197379 0.00014204560178375099 0 0.014714006993270653 0.00012769951437442792 0 0.014725114914541846 0.00020636193213070125 0 0.014814102226197379 0.00014204560178375099 0 0.014928987323769094 0.00016459583137108332 0 0.014814102226197379 0.00014204560178375099 0 0.014928987323769094 0.00016459583137108332 0 0.014881569785069538 0.00010274702727094452 0 0.014292700159320923 0.00030771273225120821 0 0.014315263845397483 0.00030053083672232437 0 0.014298431569491381 0.00029456593846748346 0 0.014346601641385577 0.00029486369347199199 0 0.014292700159320923 0.00030771273225120821 0 0.014315263845397483 0.00030053083672232437 0 0.01459204577158568 0.00028957362161016704 0 0.014642924525250487 0.0002095115346447632 0 0.014535492912872478 0.00018310207472597832 0 0.01459204577158568 0.00028957362161016704 0 0.014535492912872478 0.00018310207472597832 0 0.014444096319893754 0.00033115104483170797 0 0.014584799022166023 0.00028924237416409835 0 0.014725114914541846 0.00020636193213070125 0 0.014636631625884754 0.00025363695955211876 0 0.014725114914541846 0.00020636193213070125 0 0.014636631625884754 0.00025363695955211876 0 0.014642924525250487 0.0002095115346447632 0 0.01459204577158568 0.00028957362161016704 0 0.014636631625884754 0.00025363695955211876 0 0.014642924525250487 0.0002095115346447632 0 0.014725114914541846 0.00020636193213070125 0 0.014642924525250487 0.0002095115346447632 0 0.014714006993270653 0.00012769951437442792 0 0.014642924525250487 0.0002095115346447632 0 0.014714006993270653 0.00012769951437442792 0 0.014535492912872478 0.00018310207472597832 0 0.014714006993270653 0.00012769951437442792 0 0.014846909618655597 3.1567849073625656e-05 0 0.01443583829974401 2.6958807614833491e-06 0 0.014846909618655597 3.1567849073625656e-05 0 0.014924066505639107 -3.6096207300897302e-05 0 0.01443583829974401 2.6958807614833491e-06 0 0.014714006993270653 0.00012769951437442792 0 0.014535492912872478 0.00018310207472597832 0 0.01443583829974401 2.6958807614833491e-06 0 0.014889502331324281 -3.8330272813726038e-05 0 0.014713483231633398 -7.1717025270582691e-07 0 0.014838006618135245 9.0205502544379545e-05 0 0.014889663934674309 6.3234696700180957e-05 0 0.014846909618655597 3.1567849073625656e-05 0 0.014714006993270653 0.00012769951437442792 0 0.014838006618135245 9.0205502544379545e-05 0 0.014846909618655597 3.1567849073625656e-05 0 0.014814102226197379 0.00014204560178375099 0 0.014714006993270653 0.00012769951437442792 0 0.014838006618135245 9.0205502544379545e-05 0 0.014814102226197379 0.00014204560178375099 0 0.014838006618135245 9.0205502544379545e-05 0 0.014881569785069538 0.00010274702727094452 0 0.014838006618135245 9.0205502544379545e-05 0 0.014881569785069538 0.00010274702727094452 0 0.014889663934674309 6.3234696700180957e-05 0 0.014928987323769094 0.00016459583137108332 0 0.014881569785069538 0.00010274702727094452 0 0.014933280952067321 8.0642585344618646e-05 0 0.014881569785069538 0.00010274702727094452 0 0.014889663934674309 6.3234696700180957e-05 0 0.014933280952067321 8.0642585344618646e-05 0 0.014933280952067321 8.0642585344618646e-05 0 0.014934223344096125 2.5527438961676342e-05 0 0.014968491123473756 2.5382246597074353e-05 0 0.014889663934674309 6.3234696700180957e-05 0 0.014933280952067321 8.0642585344618646e-05 0 0.014934223344096125 2.5527438961676342e-05 0 0.014934223344096125 2.5527438961676342e-05 0 0.014846909618655597 3.1567849073625656e-05 0 0.014944567088822851 -6.2415699668157819e-06 0 0.014889663934674309 6.3234696700180957e-05 0 0.014934223344096125 2.5527438961676342e-05 0 0.014846909618655597 3.1567849073625656e-05 0 0.014846909618655597 3.1567849073625656e-05 0 0.014944567088822851 -6.2415699668157819e-06 0 0.014924066505639107 -3.6096207300897302e-05 0 0.014999873285712057 -4.5017024336035711e-08 0 0.014999852202790322 -1.436663780242549e-08 0 0.014924066505639107 -3.6096207300897302e-05 0 0.014944567088822851 -6.2415699668157819e-06 0 0.014999873285712057 -4.5017024336035711e-08 0 0.014924066505639107 -3.6096207300897302e-05 0 0.014934223344096125 2.5527438961676342e-05 0 0.014944567088822851 -6.2415699668157819e-06 0 0.01499040822551264 4.1779339513910596e-07 0 0.014944567088822851 -6.2415699668157819e-06 0 0.014999873285712057 -4.5017024336035711e-08 0 0.01499040822551264 4.1779339513910596e-07 0 0.014999852202790322 -1.436663780242549e-08 0 0.014924066505639107 -3.6096207300897302e-05 0 0.014994490372495431 -3.2846975145430154e-05 0 0.014999960548429725 -7.6283680628138065e-09 0 0.014990106790147799 1.4053449443049405e-05 0 0.014961456256833417 1.8149055282706386e-05 0 0.014999964298082603 3.7355737667923681e-08 0 0.0150122843719975 -1.3075108079217674e-07 0 0.014999873285712057 -4.5017024336035711e-08 0 0.015000072248773706 1.7152728119273939e-08 0 0.01499040822551264 4.1779339513910596e-07 0 0.015000072248773706 1.7152728119273939e-08 0 0.01499040822551264 4.1779339513910596e-07 0 0.015008386375465184 1.4225326984189127e-05 0 0.01499040822551264 4.1779339513910596e-07 0 0.015008386375465184 1.4225326984189127e-05 0 0.014968491123473756 2.5382246597074353e-05 0 0.014934223344096125 2.5527438961676342e-05 0 0.01499040822551264 4.1779339513910596e-07 0 0.014968491123473756 2.5382246597074353e-05 0 0.014702012088052616 0.00017950757269830967 0 0.0150122843719975 -1.3075108079217674e-07 0 0.014292700159320923 0.00030771273225120821 0 0.014301192685456043 0.00019862449153300028 0 0.01429643913589685 0.00027161203493712493 0 0.014916476180440421 7.3223728610807932e-05 0 0.014961456256833417 1.8149055282706386e-05 0 0.014983551704454869 3.2594631022630538e-05 0 0.014702012088052616 0.00017950757269830967 0 0.014628506296078552 0.0001188831263777894 0 0.014928987323769094 0.00016459583137108332 0 0.014933280952067321 8.0642585344618646e-05 0 0.015008386375465184 1.4225326984189127e-05 0 0.014933280952067321 8.0642585344618646e-05 0 0.015008386375465184 1.4225326984189127e-05 0 0.014968491123473756 2.5382246597074353e-05 0 0.014990106790147799 1.4053449443049405e-05 0 0.014983551704454869 3.2594631022630538e-05 0 0.015001683144286291 5.0194080131211443e-06 0 0.014301192685456043 0.00019862449153300028 0 0.014302536199697229 0.00024330938939744304 0 0.01429643913589685 0.00027161203493712493 0 0.014301192685456043 0.00019862449153300028 0 0.014334378427030134 0.00024102400337293694 0 0.014302536199697229 0.00024330938939744304 0 0.014990106790147799 1.4053449443049405e-05 0 0.014961456256833417 1.8149055282706386e-05 0 0.014983551704454869 3.2594631022630538e-05 0 0.014301192685456043 0.00019862449153300028 0 0.014334378427030134 0.00024102400337293694 0 0.014391068604740315 0.00019512739847002072 0 0.014334378427030134 0.00024102400337293694 0 0.014302536199697229 0.00024330938939744304 0 0.014297039825732927 0.00026190103455103986 0 0.014334378427030134 0.00024102400337293694 0 0.014297039825732927 0.00026190103455103986 0 0.014326657788366278 0.00025969656088208878 0 0.014292700159320923 0.00030771273225120821 0 0.014298431569491381 0.00029456593846748346 0 0.01429643913589685 0.00027161203493712493 0 0.014315263845397483 0.00030053083672232437 0 0.014298431569491381 0.00029456593846748346 0 0.014301728281949038 0.00028920862409971321 0 0.014298431569491381 0.00029456593846748346 0 0.01429643913589685 0.00027161203493712493 0 0.014301728281949038 0.00028920862409971321 0 0.014294594679468885 0.00026924291467354171 0 0.01429643913589685 0.00027161203493712493 0 0.014301728281949038 0.00028920862409971321 0 0.014302536199697229 0.00024330938939744304 0 0.014297039825732927 0.00026190103455103986 0 0.014294594679468885 0.00026924291467354171 0 0.014302536199697229 0.00024330938939744304 0 0.014294594679468885 0.00026924291467354171 0 0.01429643913589685 0.00027161203493712493 0 0.014297039825732927 0.00026190103455103986 0 0.014292556742961749 0.00026813214474663593 0 0.014284237222106526 0.00025849437600492143 0 0.014297039825732927 0.00026190103455103986 0 0.014294594679468885 0.00026924291467354171 0 0.014292556742961749 0.00026813214474663593 0 0.014346601641385577 0.00029486369347199199 0 0.014298845151867454 0.00026794372572279775 0 0.014309435569997135 0.00025730319210697216 0 0.014294594679468885 0.00026924291467354171 0 0.014292556742961749 0.00026813214474663593 0 0.014301728281949038 0.00028920862409971321 0 0.014292556742961749 0.00026813214474663593 0 0.014298845151867454 0.00026794372572279775 0 0.014301728281949038 0.00028920862409971321 0 0.014346601641385577 0.00029486369347199199 0 0.014298845151867454 0.00026794372572279775 0 0.014301728281949038 0.00028920862409971321 0 0.014298845151867454 0.00026794372572279775 0 0.014309435569997135 0.00025730319210697216 0 0.014284237222106526 0.00025849437600492143 0 0.014292556742961749 0.00026813214474663593 0 0.014298845151867454 0.00026794372572279775 0 0.014284237222106526 0.00025849437600492143 0 0.014284237222106526 0.00025849437600492143 0 0.014269488856763919 0.00025176303112585689 0 0.014279470129387807 0.00024536386525400328 0 0.014284237222106526 0.00025849437600492143 0 0.014269488856763919 0.00025176303112585689 0 0.014291359747196444 0.00025890246467710597 0 0.014309435569997135 0.00025730319210697216 0 0.014284237222106526 0.00025849437600492143 0 0.014279470129387807 0.00024536386525400328 0 0.014326657788366278 0.00025969656088208878 0 0.014291359747196444 0.00025890246467710597 0 0.014288290604673166 0.00025605642485688194 0 0.014297039825732927 0.00026190103455103986 0 0.014326657788366278 0.00025969656088208878 0 0.014291359747196444 0.00025890246467710597 0 0.014297039825732927 0.00026190103455103986 0 0.014284237222106526 0.00025849437600492143 0 0.014291359747196444 0.00025890246467710597 0 0.014269488856763919 0.00025176303112585689 0 0.014291359747196444 0.00025890246467710597 0 0.014288290604673166 0.00025605642485688194 0 0.014288290604673166 0.00025605642485688194 0 0.014360756128528222 0.00026257397982353366 0 0.014309520351420751 0.00025384673939538428 0 0.014360756128528222 0.00026257397982353366 0 0.014375004994613898 0.00026348005926164335 0 0.014309520351420751 0.00025384673939538428 0 0.014326657788366278 0.00025969656088208878 0 0.014288290604673166 0.00025605642485688194 0 0.014360756128528222 0.00026257397982353366 0 0.014375004994613898 0.00026348005926164335 0 0.01444570017917058 0.00026546795638899548 0 0.014351349387978591 0.00028527360666237908 0 0.014360756128528222 0.00026257397982353366 0 0.014375004994613898 0.00026348005926164335 0 0.01444570017917058 0.00026546795638899548 0 0.014360756128528222 0.00026257397982353366 0 0.01444570017917058 0.00026546795638899548 0 0.014411672025088756 0.0002416559310419917 0 0.01444570017917058 0.00026546795638899548 0 0.014411672025088756 0.0002416559310419917 0 0.01456155705255001 0.00021563318011858795 0 0.014326657788366278 0.00025969656088208878 0 0.014360756128528222 0.00026257397982353366 0 0.014411672025088756 0.0002416559310419917 0 0.014334378427030134 0.00024102400337293694 0 0.014326657788366278 0.00025969656088208878 0 0.014411672025088756 0.0002416559310419917 0 0.014334378427030134 0.00024102400337293694 0 0.014411672025088756 0.0002416559310419917 0 0.014391068604740315 0.00019512739847002072 0 0.014628506296078552 0.0001188831263777894 0 0.014729040890672281 4.7485295533501714e-05 0 0.014301192685456043 0.00019862449153300028 0 0.014391068604740315 0.00019512739847002072 0 0.014442361789614278 6.8207499744584737e-05 0 0.014391068604740315 0.00019512739847002072 0 0.014489224090610747 0.00018154346809405526 0 0.014442361789614278 6.8207499744584737e-05 0 0.014411672025088756 0.0002416559310419917 0 0.014391068604740315 0.00019512739847002072 0 0.014489224090610747 0.00018154346809405526 0 0.014411672025088756 0.0002416559310419917 0 0.014489224090610747 0.00018154346809405526 0 0.01456155705255001 0.00021563318011858795 0 0.014489224090610747 0.00018154346809405526 0 0.01456155705255001 0.00021563318011858795 0 0.014668393201113759 0.00013899933687240557 0 0.014489224090610747 0.00018154346809405526 0 0.014668393201113759 0.00013899933687240557 0 0.014442361789614278 6.8207499744584737e-05 0 0.015000015495075712 9.4918308185349459e-09 0 0.015001683144286291 5.0194080131211443e-06 0 0.014999993969062561 -5.5811753764030453e-09 0 0.014668393201113759 0.00013899933687240557 0 0.014442361789614278 6.8207499744584737e-05 0 0.01499894834658522 -8.424579198485767e-08 0 0.014729040890672281 4.7485295533501714e-05 0 0.014999884652761402 1.0104839004978378e-08 0 0.014999960548429725 -7.6283680628138065e-09 0 0.015000015495075712 9.4918308185349459e-09 0 0.015001683144286291 5.0194080131211443e-06 0 0.014999960548429725 -7.6283680628138065e-09 0 0.014990106790147799 1.4053449443049405e-05 0 0.015001683144286291 5.0194080131211443e-06 0 0.014668393201113759 0.00013899933687240557 0 0.01499894834658522 -8.424579198485767e-08 0 0.014741923844482242 0.00014259298771917718 0 0.014999869747134227 1.5744782826166482e-07 0 0.01499894834658522 -8.424579198485767e-08 0 0.014741923844482242 0.00014259298771917718 0 0.01456155705255001 0.00021563318011858795 0 0.014741923844482242 0.00014259298771917718 0 0.014525003970308809 0.00025445068175283575 0 0.01456155705255001 0.00021563318011858795 0 0.014668393201113759 0.00013899933687240557 0 0.014741923844482242 0.00014259298771917718 0 0.014999869747134227 1.5744782826166482e-07 0 0.014741923844482242 0.00014259298771917718 0 0.014577317063466511 0.00023210962104724595 0 0.014741923844482242 0.00014259298771917718 0 0.014525003970308809 0.00025445068175283575 0 0.014577317063466511 0.00023210962104724595 0 0.014525003970308809 0.00025445068175283575 0 0.014369131957979063 0.00029099394636876197 0 0.014577317063466511 0.00023210962104724595 0 0.014369131957979063 0.00029099394636876197 0 0.014264005467557531 0.0003035488495482983 0 0.014577317063466511 0.00023210962104724595 0 0.01444570017917058 0.00026546795638899548 0 0.01456155705255001 0.00021563318011858795 0 0.014525003970308809 0.00025445068175283575 0 0.01444570017917058 0.00026546795638899548 0 0.014525003970308809 0.00025445068175283575 0 0.014351349387978591 0.00028527360666237908 0 0.014525003970308809 0.00025445068175283575 0 0.014351349387978591 0.00028527360666237908 0 0.014369131957979063 0.00029099394636876197 0 0.014351349387978591 0.00028527360666237908 0 0.014369131957979063 0.00029099394636876197 0 0.014117216685234399 0.00027962746342418652 0 0.014351349387978591 0.00028527360666237908 0 0.014173279094429943 0.00022097142337670241 0 0.014117216685234399 0.00027962746342418652 0 0.014173279094429943 0.00022097142337670241 0 0.013878882840632177 0.00017054474546840197 0 0.014117216685234399 0.00027962746342418652 0 0.014173279094429943 0.00022097142337670241 0 0.014120270255681269 6.4318269308804815e-06 0 0.013878882840632177 0.00017054474546840197 0 0.014344158572185069 0.00022988095806875279 0 0.014514671348229296 -2.6612341378180378e-05 0 0.014120270255681269 6.4318269308804815e-06 0 0.014173279094429943 0.00022097142337670241 0 0.014344158572185069 0.00022988095806875279 0 0.014120270255681269 6.4318269308804815e-06 0 0.014375004994613898 0.00026348005926164335 0 0.014351349387978591 0.00028527360666237908 0 0.014344158572185069 0.00022988095806875279 0 0.014351349387978591 0.00028527360666237908 0 0.014173279094429943 0.00022097142337670241 0 0.014344158572185069 0.00022988095806875279 0 0.014309520351420751 0.00025384673939538428 0 0.014263842635664247 0.00024200506250311696 0 0.014344158572185069 0.00022988095806875279 0 0.014375004994613898 0.00026348005926164335 0 0.014309520351420751 0.00025384673939538428 0 0.014344158572185069 0.00022988095806875279 0 0.014250120980126704 0.00024740793842711065 0 0.014309520351420751 0.00025384673939538428 0 0.014263842635664247 0.00024200506250311696 0 0.014250120980126704 0.00024740793842711065 0 0.014288290604673166 0.00025605642485688194 0 0.014309520351420751 0.00025384673939538428 0 0.014263842635664247 0.00024200506250311696 0 0.014207744968144649 0.00024206572279417989 0 0.014243893193340454 0.00025132221919662255 0 0.014250120980126704 0.00024740793842711065 0 0.014263842635664247 0.00024200506250311696 0 0.014207744968144649 0.00024206572279417989 0 0.014263842635664247 0.00024200506250311696 0 0.014344158572185069 0.00022988095806875279 0 0.014243893193340454 0.00025132221919662255 0 0.014326707428732412 0.00023970974245754917 0 0.014439598745748291 5.2869009705059461e-05 0 0.014439598745748291 5.2869009705059461e-05 0 0.013960882402047112 0.00013419920191841417 0 0.014207744968144649 0.00024206572279417989 0 0.014243893193340454 0.00025132221919662255 0 0.014172475612571032 0.00024176957352061161 0 0.014243893193340454 0.00025132221919662255 0 0.014143157528151493 0.00023980720102059723 0 0.014127859841352335 0.00025014327690640452 0 0.014243893193340454 0.00025132221919662255 0 0.014172475612571032 0.00024176957352061161 0 0.014143157528151493 0.00023980720102059723 0 0.014127648820835937 0.00023639628072336181 0 0.014172475612571032 0.00024176957352061161 0 0.014143157528151493 0.00023980720102059723 0 0.01410516984888738 0.00023488108440560275 0 0.014143157528151493 0.00023980720102059723 0 0.014076487232938292 0.00023418199112717935 0 0.014143157528151493 0.00023980720102059723 0 0.014127859841352335 0.00025014327690640452 0 0.014076487232938292 0.00023418199112717935 0 0.01410516984888738 0.00023488108440560275 0 0.014127648820835937 0.00023639628072336181 0 0.014143157528151493 0.00023980720102059723 0 0.014031697375732233 0.00020614962587685203 0 0.01407531336252109 0.00023484743160139234 0 0.014076487232938292 0.00023418199112717935 0 0.013960882402047112 0.00013419920191841417 0 0.014050483452235295 0.00016360732645898885 0 0.013960882402047112 0.00013419920191841417 0 0.013591720027366656 -6.7615421565938566e-05 0 0.014514671348229296 -2.6612341378180378e-05 0 0.014665388147629776 -0.00029700233305139331 0 0.0142757634156074 -0.00033594985906550595 0 0.01320166028973581 0.0001316564093112931 0 0.013277450887974575 0.00031527708144770696 0 0.012902352945827155 0.00024613658499098397 0 0.0142757634156074 -0.00033594985906550595 0 0.014120270255681269 6.4318269308804815e-06 0 0.01371668835451148 -0.00041317556923629433 0 0.013591720027366656 -6.7615421565938566e-05 0 0.013121484702244656 -0.00013078298943025224 0 0.014514671348229296 -2.6612341378180378e-05 0 0.0142757634156074 -0.00033594985906550595 0 0.014120270255681269 6.4318269308804815e-06 0 0.013196818493670805 6.4696094340878119e-05 0 0.013451324568873562 5.350373499553205e-06 0 0.012807663392118506 -1.5433476345638024e-06 0 0.013196818493670805 6.4696094340878119e-05 0 0.013096128818915129 0.00011423202952750367 0 0.013483562224198827 0.00014859051384280081 0 0.013196818493670805 6.4696094340878119e-05 0 0.012807663392118506 -1.5433476345638024e-06 0 0.013096128818915129 0.00011423202952750367 0 0.013196818493670805 6.4696094340878119e-05 0 0.013451324568873562 5.350373499553205e-06 0 0.013483562224198827 0.00014859051384280081 0 0.014120270255681269 6.4318269308804815e-06 0 0.013451324568873562 5.350373499553205e-06 0 0.013878882840632177 0.00017054474546840197 0 0.014120270255681269 6.4318269308804815e-06 0 0.013451324568873562 5.350373499553205e-06 0 0.01371668835451148 -0.00041317556923629433 0 0.012427666815398801 -1.0735678765913379e-05 0 0.012525351669398156 0.00012286312104553863 0 0.012446031833299488 -0.000121690803782641 0 0.013451324568873562 5.350373499553205e-06 0 0.012446031833299488 -0.000121690803782641 0 0.012807663392118506 -1.5433476345638024e-06 0 0.013451324568873562 5.350373499553205e-06 0 0.01371668835451148 -0.00041317556923629433 0 0.012446031833299488 -0.000121690803782641 0 0.013121484702244656 -0.00013078298943025224 0 0.012508696000127353 -0.00013048790347205429 0 0.012446031833299488 -0.000121690803782641 0 0.012478469302950861 -1.6496362202287351e-05 0 0.012163447894791178 -3.0648284404814127e-05 0 0.012446031833299488 -0.000121690803782641 0 0.012478469302950861 -1.6496362202287351e-05 0 0.012807663392118506 -1.5433476345638024e-06 0 0.012355408600553262 2.3262699988614051e-05 0 0.012350799968673097 5.6338885454223481e-05 0 0.011993439481546719 3.265579771051815e-05 0 0.012163447894791178 -3.0648284404814127e-05 0 0.012355408600553262 2.3262699988614051e-05 0 0.011993439481546719 3.265579771051815e-05 0 0.012478469302950861 -1.6496362202287351e-05 0 0.012163447894791178 -3.0648284404814127e-05 0 0.012355408600553262 2.3262699988614051e-05 0 0.012355408600553262 2.3262699988614051e-05 0 0.01270567724101102 6.5390597691690163e-05 0 0.012350799968673097 5.6338885454223481e-05 0 0.01270567724101102 6.5390597691690163e-05 0 0.012759585327779746 0.00010114465529042544 0 0.012350799968673097 5.6338885454223481e-05 0 0.012478469302950861 -1.6496362202287351e-05 0 0.012355408600553262 2.3262699988614051e-05 0 0.01270567724101102 6.5390597691690163e-05 0 0.012478469302950861 -1.6496362202287351e-05 0 0.01270567724101102 6.5390597691690163e-05 0 0.012807663392118506 -1.5433476345638024e-06 0 0.01270567724101102 6.5390597691690163e-05 0 0.012807663392118506 -1.5433476345638024e-06 0 0.013096128818915129 0.00011423202952750367 0 0.01270567724101102 6.5390597691690163e-05 0 0.013096128818915129 0.00011423202952750367 0 0.013161569442821083 0.00016447896149533275 0 0.013096128818915129 0.00011423202952750367 0 0.013161569442821083 0.00016447896149533275 0 0.013474027171962848 0.00020349298051725593 0 0.013161569442821083 0.00016447896149533275 0 0.012759585327779746 0.00010114465529042544 0 0.013060029345523888 0.00014501045090512644 0 0.01270567724101102 6.5390597691690163e-05 0 0.013161569442821083 0.00016447896149533275 0 0.012759585327779746 0.00010114465529042544 0 0.013465224720226704 0.00023684489084915911 0 0.013634740054667006 0.00027325661212676213 0 0.013060029345523888 0.00014501045090512644 0 0.013161569442821083 0.00016447896149533275 0 0.013465224720226704 0.00023684489084915911 0 0.013060029345523888 0.00014501045090512644 0 0.013161569442821083 0.00016447896149533275 0 0.013718683846127811 0.00027693545417519205 0 0.013474027171962848 0.00020349298051725593 0 0.013161569442821083 0.00016447896149533275 0 0.013465224720226704 0.00023684489084915911 0 0.013718683846127811 0.00027693545417519205 0 0.013933641097989785 0.00028656656246174101 0 0.013474027171962848 0.00020349298051725593 0 0.013780415134308882 0.00022804021333535591 0 0.013718683846127811 0.00027693545417519205 0 0.013933641097989785 0.00028656656246174101 0 0.013474027171962848 0.00020349298051725593 0 0.013474027171962848 0.00020349298051725593 0 0.013483562224198827 0.00014859051384280081 0 0.013780415134308882 0.00022804021333535591 0 0.013096128818915129 0.00011423202952750367 0 0.013474027171962848 0.00020349298051725593 0 0.013483562224198827 0.00014859051384280081 0 0.013451324568873562 5.350373499553205e-06 0 0.013483562224198827 0.00014859051384280081 0 0.013878882840632177 0.00017054474546840197 0 0.013483562224198827 0.00014859051384280081 0 0.013878882840632177 0.00017054474546840197 0 0.013780415134308882 0.00022804021333535591 0 0.013933641097989785 0.00028656656246174101 0 0.014117216685234399 0.00027962746342418652 0 0.013780415134308882 0.00022804021333535591 0 0.013878882840632177 0.00017054474546840197 0 0.014117216685234399 0.00027962746342418652 0 0.013780415134308882 0.00022804021333535591 0 0.014369131957979063 0.00029099394636876197 0 0.014117216685234399 0.00027962746342418652 0 0.014264005467557531 0.0003035488495482983 0 0.013933641097989785 0.00028656656246174101 0 0.014117216685234399 0.00027962746342418652 0 0.014264005467557531 0.0003035488495482983 0 0.013718683846127811 0.00027693545417519205 0 0.013933641097989785 0.00028656656246174101 0 0.014247912208223277 0.00033027718881668486 0 0.013933641097989785 0.00028656656246174101 0 0.014264005467557531 0.0003035488495482983 0 0.014247912208223277 0.00033027718881668486 0 0.014264005467557531 0.0003035488495482983 0 0.014247912208223277 0.00033027718881668486 0 0.014577317063466511 0.00023210962104724595 0 0.014247912208223277 0.00033027718881668486 0 0.014577317063466511 0.00023210962104724595 0 0.014733721548384947 0.00014083396904836421 0 0.014999869747134227 1.5744782826166482e-07 0 0.014577317063466511 0.00023210962104724595 0 0.014733721548384947 0.00014083396904836421 0 0.014247912208223277 0.00033027718881668486 0 0.014733721548384947 0.00014083396904836421 0 0.01483147777871339 0.00013084407838289582 0 0.014320787545384593 0.00030567051103673769 0 0.014576004202573259 0.00021131931557906867 0 0.014733721548384947 0.00014083396904836421 0 0.014999529334713818 3.3513518447193609e-08 0 0.01483147777871339 0.00013084407838289582 0 0.014999869747134227 1.5744782826166482e-07 0 0.014733721548384947 0.00014083396904836421 0 0.014999529334713818 3.3513518447193609e-08 0 0.014997706993430018 1.6526351657823344e-08 0 0.014322617074997646 0.00027886845548126635 0 0.014378043438707832 0.00026739225246882187 0 0.014999529334713818 3.3513518447193609e-08 0 0.015000146884414256 5.5049906912928778e-08 0 0.01483147777871339 0.00013084407838289582 0 0.014999804266626436 1.0646585643661084e-07 0 0.014576004202573259 0.00021131931557906867 0 0.014322617074997646 0.00027886845548126635 0 0.014378043438707832 0.00026739225246882187 0 0.013946040815814492 0.0003535831337376687 0 0.014997706993430018 1.6526351657823344e-08 0 0.014378043438707832 0.00026739225246882187 0 0.014584706913048275 0.00014545678164839575 0 0.014378043438707832 0.00026739225246882187 0 0.014073505798390173 0.00041021497470116104 0 0.014584706913048275 0.00014545678164839575 0 0.014073505798390173 0.00041021497470116104 0 0.013946040815814492 0.0003535831337376687 0 0.013634740054667006 0.00027325661212676213 0 0.014378043438707832 0.00026739225246882187 0 0.014073505798390173 0.00041021497470116104 0 0.013946040815814492 0.0003535831337376687 0 0.014247912208223277 0.00033027718881668486 0 0.014322617074997646 0.00027886845548126635 0 0.013946040815814492 0.0003535831337376687 0 0.013465224720226704 0.00023684489084915911 0 0.013718683846127811 0.00027693545417519205 0 0.013946040815814492 0.0003535831337376687 0 0.013718683846127811 0.00027693545417519205 0 0.014247912208223277 0.00033027718881668486 0 0.013946040815814492 0.0003535831337376687 0 0.013465224720226704 0.00023684489084915911 0 0.013946040815814492 0.0003535831337376687 0 0.013634740054667006 0.00027325661212676213 0 0.013634740054667006 0.00027325661212676213 0 0.013162901550665854 0.0001540291438320451 0 0.013060029345523888 0.00014501045090512644 0 0.014073505798390173 0.00041021497470116104 0 0.013634740054667006 0.00027325661212676213 0 0.013162901550665854 0.0001540291438320451 0 0.014997706993430018 1.6526351657823344e-08 0 0.01476484628038008 9.8146586263828437e-05 0 0.014998971256788946 3.7205841784643218e-07 0 0.013162901550665854 0.0001540291438320451 0 0.012895863834850625 0.00016149623738560866 0 0.013059282746070017 0.00038234893910528368 0 0.013162901550665854 0.0001540291438320451 0 0.012895863834850625 0.00016149623738560866 0 0.01275990754895329 0.00012039645081029162 0 0.014721536479038937 0.00016145884063567117 0 0.01476484628038008 9.8146586263828437e-05 0 0.014447570574468343 -9.7820317517335119e-05 0 0.012895863834850625 0.00016149623738560866 0 0.013059282746070017 0.00038234893910528368 0 0.012959593003902965 2.6806290781054959e-06 0 0.013886503492421348 0.00024811224631863003 0 0.013726316009336065 -9.1434936782196947e-07 0 0.014073505798390173 0.00041021497470116104 0 0.013162901550665854 0.0001540291438320451 0 0.013059282746070017 0.00038234893910528368 0 0.014038215436042414 0.0003790784282836589 0 0.013886503492421348 0.00024811224631863003 0 0.014073505798390173 0.00041021497470116104 0 0.014721536479038937 0.00016145884063567117 0 0.014584706913048275 0.00014545678164839575 0 0.014997706993430018 1.6526351657823344e-08 0 0.014584706913048275 0.00014545678164839575 0 0.01476484628038008 9.8146586263828437e-05 0 0.014721536479038937 0.00016145884063567117 0 0.014584706913048275 0.00014545678164839575 0 0.01476484628038008 9.8146586263828437e-05 0 0.01476484628038008 9.8146586263828437e-05 0 0.014998971256788946 3.7205841784643218e-07 0 0.013808119318504191 -3.9474069236305788e-07 0 0.013805741557428239 -3.2067327446136773e-08 0 0.013726316009336065 -9.1434936782196947e-07 0 0.01380429571313704 -4.8164174185424107e-07 0 0.012959593003902965 2.6806290781054959e-06 0 0.012938499919532024 0.00012576844920935218 0 0.01476484628038008 9.8146586263828437e-05 0 0.013808119318504191 -3.9474069236305788e-07 0 0.014447570574468343 -9.7820317517335119e-05 0 0.012895863834850625 0.00016149623738560866 0 0.012938499919532024 0.00012576844920935218 0 0.01275990754895329 0.00012039645081029162 0 0.012895863834850625 0.00016149623738560866 0 0.012959593003902965 2.6806290781054959e-06 0 0.012938499919532024 0.00012576844920935218 0 0.01380429571313704 -4.8164174185424107e-07 0 0.012938499919532024 0.00012576844920935218 0 0.013039330814615634 4.3510102306286496e-07 0 0.013039330814615634 4.3510102306286496e-07 0 0.012272660090585117 8.903658631920643e-08 0 0.012567450407557862 8.4940757209078015e-05 0 0.012938499919532024 0.00012576844920935218 0 0.013039330814615634 4.3510102306286496e-07 0 0.012567450407557862 8.4940757209078015e-05 0 0.012272660090585117 8.903658631920643e-08 0 0.012567450407557862 8.4940757209078015e-05 0 0.012054841329091985 5.8300230013387847e-05 0 0.012567450407557862 8.4940757209078015e-05 0 0.012428232771731853 8.8823681134869725e-05 0 0.012054841329091985 5.8300230013387847e-05 0 0.012938499919532024 0.00012576844920935218 0 0.012567450407557862 8.4940757209078015e-05 0 0.01275990754895329 0.00012039645081029162 0 0.012567450407557862 8.4940757209078015e-05 0 0.01275990754895329 0.00012039645081029162 0 0.012428232771731853 8.8823681134869725e-05 0 0.01275990754895329 0.00012039645081029162 0 0.012800676245458309 0.00011808303556658616 0 0.012428232771731853 8.8823681134869725e-05 0 0.013162901550665854 0.0001540291438320451 0 0.01275990754895329 0.00012039645081029162 0 0.012800676245458309 0.00011808303556658616 0 0.013162901550665854 0.0001540291438320451 0 0.012800676245458309 0.00011808303556658616 0 0.013060029345523888 0.00014501045090512644 0 0.012800676245458309 0.00011808303556658616 0 0.013060029345523888 0.00014501045090512644 0 0.012628660978838521 9.5631639504827667e-05 0 0.012759585327779746 0.00010114465529042544 0 0.013060029345523888 0.00014501045090512644 0 0.012628660978838521 9.5631639504827667e-05 0 0.012628660978838521 9.5631639504827667e-05 0 0.012428232771731853 8.8823681134869725e-05 0 0.012264774329210594 6.9653993804020365e-05 0 0.012800676245458309 0.00011808303556658616 0 0.012628660978838521 9.5631639504827667e-05 0 0.012428232771731853 8.8823681134869725e-05 0 0.01201206563565162 6.5266466380100698e-05 0 0.012264774329210594 6.9653993804020365e-05 0 0.011817465873344897 6.3397525975753176e-05 0 0.012428232771731853 8.8823681134869725e-05 0 0.01201206563565162 6.5266466380100698e-05 0 0.012264774329210594 6.9653993804020365e-05 0 0.012628660978838521 9.5631639504827667e-05 0 0.012264774329210594 6.9653993804020365e-05 0 0.012350799968673097 5.6338885454223481e-05 0 0.012759585327779746 0.00010114465529042544 0 0.012628660978838521 9.5631639504827667e-05 0 0.012350799968673097 5.6338885454223481e-05 0 0.012264774329210594 6.9653993804020365e-05 0 0.012350799968673097 5.6338885454223481e-05 0 0.011817465873344897 6.3397525975753176e-05 0 0.012350799968673097 5.6338885454223481e-05 0 0.011993439481546719 3.265579771051815e-05 0 0.011817465873344897 6.3397525975753176e-05 0 0.011514840200904982 6.2968131456833372e-05 0 0.01201206563565162 6.5266466380100698e-05 0 0.011817465873344897 6.3397525975753176e-05 0 0.011514840200904982 6.2968131456833372e-05 0 0.01201206563565162 6.5266466380100698e-05 0 0.012054841329091985 5.8300230013387847e-05 0 0.011514840200904982 6.2968131456833372e-05 0 0.011506391747531774 9.6751340913141228e-08 0 0.012054841329091985 5.8300230013387847e-05 0 0.012272660090585117 8.903658631920643e-08 0 0.011506391747531774 9.6751340913141228e-08 0 0.012054841329091985 5.8300230013387847e-05 0 0.012428232771731853 8.8823681134869725e-05 0 0.01201206563565162 6.5266466380100698e-05 0 0.012054841329091985 5.8300230013387847e-05 0 0.0099272052204238004 0.00025489902452576938 0 0.010229738900110813 0.00031026483540556442 0 0.010151007010299005 1.7483058979176264e-05 0 0.0099569716231530242 0.00019443571935867036 0 0.0099332646350335559 0.00044496112331846526 0 0.0099272052204238004 0.00025489902452576938 0 0.010077285847734816 0.00049653753630260261 0 0.0099237620054063985 0.00046505115331520696 0 0.0099272052204238004 0.00025489902452576938 0 0.010229738900110813 0.00031026483540556442 0 0.010077285847734816 0.00049653753630260261 0 0.010229738900110813 0.00031026483540556442 0 0.010077285847734816 0.00049653753630260261 0 0.010333974367821267 0.00051978838027753784 0 0.010229738900110813 0.00031026483540556442 0 0.010478189783321341 0.00032528646541286817 0 0.010333974367821267 0.00051978838027753784 0 0.010478189783321341 0.00032528646541286817 0 0.010333974367821267 0.00051978838027753784 0 0.010647146211614403 0.00042994243875085335 0 0.010478189783321341 0.00032528646541286817 0 0.010469790005699375 0.00012104550586657739 0 0.010754888745004796 0.00020387977286543584 0 0.010229738900110813 0.00031026483540556442 0 0.010478189783321341 0.00032528646541286817 0 0.010469790005699375 0.00012104550586657739 0 0.010229738900110813 0.00031026483540556442 0 0.010469790005699375 0.00012104550586657739 0 0.010151007010299005 1.7483058979176264e-05 0 0.010469790005699375 0.00012104550586657739 0 0.0104382839188191 -0.00017328850137695814 0 0.010151007010299005 1.7483058979176264e-05 0 0.010469790005699375 0.00012104550586657739 0 0.010754888745004796 0.00020387977286543584 0 0.010897575107111434 -4.5623186607151084e-05 0 0.010469790005699375 0.00012104550586657739 0 0.0104382839188191 -0.00017328850137695814 0 0.010897575107111434 -4.5623186607151084e-05 0 0.010735840843749922 -0.00010968253756105803 0 0.010893893127190394 -4.9684419871733993e-05 0 0.011025483249307315 -6.506567401334095e-05 0 0.010897575107111434 -4.5623186607151084e-05 0 0.011036695967118489 -8.3284964752538773e-05 0 0.0104382839188191 -0.00017328850137695814 0 0.010151007010299005 1.7483058979176264e-05 0 0.010160977989399167 -0.00020017484087659983 0 0.010735840843749922 -0.00010968253756105803 0 0.010558526658298586 -0.00011474429764517643 0 0.010151007010299005 1.7483058979176264e-05 0 0.010033143821888324 -0.00012587186834684563 0 0.010160977989399167 -0.00020017484087659983 0 0.0099569716231530242 0.00019443571935867036 0 0.0099810239725636046 -5.2868122212274273e-05 0 0.0099272052204238004 0.00025489902452576938 0 0.010151007010299005 1.7483058979176264e-05 0 0.0099476508179222375 -2.3322992884655137e-05 0 0.010151007010299005 1.7483058979176264e-05 0 0.0099476508179222375 -2.3322992884655137e-05 0 0.010033143821888324 -0.00012587186834684563 0 0.0099476508179222375 -2.3322992884655137e-05 0 0.010033143821888324 -0.00012587186834684563 0 0.010012459424728488 -0.00018123468000000325 0 0.010010543682624624 -8.876623348148867e-05 0 0.0099439282777590426 -0.00011980697788269269 0 0.01000359899847275 -0.00015162588649729494 0 0.010010543682624624 -8.876623348148867e-05 0 0.01000359899847275 -0.00015162588649729494 0 0.010012459424728488 -0.00018123468000000325 0 0.0099439282777590426 -0.00011980697788269269 0 0.01000359899847275 -0.00015162588649729494 0 0.01003843647059841 -0.00015543245575309314 0 0.0099810239725636046 -5.2868122212274273e-05 0 0.010005220690365243 -0.00017133942379786229 0 0.0098985605160285643 -0.00010793821863393152 0 0.0099439282777590426 -0.00011980697788269269 0 0.0099600348974167533 -0.00012297658497791055 0 0.0098985605160285643 -0.00010793821863393152 0 0.0098664672717601459 -9.9087546214792196e-05 0 0.0099600348974167533 -0.00012297658497791055 0 0.0098985605160285643 -0.00010793821863393152 0 0.0099439282777590426 -0.00011980697788269269 0 0.0098292117348805878 -8.6599165254573442e-05 0 0.0099439282777590426 -0.00011980697788269269 0 0.0098292117348805878 -8.6599165254573442e-05 0 0.00990638392238 -8.0563650731400386e-06 0 0.0098292117348805878 -8.6599165254573442e-05 0 0.00990638392238 -8.0563650731400386e-06 0 0.0098025469747229782 0.00012830461626643915 0 0.0099928553657265187 0.00013013062233856518 0 0.010010543682624624 -8.876623348148867e-05 0 0.00990638392238 -8.0563650731400386e-06 0 0.010010543682624624 -8.876623348148867e-05 0 0.0099439282777590426 -0.00011980697788269269 0 0.00990638392238 -8.0563650731400386e-06 0 0.0096844383217384762 -8.9034667271377531e-05 0 0.0098994897289134496 -8.1624625280921824e-05 0 0.0097173724176110986 -0.00023291845711514062 0 0.0096844383217384762 -8.9034667271377531e-05 0 0.0097173724176110986 -0.00023291845711514062 0 0.0095571011678042342 -0.00016849627867316429 0 0.0096844383217384762 -8.9034667271377531e-05 0 0.0098994897289134496 -8.1624625280921824e-05 0 0.0097013329921987745 7.1133135123296217e-05 0 0.0098985605160285643 -0.00010793821863393152 0 0.0098292117348805878 -8.6599165254573442e-05 0 0.0098664672717601459 -9.9087546214792196e-05 0 0.0098292117348805878 -8.6599165254573442e-05 0 0.0098664672717601459 -9.9087546214792196e-05 0 0.0098627990627225097 -0.00010455670383848074 0 0.0099087809010176015 -9.4860562862326202e-05 0 0.0096253118222978176 -5.1885064662411793e-05 0 0.0098292117348805878 -8.6599165254573442e-05 0 0.0094565560017286273 -0.000101935449645065 0 0.009532908755018752 5.2918217140477351e-06 0 0.0098299346260297855 -0.00010663600252646883 0 0.0096253118222978176 -5.1885064662411793e-05 0 0.0096844383217384762 -8.9034667271377531e-05 0 0.0097013329921987745 7.1133135123296217e-05 0 0.0095294723909209317 -4.6637575297873129e-05 0 0.0094565301617575374 -0.00010536037692955462 0 0.0094134122970914447 -4.3630690655306465e-05 0 0.0091919780664539794 -9.5438443992702687e-05 0 0.0096253118222978176 -5.1885064662411793e-05 0 0.0095209513780197541 -1.7248065359137198e-05 0 0.0094134122970914447 -4.3630690655306465e-05 0 0.0094788104388648393 8.1628961626642991e-05 0 0.0092983949158101722 4.6921408096307758e-05 0 0.0094134122970914447 -4.3630690655306465e-05 0 0.0094788104388648393 8.1628961626642991e-05 0 0.009532908755018752 5.2918217140477351e-06 0 0.0094565560017286273 -0.000101935449645065 0 0.0094134122970914447 -4.3630690655306465e-05 0 0.009532908755018752 5.2918217140477351e-06 0 0.0098292117348805878 -8.6599165254573442e-05 0 0.009532908755018752 5.2918217140477351e-06 0 0.0096420655990819264 9.8967228905590815e-05 0 0.0094788104388648393 8.1628961626642991e-05 0 0.009532908755018752 5.2918217140477351e-06 0 0.0096420655990819264 9.8967228905590815e-05 0 0.0094788104388648393 8.1628961626642991e-05 0 0.0096420655990819264 9.8967228905590815e-05 0 0.0095275051283839948 0.00019551014589763409 0 0.0096420655990819264 9.8967228905590815e-05 0 0.0096406268714064897 0.00028293003983343541 0 0.0095275051283839948 0.00019551014589763409 0 0.0096406268714064897 0.00028293003983343541 0 0.0095275051283839948 0.00019551014589763409 0 0.0094580550159744422 0.00032288160673841148 0 0.0094788104388648393 8.1628961626642991e-05 0 0.0094154933990754294 0.00017748494301675615 0 0.0092983949158101722 4.6921408096307758e-05 0 0.0094154933990754294 0.00017748494301675615 0 0.0094580550159744422 0.00032288160673841148 0 0.0092961680548873816 0.00022552873695763902 0 0.0094788104388648393 8.1628961626642991e-05 0 0.0095275051283839948 0.00019551014589763409 0 0.0094154933990754294 0.00017748494301675615 0 0.0095275051283839948 0.00019551014589763409 0 0.0094154933990754294 0.00017748494301675615 0 0.0094580550159744422 0.00032288160673841148 0 0.0099928553657265187 0.00013013062233856518 0 0.00990638392238 -8.0563650731400386e-06 0 0.0098025469747229782 0.00012830461626643915 0 0.0098292117348805878 -8.6599165254573442e-05 0 0.0096420655990819264 9.8967228905590815e-05 0 0.0098025469747229782 0.00012830461626643915 0 0.0096420655990819264 9.8967228905590815e-05 0 0.0096406268714064897 0.00028293003983343541 0 0.0098025469747229782 0.00012830461626643915 0 0.0096406268714064897 0.00028293003983343541 0 0.0098025469747229782 0.00012830461626643915 0 0.0097747104911524319 0.00037835505400894714 0 0.0099928553657265187 0.00013013062233856518 0 0.0097747104911524319 0.00037835505400894714 0 0.0099237620054063985 0.00046505115331520696 0 0.0099928553657265187 0.00013013062233856518 0 0.0098025469747229782 0.00012830461626643915 0 0.0097747104911524319 0.00037835505400894714 0 0.0097747104911524319 0.00037835505400894714 0 0.0098137066607581515 0.0005693563650397529 0 0.0099237620054063985 0.00046505115331520696 0 0.0096406268714064897 0.00028293003983343541 0 0.0097747104911524319 0.00037835505400894714 0 0.0095897280716872625 0.00041581855553961229 0 0.0097747104911524319 0.00037835505400894714 0 0.0096672020435273672 0.00057625329945156715 0 0.0095897280716872625 0.00041581855553961229 0 0.0097747104911524319 0.00037835505400894714 0 0.0096672020435273672 0.00057625329945156715 0 0.0098137066607581515 0.0005693563650397529 0 0.0096672020435273672 0.00057625329945156715 0 0.0098137066607581515 0.0005693563650397529 0 0.009772592577368653 0.00075585408562080312 0 0.0094580550159744422 0.00032288160673841148 0 0.0095897280716872625 0.00041581855553961229 0 0.0094160609692638415 0.00050409221506859622 0 0.0096406268714064897 0.00028293003983343541 0 0.0094580550159744422 0.00032288160673841148 0 0.0095897280716872625 0.00041581855553961229 0 0.0096672020435273672 0.00057625329945156715 0 0.0095897280716872625 0.00041581855553961229 0 0.0094160609692638415 0.00050409221506859622 0 0.0094580550159744422 0.00032288160673841148 0 0.0094160609692638415 0.00050409221506859622 0 0.0092729975772584891 0.000401049798871381 0 0.0094160609692638415 0.00050409221506859622 0 0.0094165307277777662 0.00082423377345756965 0 0.0091975565710785967 0.00062830602365864625 0 0.0094160609692638415 0.00050409221506859622 0 0.0094165307277777662 0.00082423377345756965 0 0.0096043127688560971 0.00076184255127828809 0 0.0096672020435273672 0.00057625329945156715 0 0.0094160609692638415 0.00050409221506859622 0 0.0096043127688560971 0.00076184255127828809 0 0.0096148124673183944 0.00090551523829262171 0 0.0094165307277777662 0.00082423377345756965 0 0.0096043127688560971 0.00076184255127828809 0 0.0094165307277777662 0.00082423377345756965 0 0.0092033791386692994 0.00080659714363714324 0 0.0091975565710785967 0.00062830602365864625 0 0.0096672020435273672 0.00057625329945156715 0 0.009772592577368653 0.00075585408562080312 0 0.0096043127688560971 0.00076184255127828809 0 0.0096148124673183944 0.00090551523829262171 0 0.0096043127688560971 0.00076184255127828809 0 0.009700207973736311 0.00086211750649363645 0 0.009772592577368653 0.00075585408562080312 0 0.0096043127688560971 0.00076184255127828809 0 0.009700207973736311 0.00086211750649363645 0 0.009772592577368653 0.00075585408562080312 0 0.0097775813037438587 0.00090243896998333951 0 0.0098848990329744348 0.00081523891563060316 0 0.009772592577368653 0.00075585408562080312 0 0.009700207973736311 0.00086211750649363645 0 0.0097775813037438587 0.00090243896998333951 0 0.0097775813037438587 0.00090243896998333951 0 0.0098848990329744348 0.00081523891563060316 0 0.0099387450931978996 0.00094414108960524923 0 0.0098848990329744348 0.00081523891563060316 0 0.01007609327643029 0.00069280781607197728 0 0.0099387450931978996 0.00094414108960524923 0 0.0098848990329744348 0.00081523891563060316 0 0.0099211059305747001 0.00065031092679521281 0 0.01007609327643029 0.00069280781607197728 0 0.009772592577368653 0.00075585408562080312 0 0.0098848990329744348 0.00081523891563060316 0 0.0099211059305747001 0.00065031092679521281 0 0.0098137066607581515 0.0005693563650397529 0 0.0099211059305747001 0.00065031092679521281 0 0.0099237620054063985 0.00046505115331520696 0 0.0098137066607581515 0.0005693563650397529 0 0.009772592577368653 0.00075585408562080312 0 0.0099211059305747001 0.00065031092679521281 0 0.0099211059305747001 0.00065031092679521281 0 0.010077285847734816 0.00049653753630260261 0 0.01007609327643029 0.00069280781607197728 0 0.0099211059305747001 0.00065031092679521281 0 0.010077285847734816 0.00049653753630260261 0 0.0099237620054063985 0.00046505115331520696 0 0.010333974367821267 0.00051978838027753784 0 0.010534924783174617 0.00063034457001785672 0 0.010647146211614403 0.00042994243875085335 0 0.010333974367821267 0.00051978838027753784 0 0.010354457853694455 0.00068680730838960151 0 0.010534924783174617 0.00063034457001785672 0 0.010077285847734816 0.00049653753630260261 0 0.010333974367821267 0.00051978838027753784 0 0.01007609327643029 0.00069280781607197728 0 0.010333974367821267 0.00051978838027753784 0 0.01007609327643029 0.00069280781607197728 0 0.010354457853694455 0.00068680730838960151 0 0.010354457853694455 0.00068680730838960151 0 0.010380891713650418 0.00085241132533001246 0 0.0099387450931978996 0.00094414108960524923 0 0.01007609327643029 0.00069280781607197728 0 0.010354457853694455 0.00068680730838960151 0 0.0099387450931978996 0.00094414108960524923 0 0.0099545384083251608 0.0010367151797864265 0 0.0099198973989481874 0.00094860953138843998 0 0.010375411865342682 0.001048449978847112 0 0.010380891713650418 0.00085241132533001246 0 0.0099387450931978996 0.00094414108960524923 0 0.010375411865342682 0.001048449978847112 0 0.010380891713650418 0.00085241132533001246 0 0.010557611732687657 0.00086884278688982586 0 0.01058318185387851 0.00094449916706088413 0 0.010375411865342682 0.001048449978847112 0 0.010557611732687657 0.00086884278688982586 0 0.010380891713650418 0.00085241132533001246 0 0.010557611732687657 0.00086884278688982586 0 0.010518272543617474 0.00074978902913551567 0 0.010557611732687657 0.00086884278688982586 0 0.010518272543617474 0.00074978902913551567 0 0.010619047625907466 0.00077960552284742318 0 0.010557611732687657 0.00086884278688982586 0 0.010621886425992134 0.00084204590384723851 0 0.010619047625907466 0.00077960552284742318 0 0.01058318185387851 0.00094449916706088413 0 0.010557611732687657 0.00086884278688982586 0 0.01064773233078862 0.00088599395445353396 0 0.010685837559212669 0.00089445266805125766 0 0.01064773233078862 0.00088599395445353396 0 0.010694605601136324 0.0008528025299845783 0 0.01064773233078862 0.00088599395445353396 0 0.010694605601136324 0.0008528025299845783 0 0.010666542425340382 0.00083218938447629834 0 0.010694605601136324 0.0008528025299845783 0 0.010666542425340382 0.00083218938447629834 0 0.010703760699518764 0.00081683048322928433 0 0.010621886425992134 0.00084204590384723851 0 0.010666542425340382 0.00083218938447629834 0 0.010619047625907466 0.00077960552284742318 0 0.01064773233078862 0.00088599395445353396 0 0.010621886425992134 0.00084204590384723851 0 0.010666542425340382 0.00083218938447629834 0 0.010557611732687657 0.00086884278688982586 0 0.01064773233078862 0.00088599395445353396 0 0.010621886425992134 0.00084204590384723851 0 0.010678546475828785 0.00078926753240396419 0 0.010657430816241422 0.00075281333693711185 0 0.010619047625907466 0.00077960552284742318 0 0.010666542425340382 0.00083218938447629834 0 0.010678546475828785 0.00078926753240396419 0 0.010619047625907466 0.00077960552284742318 0 0.010657430816241422 0.00075281333693711185 0 0.010622730491400507 0.00073212951563083174 0 0.010619047625907466 0.00077960552284742318 0 0.010666542425340382 0.00083218938447629834 0 0.010678546475828785 0.00078926753240396419 0 0.010703760699518764 0.00081683048322928433 0 0.010678546475828785 0.00078926753240396419 0 0.010720579355302956 0.0007922995555958496 0 0.010699495629555501 0.00076293690269037945 0 0.010678546475828785 0.00078926753240396419 0 0.010703760699518764 0.00081683048322928433 0 0.010720579355302956 0.0007922995555958496 0 0.010720579355302956 0.0007922995555958496 0 0.010699495629555501 0.00076293690269037945 0 0.010738697720874454 0.00077020490696010774 0 0.010699495629555501 0.00076293690269037945 0 0.0107220336625226 0.00075286158269257839 0 0.010695169936416647 0.00074054769677383322 0 0.010699495629555501 0.00076293690269037945 0 0.0107220336625226 0.00075286158269257839 0 0.010738697720874454 0.00077020490696010774 0 0.010657430816241422 0.00075281333693711185 0 0.010673557340593259 0.00074206644427863124 0 0.010644931287413886 0.00072624160409960896 0 0.010657430816241422 0.00075281333693711185 0 0.010644931287413886 0.00072624160409960896 0 0.010622730491400507 0.00073212951563083174 0 0.010678546475828785 0.00078926753240396419 0 0.010699495629555501 0.00076293690269037945 0 0.010657430816241422 0.00075281333693711185 0 0.010699495629555501 0.00076293690269037945 0 0.010657430816241422 0.00075281333693711185 0 0.010673557340593259 0.00074206644427863124 0 0.010699495629555501 0.00076293690269037945 0 0.010673557340593259 0.00074206644427863124 0 0.010695169936416647 0.00074054769677383322 0 0.010673557340593259 0.00074206644427863124 0 0.010695169936416647 0.00074054769677383322 0 0.010667807442081508 0.00072779325350652438 0 0.010673557340593259 0.00074206644427863124 0 0.010667807442081508 0.00072779325350652438 0 0.010644931287413886 0.00072624160409960896 0 0.010667807442081508 0.00072779325350652438 0 0.010644931287413886 0.00072624160409960896 0 0.010649586546804816 0.00071768504272360604 0 0.010644931287413886 0.00072624160409960896 0 0.010649586546804816 0.00071768504272360604 0 0.010632698771776167 0.00071108635671816086 0 0.010607158311140454 0.00070103583757528661 0 0.010613773912941991 0.00069334099825337598 0 0.010621859910596654 0.00070190045798879032 0 0.010607158311140454 0.00070103583757528661 0 0.010534924783174617 0.00063034457001785672 0 0.010613773912941991 0.00069334099825337598 0 0.010644931287413886 0.00072624160409960896 0 0.010632698771776167 0.00071108635671816086 0 0.010607158311140454 0.00070103583757528661 0 0.010632698771776167 0.00071108635671816086 0 0.010607158311140454 0.00070103583757528661 0 0.010621859910596654 0.00070190045798879032 0 0.010632698771776167 0.00071108635671816086 0 0.010621859910596654 0.00070190045798879032 0 0.010630039139912891 0.0007050787233056653 0 0.010622730491400507 0.00073212951563083174 0 0.010585028989835817 0.00071342392948846691 0 0.010607158311140454 0.00070103583757528661 0 0.010644931287413886 0.00072624160409960896 0 0.010622730491400507 0.00073212951563083174 0 0.010607158311140454 0.00070103583757528661 0 0.010585028989835817 0.00071342392948846691 0 0.010607158311140454 0.00070103583757528661 0 0.010534924783174617 0.00063034457001785672 0 0.010480342110632706 0.00062828724084547068 0 0.01106678477928839 0.00075996904656504022 0 0.010354457853694455 0.00068680730838960151 0 0.010380891713650418 0.00085241132533001246 0 0.010518272543617474 0.00074978902913551567 0 0.010585028989835817 0.00071342392948846691 0 0.010534924783174617 0.00063034457001785672 0 0.010518272543617474 0.00074978902913551567 0 0.010354457853694455 0.00068680730838960151 0 0.010534924783174617 0.00063034457001785672 0 0.010518272543617474 0.00074978902913551567 0 0.010585028989835817 0.00071342392948846691 0 0.010518272543617474 0.00074978902913551567 0 0.010619047625907466 0.00077960552284742318 0 0.010622730491400507 0.00073212951563083174 0 0.010585028989835817 0.00071342392948846691 0 0.010619047625907466 0.00077960552284742318 0 0.010739907700660859 0.00089409452823676001 0 0.010699191293763063 0.00091460636165629182 0 0.010476356520553934 0.00095125801098401368 0 0.010578661499340504 0.0009995010044205159 0 0.01058402817128953 0.00086478840920011511 0 0.010578661499340504 0.0009995010044205159 0 0.01058402817128953 0.00086478840920011511 0 0.01071492598239678 0.00089856124899951857 0 0.010813317533653086 0.00085919025397373941 0 0.01071492598239678 0.00089856124899951857 0 0.010762620400037944 0.00084821020705302865 0 0.01071492598239678 0.00089856124899951857 0 0.010762620400037944 0.00084821020705302865 0 0.010728847090809152 0.00086970706783123699 0 0.010728847090809152 0.00086970706783123699 0 0.010715531697784072 0.0008608896816149472 0 0.010750362686315998 0.00083353237943574942 0 0.010762620400037944 0.00084821020705302865 0 0.010728847090809152 0.00086970706783123699 0 0.010750362686315998 0.00083353237943574942 0 0.01071492598239678 0.00089856124899951857 0 0.010728847090809152 0.00086970706783123699 0 0.010712992442816665 0.00087754309221253735 0 0.010728847090809152 0.00086970706783123699 0 0.010712992442816665 0.00087754309221253735 0 0.010715531697784072 0.0008608896816149472 0 0.010685837559212669 0.00089445266805125766 0 0.010694605601136324 0.0008528025299845783 0 0.010715531697784072 0.0008608896816149472 0 0.010685837559212669 0.00089445266805125766 0 0.010712992442816665 0.00087754309221253735 0 0.010715531697784072 0.0008608896816149472 0 0.010715531697784072 0.0008608896816149472 0 0.010731629550260909 0.00082074087697346003 0 0.010750362686315998 0.00083353237943574942 0 0.010694605601136324 0.0008528025299845783 0 0.010715531697784072 0.0008608896816149472 0 0.010731629550260909 0.00082074087697346003 0 0.010694605601136324 0.0008528025299845783 0 0.010703760699518764 0.00081683048322928433 0 0.010731629550260909 0.00082074087697346003 0 0.010703760699518764 0.00081683048322928433 0 0.010720579355302956 0.0007922995555958496 0 0.010731629550260909 0.00082074087697346003 0 0.010731629550260909 0.00082074087697346003 0 0.010752490333498064 0.00079023561554377158 0 0.010771520103946728 0.00080030282079138226 0 0.010720579355302956 0.0007922995555958496 0 0.010731629550260909 0.00082074087697346003 0 0.010752490333498064 0.00079023561554377158 0 0.010720579355302956 0.0007922995555958496 0 0.010738697720874454 0.00077020490696010774 0 0.010752490333498064 0.00079023561554377158 0 0.010738697720874454 0.00077020490696010774 0 0.010752490333498064 0.00079023561554377158 0 0.01078230681325377 0.00076871841289277525 0 0.010752490333498064 0.00079023561554377158 0 0.010771520103946728 0.00080030282079138226 0 0.01078230681325377 0.00076871841289277525 0 0.010771520103946728 0.00080030282079138226 0 0.010795168545227865 0.00080604953433604794 0 0.010796164844264169 0.00078154155649054436 0 0.010771520103946728 0.00080030282079138226 0 0.010796164844264169 0.00078154155649054436 0 0.01078230681325377 0.00076871841289277525 0 0.010771520103946728 0.00080030282079138226 0 0.010750362686315998 0.00083353237943574942 0 0.010795168545227865 0.00080604953433604794 0 0.010731629550260909 0.00082074087697346003 0 0.010771520103946728 0.00080030282079138226 0 0.010750362686315998 0.00083353237943574942 0 0.010762620400037944 0.00084821020705302865 0 0.010750362686315998 0.00083353237943574942 0 0.010795168545227865 0.00080604953433604794 0 0.010813317533653086 0.00085919025397373941 0 0.010762620400037944 0.00084821020705302865 0 0.010795168545227865 0.00080604953433604794 0 0.010795168545227865 0.00080604953433604794 0 0.010815672359297637 0.00078156109481169111 0 0.010796164844264169 0.00078154155649054436 0 0.010795168545227865 0.00080604953433604794 0 0.010832179150868889 0.00078603417583238144 0 0.010815672359297637 0.00078156109481169111 0 0.010853566153078188 0.00079526186249171305 0 0.010831375817342422 0.00081214275898131981 0 0.010832179150868889 0.00078603417583238144 0 0.010795168545227865 0.00080604953433604794 0 0.010831375817342422 0.00081214275898131981 0 0.010832179150868889 0.00078603417583238144 0 0.010813317533653086 0.00085919025397373941 0 0.010795168545227865 0.00080604953433604794 0 0.010831375817342422 0.00081214275898131981 0 0.010841833791876122 0.00078090145392149704 0 0.010832970678964972 0.00078493300911320024 0 0.010859600357682755 0.00078310793846713973 0 0.010852397802575521 0.00077941104561067022 0 0.010841833791876122 0.00078090145392149704 0 0.010859600357682755 0.00078310793846713973 0 0.010852397802575521 0.00077941104561067022 0 0.010841833791876122 0.00078090145392149704 0 0.010832179150868889 0.00078603417583238144 0 0.010841833791876122 0.00078090145392149704 0 0.010832179150868889 0.00078603417583238144 0 0.010827014532100063 0.00077889825132463556 0 0.010832179150868889 0.00078603417583238144 0 0.010815672359297637 0.00078156109481169111 0 0.010827014532100063 0.00077889825132463556 0 0.010815672359297637 0.00078156109481169111 0 0.010818237682722951 0.00077130927296676342 0 0.010796164844264169 0.00078154155649054436 0 0.010815672359297637 0.00078156109481169111 0 0.010827014532100063 0.00077889825132463556 0 0.010818237682722951 0.00077130927296676342 0 0.010827014532100063 0.00077889825132463556 0 0.010818237682722951 0.00077130927296676342 0 0.010832970678964972 0.00078493300911320024 0 0.010841833791876122 0.00078090145392149704 0 0.010827014532100063 0.00077889825132463556 0 0.010832970678964972 0.00078493300911320024 0 0.010834401118299164 0.00077271249313445075 0 0.010818237682722951 0.00077130927296676342 0 0.010832970678964972 0.00078493300911320024 0 0.010834401118299164 0.00077271249313445075 0 0.010818237682722951 0.00077130927296676342 0 0.010816871775633485 0.00076030066747422964 0 0.010818237682722951 0.00077130927296676342 0 0.010796164844264169 0.00078154155649054436 0 0.01080336051896081 0.00076930164431051674 0 0.010796164844264169 0.00078154155649054436 0 0.01080336051896081 0.00076930164431051674 0 0.01078230681325377 0.00076871841289277525 0 0.010818237682722951 0.00077130927296676342 0 0.01080336051896081 0.00076930164431051674 0 0.010816871775633485 0.00076030066747422964 0 0.01080336051896081 0.00076930164431051674 0 0.01078230681325377 0.00076871841289277525 0 0.010816871775633485 0.00076030066747422964 0 0.01078230681325377 0.00076871841289277525 0 0.010786670101255613 0.00075352899396119628 0 0.010816871775633485 0.00076030066747422964 0 0.010738697720874454 0.00077020490696010774 0 0.01078230681325377 0.00076871841289277525 0 0.010754101568787087 0.00075302083316356665 0 0.01078230681325377 0.00076871841289277525 0 0.010786670101255613 0.00075352899396119628 0 0.010754101568787087 0.00075302083316356665 0 0.010786670101255613 0.00075352899396119628 0 0.01080279896144269 0.0007496314043180961 0 0.0107631846730566 0.00074137859894854365 0 0.010786670101255613 0.00075352899396119628 0 0.01080279896144269 0.0007496314043180961 0 0.010816871775633485 0.00076030066747422964 0 0.010834401118299164 0.00077271249313445075 0 0.010816871775633485 0.00076030066747422964 0 0.010843800504222102 0.00076499843563528405 0 0.01080279896144269 0.0007496314043180961 0 0.010816871775633485 0.00076030066747422964 0 0.010843800504222102 0.00076499843563528405 0 0.01080279896144269 0.0007496314043180961 0 0.010843800504222102 0.00076499843563528405 0 0.010784789644597269 0.00072761227685745188 0 0.010843800504222102 0.00076499843563528405 0 0.01091595210915159 0.00081877864216725257 0 0.010784789644597269 0.00072761227685745188 0 0.01193625750687401 0.00079333554656889078 0 0.01173182398177636 0.00097033371925146913 0 0.01091595210915159 0.00081877864216725257 0 0.010824391818180869 0.0008386593576853637 0 0.011170159510756372 0.00094361609663977191 0 0.010910982314947559 0.00084565787462730752 0 0.011028551338715628 0.00083570289206057018 0 0.01091595210915159 0.00081877864216725257 0 0.011312427149582822 0.00091735897441533266 0 0.011170159510756372 0.00094361609663977191 0 0.010834401118299164 0.00077271249313445075 0 0.010843800504222102 0.00076499843563528405 0 0.01091595210915159 0.00081877864216725257 0 0.012531097488227703 0.00075970310831646693 0 0.012981841923073915 0.00077846293144650191 0 0.012253550364728407 0.0010348552948813154 0 0.012531097488227703 0.00075970310831646693 0 0.01262239570947795 0.00052424089576846552 0 0.012247598472708199 0.0006172444710242299 0 0.01262239570947795 0.00052424089576846552 0 0.012247598472708199 0.0006172444710242299 0 0.012356912891925717 0.00042938934570163373 0 0.01262239570947795 0.00052424089576846552 0 0.012981841923073915 0.00077846293144650191 0 0.01290682517567982 0.00033535501382677178 0 0.012531097488227703 0.00075970310831646693 0 0.01262239570947795 0.00052424089576846552 0 0.012981841923073915 0.00077846293144650191 0 0.012981841923073915 0.00077846293144650191 0 0.01361662060953296 0.00041619405699612607 0 0.013216744345749022 0.00042272208815827039 0 0.01193625750687401 0.00079333554656889078 0 0.012149968191197942 0.00063480843652684944 0 0.012981841923073915 0.00077846293144650191 0 0.013216744345749022 0.00042272208815827039 0 0.01290682517567982 0.00033535501382677178 0 0.010834401118299164 0.00077271249313445075 0 0.010831364035855493 0.00080459325965228712 0 0.010832970678964972 0.00078493300911320024 0 0.010824391818180869 0.0008386593576853637 0 0.010831364035855493 0.00080459325965228712 0 0.01083603759904987 0.00079751660686729487 0 0.01091595210915159 0.00081877864216725257 0 0.010824391818180869 0.0008386593576853637 0 0.010831364035855493 0.00080459325965228712 0 0.010834401118299164 0.00077271249313445075 0 0.01091595210915159 0.00081877864216725257 0 0.010831364035855493 0.00080459325965228712 0 0.010832970678964972 0.00078493300911320024 0 0.01083603759904987 0.00079751660686729487 0 0.010859098552386972 0.00078953542494269492 0 0.010831364035855493 0.00080459325965228712 0 0.010832970678964972 0.00078493300911320024 0 0.01083603759904987 0.00079751660686729487 0 0.010824391818180869 0.0008386593576853637 0 0.01083603759904987 0.00079751660686729487 0 0.010845855972901925 0.00075035985567341551 0 0.01083603759904987 0.00079751660686729487 0 0.010859098552386972 0.00078953542494269492 0 0.010845855972901925 0.00075035985567341551 0 0.010889232309586721 0.00077648778146084609 0 0.010859098552386972 0.00078953542494269492 0 0.010845855972901925 0.00075035985567341551 0 0.010889232309586721 0.00077648778146084609 0 0.01090120970784776 0.00072532920364132953 0 0.010845855972901925 0.00075035985567341551 0 0.010934208297142875 0.00073016910644692812 0 0.010889232309586721 0.00077648778146084609 0 0.01090120970784776 0.00072532920364132953 0 0.011017610408687588 0.00078078712184252361 0 0.010934208297142875 0.00073016910644692812 0 0.010889232309586721 0.00077648778146084609 0 0.010859877861317192 0.00077949402387059792 0 0.010889232309586721 0.00077648778146084609 0 0.010859600357682755 0.00078310793846713973 0 0.010832970678964972 0.00078493300911320024 0 0.010859600357682755 0.00078310793846713973 0 0.010859098552386972 0.00078953542494269492 0 0.010889232309586721 0.00077648778146084609 0 0.010859600357682755 0.00078310793846713973 0 0.010859098552386972 0.00078953542494269492 0 0.011581704925661213 0.0010224175987573656 0 0.011581740784648936 0.0010419076926948885 0 0.011528575041300089 0.0010065909137165435 0 0.010914854392080542 0.00017274898407126967 0 0.010851408946227553 0.00034025485400672109 0 0.01107109668467594 0.00010196452874723247 0 0.011581704925661213 0.0010224175987573656 0 0.011589037588588084 0.0010251167974345925 0 0.011528575041300089 0.0010065909137165435 0 0.01106678477928839 0.00075996904656504022 0 0.011327736347117678 0.00054205106998444922 0 0.010851408946227553 0.00034025485400672109 0 0.010928967008403836 0.00048314208429923826 0 0.01107109668467594 0.00010196452874723247 0 0.010914854392080542 0.00017274898407126967 0 0.010754888745004796 0.00020387977286543584 0 0.010973243981098399 5.2698531746475983e-05 0 0.010754888745004796 0.00020387977286543584 0 0.010851408946227553 0.00034025485400672109 0 0.010647146211614403 0.00042994243875085335 0 0.010478189783321341 0.00032528646541286817 0 0.010754888745004796 0.00020387977286543584 0 0.010647146211614403 0.00042994243875085335 0 0.010914854392080542 0.00017274898407126967 0 0.010754888745004796 0.00020387977286543584 0 0.010851408946227553 0.00034025485400672109 0 0.010534924783174617 0.00063034457001785672 0 0.010647146211614403 0.00042994243875085335 0 0.010928967008403836 0.00048314208429923826 0 0.010851408946227553 0.00034025485400672109 0 0.010647146211614403 0.00042994243875085335 0 0.010928967008403836 0.00048314208429923826 0 0.011581704925661213 0.0010224175987573656 0 0.011581740784648936 0.0010419076926948885 0 0.011604835936919087 0.0009978780381432982 0 0.01106678477928839 0.00075996904656504022 0 0.011127673507226023 0.00086146975733921111 0 0.010613773912941991 0.00069334099825337598 0 0.010623247087696179 0.00069869881630488413 0 0.010652901580751415 0.00070790343600177696 0 0.010623247087696179 0.00069869881630488413 0 0.010642619110094547 0.00070905669754000428 0 0.010652901580751415 0.00070790343600177696 0 0.010613773912941991 0.00069334099825337598 0 0.010623247087696179 0.00069869881630488413 0 0.010621859910596654 0.00070190045798879032 0 0.010623247087696179 0.00069869881630488413 0 0.010621859910596654 0.00070190045798879032 0 0.010630039139912891 0.0007050787233056653 0 0.010649586546804816 0.00071768504272360604 0 0.010632698771776167 0.00071108635671816086 0 0.010642619110094547 0.00070905669754000428 0 0.010623247087696179 0.00069869881630488413 0 0.010642619110094547 0.00070905669754000428 0 0.010630039139912891 0.0007050787233056653 0 0.010632698771776167 0.00071108635671816086 0 0.010642619110094547 0.00070905669754000428 0 0.010630039139912891 0.0007050787233056653 0 0.010613773912941991 0.00069334099825337598 0 0.010652901580751415 0.00070790343600177696 0 0.010691906907314452 0.00070779224067754956 0 0.010642619110094547 0.00070905669754000428 0 0.010659942470147876 0.00071712895815135799 0 0.010652901580751415 0.00070790343600177696 0 0.010649586546804816 0.00071768504272360604 0 0.010642619110094547 0.00070905669754000428 0 0.010659942470147876 0.00071712895815135799 0 0.010659942470147876 0.00071712895815135799 0 0.010652901580751415 0.00070790343600177696 0 0.010687033804747807 0.00072305376940805526 0 0.010667807442081508 0.00072779325350652438 0 0.010649586546804816 0.00071768504272360604 0 0.010659942470147876 0.00071712895815135799 0 0.010667807442081508 0.00072779325350652438 0 0.010659942470147876 0.00071712895815135799 0 0.010687033804747807 0.00072305376940805526 0 0.010695169936416647 0.00074054769677383322 0 0.010687033804747807 0.00072305376940805526 0 0.010720106384690006 0.0007373447729465939 0 0.010695169936416647 0.00074054769677383322 0 0.010667807442081508 0.00072779325350652438 0 0.010687033804747807 0.00072305376940805526 0 0.010687033804747807 0.00072305376940805526 0 0.010729097830693394 0.0007273199715705762 0 0.010691906907314452 0.00070779224067754956 0 0.010687033804747807 0.00072305376940805526 0 0.010720106384690006 0.0007373447729465939 0 0.010729097830693394 0.0007273199715705762 0 0.010652901580751415 0.00070790343600177696 0 0.010687033804747807 0.00072305376940805526 0 0.010691906907314452 0.00070779224067754956 0 0.0107220336625226 0.00075286158269257839 0 0.010738697720874454 0.00077020490696010774 0 0.010754101568787087 0.00075302083316356665 0 0.0107220336625226 0.00075286158269257839 0 0.010754101568787087 0.00075302083316356665 0 0.010720106384690006 0.0007373447729465939 0 0.0107220336625226 0.00075286158269257839 0 0.010695169936416647 0.00074054769677383322 0 0.010720106384690006 0.0007373447729465939 0 0.010720106384690006 0.0007373447729465939 0 0.010729097830693394 0.0007273199715705762 0 0.0107631846730566 0.00074137859894854365 0 0.010786670101255613 0.00075352899396119628 0 0.010754101568787087 0.00075302083316356665 0 0.0107631846730566 0.00074137859894854365 0 0.010754101568787087 0.00075302083316356665 0 0.010720106384690006 0.0007373447729465939 0 0.0107631846730566 0.00074137859894854365 0 0.010729097830693394 0.0007273199715705762 0 0.010784789644597269 0.00072761227685745188 0 0.010691906907314452 0.00070779224067754956 0 0.011028551338715628 0.00083570289206057018 0 0.011127673507226023 0.00086146975733921111 0 0.010729097830693394 0.0007273199715705762 0 0.0107631846730566 0.00074137859894854365 0 0.010784789644597269 0.00072761227685745188 0 0.01080279896144269 0.0007496314043180961 0 0.0107631846730566 0.00074137859894854365 0 0.010784789644597269 0.00072761227685745188 0 0.011312427149582822 0.00091735897441533266 0 0.011604835936919087 0.0009978780381432982 0 0.011612530847966344 0.0010514255774864364 0 0.011589037588588084 0.0010251167974345925 0 0.011604835936919087 0.0009978780381432982 0 0.011612530847966344 0.0010514255774864364 0 0.011581704925661213 0.0010224175987573656 0 0.011589037588588084 0.0010251167974345925 0 0.011604835936919087 0.0009978780381432982 0 0.011589037588588084 0.0010251167974345925 0 0.011612530847966344 0.0010514255774864364 0 0.011528575041300089 0.0010065909137165435 0 0.011743701947610291 0.00091219515180707492 0 0.01161276740400116 0.00083656307490573138 0 0.011528575041300089 0.0010065909137165435 0 0.011612530847966344 0.0010514255774864364 0 0.011743701947610291 0.00091219515180707492 0 0.011528575041300089 0.0010065909137165435 0 0.01161276740400116 0.00083656307490573138 0 0.011518174462800269 0.0004551901855976365 0 0.011528575041300089 0.0010065909137165435 0 0.011743701947610291 0.00091219515180707492 0 0.01161276740400116 0.00083656307490573138 0 0.011767899810338803 0.00075571152109888502 0 0.011743701947610291 0.00091219515180707492 0 0.012253550364728407 0.0010348552948813154 0 0.01205382385366318 0.0008043343580803634 0 0.011612530847966344 0.0010514255774864364 0 0.011743701947610291 0.00091219515180707492 0 0.012253550364728407 0.0010348552948813154 0 0.011312427149582822 0.00091735897441533266 0 0.011612530847966344 0.0010514255774864364 0 0.011170159510756372 0.00094361609663977191 0 0.011649910226390807 0.0010301166763077975 0 0.01173182398177636 0.00097033371925146913 0 0.011743701947610291 0.00091219515180707492 0 0.01205382385366318 0.0008043343580803634 0 0.011767899810338803 0.00075571152109888502 0 0.012531097488227703 0.00075970310831646693 0 0.012253550364728407 0.0010348552948813154 0 0.01205382385366318 0.0008043343580803634 0 0.012531097488227703 0.00075970310831646693 0 0.01205382385366318 0.0008043343580803634 0 0.012247598472708199 0.0006172444710242299 0 0.01205382385366318 0.0008043343580803634 0 0.011964004222714352 0.0006141885880951327 0 0.012247598472708199 0.0006172444710242299 0 0.01205382385366318 0.0008043343580803634 0 0.011964004222714352 0.0006141885880951327 0 0.011767899810338803 0.00075571152109888502 0 0.011893838292717212 0.00046526805475842232 0 0.011964004222714352 0.0006141885880951327 0 0.01173666983401982 0.000580684522283183 0 0.011893838292717212 0.00046526805475842232 0 0.011964004222714352 0.0006141885880951327 0 0.012128988820814006 0.0004389513893319653 0 0.011964004222714352 0.0006141885880951327 0 0.012128988820814006 0.0004389513893319653 0 0.012247598472708199 0.0006172444710242299 0 0.012128988820814006 0.0004389513893319653 0 0.012247598472708199 0.0006172444710242299 0 0.012356912891925717 0.00042938934570163373 0 0.01161276740400116 0.00083656307490573138 0 0.011621492283786014 0.000656147883509553 0 0.011518174462800269 0.0004551901855976365 0 0.01161276740400116 0.00083656307490573138 0 0.011621492283786014 0.000656147883509553 0 0.011767899810338803 0.00075571152109888502 0 0.011621492283786014 0.000656147883509553 0 0.011767899810338803 0.00075571152109888502 0 0.01173666983401982 0.000580684522283183 0 0.011964004222714352 0.0006141885880951327 0 0.011767899810338803 0.00075571152109888502 0 0.01173666983401982 0.000580684522283183 0 0.011893838292717212 0.00046526805475842232 0 0.01173666983401982 0.000580684522283183 0 0.011635631589640309 0.00043356892936263731 0 0.011621492283786014 0.000656147883509553 0 0.01173666983401982 0.000580684522283183 0 0.011624122699346595 0.00053113806720769515 0 0.01173666983401982 0.000580684522283183 0 0.011624122699346595 0.00053113806720769515 0 0.011635631589640309 0.00043356892936263731 0 0.011624122699346595 0.00053113806720769515 0 0.011518174462800269 0.0004551901855976365 0 0.011635631589640309 0.00043356892936263731 0 0.011621492283786014 0.000656147883509553 0 0.011624122699346595 0.00053113806720769515 0 0.011518174462800269 0.0004551901855976365 0 0.011355515860174461 0.00018061427941493686 0 0.011327736347117678 0.00054205106998444922 0 0.01118907900690628 -6.6914458365452287e-05 0 0.011117636112210953 -6.0602481288480952e-05 0 0.011070407518464286 -1.0098694511244224e-05 0 0.01118907900690628 -6.6914458365452287e-05 0 0.011070407518464286 -1.0098694511244224e-05 0 0.01107109668467594 0.00010196452874723247 0 0.011117636112210953 -6.0602481288480952e-05 0 0.011070407518464286 -1.0098694511244224e-05 0 0.011058937333646096 -7.3078331897469937e-05 0 0.011070407518464286 -1.0098694511244224e-05 0 0.010973243981098399 5.2698531746475983e-05 0 0.01107109668467594 0.00010196452874723247 0 0.010914854392080542 0.00017274898407126967 0 0.010973243981098399 5.2698531746475983e-05 0 0.01107109668467594 0.00010196452874723247 0 0.011070407518464286 -1.0098694511244224e-05 0 0.010973243981098399 5.2698531746475983e-05 0 0.010897575107111434 -4.5623186607151084e-05 0 0.010754888745004796 0.00020387977286543584 0 0.010973243981098399 5.2698531746475983e-05 0 0.010897575107111434 -4.5623186607151084e-05 0 0.010897575107111434 -4.5623186607151084e-05 0 0.011058937333646096 -7.3078331897469937e-05 0 0.011036695967118489 -8.3284964752538773e-05 0 0.011070407518464286 -1.0098694511244224e-05 0 0.010897575107111434 -4.5623186607151084e-05 0 0.011058937333646096 -7.3078331897469937e-05 0 0.011058937333646096 -7.3078331897469937e-05 0 0.011036695967118489 -8.3284964752538773e-05 0 0.011121078388423361 -0.00011091934802173942 0 0.011036695967118489 -8.3284964752538773e-05 0 0.011121078388423361 -0.00011091934802173942 0 0.011109345240271618 -0.00015472182068117373 0 0.011121078388423361 -0.00011091934802173942 0 0.011109345240271618 -0.00015472182068117373 0 0.011176326106846672 -0.00017228162283643782 0 0.011109345240271618 -0.00015472182068117373 0 0.011176326106846672 -0.00017228162283643782 0 0.01114983864145953 -0.00023914747541573986 0 0.011109345240271618 -0.00015472182068117373 0 0.01114983864145953 -0.00023914747541573986 0 0.011106766517489394 -0.00019916303072868441 0 0.011255077792417108 -0.00017592723557144225 0 0.011222732681673151 -0.00012007251083345881 0 0.011437896703491565 -0.00014713342009223739 0 0.011255077792417108 -0.00017592723557144225 0 0.011176326106846672 -0.00017228162283643782 0 0.011204625837882492 -0.0002443888128185777 0 0.011255077792417108 -0.00017592723557144225 0 0.011176326106846672 -0.00017228162283643782 0 0.011222732681673151 -0.00012007251083345881 0 0.011121078388423361 -0.00011091934802173942 0 0.011176326106846672 -0.00017228162283643782 0 0.011222732681673151 -0.00012007251083345881 0 0.01118907900690628 -6.6914458365452287e-05 0 0.011222732681673151 -0.00012007251083345881 0 0.011146352998406371 -8.7324871708074721e-05 0 0.011121078388423361 -0.00011091934802173942 0 0.011222732681673151 -0.00012007251083345881 0 0.011146352998406371 -8.7324871708074721e-05 0 0.011058937333646096 -7.3078331897469937e-05 0 0.011121078388423361 -0.00011091934802173942 0 0.011146352998406371 -8.7324871708074721e-05 0 0.011117636112210953 -6.0602481288480952e-05 0 0.011058937333646096 -7.3078331897469937e-05 0 0.011146352998406371 -8.7324871708074721e-05 0 0.01118907900690628 -6.6914458365452287e-05 0 0.011117636112210953 -6.0602481288480952e-05 0 0.011146352998406371 -8.7324871708074721e-05 0 0.011518174462800269 0.0004551901855976365 0 0.011635631589640309 0.00043356892936263731 0 0.011583738377603995 0.00017366029070390454 0 0.011635631589640309 0.00043356892936263731 0 0.011583738377603995 0.00017366029070390454 0 0.011738249509893411 -7.4645015984208902e-06 0 0.01118907900690628 -6.6914458365452287e-05 0 0.011222732681673151 -0.00012007251083345881 0 0.011437896703491565 -0.00014713342009223739 0 0.011355515860174461 0.00018061427941493686 0 0.011437218368134959 -0.00015294041790611028 0 0.011518174462800269 0.0004551901855976365 0 0.011583738377603995 0.00017366029070390454 0 0.011437896703491565 -0.00014713342009223739 0 0.011893838292717212 0.00046526805475842232 0 0.011635631589640309 0.00043356892936263731 0 0.012018731861658987 0.00026274424461542311 0 0.012298134714500926 0.00022807931170519002 0 0.012018731861658987 0.00026274424461542311 0 0.01216791196962827 -0.00020018542962064315 0 0.011635631589640309 0.00043356892936263731 0 0.012018731861658987 0.00026274424461542311 0 0.01216791196962827 -0.00020018542962064315 0 0.011689674113836014 0.0003973981977590197 0 0.011789819025777514 -8.1434284405845249e-05 0 0.012128988820814006 0.0004389513893319653 0 0.012298134714500926 0.00022807931170519002 0 0.012018731861658987 0.00026274424461542311 0 0.012128988820814006 0.0004389513893319653 0 0.012298134714500926 0.00022807931170519002 0 0.012356912891925717 0.00042938934570163373 0 0.011893838292717212 0.00046526805475842232 0 0.012128988820814006 0.0004389513893319653 0 0.012018731861658987 0.00026274424461542311 0 0.012298134714500926 0.00022807931170519002 0 0.01216791196962827 -0.00020018542962064315 0 0.012547628205123519 8.6850455011766516e-05 0 0.011738249509893411 -7.4645015984208902e-06 0 0.011437896703491565 -0.00014713342009223739 0 0.011712828198143455 -0.00028965264935826453 0 0.011583738377603995 0.00017366029070390454 0 0.011738249509893411 -7.4645015984208902e-06 0 0.011437896703491565 -0.00014713342009223739 0 0.011255077792417108 -0.00017592723557144225 0 0.011437896703491565 -0.00014713342009223739 0 0.011293338112925351 -0.00024169301000595203 0 0.011437896703491565 -0.00014713342009223739 0 0.011408605188235875 -0.00029191949665938134 0 0.011293338112925351 -0.00024169301000595203 0 0.011437896703491565 -0.00014713342009223739 0 0.011514643573595133 -0.00030912713496232649 0 0.011712828198143455 -0.00028965264935826453 0 0.011437896703491565 -0.00014713342009223739 0 0.011514643573595133 -0.00030912713496232649 0 0.011408605188235875 -0.00029191949665938134 0 0.011514643573595133 -0.00030912713496232649 0 0.011449098490361949 -0.00035220477757508137 0 0.011408605188235875 -0.00029191949665938134 0 0.011514643573595133 -0.00030912713496232649 0 0.011449098490361949 -0.00035220477757508137 0 0.011487009017949322 -0.00044140598946423827 0 0.011514643573595133 -0.00030912713496232649 0 0.011712828198143455 -0.00028965264935826453 0 0.011487009017949322 -0.00044140598946423827 0 0.011449098490361949 -0.00035220477757508137 0 0.011381322819310273 -0.00035280827066646572 0 0.011408605188235875 -0.00029191949665938134 0 0.011449098490361949 -0.00035220477757508137 0 0.011381322819310273 -0.00035280827066646572 0 0.011487009017949322 -0.00044140598946423827 0 0.011381322819310273 -0.00035280827066646572 0 0.011408605188235875 -0.00029191949665938134 0 0.011312775093024056 -0.00030781711547984134 0 0.011712828198143455 -0.00028965264935826453 0 0.011487009017949322 -0.00044140598946423827 0 0.011987278037900794 -0.00040154594545027238 0 0.011738249509893411 -7.4645015984208902e-06 0 0.011712828198143455 -0.00028965264935826453 0 0.011987278037900794 -0.00040154594545027238 0 0.011789819025777514 -8.1434284405845249e-05 0 0.013414926857299217 -0.00042023105429714981 0 0.014803123331984323 0.00023642863711623806 0 0.014784060585809146 0.0001880583784101228 0 0.014609458963249347 -4.0726420836834405e-06 0 0.014803123331984323 0.00023642863711623806 0 0.014848106109739677 0.00034830195937688102 0 0.014609458963249347 -4.0726420836834405e-06 0 0.013117398307007019 -2.9301931368842885e-05 0 0.013414926857299217 -0.00042023105429714981 0 0.014803123331984323 0.00023642863711623806 0 0.014784060585809146 0.0001880583784101228 0 0.01477017090665993 9.0575203321381235e-05 0 0.011381322819310273 -0.00035280827066646572 0 0.011487009017949322 -0.00044140598946423827 0 0.011278787386932743 -0.00033313398944238127 0 0.014803123331984323 0.00023642863711623806 0 0.014848106109739677 0.00034830195937688102 0 0.014725007356763704 0.00018718363497557491 0 0.014521464731371385 0.00023399893328319247 0 0.014848106109739677 0.00034830195937688102 0 0.014725007356763704 0.00018718363497557491 0 0.014521464731371385 0.00023399893328319247 0 0.014725007356763704 0.00018718363497557491 0 0.014635193783826245 0.00010630425764653718 0 0.014725007356763704 0.00018718363497557491 0 0.014635193783826245 0.00010630425764653718 0 0.01477017090665993 9.0575203321381235e-05 0 0.014803123331984323 0.00023642863711623806 0 0.014725007356763704 0.00018718363497557491 0 0.01477017090665993 9.0575203321381235e-05 0 0.014521464731371385 0.00023399893328319247 0 0.014398220373648272 0.00011005164682824194 0 0.014635193783826245 0.00010630425764653718 0 0.014521464731371385 0.00023399893328319247 0 0.01414586479467618 0.00024745221842685272 0 0.014398220373648272 0.00011005164682824194 0 0.014439335158274776 0.00025197323167004188 0 0.01329609659266731 0.00016455188230236477 0 0.014521464731371385 0.00023399893328319247 0 0.012748890706827432 -0.00012986898064455064 0 0.013046860188377618 9.1962772244724288e-05 0 0.014521464731371385 0.00023399893328319247 0 0.014848106109739677 0.00034830195937688102 0 0.013046860188377618 9.1962772244724288e-05 0 0.014521464731371385 0.00023399893328319247 0 0.013865177930286778 0.00048435772924925873 0 0.01414586479467618 0.00024745221842685272 0 0.011487009017949322 -0.00044140598946423827 0 0.011278787386932743 -0.00033313398944238127 0 0.011163127685263468 -0.00034140838252750313 0 0.013117398307007019 -2.9301931368842885e-05 0 0.012118556542350846 -0.00013283450549413773 0 0.011278787386932743 -0.00033313398944238127 0 0.0111943596586799 -0.00032506322927293804 0 0.011201920155498632 -0.00030227200329447013 0 0.011278787386932743 -0.00033313398944238127 0 0.0111943596586799 -0.00032506322927293804 0 0.011163127685263468 -0.00034140838252750313 0 0.012118556542350846 -0.00013283450549413773 0 0.011274379651260295 -0.00025038344712038842 0 0.013865177930286778 0.00048435772924925873 0 0.013820783750433186 0.00021068954335393413 0 0.01414586479467618 0.00024745221842685272 0 0.011170960567369759 -0.0003110653316021861 0 0.011163127685263468 -0.00034140838252750313 0 0.011188332529731533 -0.00029749615721656806 0 0.011163127685263468 -0.00034140838252750313 0 0.011232432078776736 -0.00025794265077976503 0 0.011188332529731533 -0.00029749615721656806 0 0.012748890706827432 -0.00012986898064455064 0 0.013046860188377618 9.1962772244724288e-05 0 0.011232432078776736 -0.00025794265077976503 0 0.013865177930286778 0.00048435772924925873 0 0.013315878810384645 0.00022473960142099781 0 0.013820783750433186 0.00021068954335393413 0 0.011170960567369759 -0.0003110653316021861 0 0.011164791255326352 -0.00029157382954238514 0 0.011188332529731533 -0.00029749615721656806 0 0.011170960567369759 -0.0003110653316021861 0 0.011164791255326352 -0.00029157382954238514 0 0.011168091579756395 -0.00029110171667790858 0 0.0111943596586799 -0.00032506322927293804 0 0.011163127685263468 -0.00034140838252750313 0 0.011177173515919726 -0.0003164495019136484 0 0.011170960567369759 -0.0003110653316021861 0 0.011163127685263468 -0.00034140838252750313 0 0.011177173515919726 -0.0003164495019136484 0 0.011170960567369759 -0.0003110653316021861 0 0.011177173515919726 -0.0003164495019136484 0 0.011168091579756395 -0.00029110171667790858 0 0.0111943596586799 -0.00032506322927293804 0 0.011177173515919726 -0.0003164495019136484 0 0.011201920155498632 -0.00030227200329447013 0 0.011177173515919726 -0.0003164495019136484 0 0.011168091579756395 -0.00029110171667790858 0 0.011201920155498632 -0.00030227200329447013 0 0.011168091579756395 -0.00029110171667790858 0 0.011204625837882492 -0.0002443888128185777 0 0.011201920155498632 -0.00030227200329447013 0 0.011168091579756395 -0.00029110171667790858 0 0.011155706604450127 -0.00027129157143412945 0 0.01114983864145953 -0.00023914747541573986 0 0.011155706604450127 -0.00027129157143412945 0 0.01114983864145953 -0.00023914747541573986 0 0.011140603700881803 -0.00025911796529755847 0 0.011164791255326352 -0.00029157382954238514 0 0.011155706604450127 -0.00027129157143412945 0 0.011140603700881803 -0.00025911796529755847 0 0.011164791255326352 -0.00029157382954238514 0 0.011168091579756395 -0.00029110171667790858 0 0.011155706604450127 -0.00027129157143412945 0 0.01114983864145953 -0.00023914747541573986 0 0.011140603700881803 -0.00025911796529755847 0 0.011106766517489394 -0.00019916303072868441 0 0.011168091579756395 -0.00029110171667790858 0 0.01114983864145953 -0.00023914747541573986 0 0.011204625837882492 -0.0002443888128185777 0 0.011176326106846672 -0.00017228162283643782 0 0.01114983864145953 -0.00023914747541573986 0 0.011204625837882492 -0.0002443888128185777 0 0.011204625837882492 -0.0002443888128185777 0 0.011293338112925351 -0.00024169301000595203 0 0.011251635497734128 -0.00028970425076900105 0 0.011255077792417108 -0.00017592723557144225 0 0.011204625837882492 -0.0002443888128185777 0 0.011293338112925351 -0.00024169301000595203 0 0.011408605188235875 -0.00029191949665938134 0 0.011293338112925351 -0.00024169301000595203 0 0.011312775093024056 -0.00030781711547984134 0 0.011381322819310273 -0.00035280827066646572 0 0.011278787386932743 -0.00033313398944238127 0 0.011312775093024056 -0.00030781711547984134 0 0.011293338112925351 -0.00024169301000595203 0 0.011312775093024056 -0.00030781711547984134 0 0.011251635497734128 -0.00028970425076900105 0 0.011278787386932743 -0.00033313398944238127 0 0.011312775093024056 -0.00030781711547984134 0 0.011251635497734128 -0.00028970425076900105 0 0.011278787386932743 -0.00033313398944238127 0 0.011201920155498632 -0.00030227200329447013 0 0.011251635497734128 -0.00028970425076900105 0 0.011204625837882492 -0.0002443888128185777 0 0.011201920155498632 -0.00030227200329447013 0 0.011251635497734128 -0.00028970425076900105 0 0.013961654099011726 -3.4722861625086956e-05 0 0.013840213584935602 -0.00040288686029474135 0 0.013887002034514375 -0.00039015549649035289 0 0.012874137002303169 7.6727740096516623e-05 0 0.01409845023519303 -0.00031407855841932453 0 0.014062003335420703 -2.9207709480320081e-05 0 0.013988694490340358 -4.7445725645605314e-05 0 0.013887002034514375 -0.00039015549649035289 0 0.013830648115103004 -0.00021092527591052703 0 0.014099212901374296 7.0981399183491875e-05 0 0.013840213584935602 -0.00040288686029474135 0 0.014212538908468447 0.00028177391052463071 0 0.014151804464144572 0.00023808232051483153 0 0.013961654099011726 -3.4722861625086956e-05 0 0.013988694490340358 -4.7445725645605314e-05 0 0.013887002034514375 -0.00039015549649035289 0 0.014472585234596831 0.0008187855074326104 0 0.014461433468470552 0.00078129726278315659 0 0.014411251075507829 0.00077350516486135174 0 0.013830648115103004 -0.00021092527591052703 0 0.013726317349121568 -0.00034398649893768615 0 0.013840213584935602 -0.00040288686029474135 0 0.013830648115103004 -0.00021092527591052703 0 0.013835428691563645 -1.2535610054929429e-05 0 0.013664165317892671 -8.1771704678389398e-05 0 0.013830648115103004 -0.00021092527591052703 0 0.013835428691563645 -1.2535610054929429e-05 0 0.014099212901374296 7.0981399183491875e-05 0 0.011017610408687588 0.00078078712184252361 0 0.010934208297142875 0.00073016910644692812 0 0.010948977699638431 0.00064476162958004954 0 0.012874137002303169 7.6727740096516623e-05 0 0.012149968191197942 0.00063480843652684944 0 0.013835428691563645 -1.2535610054929429e-05 0 0.014099212901374296 7.0981399183491875e-05 0 0.013730452742764276 0.00013118773538969879 0 0.014099212901374296 7.0981399183491875e-05 0 0.013730452742764276 0.00013118773538969879 0 0.01361662060953296 0.00041619405699612607 0 0.010948977699638431 0.00064476162958004954 0 0.01090120970784776 0.00072532920364132953 0 0.010845855972901925 0.00075035985567341551 0 0.012874137002303169 7.6727740096516623e-05 0 0.012970920850253467 3.4779987900599304e-05 0 0.010934208297142875 0.00073016910644692812 0 0.010948977699638431 0.00064476162958004954 0 0.01090120970784776 0.00072532920364132953 0 0.013730452742764276 0.00013118773538969879 0 0.01361662060953296 0.00041619405699612607 0 0.013350121218260741 0.00016162820714156988 0 0.01361662060953296 0.00041619405699612607 0 0.013350121218260741 0.00016162820714156988 0 0.013216744345749022 0.00042272208815827039 0 0.013730452742764276 0.00013118773538969879 0 0.013664165317892671 -8.1771704678389398e-05 0 0.013350121218260741 0.00016162820714156988 0 0.013664165317892671 -8.1771704678389398e-05 0 0.013430588385271067 -0.00021213235018985337 0 0.013350121218260741 0.00016162820714156988 0 0.013835428691563645 -1.2535610054929429e-05 0 0.013730452742764276 0.00013118773538969879 0 0.013664165317892671 -8.1771704678389398e-05 0 0.013830648115103004 -0.00021092527591052703 0 0.013664165317892671 -8.1771704678389398e-05 0 0.013726317349121568 -0.00034398649893768615 0 0.013664165317892671 -8.1771704678389398e-05 0 0.013726317349121568 -0.00034398649893768615 0 0.013430588385271067 -0.00021213235018985337 0 0.013430588385271067 -0.00021213235018985337 0 0.012993436621191725 -5.1722370877943134e-05 0 0.013103659519332065 -0.00038932297337549224 0 0.013430588385271067 -0.00021213235018985337 0 0.012993436621191725 -5.1722370877943134e-05 0 0.013350121218260741 0.00016162820714156988 0 0.013350121218260741 0.00016162820714156988 0 0.013216744345749022 0.00042272208815827039 0 0.01290682517567982 0.00033535501382677178 0 0.012993436621191725 -5.1722370877943134e-05 0 0.013350121218260741 0.00016162820714156988 0 0.01290682517567982 0.00033535501382677178 0 0.012993436621191725 -5.1722370877943134e-05 0 0.01290682517567982 0.00033535501382677178 0 0.012547628205123519 8.6850455011766516e-05 0 0.01262239570947795 0.00052424089576846552 0 0.01290682517567982 0.00033535501382677178 0 0.012547628205123519 8.6850455011766516e-05 0 0.01262239570947795 0.00052424089576846552 0 0.012356912891925717 0.00042938934570163373 0 0.012547628205123519 8.6850455011766516e-05 0 0.012298134714500926 0.00022807931170519002 0 0.012356912891925717 0.00042938934570163373 0 0.012547628205123519 8.6850455011766516e-05 0 0.01216791196962827 -0.00020018542962064315 0 0.012547628205123519 8.6850455011766516e-05 0 0.012699860343488202 -0.00027532455667740439 0 0.012993436621191725 -5.1722370877943134e-05 0 0.012547628205123519 8.6850455011766516e-05 0 0.012699860343488202 -0.00027532455667740439 0 0.012993436621191725 -5.1722370877943134e-05 0 0.012699860343488202 -0.00027532455667740439 0 0.013103659519332065 -0.00038932297337549224 0 0.01216791196962827 -0.00020018542962064315 0 0.012699860343488202 -0.00027532455667740439 0 0.01267373908795034 -0.00089124620622799686 0 0.012699860343488202 -0.00027532455667740439 0 0.01267373908795034 -0.00089124620622799686 0 0.013103659519332065 -0.00038932297337549224 0 0.014784060585809146 0.0001880583784101228 0 0.014609458963249347 -4.0726420836834405e-06 0 0.014552578454002797 0.00015336010741411304 0 0.014784060585809146 0.0001880583784101228 0 0.014552578454002797 0.00015336010741411304 0 0.01439704042398156 0.00025756019522677056 0 0.014552578454002797 0.00015336010741411304 0 0.014420079113305123 0.00014247137199797675 0 0.01439704042398156 0.00025756019522677056 0 0.014609458963249347 -4.0726420836834405e-06 0 0.014552578454002797 0.00015336010741411304 0 0.014420079113305123 0.00014247137199797675 0 0.013414926857299217 -0.00042023105429714981 0 0.014414427347764106 -6.2178552042438211e-05 0 0.01463479530110955 -0.00048365553824353827 0 0.014397944041413178 -0.00010553673371257373 0 0.013738104091732671 -0.00054743443898246785 0 0.014397944041413178 -0.00010553673371257373 0 0.014001124461850435 -0.00018047685291273301 0 0.013738104091732671 -0.00054743443898246785 0 0.014397944041413178 -0.00010553673371257373 0 0.014206558735905749 -1.8185850434714064e-05 0 0.014001124461850435 -0.00018047685291273301 0 0.014206558735905749 -1.8185850434714064e-05 0 0.014001124461850435 -0.00018047685291273301 0 0.014052431839963027 3.8424204332636555e-05 0 0.01267373908795034 -0.00089124620622799686 0 0.013103659519332065 -0.00038932297337549224 0 0.013738104091732671 -0.00054743443898246785 0 0.013414926857299217 -0.00042023105429714981 0 0.013827031948831532 -0.00063341114705156717 0 0.013430588385271067 -0.00021213235018985337 0 0.013103659519332065 -0.00038932297337549224 0 0.013738104091732671 -0.00054743443898246785 0 0.013726317349121568 -0.00034398649893768615 0 0.013430588385271067 -0.00021213235018985337 0 0.013738104091732671 -0.00054743443898246785 0 0.013726317349121568 -0.00034398649893768615 0 0.01375381917394047 -0.00043719508667777789 0 0.013840213584935602 -0.00040288686029474135 0 0.013726317349121568 -0.00034398649893768615 0 0.01375381917394047 -0.00043719508667777789 0 0.013738104091732671 -0.00054743443898246785 0 0.01375381917394047 -0.00043719508667777789 0 0.013738104091732671 -0.00054743443898246785 0 0.013680116600011165 -0.00031534975731082872 0 0.014001124461850435 -0.00018047685291273301 0 0.013680116600011165 -0.00031534975731082872 0 0.014052431839963027 3.8424204332636555e-05 0 0.014001124461850435 -0.00018047685291273301 0 0.013738104091732671 -0.00054743443898246785 0 0.013680116600011165 -0.00031534975731082872 0 0.014278706978042005 0.00060747907823274143 0 0.014422824451985805 0.00057744867685584496 0 0.014386446416616884 0.00047333249945263049 0 0.014480068394494262 0.00048392062197056418 0 0.014422824451985805 0.00057744867685584496 0 0.014386446416616884 0.00047333249945263049 0 0.014278706978042005 0.00060747907823274143 0 0.014422824451985805 0.00057744867685584496 0 0.014441422652296219 0.00068311072522963916 0 0.01449122800081588 0.00062371769799330007 0 0.014422824451985805 0.00057744867685584496 0 0.014441422652296219 0.00068311072522963916 0 0.014278706978042005 0.00060747907823274143 0 0.014441422652296219 0.00068311072522963916 0 0.014411251075507829 0.00077350516486135174 0 0.013680116600011165 -0.00031534975731082872 0 0.013840213584935602 -0.00040288686029474135 0 0.013887002034514375 -0.00039015549649035289 0 0.013998210964917506 0.00014254721391152486 0 0.014151804464144572 0.00023808232051483153 0 0.01375381917394047 -0.00043719508667777789 0 0.013680116600011165 -0.00031534975731082872 0 0.013840213584935602 -0.00040288686029474135 0 0.014460989123997355 0.0007490614920434176 0 0.014441422652296219 0.00068311072522963916 0 0.014411251075507829 0.00077350516486135174 0 0.014460989123997355 0.0007490614920434176 0 0.014461433468470552 0.00078129726278315659 0 0.014411251075507829 0.00077350516486135174 0 0.014372418684801944 0.00022302913661173489 0 0.014221790018578186 0.00023074824006359711 0 0.01443583829974401 2.6958807614833491e-06 0 0.014535492912872478 0.00018310207472597832 0 0.014372418684801944 0.00022302913661173489 0 0.01443583829974401 2.6958807614833491e-06 0 0.014372418684801944 0.00022302913661173489 0 0.014285968951166968 0.00034267295674882955 0 0.014221790018578186 0.00023074824006359711 0 0.014535492912872478 0.00018310207472597832 0 0.014372418684801944 0.00022302913661173489 0 0.014444096319893754 0.00033115104483170797 0 0.014278706978042005 0.00060747907823274143 0 0.014386446416616884 0.00047333249945263049 0 0.014285968951166968 0.00034267295674882955 0 0.014444096319893754 0.00033115104483170797 0 0.014386446416616884 0.00047333249945263049 0 0.014285968951166968 0.00034267295674882955 0 0.014480068394494262 0.00048392062197056418 0 0.014444096319893754 0.00033115104483170797 0 0.014386446416616884 0.00047333249945263049 0 0.014372418684801944 0.00022302913661173489 0 0.014444096319893754 0.00033115104483170797 0 0.014285968951166968 0.00034267295674882955 0 0.014285968951166968 0.00034267295674882955 0 0.014051211190325583 0.00027030376358285282 0 0.014221790018578186 0.00023074824006359711 0 0.013998210964917506 0.00014254721391152486 0 0.01403557423789762 0.00025098940644419966 0 0.013680116600011165 -0.00031534975731082872 0 0.014052431839963027 3.8424204332636555e-05 0 0.014051211190325583 0.00027030376358285282 0 0.014278706978042005 0.00060747907823274143 0 0.014285968951166968 0.00034267295674882955 0 0.014051211190325583 0.00027030376358285282 0 0.014052431839963027 3.8424204332636555e-05 0 0.014051211190325583 0.00027030376358285282 0 0.014235085024493312 0.00020818204585065751 0 0.014051211190325583 0.00027030376358285282 0 0.014074116609319906 0.00024660886910872145 0 0.014235085024493312 0.00020818204585065751 0 0.014221790018578186 0.00023074824006359711 0 0.014074116609319906 0.00024660886910872145 0 0.01443583829974401 2.6958807614833491e-06 0 0.014549442286653806 0.00010999366373853264 0 0.014713483231633398 -7.1717025270582691e-07 0 0.014051211190325583 0.00027030376358285282 0 0.014221790018578186 0.00023074824006359711 0 0.014074116609319906 0.00024660886910872145 0 0.014988292560898637 -2.5144941303221592e-05 0 0.01496743300203934 -2.9807507161233465e-05 0 0.014985415286947568 -3.0597408372742047e-05 0 0.014549442286653806 0.00010999366373853264 0 0.014687922252436798 0.00013626339800968594 0 0.014988292560898637 -2.5144941303221592e-05 0 0.01496743300203934 -2.9807507161233465e-05 0 0.014970820468172325 2.2230980688857987e-05 0 0.014074116609319906 0.00024660886910872145 0 0.014235085024493312 0.00020818204585065751 0 0.01439704042398156 0.00025756019522677056 0 0.014206558735905749 -1.8185850434714064e-05 0 0.014052431839963027 3.8424204332636555e-05 0 0.014235085024493312 0.00020818204585065751 0 0.014420079113305123 0.00014247137199797675 0 0.014235085024493312 0.00020818204585065751 0 0.01439704042398156 0.00025756019522677056 0 0.014397944041413178 -0.00010553673371257373 0 0.014206558735905749 -1.8185850434714064e-05 0 0.014235085024493312 0.00020818204585065751 0 0.014414427347764106 -6.2178552042438211e-05 0 0.014244207261303512 0.00021829582731904779 0 0.014970820468172325 2.2230980688857987e-05 0 0.014914649565102753 -3.9145400078035065e-05 0 0.014855035874624008 3.1168274522002716e-05 0 0.014784060585809146 0.0001880583784101228 0 0.014970820468172325 2.2230980688857987e-05 0 0.014855035874624008 3.1168274522002716e-05 0 0.01477752795328786 0.00017031667026911183 0 0.014687922252436798 0.00013626339800968594 0 0.01496743300203934 -2.9807507161233465e-05 0 0.014970820468172325 2.2230980688857987e-05 0 0.014914649565102753 -3.9145400078035065e-05 0 0.01496743300203934 -2.9807507161233465e-05 0 0.014914649565102753 -3.9145400078035065e-05 0 0.014951814554458306 -4.7862063266579763e-05 0 0.014951814554458306 -4.7862063266579763e-05 0 0.014999944796108092 -5.0278967782526831e-08 0 0.01489011528479051 -8.4025987490770167e-05 0 0.014914649565102753 -3.9145400078035065e-05 0 0.014951814554458306 -4.7862063266579763e-05 0 0.01489011528479051 -8.4025987490770167e-05 0 0.014999944796108092 -5.0278967782526831e-08 0 0.014985415286947568 -3.0597408372742047e-05 0 0.015000029657093218 -1.6450172492929272e-08 0 0.01496743300203934 -2.9807507161233465e-05 0 0.014951814554458306 -4.7862063266579763e-05 0 0.014985415286947568 -3.0597408372742047e-05 0 0.014951814554458306 -4.7862063266579763e-05 0 0.014999944796108092 -5.0278967782526831e-08 0 0.014985415286947568 -3.0597408372742047e-05 0 0.014988292560898637 -2.5144941303221592e-05 0 0.014985415286947568 -3.0597408372742047e-05 0 0.014994490372495431 -3.2846975145430154e-05 0 0.014985415286947568 -3.0597408372742047e-05 0 0.015000029657093218 -1.6450172492929272e-08 0 0.014994490372495431 -3.2846975145430154e-05 0 0.014999852202790322 -1.436663780242549e-08 0 0.015000029657093218 -1.6450172492929272e-08 0 0.014994490372495431 -3.2846975145430154e-05 0 0.014642521886563406 -0.00027185611455555233 0 0.013628396749392023 -0.00052913671266887198 0 0.013921567333845267 -4.4060474432789091e-05 0 0.014673388976728418 -0.00027641391960187337 0 0.014106939068415964 -0.00077055365889137754 0 0.014642521886563406 -0.00027185611455555233 0 0.013628396749392023 -0.00052913671266887198 0 0.013446130523045061 -0.0012947236694952952 0 0.013628396749392023 -0.00052913671266887198 0 0.013446130523045061 -0.0012947236694952952 0 0.012830850729495137 -0.00075891749605878781 0 0.013628396749392023 -0.00052913671266887198 0 0.013921567333845267 -4.4060474432789091e-05 0 0.013284542072611647 -0.00030785074353617477 0 0.013921567333845267 -4.4060474432789091e-05 0 0.013284542072611647 -0.00030785074353617477 0 0.013405440266266234 5.4227709568454281e-05 0 0.013405440266266234 5.4227709568454281e-05 0 0.013315878810384645 0.00022473960142099781 0 0.013820783750433186 0.00021068954335393413 0 0.013921567333845267 -4.4060474432789091e-05 0 0.013405440266266234 5.4227709568454281e-05 0 0.013820783750433186 0.00021068954335393413 0 0.013921567333845267 -4.4060474432789091e-05 0 0.013820783750433186 0.00021068954335393413 0 0.01414586479467618 0.00024745221842685272 0 0.013921567333845267 -4.4060474432789091e-05 0 0.01414586479467618 0.00024745221842685272 0 0.014398220373648272 0.00011005164682824194 0 0.014642521886563406 -0.00027185611455555233 0 0.013921567333845267 -4.4060474432789091e-05 0 0.014398220373648272 0.00011005164682824194 0 0.014642521886563406 -0.00027185611455555233 0 0.014398220373648272 0.00011005164682824194 0 0.014683517841645788 -2.1364006339735381e-05 0 0.014683517841645788 -2.1364006339735381e-05 0 0.01477017090665993 9.0575203321381235e-05 0 0.014829205862528574 -6.5385436377347897e-05 0 0.014398220373648272 0.00011005164682824194 0 0.014635193783826245 0.00010630425764653718 0 0.014683517841645788 -2.1364006339735381e-05 0 0.014635193783826245 0.00010630425764653718 0 0.014683517841645788 -2.1364006339735381e-05 0 0.01477017090665993 9.0575203321381235e-05 0 0.01477017090665993 9.0575203321381235e-05 0 0.014855035874624008 3.1168274522002716e-05 0 0.014829205862528574 -6.5385436377347897e-05 0 0.014784060585809146 0.0001880583784101228 0 0.01477017090665993 9.0575203321381235e-05 0 0.014855035874624008 3.1168274522002716e-05 0 0.014914649565102753 -3.9145400078035065e-05 0 0.014829205862528574 -6.5385436377347897e-05 0 0.01489011528479051 -8.4025987490770167e-05 0 0.014914649565102753 -3.9145400078035065e-05 0 0.014855035874624008 3.1168274522002716e-05 0 0.014829205862528574 -6.5385436377347897e-05 0 0.014642521886563406 -0.00027185611455555233 0 0.014683517841645788 -2.1364006339735381e-05 0 0.014829205862528574 -6.5385436377347897e-05 0 0.014642521886563406 -0.00027185611455555233 0 0.014829205862528574 -6.5385436377347897e-05 0 0.01489011528479051 -8.4025987490770167e-05 0 0.014642521886563406 -0.00027185611455555233 0 0.01489011528479051 -8.4025987490770167e-05 0 0.014857134470806166 -8.8578817259314508e-05 0 0.014999944796108092 -5.0278967782526831e-08 0 0.01489011528479051 -8.4025987490770167e-05 0 0.014999844102299625 -7.7122888088740094e-08 0 0.014999844102299625 -7.7122888088740094e-08 0 0.014999841090584512 -1.2335512781439825e-08 0 0.014857134470806166 -8.8578817259314508e-05 0 0.01489011528479051 -8.4025987490770167e-05 0 0.014999844102299625 -7.7122888088740094e-08 0 0.014857134470806166 -8.8578817259314508e-05 0 0.014999841090584512 -1.2335512781439825e-08 0 0.014857134470806166 -8.8578817259314508e-05 0 0.01498580828014633 -3.0412379198038403e-05 0 0.014642521886563406 -0.00027185611455555233 0 0.014857134470806166 -8.8578817259314508e-05 0 0.014993597632080594 -0.00011451069704839431 0 0.014857134470806166 -8.8578817259314508e-05 0 0.014993597632080594 -0.00011451069704839431 0 0.01498580828014633 -3.0412379198038403e-05 0 0.014993597632080594 -0.00011451069704839431 0 0.01498580828014633 -3.0412379198038403e-05 0 0.015006642224650838 -2.5900035574472102e-05 0 0.014999841090584512 -1.2335512781439825e-08 0 0.01498580828014633 -3.0412379198038403e-05 0 0.015000054828828572 -3.3719948800202643e-08 0 0.01498580828014633 -3.0412379198038403e-05 0 0.015000054828828572 -3.3719948800202643e-08 0 0.015006642224650838 -2.5900035574472102e-05 0 0.015214468775965571 -0.0001212053512466988 0 0.014111341462190225 -0.00051984230416275224 0 0.015000054828828572 -3.3719948800202643e-08 0 0.015006642224650838 -2.5900035574472102e-05 0 0.015002410870938922 -1.1151970803625813e-05 0 0.015000054828828572 -3.3719948800202643e-08 0 0.015002410870938922 -1.1151970803625813e-05 0 0.0149999810879392 6.4225407620410877e-09 0 0.014111341462190225 -0.00051984230416275224 0 0.015000773822627432 5.2680303366174255e-07 0 0.012437856101185319 -0.0012353966329929833 0 0.011732461396834508 -0.0013281135860228545 0 0.0120467978250768 -0.00089912575866948647 0 0.012313862385185542 -0.0018491396868963617 0 0.012437856101185319 -0.0012353966329929833 0 0.011732461396834508 -0.0013281135860228545 0 0.014106939068415964 -0.00077055365889137754 0 0.014111341462190225 -0.00051984230416275224 0 0.013446130523045061 -0.0012947236694952952 0 0.012313862385185542 -0.0018491396868963617 0 0.012437856101185319 -0.0012353966329929833 0 0.014993597632080594 -0.00011451069704839431 0 0.015006642224650838 -2.5900035574472102e-05 0 0.015040361820525155 -1.83166903587329e-05 0 0.013446130523045061 -0.0012947236694952952 0 0.012437856101185319 -0.0012353966329929833 0 0.012830850729495137 -0.00075891749605878781 0 0.013029284223437233 -0.00084969771831512706 0 0.012860207919830322 -0.00064876396698997747 0 0.014995994278106103 -4.8587134131112163e-06 0 0.01499186601340299 -2.21492370587328e-06 0 0.015000000887736431 -4.4721525668176424e-09 0 0.014995994278106103 -4.8587134131112163e-06 0 0.014999921593863472 -1.7321162813118491e-08 0 0.015000000887736431 -4.4721525668176424e-09 0 0.012313862385185542 -0.0018491396868963617 0 0.011235245991740516 -0.0015750210594255639 0 0.011732461396834508 -0.0013281135860228545 0 0.014111341462190225 -0.00051984230416275224 0 0.013029284223437233 -0.00084969771831512706 0 0.014974817850028471 -1.9545219017391896e-05 0 0.014995994278106103 -4.8587134131112163e-06 0 0.014999921593863472 -1.7321162813118491e-08 0 0.011235245991740516 -0.0015750210594255639 0 0.011732461396834508 -0.0013281135860228545 0 0.011203452841952875 -0.00088539894227164485 0 0.011235245991740516 -0.0015750210594255639 0 0.011203452841952875 -0.00088539894227164485 0 0.010722080999243818 -0.0010082706087046881 0 0.011203452841952875 -0.00088539894227164485 0 0.01072384885653508 -0.00065380833280755341 0 0.010722080999243818 -0.0010082706087046881 0 0.011203452841952875 -0.00088539894227164485 0 0.0120467978250768 -0.00089912575866948647 0 0.011802680949636464 -0.00041075450608225406 0 0.011732461396834508 -0.0013281135860228545 0 0.011203452841952875 -0.00088539894227164485 0 0.0120467978250768 -0.00089912575866948647 0 0.011203452841952875 -0.00088539894227164485 0 0.011146939938825229 -0.00038992349336706083 0 0.011802680949636464 -0.00041075450608225406 0 0.011146939938825229 -0.00038992349336706083 0 0.010898079413358144 -0.000444353577757812 0 0.01072384885653508 -0.00065380833280755341 0 0.011203452841952875 -0.00088539894227164485 0 0.011146939938825229 -0.00038992349336706083 0 0.01072384885653508 -0.00065380833280755341 0 0.012830850729495137 -0.00075891749605878781 0 0.012396698407781679 -0.00045908846020598077 0 0.012828705301079867 -0.00033972145924340889 0 0.013628396749392023 -0.00052913671266887198 0 0.013284542072611647 -0.00030785074353617477 0 0.012830850729495137 -0.00075891749605878781 0 0.013284542072611647 -0.00030785074353617477 0 0.012830850729495137 -0.00075891749605878781 0 0.012828705301079867 -0.00033972145924340889 0 0.012437856101185319 -0.0012353966329929833 0 0.012830850729495137 -0.00075891749605878781 0 0.0120467978250768 -0.00089912575866948647 0 0.012830850729495137 -0.00075891749605878781 0 0.0120467978250768 -0.00089912575866948647 0 0.012396698407781679 -0.00045908846020598077 0 0.0120467978250768 -0.00089912575866948647 0 0.012396698407781679 -0.00045908846020598077 0 0.011802680949636464 -0.00041075450608225406 0 0.012396698407781679 -0.00045908846020598077 0 0.012296979153664402 -0.00016065703990287487 0 0.011802680949636464 -0.00041075450608225406 0 0.011185227838825609 -0.00034108294902248211 0 0.011764909060651627 -8.7518032214004384e-05 0 0.011146939938825229 -0.00038992349336706083 0 0.011802680949636464 -0.00041075450608225406 0 0.01242500827240299 0.00029769070745615261 0 0.012396698407781679 -0.00045908846020598077 0 0.012296979153664402 -0.00016065703990287487 0 0.01263031742157149 -9.4340835523900563e-05 0 0.012296979153664402 -0.00016065703990287487 0 0.01242500827240299 0.00029769070745615261 0 0.01263031742157149 -9.4340835523900563e-05 0 0.012296979153664402 -0.00016065703990287487 0 0.011802680949636464 -0.00041075450608225406 0 0.01242500827240299 0.00029769070745615261 0 0.013315878810384645 0.00022473960142099781 0 0.01242500827240299 0.00029769070745615261 0 0.013020955014539788 0.00010759692122082752 0 0.01242500827240299 0.00029769070745615261 0 0.01263031742157149 -9.4340835523900563e-05 0 0.013020955014539788 0.00010759692122082752 0 0.01263031742157149 -9.4340835523900563e-05 0 0.012998534244599602 -6.6422973836796165e-05 0 0.013020955014539788 0.00010759692122082752 0 0.012396698407781679 -0.00045908846020598077 0 0.01263031742157149 -9.4340835523900563e-05 0 0.012828705301079867 -0.00033972145924340889 0 0.01263031742157149 -9.4340835523900563e-05 0 0.012828705301079867 -0.00033972145924340889 0 0.012998534244599602 -6.6422973836796165e-05 0 0.013284542072611647 -0.00030785074353617477 0 0.013405440266266234 5.4227709568454281e-05 0 0.012998534244599602 -6.6422973836796165e-05 0 0.013284542072611647 -0.00030785074353617477 0 0.012828705301079867 -0.00033972145924340889 0 0.012998534244599602 -6.6422973836796165e-05 0 0.013405440266266234 5.4227709568454281e-05 0 0.013315878810384645 0.00022473960142099781 0 0.013020955014539788 0.00010759692122082752 0 0.013405440266266234 5.4227709568454281e-05 0 0.012998534244599602 -6.6422973836796165e-05 0 0.013020955014539788 0.00010759692122082752 0 0.013865177930286778 0.00048435772924925873 0 0.013315878810384645 0.00022473960142099781 0 0.01242500827240299 0.00029769070745615261 0 0.01329609659266731 0.00016455188230236477 0 0.011764909060651627 -8.7518032214004384e-05 0 0.012748890706827432 -0.00012986898064455064 0 0.01103909272402444 -0.00043129691315271258 0 0.011232432078776736 -0.00025794265077976503 0 0.01103909272402444 -0.00043129691315271258 0 0.011232432078776736 -0.00025794265077976503 0 0.011135099938512671 -0.00028789653448742892 0 0.011232432078776736 -0.00025794265077976503 0 0.011172327263091896 -0.00028579043997963092 0 0.011188332529731533 -0.00029749615721656806 0 0.011232432078776736 -0.00025794265077976503 0 0.011172327263091896 -0.00028579043997963092 0 0.011135099938512671 -0.00028789653448742892 0 0.011172327263091896 -0.00028579043997963092 0 0.011117635309605026 -0.00027706239365853877 0 0.011135099938512671 -0.00028789653448742892 0 0.011172327263091896 -0.00028579043997963092 0 0.011188332529731533 -0.00029749615721656806 0 0.011160754419388935 -0.00028355407404177677 0 0.011172327263091896 -0.00028579043997963092 0 0.011160754419388935 -0.00028355407404177677 0 0.011140736001060704 -0.00027038365131058339 0 0.011164791255326352 -0.00029157382954238514 0 0.011188332529731533 -0.00029749615721656806 0 0.011160754419388935 -0.00028355407404177677 0 0.011164791255326352 -0.00029157382954238514 0 0.011160754419388935 -0.00028355407404177677 0 0.011140603700881803 -0.00025911796529755847 0 0.011140603700881803 -0.00025911796529755847 0 0.011140736001060704 -0.00027038365131058339 0 0.011108419788797803 -0.00023835574079207446 0 0.011160754419388935 -0.00028355407404177677 0 0.011140603700881803 -0.00025911796529755847 0 0.011140736001060704 -0.00027038365131058339 0 0.011172327263091896 -0.00028579043997963092 0 0.011140736001060704 -0.00027038365131058339 0 0.011117635309605026 -0.00027706239365853877 0 0.011140736001060704 -0.00027038365131058339 0 0.011108419788797803 -0.00023835574079207446 0 0.011117635309605026 -0.00027706239365853877 0 0.011140603700881803 -0.00025911796529755847 0 0.011108419788797803 -0.00023835574079207446 0 0.011106766517489394 -0.00019916303072868441 0 0.011108419788797803 -0.00023835574079207446 0 0.011062064427134173 -0.00023717165528350229 0 0.011066996711038194 -0.00017258478976664551 0 0.011108419788797803 -0.00023835574079207446 0 0.011062064427134173 -0.00023717165528350229 0 0.011117635309605026 -0.00027706239365853877 0 0.011062064427134173 -0.00023717165528350229 0 0.011117635309605026 -0.00027706239365853877 0 0.011055096479621634 -0.0003362532653633962 0 0.011062064427134173 -0.00023717165528350229 0 0.011055096479621634 -0.0003362532653633962 0 0.010990025355969595 -0.00025161702041760417 0 0.011146939938825229 -0.00038992349336706083 0 0.01103909272402444 -0.00043129691315271258 0 0.011055096479621634 -0.0003362532653633962 0 0.011117635309605026 -0.00027706239365853877 0 0.011055096479621634 -0.0003362532653633962 0 0.011135099938512671 -0.00028789653448742892 0 0.01103909272402444 -0.00043129691315271258 0 0.011055096479621634 -0.0003362532653633962 0 0.011135099938512671 -0.00028789653448742892 0 0.011146939938825229 -0.00038992349336706083 0 0.011055096479621634 -0.0003362532653633962 0 0.010973534395204699 -0.00035567456720517258 0 0.011146939938825229 -0.00038992349336706083 0 0.010973534395204699 -0.00035567456720517258 0 0.010898079413358144 -0.000444353577757812 0 0.010973534395204699 -0.00035567456720517258 0 0.010898079413358144 -0.000444353577757812 0 0.010698855803591849 -0.00042358183319757449 0 0.010973534395204699 -0.00035567456720517258 0 0.010835606228509246 -0.00027102026207235423 0 0.010698855803591849 -0.00042358183319757449 0 0.010835606228509246 -0.00027102026207235423 0 0.010651008410194391 -0.00029689590960642901 0 0.010698855803591849 -0.00042358183319757449 0 0.011055096479621634 -0.0003362532653633962 0 0.010973534395204699 -0.00035567456720517258 0 0.010990025355969595 -0.00025161702041760417 0 0.010973534395204699 -0.00035567456720517258 0 0.010835606228509246 -0.00027102026207235423 0 0.010990025355969595 -0.00025161702041760417 0 0.010990025355969595 -0.00025161702041760417 0 0.010900285619095609 -0.00014293458315104335 0 0.011010224416223749 -0.00015534504879129944 0 0.010835606228509246 -0.00027102026207235423 0 0.010990025355969595 -0.00025161702041760417 0 0.010900285619095609 -0.00014293458315104335 0 0.010835606228509246 -0.00027102026207235423 0 0.010759663080449365 -0.00016546717664145573 0 0.010651008410194391 -0.00029689590960642901 0 0.010835606228509246 -0.00027102026207235423 0 0.010900285619095609 -0.00014293458315104335 0 0.010759663080449365 -0.00016546717664145573 0 0.010900285619095609 -0.00014293458315104335 0 0.010759663080449365 -0.00016546717664145573 0 0.010747816617802556 -5.4575272498018953e-06 0 0.010759663080449365 -0.00016546717664145573 0 0.010747816617802556 -5.4575272498018953e-06 0 0.010577122046341075 -0.00015008475271020521 0 0.010033143821888324 -0.00012587186834684563 0 0.00999549683415492 -0.00017603694734796491 0 0.010160977989399167 -0.00020017484087659983 0 0.010369088359673503 -0.00010532589231374516 0 0.010558526658298586 -0.00011474429764517643 0 0.010900285619095609 -0.00014293458315104335 0 0.010747816617802556 -5.4575272498018953e-06 0 0.010958516008750918 -3.6225042956829181e-05 0 0.010033143821888324 -0.00012587186834684563 0 0.00999549683415492 -0.00017603694734796491 0 0.010012459424728488 -0.00018123468000000325 0 0.010900285619095609 -0.00014293458315104335 0 0.010958516008750918 -3.6225042956829181e-05 0 0.011010224416223749 -0.00015534504879129944 0 0.010958516008750918 -3.6225042956829181e-05 0 0.011037572426717643 -9.9812365962296612e-05 0 0.011010224416223749 -0.00015534504879129944 0 0.011025483249307315 -6.506567401334095e-05 0 0.010958516008750918 -3.6225042956829181e-05 0 0.011037572426717643 -9.9812365962296612e-05 0 0.011036695967118489 -8.3284964752538773e-05 0 0.011037572426717643 -9.9812365962296612e-05 0 0.011069061610930419 -0.00013547539271653881 0 0.011025483249307315 -6.506567401334095e-05 0 0.011036695967118489 -8.3284964752538773e-05 0 0.011037572426717643 -9.9812365962296612e-05 0 0.011036695967118489 -8.3284964752538773e-05 0 0.011109345240271618 -0.00015472182068117373 0 0.011069061610930419 -0.00013547539271653881 0 0.011037572426717643 -9.9812365962296612e-05 0 0.011069061610930419 -0.00013547539271653881 0 0.011066996711038194 -0.00017258478976664551 0 0.011109345240271618 -0.00015472182068117373 0 0.011069061610930419 -0.00013547539271653881 0 0.011106766517489394 -0.00019916303072868441 0 0.011069061610930419 -0.00013547539271653881 0 0.011106766517489394 -0.00019916303072868441 0 0.011066996711038194 -0.00017258478976664551 0 0.011108419788797803 -0.00023835574079207446 0 0.011106766517489394 -0.00019916303072868441 0 0.011066996711038194 -0.00017258478976664551 0 0.011062064427134173 -0.00023717165528350229 0 0.011066996711038194 -0.00017258478976664551 0 0.011010224416223749 -0.00015534504879129944 0 0.011062064427134173 -0.00023717165528350229 0 0.010990025355969595 -0.00025161702041760417 0 0.011010224416223749 -0.00015534504879129944 0 0.011037572426717643 -9.9812365962296612e-05 0 0.011066996711038194 -0.00017258478976664551 0 0.011010224416223749 -0.00015534504879129944 0 0.0097025780148946739 -0.00048076104812071842 0 0.0099488655586033019 -0.00027809365924237617 0 0.010213097946594878 -0.00033650046573135007 0 0.0099490263906506417 -0.00027579197026828662 0 0.010213097946594878 -0.00033650046573135007 0 0.010200230934748427 -0.00042280791500973842 0 0.009826369298939968 -0.0003725283960276059 0 0.010181887420907386 -0.00034331610408696504 0 0.0099488655586033019 -0.00027809365924237617 0 0.010171650873846213 -0.00024467512650730363 0 0.010213097946594878 -0.00033650046573135007 0 0.0097025780148946739 -0.00048076104812071842 0 0.0097173724176110986 -0.00023291845711514062 0 0.0095139011833813257 -0.00036421317848613262 0 0.0097025780148946739 -0.00048076104812071842 0 0.0097173724176110986 -0.00023291845711514062 0 0.0099488655586033019 -0.00027809365924237617 0 0.0098994897289134496 -8.1624625280921824e-05 0 0.0099488655586033019 -0.00027809365924237617 0 0.010171650873846213 -0.00024467512650730363 0 0.0099087809010176015 -9.4860562862326202e-05 0 0.010089948426359919 -0.00018689267222920492 0 0.0098994897289134496 -8.1624625280921824e-05 0 0.0097173724176110986 -0.00023291845711514062 0 0.0099488655586033019 -0.00027809365924237617 0 0.0099439282777590426 -0.00011980697788269269 0 0.0099600348974167533 -0.00012297658497791055 0 0.01003843647059841 -0.00015543245575309314 0 0.0098664672717601459 -9.9087546214792196e-05 0 0.0099600348974167533 -0.00012297658497791055 0 0.0099782837632925031 -0.00013554588815871022 0 0.0099600348974167533 -0.00012297658497791055 0 0.010040094792982401 -0.00014095974044293867 0 0.01003843647059841 -0.00015543245575309314 0 0.010040094792982401 -0.00014095974044293867 0 0.0099782837632925031 -0.00013554588815871022 0 0.010193897166754951 -0.00018051445948705856 0 0.010040094792982401 -0.00014095974044293867 0 0.01003843647059841 -0.00015543245575309314 0 0.010193897166754951 -0.00018051445948705856 0 0.0099600348974167533 -0.00012297658497791055 0 0.010040094792982401 -0.00014095974044293867 0 0.0099782837632925031 -0.00013554588815871022 0 0.00999549683415492 -0.00017603694734796491 0 0.010012459424728488 -0.00018123468000000325 0 0.010193897166754951 -0.00018051445948705856 0 0.010048420962681857 -0.00017014688448521175 0 0.010012459424728488 -0.00018123468000000325 0 0.010193897166754951 -0.00018051445948705856 0 0.01000359899847275 -0.00015162588649729494 0 0.010048420962681857 -0.00017014688448521175 0 0.010012459424728488 -0.00018123468000000325 0 0.01000359899847275 -0.00015162588649729494 0 0.010048420962681857 -0.00017014688448521175 0 0.01003843647059841 -0.00015543245575309314 0 0.010048420962681857 -0.00017014688448521175 0 0.01003843647059841 -0.00015543245575309314 0 0.010193897166754951 -0.00018051445948705856 0 0.010369088359673503 -0.00010532589231374516 0 0.010197242041465941 -0.00017319630500400838 0 0.010747816617802556 -5.4575272498018953e-06 0 0.010577122046341075 -0.00015008475271020521 0 0.010193897166754951 -0.00018051445948705856 0 0.010759663080449365 -0.00016546717664145573 0 0.010577122046341075 -0.00015008475271020521 0 0.010552166569315123 -0.0002287142325300382 0 0.010577122046341075 -0.00015008475271020521 0 0.010552166569315123 -0.0002287142325300382 0 0.010193897166754951 -0.00018051445948705856 0 0.010552166569315123 -0.0002287142325300382 0 0.010193897166754951 -0.00018051445948705856 0 0.01043192811673941 -0.00034298844128122122 0 0.010552166569315123 -0.0002287142325300382 0 0.010651008410194391 -0.00029689590960642901 0 0.01043192811673941 -0.00034298844128122122 0 0.010759663080449365 -0.00016546717664145573 0 0.010552166569315123 -0.0002287142325300382 0 0.010651008410194391 -0.00029689590960642901 0 0.010171650873846213 -0.00024467512650730363 0 0.010213097946594878 -0.00033650046573135007 0 0.01043192811673941 -0.00034298844128122122 0 0.010089948426359919 -0.00018689267222920492 0 0.010374728412333232 -0.00034370783083537072 0 0.0099782837632925031 -0.00013554588815871022 0 0.010193897166754951 -0.00018051445948705856 0 0.01043192811673941 -0.00034298844128122122 0 0.010213097946594878 -0.00033650046573135007 0 0.010310272959909991 -0.00038652362273525014 0 0.01043192811673941 -0.00034298844128122122 0 0.010213097946594878 -0.00033650046573135007 0 0.010310272959909991 -0.00038652362273525014 0 0.010200230934748427 -0.00042280791500973842 0 0.010310272959909991 -0.00038652362273525014 0 0.01043192811673941 -0.00034298844128122122 0 0.010451905486937271 -0.00051287256003513864 0 0.010310272959909991 -0.00038652362273525014 0 0.010451905486937271 -0.00051287256003513864 0 0.010200230934748427 -0.00042280791500973842 0 0.01043192811673941 -0.00034298844128122122 0 0.010698855803591849 -0.00042358183319757449 0 0.010451905486937271 -0.00051287256003513864 0 0.010651008410194391 -0.00029689590960642901 0 0.01043192811673941 -0.00034298844128122122 0 0.010698855803591849 -0.00042358183319757449 0 0.010698855803591849 -0.00042358183319757449 0 0.010451905486937271 -0.00051287256003513864 0 0.010538041926860066 -0.00061413672991799436 0 0.010898079413358144 -0.000444353577757812 0 0.010698855803591849 -0.00042358183319757449 0 0.01072384885653508 -0.00065380833280755341 0 0.010698855803591849 -0.00042358183319757449 0 0.01072384885653508 -0.00065380833280755341 0 0.010538041926860066 -0.00061413672991799436 0 0.010451905486937271 -0.00051287256003513864 0 0.010426015207654788 -0.00066466992908760026 0 0.010538041926860066 -0.00061413672991799436 0 0.010444715281571954 -0.00052837500853773485 0 0.010199847030586346 -0.00058938944006924131 0 0.010451905486937271 -0.00051287256003513864 0 0.010366990192511461 -0.00063953966884417509 0 0.010426015207654788 -0.00066466992908760026 0 0.010451905486937271 -0.00051287256003513864 0 0.010200230934748427 -0.00042280791500973842 0 0.01002628550401553 -0.0005582896718526214 0 0.0099490263906506417 -0.00027579197026828662 0 0.01002628550401553 -0.0005582896718526214 0 0.0097771739355124714 -0.00040148318545722733 0 0.0099490263906506417 -0.00027579197026828662 0 0.010200230934748427 -0.00042280791500973842 0 0.01002628550401553 -0.0005582896718526214 0 0.010366990192511461 -0.00063953966884417509 0 0.010351887660721851 -0.000774498247344536 0 0.010283660542295694 -0.00076376272937510314 0 0.010351887660721851 -0.000774498247344536 0 0.010426015207654788 -0.00066466992908760026 0 0.010458575744395748 -0.00080953429259807955 0 0.010366990192511461 -0.00063953966884417509 0 0.010351887660721851 -0.000774498247344536 0 0.010426015207654788 -0.00066466992908760026 0 0.010458575744395748 -0.00080953429259807955 0 0.010501790107481427 -0.0010274239339824851 0 0.010363771535063055 -0.00093217604047555341 0 0.010351887660721851 -0.000774498247344536 0 0.010458575744395748 -0.00080953429259807955 0 0.010363771535063055 -0.00093217604047555341 0 0.010351887660721851 -0.000774498247344536 0 0.010363771535063055 -0.00093217604047555341 0 0.010291426859440869 -0.0008712499413626823 0 0.010458575744395748 -0.00080953429259807955 0 0.01072384885653508 -0.00065380833280755341 0 0.010538041926860066 -0.00061413672991799436 0 0.010426015207654788 -0.00066466992908760026 0 0.010458575744395748 -0.00080953429259807955 0 0.010538041926860066 -0.00061413672991799436 0 0.010458575744395748 -0.00080953429259807955 0 0.01072384885653508 -0.00065380833280755341 0 0.010722080999243818 -0.0010082706087046881 0 0.010458575744395748 -0.00080953429259807955 0 0.010722080999243818 -0.0010082706087046881 0 0.010501790107481427 -0.0010274239339824851 0 0.011235245991740516 -0.0015750210594255639 0 0.010722080999243818 -0.0010082706087046881 0 0.010675649298663903 -0.00130754135135694 0 0.010722080999243818 -0.0010082706087046881 0 0.010501790107481427 -0.0010274239339824851 0 0.010675649298663903 -0.00130754135135694 0 0.014999960941210149 -3.9499301602820468e-09 0 0.01499186601340299 -2.21492370587328e-06 0 0.014992002344311731 -2.3328911293966605e-06 0 0.012860207919830322 -0.00064876396698997747 0 0.012757273128726274 -0.00054570913276059539 0 0.010501790107481427 -0.0010274239339824851 0 0.010675649298663903 -0.00130754135135694 0 0.010422287750003334 -0.0010933304124460042 0 0.014999960941210149 -3.9499301602820468e-09 0 0.01499186601340299 -2.21492370587328e-06 0 0.015000000887736431 -4.4721525668176424e-09 0 0.010501790107481427 -0.0010274239339824851 0 0.010363771535063055 -0.00093217604047555341 0 0.010422287750003334 -0.0010933304124460042 0 0.014999960941210149 -3.9499301602820468e-09 0 0.014992002344311731 -2.3328911293966605e-06 0 0.014999992670151955 -3.3499706914231255e-09 0 0.012757273128726274 -0.00054570913276059539 0 0.012448160117773726 -0.00054727272705777413 0 0.014992002344311731 -2.3328911293966605e-06 0 0.014999992670151955 -3.3499706914231255e-09 0 0.014994055749980908 -1.2773548820619292e-06 0 0.010363771535063055 -0.00093217604047555341 0 0.010422287750003334 -0.0010933304124460042 0 0.0103095300955396 -0.00099496567032400052 0 0.014999992670151955 -3.3499706914231255e-09 0 0.014994055749980908 -1.2773548820619292e-06 0 0.014999922166377262 9.8022235290829949e-10 0 0.010363771535063055 -0.00093217604047555341 0 0.0103095300955396 -0.00099496567032400052 0 0.010291426859440869 -0.0008712499413626823 0 0.0103095300955396 -0.00099496567032400052 0 0.010252302323040308 -0.00090607316511108016 0 0.010291426859440869 -0.0008712499413626823 0 0.012448160117773726 -0.00054727272705777413 0 0.013512989085843263 -0.00014737760282211728 0 0.014994055749980908 -1.2773548820619292e-06 0 0.014999922166377262 9.8022235290829949e-10 0 0.014984481521779773 4.7194123942623074e-06 0 0.0103095300955396 -0.00099496567032400052 0 0.010252302323040308 -0.00090607316511108016 0 0.010242600324624514 -0.00095444213215869459 0 0.01500051561559777 -5.3760886506111144e-07 0 0.013512989085843263 -0.00014737760282211728 0 0.015000025789030468 -7.2477091069683483e-10 0 0.014998381169169461 1.5272102978120877e-06 0 0.014999932048052826 4.1907553303187724e-09 0 0.013512989085843263 -0.00014737760282211728 0 0.015484777553967315 2.1861853864990571e-05 0 0.013512989085843263 -0.00014737760282211728 0 0.012561057161906943 -0.00048513112328607696 0 0.014998381169169461 1.5272102978120877e-06 0 0.014999932048052826 4.1907553303187724e-09 0 0.014984824273733629 2.3312692294930067e-06 0 0.014829449708355903 8.4710311175472349e-06 0 0.014984824273733629 2.3312692294930067e-06 0 0.01495369020561807 -4.1623089032396403e-05 0 0.014984824273733629 2.3312692294930067e-06 0 0.01495369020561807 -4.1623089032396403e-05 0 0.014977786595557615 -2.1881677865201355e-05 0 0.010194073541236812 -0.00091781672450433273 0 0.010218688921532892 -0.00090299733084895034 0 0.01017495073440457 -0.00086508017292307674 0 0.010194073541236812 -0.00091781672450433273 0 0.01017495073440457 -0.00086508017292307674 0 0.010154199050243031 -0.000885690880942751 0 0.010252302323040308 -0.00090607316511108016 0 0.010242600324624514 -0.00095444213215869459 0 0.010218688921532892 -0.00090299733084895034 0 0.010242600324624514 -0.00095444213215869459 0 0.010194073541236812 -0.00091781672450433273 0 0.010218688921532892 -0.00090299733084895034 0 0.010252302323040308 -0.00090607316511108016 0 0.010218688921532892 -0.00090299733084895034 0 0.010208270855282612 -0.0008609692964945745 0 0.010252302323040308 -0.00090607316511108016 0 0.010208270855282612 -0.0008609692964945745 0 0.010231586961083445 -0.00082225886087718169 0 0.010208270855282612 -0.0008609692964945745 0 0.010194040923544225 -0.00082476547105799782 0 0.010231586961083445 -0.00082225886087718169 0 0.010208270855282612 -0.0008609692964945745 0 0.010184683865800136 -0.00084225898415087454 0 0.010194040923544225 -0.00082476547105799782 0 0.01017495073440457 -0.00086508017292307674 0 0.010184683865800136 -0.00084225898415087454 0 0.010162906592740937 -0.00081784979021601377 0 0.010208270855282612 -0.0008609692964945745 0 0.01017495073440457 -0.00086508017292307674 0 0.010184683865800136 -0.00084225898415087454 0 0.010218688921532892 -0.00090299733084895034 0 0.010208270855282612 -0.0008609692964945745 0 0.01017495073440457 -0.00086508017292307674 0 0.010184683865800136 -0.00084225898415087454 0 0.010162906592740937 -0.00081784979021601377 0 0.010194040923544225 -0.00082476547105799782 0 0.010162906592740937 -0.00081784979021601377 0 0.010198010581569225 -0.00078835615450034723 0 0.010188268318632631 -0.00073026246745198757 0 0.0092837415780746176 -0.00027352279240641295 0 0.009348597476232413 -0.00030081612617972886 0 0.009467704726404555 -0.0006452187901374427 0 0.0096733127300582481 -0.00046049721420495139 0 0.0093521743000944402 -0.00028640377943642422 0 0.0094144940185625688 -0.00027856108309511247 0 0.0093275528999244937 -0.00033438766242881119 0 0.010162906592740937 -0.00081784979021601377 0 0.010194040923544225 -0.00082476547105799782 0 0.010198010581569225 -0.00078835615450034723 0 0.010194040923544225 -0.00082476547105799782 0 0.010198010581569225 -0.00078835615450034723 0 0.010231586961083445 -0.00082225886087718169 0 0.010198010581569225 -0.00078835615450034723 0 0.01023202048199791 -0.00076261244454875238 0 0.010231586961083445 -0.00082225886087718169 0 0.010231586961083445 -0.00082225886087718169 0 0.010283660542295694 -0.00076376272937510314 0 0.010291426859440869 -0.0008712499413626823 0 0.01023202048199791 -0.00076261244454875238 0 0.010231586961083445 -0.00082225886087718169 0 0.010283660542295694 -0.00076376272937510314 0 0.010351887660721851 -0.000774498247344536 0 0.010283660542295694 -0.00076376272937510314 0 0.010291426859440869 -0.0008712499413626823 0 0.010252302323040308 -0.00090607316511108016 0 0.010231586961083445 -0.00082225886087718169 0 0.010291426859440869 -0.0008712499413626823 0 0.014979103314206824 9.3640291142533433e-06 0 0.014963779504762771 1.0105237507402902e-05 0 0.014983672295162244 5.267486024279698e-06 0 0.012382757870242751 4.7271505018901259e-05 0 0.012303178754816914 0.00041757345947400612 0 0.009961131393249863 4.659080064598957e-05 0 0.0098222601951632772 0.0001559783275175908 0 0.010108234298130998 -2.7912667556007962e-05 0 0.009961131393249863 4.659080064598957e-05 0 0.0098222601951632772 0.0001559783275175908 0 0.0098064045021043836 2.3795617624721442e-05 0 0.014979103314206824 9.3640291142533433e-06 0 0.014999976205747622 3.5286407667233029e-09 0 0.014983672295162244 5.267486024279698e-06 0 0.014979103314206824 9.3640291142533433e-06 0 0.014999976205747622 3.5286407667233029e-09 0 0.014999968550335092 7.7297432215574364e-09 0 0.014979103314206824 9.3640291142533433e-06 0 0.014999968550335092 7.7297432215574364e-09 0 0.014992809687637745 3.1004933001665471e-06 0 0.012382757870242751 4.7271505018901259e-05 0 0.012743234715492574 7.7295192754223374e-05 0 0.0098222601951632772 0.0001559783275175908 0 0.0096961230383060676 4.3491195636288047e-05 0 0.0095876014183602608 9.4495262132597959e-05 0 0.0098222601951632772 0.0001559783275175908 0 0.0095876014183602608 9.4495262132597959e-05 0 0.0095857753078280733 0.00033505348442091606 0 0.0098222601951632772 0.0001559783275175908 0 0.0096961230383060676 4.3491195636288047e-05 0 0.0098064045021043836 2.3795617624721442e-05 0 0.0096961230383060676 4.3491195636288047e-05 0 0.0095876014183602608 9.4495262132597959e-05 0 0.009591495623043329 -4.7202643748362427e-06 0 0.0095876014183602608 9.4495262132597959e-05 0 0.0095857753078280733 0.00033505348442091606 0 0.0093838903148831566 3.8517133247722999e-05 0 0.012800314143575561 0.00045274356068685705 0 0.011683003058997722 -0.00073332302498954941 0 0.011971731195637122 -0.00090801484584885988 0 0.012743234715492574 7.7295192754223374e-05 0 0.010166982919953644 -0.0001041765764532797 0 0.0095876014183602608 9.4495262132597959e-05 0 0.0094603419652001149 -1.446330084385133e-05 0 0.009591495623043329 -4.7202643748362427e-06 0 0.0095876014183602608 9.4495262132597959e-05 0 0.0093838903148831566 3.8517133247722999e-05 0 0.0094603419652001149 -1.446330084385133e-05 0 0.014276540010527273 1.069416373888093e-05 0 0.011808838933475892 -0.00047231264309288533 0 0.012800314143575561 0.00045274356068685705 0 0.012566882315299443 0.00062934596507209506 0 0.011683003058997722 -0.00073332302498954941 0 0.012743234715492574 7.7295192754223374e-05 0 0.014276540010527273 1.069416373888093e-05 0 0.014993669597352016 -4.3680616076257624e-06 0 0.014992395728865236 -2.8855092701283116e-06 0 0.014997101568504312 -1.6168419350681299e-06 0 0.014992395728865236 -2.8855092701283116e-06 0 0.014999980764385282 -2.0975580354082665e-09 0 0.014997101568504312 -1.6168419350681299e-06 0 0.014276540010527273 1.069416373888093e-05 0 0.014998756690175046 4.2144839860921163e-07 0 0.015000006375090911 7.1680818318870391e-10 0 0.014993669597352016 -4.3680616076257624e-06 0 0.014997101568504312 -1.6168419350681299e-06 0 0.014998226958967442 9.0960868582873566e-07 0 0.012743234715492574 7.7295192754223374e-05 0 0.015000006375090911 7.1680818318870391e-10 0 0.014999980764385282 -2.0975580354082665e-09 0 0.014997101568504312 -1.6168419350681299e-06 0 0.015003161461819233 -4.2678170506259064e-06 0 0.01499999627255761 -1.3584944036405982e-08 0 0.01498824025244868 -1.3036169276454977e-05 0 0.014998861746384776 -1.4739744226968605e-07 0 0.01499999757626147 3.8079519825665041e-10 0 0.014999998743851238 -7.3174159731290739e-10 0 0.014276540010527273 1.069416373888093e-05 0 0.014999480021105962 -3.3672390935362329e-07 0 0.015003161461819233 -4.2678170506259064e-06 0 0.01498824025244868 -1.3036169276454977e-05 0 0.014974093156217136 -3.9986903403343947e-05 0 0.014984824273733629 2.3312692294930067e-06 0 0.01499999627255761 -1.3584944036405982e-08 0 0.01498824025244868 -1.3036169276454977e-05 0 0.014999932048052826 4.1907553303187724e-09 0 0.014984824273733629 2.3312692294930067e-06 0 0.01499999627255761 -1.3584944036405982e-08 0 0.014984824273733629 2.3312692294930067e-06 0 0.01498824025244868 -1.3036169276454977e-05 0 0.014977786595557615 -2.1881677865201355e-05 0 0.01495369020561807 -4.1623089032396403e-05 0 0.014977786595557615 -2.1881677865201355e-05 0 0.014974093156217136 -3.9986903403343947e-05 0 0.01498824025244868 -1.3036169276454977e-05 0 0.014977786595557615 -2.1881677865201355e-05 0 0.014974093156217136 -3.9986903403343947e-05 0 0.012561057161906943 -0.00048513112328607696 0 0.011808838933475892 -0.00047231264309288533 0 0.011808838933475892 -0.00047231264309288533 0 0.010166982919953644 -0.0001041765764532797 0 0.01017495073440457 -0.00086508017292307674 0 0.010162906592740937 -0.00081784979021601377 0 0.010154199050243031 -0.000885690880942751 0 0.009467704726404555 -0.0006452187901374427 0 0.011808838933475892 -0.00047231264309288533 0 0.0094946536982136124 -0.0001051656797622989 0 0.0095354844383545058 -0.00012887464723693634 0 0.0094144940185625688 -0.00027856108309511247 0 0.0093521743000944402 -0.00028640377943642422 0 0.0094946536982136124 -0.0001051656797622989 0 0.0094144940185625688 -0.00027856108309511247 0 0.010166982919953644 -0.0001041765764532797 0 0.0092837415780746176 -0.00027352279240641295 0 0.0093824515875498699 2.3399349981760089e-05 0 0.0093921646518027816 -0.00012934094299740925 0 0.0092881360237598038 -0.00021634122962722841 0 0.0092881360237598038 -0.00021634122962722841 0 0.0093248444929344091 -0.00030896020283039831 0 0.0093275528999244937 -0.00033438766242881119 0 0.0092881360237598038 -0.00021634122962722841 0 0.009360622759223218 -0.00023457435854272696 0 0.0093248444929344091 -0.00030896020283039831 0 0.009360622759223218 -0.00023457435854272696 0 0.0094016967867492553 -0.00028121682903163982 0 0.0093248444929344091 -0.00030896020283039831 0 0.0093921646518027816 -0.00012934094299740925 0 0.0092881360237598038 -0.00021634122962722841 0 0.009360622759223218 -0.00023457435854272696 0 0.0094016967867492553 -0.00028121682903163982 0 0.009465256219322803 -0.00019303522498253945 0 0.0096332019986838449 -0.00030398353375132658 0 0.009360622759223218 -0.00023457435854272696 0 0.0094016967867492553 -0.00028121682903163982 0 0.009465256219322803 -0.00019303522498253945 0 0.0093921646518027816 -0.00012934094299740925 0 0.009360622759223218 -0.00023457435854272696 0 0.009465256219322803 -0.00019303522498253945 0 0.009465256219322803 -0.00019303522498253945 0 0.0095417783331801422 -9.9633567877906238e-05 0 0.0094644605983056906 -0.0001112070868623366 0 0.009465256219322803 -0.00019303522498253945 0 0.0095417783331801422 -9.9633567877906238e-05 0 0.0096663967692718865 -0.00014594212548087922 0 0.0093921646518027816 -0.00012934094299740925 0 0.0094644605983056906 -0.0001112070868623366 0 0.0094603419652001149 -1.446330084385133e-05 0 0.0093921646518027816 -0.00012934094299740925 0 0.009465256219322803 -0.00019303522498253945 0 0.0094644605983056906 -0.0001112070868623366 0 0.0093824515875498699 2.3399349981760089e-05 0 0.0093921646518027816 -0.00012934094299740925 0 0.0094603419652001149 -1.446330084385133e-05 0 0.010166982919953644 -0.0001041765764532797 0 0.0095880325158753405 0.00010910559669249822 0 0.0095417783331801422 -9.9633567877906238e-05 0 0.0094603419652001149 -1.446330084385133e-05 0 0.009591495623043329 -4.7202643748362427e-06 0 0.0095417783331801422 -9.9633567877906238e-05 0 0.0094644605983056906 -0.0001112070868623366 0 0.0094603419652001149 -1.446330084385133e-05 0 0.0095417783331801422 -9.9633567877906238e-05 0 0.0096749071134782996 -5.4394958831582567e-05 0 0.009591495623043329 -4.7202643748362427e-06 0 0.0096961230383060676 4.3491195636288047e-05 0 0.0096749071134782996 -5.4394958831582567e-05 0 0.009591495623043329 -4.7202643748362427e-06 0 0.0096961230383060676 4.3491195636288047e-05 0 0.0096749071134782996 -5.4394958831582567e-05 0 0.0098064045021043836 2.3795617624721442e-05 0 0.0096749071134782996 -5.4394958831582567e-05 0 0.0097982981269726568 -7.4549448219842515e-05 0 0.0098064045021043836 2.3795617624721442e-05 0 0.0096749071134782996 -5.4394958831582567e-05 0 0.0096663967692718865 -0.00014594212548087922 0 0.0097982981269726568 -7.4549448219842515e-05 0 0.0095417783331801422 -9.9633567877906238e-05 0 0.0096749071134782996 -5.4394958831582567e-05 0 0.0096663967692718865 -0.00014594212548087922 0 0.009465256219322803 -0.00019303522498253945 0 0.0096663967692718865 -0.00014594212548087922 0 0.0096332019986838449 -0.00030398353375132658 0 0.0096663967692718865 -0.00014594212548087922 0 0.0096332019986838449 -0.00030398353375132658 0 0.0099171661902193002 -0.00015258104049231506 0 0.0093873466115082533 -0.00037968106192594152 0 0.0099057656580729958 1.3140705169922483e-05 0 0.0099057656580729958 1.3140705169922483e-05 0 0.010078461070933053 -0.00013925180166922662 0 0.0092771814841315012 -0.00035991797995703833 0 0.009260935975928206 -0.00037006457130071797 0 0.0092515910029302255 -0.00033256438601592331 0 0.010822442364966708 0.00065355232099587675 0 0.010771639815408247 -5.6111140195386576e-06 0 0.011102853467431137 0.00029810883086261899 0 0.0099057656580729958 1.3140705169922483e-05 0 0.012303178754816914 0.00041757345947400612 0 0.0096663967692718865 -0.00014594212548087922 0 0.0099171661902193002 -0.00015258104049231506 0 0.0097982981269726568 -7.4549448219842515e-05 0 0.009961131393249863 4.659080064598957e-05 0 0.0099171661902193002 -0.00015258104049231506 0 0.0097982981269726568 -7.4549448219842515e-05 0 0.009961131393249863 4.659080064598957e-05 0 0.0097982981269726568 -7.4549448219842515e-05 0 0.0098064045021043836 2.3795617624721442e-05 0 0.0099466264706146845 -2.2234940777488831e-05 0 0.0099057656580729958 1.3140705169922483e-05 0 0.009961131393249863 4.659080064598957e-05 0 0.0099523444434118612 -0.00014562703058240613 0 0.010108234298130998 -2.7912667556007962e-05 0 0.010078461070933053 -0.00013925180166922662 0 0.0096084568157154566 -0.00040847440993394766 0 0.0092515910029302255 -0.00033256438601592331 0 0.0092597915098586048 -0.0003120894202336358 0 0.009252958134681244 -0.00030016183643117271 0 0.010960616555325809 -0.00035309016886118509 0 0.010771639815408247 -5.6111140195386576e-06 0 0.010748169259603925 -0.00055546377071912152 0 0.0092771814841315012 -0.00035991797995703833 0 0.0092515910029302255 -0.00033256438601592331 0 0.0092597915098586048 -0.0003120894202336358 0 0.0092771814841315012 -0.00035991797995703833 0 0.0092597915098586048 -0.0003120894202336358 0 0.0093334687406897224 -0.00034537833783472881 0 0.0091736388191883643 -0.00023202390347681868 0 0.0096084568157154566 -0.00040847440993394766 0 0.0092597915098586048 -0.0003120894202336358 0 0.0092592491407777703 -0.00029975169244419422 0 0.0092360111226999289 -0.00029716307862630303 0 0.0092597915098586048 -0.0003120894202336358 0 0.0093334687406897224 -0.00034537833783472881 0 0.0092592491407777703 -0.00029975169244419422 0 0.0093873466115082533 -0.00037968106192594152 0 0.009385201000920532 -0.00032470237784131787 0 0.0094016967867492553 -0.00028121682903163982 0 0.0096332019986838449 -0.00030398353375132658 0 0.0093334687406897224 -0.00034537833783472881 0 0.0094016967867492553 -0.00028121682903163982 0 0.0093334687406897224 -0.00034537833783472881 0 0.0093248444929344091 -0.00030896020283039831 0 0.0093334687406897224 -0.00034537833783472881 0 0.0093248444929344091 -0.00030896020283039831 0 0.0093060033563843077 -0.0003310605249832164 0 0.0093248444929344091 -0.00030896020283039831 0 0.0093060033563843077 -0.0003310605249832164 0 0.0093275528999244937 -0.00033438766242881119 0 0.0093334687406897224 -0.00034537833783472881 0 0.0093060033563843077 -0.0003310605249832164 0 0.0092592491407777703 -0.00029975169244419422 0 0.0093060033563843077 -0.0003310605249832164 0 0.0092592491407777703 -0.00029975169244419422 0 0.0093213244368839116 -0.0003305923734675498 0 0.0092592491407777703 -0.00029975169244419422 0 0.009211987282573518 -0.00028328967125036794 0 0.0092108472943329637 -0.000299029524445597 0 0.0092596325064950493 -0.00030015344064584381 0 0.0092776343398735753 -0.00031182156927936464 0 0.0092592491407777703 -0.00029975169244419422 0 0.0092055230398019449 -0.00033562584851721492 0 0.0092108472943329637 -0.000299029524445597 0 0.0091879526412037005 -0.00025100175434982478 0 0.009211987282573518 -0.00028328967125036794 0 0.0092108472943329637 -0.000299029524445597 0 0.0091879526412037005 -0.00025100175434982478 0 0.009211987282573518 -0.00028328967125036794 0 0.0091892064318771019 -0.00025378188023444275 0 0.009211987282573518 -0.00028328967125036794 0 0.0092062219113526987 -0.00029444521024308217 0 0.0091892064318771019 -0.00025378188023444275 0 0.0092062219113526987 -0.00029444521024308217 0 0.0091892064318771019 -0.00025378188023444275 0 0.0091631244406420939 -0.0002411533292629275 0 0.0092592491407777703 -0.00029975169244419422 0 0.009211987282573518 -0.00028328967125036794 0 0.0092062219113526987 -0.00029444521024308217 0 0.0092592491407777703 -0.00029975169244419422 0 0.0092360111226999289 -0.00029716307862630303 0 0.0092062219113526987 -0.00029444521024308217 0 0.0092360111226999289 -0.00029716307862630303 0 0.0092062219113526987 -0.00029444521024308217 0 0.009246195176207209 -0.00030600979205839597 0 0.0092597915098586048 -0.0003120894202336358 0 0.0092360111226999289 -0.00029716307862630303 0 0.009241755211731777 -0.00029895258369772785 0 0.0092360111226999289 -0.00029716307862630303 0 0.009246195176207209 -0.00030600979205839597 0 0.009241755211731777 -0.00029895258369772785 0 0.009222334251960217 -0.00033255443311148883 0 0.0092062219113526987 -0.00029444521024308217 0 0.009246195176207209 -0.00030600979205839597 0 0.009195433568364185 -0.00030164544400067213 0 0.0092035955097550578 -0.00028665428026708272 0 0.009222334251960217 -0.00033255443311148883 0 0.0092062219113526987 -0.00029444521024308217 0 0.0091865670702067168 -0.00037256348421196151 0 0.009222334251960217 -0.00033255443311148883 0 0.009246195176207209 -0.00030600979205839597 0 0.0092477839090370426 -0.00036531065097984537 0 0.009246195176207209 -0.00030600979205839597 0 0.0092477839090370426 -0.00036531065097984537 0 0.0093116617778150647 -0.00032890122032092821 0 0.009246195176207209 -0.00030600979205839597 0 0.0092531239774708111 -0.00026129058504696824 0 0.0093116617778150647 -0.00032890122032092821 0 0.010960616555325809 -0.00035309016886118509 0 0.010748169259603925 -0.00055546377071912152 0 0.011097407421105843 -0.00055515842447106684 0 0.0096084568157154566 -0.00040847440993394766 0 0.010378200446988672 -0.00066451929851119571 0 0.0093279262866943317 -0.00028742303045385214 0 0.0096084568157154566 -0.00040847440993394766 0 0.009585126677060251 -0.00041106080696543321 0 0.0094961460610592779 -0.00045705016696485955 0 0.0096802084196772487 -0.00055609686196143491 0 0.009585126677060251 -0.00041106080696543321 0 0.0094834098527001604 -0.00030442771243660609 0 0.0095656806441774978 -0.0002741504339584328 0 0.009585126677060251 -0.00041106080696543321 0 0.0094961460610592779 -0.00045705016696485955 0 0.0094834098527001604 -0.00030442771243660609 0 0.009585126677060251 -0.00041106080696543321 0 0.0097771739355124714 -0.00040148318545722733 0 0.0095656806441774978 -0.0002741504339584328 0 0.01002628550401553 -0.0005582896718526214 0 0.0097771739355124714 -0.00040148318545722733 0 0.0096802084196772487 -0.00055609686196143491 0 0.009585126677060251 -0.00041106080696543321 0 0.0097771739355124714 -0.00040148318545722733 0 0.0096802084196772487 -0.00055609686196143491 0 0.010199847030586346 -0.00058938944006924131 0 0.0099953573342007208 -0.00065286769665622729 0 0.010366990192511461 -0.00063953966884417509 0 0.010283660542295694 -0.00076376272937510314 0 0.010270589778899311 -0.00070303465873219591 0 0.01023202048199791 -0.00076261244454875238 0 0.010283660542295694 -0.00076376272937510314 0 0.010270589778899311 -0.00070303465873219591 0 0.0094961460610592779 -0.00045705016696485955 0 0.0096802084196772487 -0.00055609686196143491 0 0.0093227591855436932 -0.00055763959366474764 0 0.01023202048199791 -0.00076261244454875238 0 0.010270589778899311 -0.00070303465873219591 0 0.010188268318632631 -0.00073026246745198757 0 0.0099953573342007208 -0.00065286769665622729 0 0.0096733127300582481 -0.00046049721420495139 0 0.010198010581569225 -0.00078835615450034723 0 0.01023202048199791 -0.00076261244454875238 0 0.010188268318632631 -0.00073026246745198757 0 0.0096733127300582481 -0.00046049721420495139 0 0.009618204165276683 -0.00045673460011402356 0 0.009332705910956824 -0.00035406691409688152 0 0.0093329475518758066 -0.00034205194165329788 0 0.0093651389866182006 -0.00033968414138880717 0 0.0093479956547991433 -0.00036142923625162229 0 0.009332705910956824 -0.00035406691409688152 0 0.0093651389866182006 -0.00033968414138880717 0 0.0093521743000944402 -0.00028640377943642422 0 0.0093292621720761047 -0.00035523131879674211 0 0.0093275528999244937 -0.00033438766242881119 0 0.0093292621720761047 -0.00035523131879674211 0 0.009332705910956824 -0.00035406691409688152 0 0.0093275528999244937 -0.00033438766242881119 0 0.0093275528999244937 -0.00033438766242881119 0 0.0093329475518758066 -0.00034205194165329788 0 0.0093213244368839116 -0.0003305923734675498 0 0.009332705910956824 -0.00035406691409688152 0 0.0093275528999244937 -0.00033438766242881119 0 0.0093329475518758066 -0.00034205194165329788 0 0.0093060033563843077 -0.0003310605249832164 0 0.0093275528999244937 -0.00033438766242881119 0 0.0093213244368839116 -0.0003305923734675498 0 0.0092592491407777703 -0.00029975169244419422 0 0.0093213244368839116 -0.0003305923734675498 0 0.0093338850364592888 -0.00028041721220300423 0 0.0093329475518758066 -0.00034205194165329788 0 0.0093213244368839116 -0.0003305923734675498 0 0.0093545906016464387 -0.0003249777183573403 0 0.0093213244368839116 -0.0003305923734675498 0 0.0093545906016464387 -0.0003249777183573403 0 0.0093338850364592888 -0.00028041721220300423 0 0.0094834098527001604 -0.00030442771243660609 0 0.0093545906016464387 -0.0003249777183573403 0 0.0093338850364592888 -0.00028041721220300423 0 0.0094961460610592779 -0.00045705016696485955 0 0.0094834098527001604 -0.00030442771243660609 0 0.0093227591855436932 -0.00055763959366474764 0 0.0094834098527001604 -0.00030442771243660609 0 0.0093479956547991433 -0.00036142923625162229 0 0.0093651389866182006 -0.00033968414138880717 0 0.0093937960239511582 -0.00034169981082213686 0 0.0096733127300582481 -0.00046049721420495139 0 0.0093329475518758066 -0.00034205194165329788 0 0.0093651389866182006 -0.00033968414138880717 0 0.0093545906016464387 -0.0003249777183573403 0 0.0094834098527001604 -0.00030442771243660609 0 0.0093651389866182006 -0.00033968414138880717 0 0.0093545906016464387 -0.0003249777183573403 0 0.0092055230398019449 -0.00033562584851721492 0 0.0092413535834978515 -0.00030724286478097003 0 0.0092994363860991226 -0.00034384878190319291 0 0.0092055230398019449 -0.00033562584851721492 0 0.0092994363860991226 -0.00034384878190319291 0 0.0093577726731225337 -0.00043858976913119013 0 0.0092776343398735753 -0.00031182156927936464 0 0.0094686428407248519 -0.00035470948251382093 0 0.0094834098527001604 -0.00030442771243660609 0 0.0093338850364592888 -0.00028041721220300423 0 0.0095656806441774978 -0.0002741504339584328 0 0.0092055230398019449 -0.00033562584851721492 0 0.0092106235096338692 -0.0002992303658276016 0 0.0092413535834978515 -0.00030724286478097003 0 0.0092055230398019449 -0.00033562584851721492 0 0.0092106235096338692 -0.0002992303658276016 0 0.0092108472943329637 -0.000299029524445597 0 0.0091879526412037005 -0.00025100175434982478 0 0.0092108472943329637 -0.000299029524445597 0 0.0091934878284894179 -0.00025537359322363421 0 0.0092106235096338692 -0.0002992303658276016 0 0.0092108472943329637 -0.000299029524445597 0 0.0091934878284894179 -0.00025537359322363421 0 0.0092106235096338692 -0.0002992303658276016 0 0.0091934878284894179 -0.00025537359322363421 0 0.0092168681762058325 -0.0002602526597735639 0 0.0091934878284894179 -0.00025537359322363421 0 0.0092168681762058325 -0.0002602526597735639 0 0.0091836313414596828 -0.00020944739860167936 0 0.0092413535834978515 -0.00030724286478097003 0 0.0092700654309202397 -0.00027209131318726353 0 0.0092994363860991226 -0.00034384878190319291 0 0.0092106235096338692 -0.0002992303658276016 0 0.0092413535834978515 -0.00030724286478097003 0 0.0092168681762058325 -0.0002602526597735639 0 0.0092413535834978515 -0.00030724286478097003 0 0.0092168681762058325 -0.0002602526597735639 0 0.0092700654309202397 -0.00027209131318726353 0 0.0092700654309202397 -0.00027209131318726353 0 0.0092992298908956099 -0.00022050499965732404 0 0.0092305774929407926 -0.00021535644237480399 0 0.0092168681762058325 -0.0002602526597735639 0 0.0092700654309202397 -0.00027209131318726353 0 0.0092305774929407926 -0.00021535644237480399 0 0.0094122406059556716 -0.00021667576137418537 0 0.009358959251917277 -0.00029207542768719375 0 0.0095139011833813257 -0.00036421317848613262 0 0.0092700654309202397 -0.00027209131318726353 0 0.009358959251917277 -0.00029207542768719375 0 0.0092992298908956099 -0.00022050499965732404 0 0.0094122406059556716 -0.00021667576137418537 0 0.009358959251917277 -0.00029207542768719375 0 0.0092992298908956099 -0.00022050499965732404 0 0.0092700654309202397 -0.00027209131318726353 0 0.009358959251917277 -0.00029207542768719375 0 0.0092994363860991226 -0.00034384878190319291 0 0.009358959251917277 -0.00029207542768719375 0 0.0092994363860991226 -0.00034384878190319291 0 0.0093994552031525826 -0.00036132456083883512 0 0.0092994363860991226 -0.00034384878190319291 0 0.0093994552031525826 -0.00036132456083883512 0 0.0093577726731225337 -0.00043858976913119013 0 0.0093994552031525826 -0.00036132456083883512 0 0.0093577726731225337 -0.00043858976913119013 0 0.0095139011833813257 -0.00036421317848613262 0 0.009358959251917277 -0.00029207542768719375 0 0.0093994552031525826 -0.00036132456083883512 0 0.0095139011833813257 -0.00036421317848613262 0 0.0099490263906506417 -0.00027579197026828662 0 0.0097771739355124714 -0.00040148318545722733 0 0.0095656806441774978 -0.0002741504339584328 0 0.0097025780148946739 -0.00048076104812071842 0 0.0093577726731225337 -0.00043858976913119013 0 0.0095139011833813257 -0.00036421317848613262 0 0.009826369298939968 -0.0003725283960276059 0 0.0094686428407248519 -0.00035470948251382093 0 0.0094122406059556716 -0.00021667576137418537 0 0.0095139011833813257 -0.00036421317848613262 0 0.0095571011678042342 -0.00016849627867316429 0 0.0097173724176110986 -0.00023291845711514062 0 0.0095139011833813257 -0.00036421317848613262 0 0.0095571011678042342 -0.00016849627867316429 0 0.0095571011678042342 -0.00016849627867316429 0 0.0094413587299593971 -0.00013383099336571383 0 0.0095294723909209317 -4.6637575297873129e-05 0 0.0096844383217384762 -8.9034667271377531e-05 0 0.0095571011678042342 -0.00016849627867316429 0 0.0095294723909209317 -4.6637575297873129e-05 0 0.0094122406059556716 -0.00021667576137418537 0 0.0095571011678042342 -0.00016849627867316429 0 0.0094413587299593971 -0.00013383099336571383 0 0.0094413587299593971 -0.00013383099336571383 0 0.0093853293698292761 -8.7290712882454958e-05 0 0.0095294723909209317 -4.6637575297873129e-05 0 0.0092992298908956099 -0.00022050499965732404 0 0.0093307702271236137 -0.00015905955704287246 0 0.0092509699219387904 -0.00017430222373061125 0 0.0094122406059556716 -0.00021667576137418537 0 0.0092992298908956099 -0.00022050499965732404 0 0.0093307702271236137 -0.00015905955704287246 0 0.0094122406059556716 -0.00021667576137418537 0 0.0094413587299593971 -0.00013383099336571383 0 0.0093307702271236137 -0.00015905955704287246 0 0.0094413587299593971 -0.00013383099336571383 0 0.0093307702271236137 -0.00015905955704287246 0 0.0093853293698292761 -8.7290712882454958e-05 0 0.0093307702271236137 -0.00015905955704287246 0 0.0092509699219387904 -0.00017430222373061125 0 0.009235693439792296 -0.00012707826556000428 0 0.009235693439792296 -0.00012707826556000428 0 0.0091777679018303082 -9.5926610957303713e-05 0 0.0093947214116180608 4.6557531968046357e-05 0 0.009235693439792296 -0.00012707826556000428 0 0.0093853293698292761 -8.7290712882454958e-05 0 0.0093947214116180608 4.6557531968046357e-05 0 0.0093307702271236137 -0.00015905955704287246 0 0.009235693439792296 -0.00012707826556000428 0 0.0093853293698292761 -8.7290712882454958e-05 0 0.0097013329921987745 7.1133135123296217e-05 0 0.0095294723909209317 -4.6637575297873129e-05 0 0.0093947214116180608 4.6557531968046357e-05 0 0.0096253118222978176 -5.1885064662411793e-05 0 0.0092835285079393773 -3.2881419757203469e-05 0 0.0093853293698292761 -8.7290712882454958e-05 0 0.0095294723909209317 -4.6637575297873129e-05 0 0.0093947214116180608 4.6557531968046357e-05 0 0.0092983949158101722 4.6921408096307758e-05 0 0.0091919780664539794 -9.5438443992702687e-05 0 0.009130224588902433 -6.425102646702202e-05 0 0.0094134122970914447 -4.3630690655306465e-05 0 0.0092983949158101722 4.6921408096307758e-05 0 0.0091919780664539794 -9.5438443992702687e-05 0 0.0092983949158101722 4.6921408096307758e-05 0 0.009130224588902433 -6.425102646702202e-05 0 0.0092076415277537235 8.166540514431767e-05 0 0.0091777679018303082 -9.5926610957303713e-05 0 0.0093947214116180608 4.6557531968046357e-05 0 0.0090309262717454403 -0.00013466196724077297 0 0.0091919780664539794 -9.5438443992702687e-05 0 0.009130224588902433 -6.425102646702202e-05 0 0.0090309262717454403 -0.00013466196724077297 0 0.0092835285079393773 -3.2881419757203469e-05 0 0.00906706675017592 -0.00010765227927741962 0 0.0090527087309173922 -3.9007006580540916e-05 0 0.009130224588902433 -6.425102646702202e-05 0 0.0091158458185331935 4.1462803864785369e-05 0 0.0090527087309173922 -3.9007006580540916e-05 0 0.009130224588902433 -6.425102646702202e-05 0 0.009035617552458592 -9.4440878866954145e-05 0 0.0091158458185331935 4.1462803864785369e-05 0 0.0091769014296544868 0.00016846855437145034 0 0.0092076415277537235 8.166540514431767e-05 0 0.009130224588902433 -6.425102646702202e-05 0 0.0091158458185331935 4.1462803864785369e-05 0 0.0092076415277537235 8.166540514431767e-05 0 0.0091158458185331935 4.1462803864785369e-05 0 0.0090815049286816704 0.00012710315589426494 0 0.0090244655969842248 4.1199663365314939e-05 0 0.0090527087309173922 -3.9007006580540916e-05 0 0.0091158458185331935 4.1462803864785369e-05 0 0.0090244655969842248 4.1199663365314939e-05 0 0.0090815049286816704 0.00012710315589426494 0 0.0089831747882084863 0.00015275698216467496 0 0.0090244655969842248 4.1199663365314939e-05 0 0.0090815049286816704 0.00012710315589426494 0 0.0089831747882084863 0.00015275698216467496 0 0.0090965846075222005 0.00024384460520399104 0 0.0090815049286816704 0.00012710315589426494 0 0.0091769014296544868 0.00016846855437145034 0 0.0090965846075222005 0.00024384460520399104 0 0.0091158458185331935 4.1462803864785369e-05 0 0.0090815049286816704 0.00012710315589426494 0 0.0091769014296544868 0.00016846855437145034 0 0.0091769014296544868 0.00016846855437145034 0 0.0092961680548873816 0.00022552873695763902 0 0.0092076415277537235 8.166540514431767e-05 0 0.0094154933990754294 0.00017748494301675615 0 0.0092983949158101722 4.6921408096307758e-05 0 0.0092961680548873816 0.00022552873695763902 0 0.0092983949158101722 4.6921408096307758e-05 0 0.0092961680548873816 0.00022552873695763902 0 0.0092076415277537235 8.166540514431767e-05 0 0.0086532128863099547 5.8951061732867236e-05 0 0.0083098529023814521 -4.0426131920871381e-06 0 0.0084276323134181066 0.0002819961910970882 0 0.0086174982406873671 -0.00010552856926544535 0 0.0086532128863099547 5.8951061732867236e-05 0 0.0088293933357642494 -4.4032050726349954e-05 0 0.0086174982406873671 -0.00010552856926544535 0 0.0086532128863099547 5.8951061732867236e-05 0 0.0083098529023814521 -4.0426131920871381e-06 0 0.0086532128863099547 5.8951061732867236e-05 0 0.0088916690834419179 4.7239894982699848e-05 0 0.0088293933357642494 -4.4032050726349954e-05 0 0.0086532128863099547 5.8951061732867236e-05 0 0.0088916690834419179 4.7239894982699848e-05 0 0.0088115440767018854 0.00020232454674228245 0 0.0088916690834419179 4.7239894982699848e-05 0 0.0089831747882084863 0.00015275698216467496 0 0.0088115440767018854 0.00020232454674228245 0 0.0088916690834419179 4.7239894982699848e-05 0 0.0089831747882084863 0.00015275698216467496 0 0.0090244655969842248 4.1199663365314939e-05 0 0.0088916690834419179 4.7239894982699848e-05 0 0.0090244655969842248 4.1199663365314939e-05 0 0.0089702539339688112 -6.0158289337450689e-05 0 0.0090527087309173922 -3.9007006580540916e-05 0 0.0090244655969842248 4.1199663365314939e-05 0 0.0089702539339688112 -6.0158289337450689e-05 0 0.0086174982406873671 -0.00010552856926544535 0 0.0088293933357642494 -4.4032050726349954e-05 0 0.0089801564381966469 -0.00016893756607217362 0 0.0088916690834419179 4.7239894982699848e-05 0 0.0089702539339688112 -6.0158289337450689e-05 0 0.0088293933357642494 -4.4032050726349954e-05 0 0.0089801564381966469 -0.00016893756607217362 0 0.0090309262717454403 -0.00013466196724077297 0 0.0091110858608284707 -0.00014243265538469563 0 0.009130224588902433 -6.425102646702202e-05 0 0.009035617552458592 -9.4440878866954145e-05 0 0.0090309262717454403 -0.00013466196724077297 0 0.0089702539339688112 -6.0158289337450689e-05 0 0.0088293933357642494 -4.4032050726349954e-05 0 0.0089801564381966469 -0.00016893756607217362 0 0.0090527087309173922 -3.9007006580540916e-05 0 0.0089702539339688112 -6.0158289337450689e-05 0 0.009035617552458592 -9.4440878866954145e-05 0 0.0089702539339688112 -6.0158289337450689e-05 0 0.0089801564381966469 -0.00016893756607217362 0 0.009035617552458592 -9.4440878866954145e-05 0 0.0089801564381966469 -0.00016893756607217362 0 0.009035617552458592 -9.4440878866954145e-05 0 0.0090309262717454403 -0.00013466196724077297 0 0.0089801564381966469 -0.00016893756607217362 0 0.0091388122799336367 -0.00016491587190878588 0 0.0091668776076873904 -0.00020267580468890509 0 0.0086174982406873671 -0.00010552856926544535 0 0.0089801564381966469 -0.00016893756607217362 0 0.0081594643532540128 -0.0005413481795029355 0 0.0089710283901534068 -0.00019175948539118463 0 0.0086552640875416052 -0.00035922642036985165 0 0.0091388122799336367 -0.00016491587190878588 0 0.0091655406366221524 -0.00020263868548673123 0 0.0091668776076873904 -0.00020267580468890509 0 0.0089801564381966469 -0.00016893756607217362 0 0.0091388122799336367 -0.00016491587190878588 0 0.0091110858608284707 -0.00014243265538469563 0 0.0091777679018303082 -9.5926610957303713e-05 0 0.0090309262717454403 -0.00013466196724077297 0 0.0091110858608284707 -0.00014243265538469563 0 0.009235693439792296 -0.00012707826556000428 0 0.0091777679018303082 -9.5926610957303713e-05 0 0.0091110858608284707 -0.00014243265538469563 0 0.0091388122799336367 -0.00016491587190878588 0 0.0091110858608284707 -0.00014243265538469563 0 0.0091804262683585422 -0.00017043183774301544 0 0.009235693439792296 -0.00012707826556000428 0 0.0091110858608284707 -0.00014243265538469563 0 0.0091804262683585422 -0.00017043183774301544 0 0.0092509699219387904 -0.00017430222373061125 0 0.009235693439792296 -0.00012707826556000428 0 0.0091804262683585422 -0.00017043183774301544 0 0.0092509699219387904 -0.00017430222373061125 0 0.0091804262683585422 -0.00017043183774301544 0 0.0092305774929407926 -0.00021535644237480399 0 0.0091804262683585422 -0.00017043183774301544 0 0.0092305774929407926 -0.00021535644237480399 0 0.0091836313414596828 -0.00020944739860167936 0 0.0091388122799336367 -0.00016491587190878588 0 0.0091804262683585422 -0.00017043183774301544 0 0.0091836313414596828 -0.00020944739860167936 0 0.0092168681762058325 -0.0002602526597735639 0 0.0092305774929407926 -0.00021535644237480399 0 0.0091836313414596828 -0.00020944739860167936 0 0.0092992298908956099 -0.00022050499965732404 0 0.0092509699219387904 -0.00017430222373061125 0 0.0092305774929407926 -0.00021535644237480399 0 0.0091388122799336367 -0.00016491587190878588 0 0.0091655406366221524 -0.00020263868548673123 0 0.0091836313414596828 -0.00020944739860167936 0 0.0091934878284894179 -0.00025537359322363421 0 0.0091655406366221524 -0.00020263868548673123 0 0.0091836313414596828 -0.00020944739860167936 0 0.0091879526412037005 -0.00025100175434982478 0 0.0091934878284894179 -0.00025537359322363421 0 0.0091655406366221524 -0.00020263868548673123 0 0.0091879526412037005 -0.00025100175434982478 0 0.0091655406366221524 -0.00020263868548673123 0 0.009174052103910809 -0.00022051153071177786 0 0.0091879526412037005 -0.00025100175434982478 0 0.0091892064318771019 -0.00025378188023444275 0 0.009174052103910809 -0.00022051153071177786 0 0.009174052103910809 -0.00022051153071177786 0 0.0091631244406420939 -0.0002411533292629275 0 0.0091536717856234903 -0.00021662923916708279 0 0.0091892064318771019 -0.00025378188023444275 0 0.009174052103910809 -0.00022051153071177786 0 0.0091631244406420939 -0.0002411533292629275 0 0.0083936913181578109 -0.00049448555936839245 0 0.0086552640875416052 -0.00035922642036985165 0 0.009174052103910809 -0.00022051153071177786 0 0.0091536717856234903 -0.00021662923916708279 0 0.0091668776076873904 -0.00020267580468890509 0 0.0091655406366221524 -0.00020263868548673123 0 0.009174052103910809 -0.00022051153071177786 0 0.0091668776076873904 -0.00020267580468890509 0 0.0092477839090370426 -0.00036531065097984537 0 0.0092749070027179272 -0.00042275685698937914 0 0.0093156696827916882 -0.00038236261474510489 0 0.0092477839090370426 -0.00036531065097984537 0 0.0091829059973169373 -0.00044791224080956642 0 0.0092749070027179272 -0.00042275685698937914 0 0.009222334251960217 -0.00033255443311148883 0 0.0092477839090370426 -0.00036531065097984537 0 0.0091865670702067168 -0.00037256348421196151 0 0.0092477839090370426 -0.00036531065097984537 0 0.0091865670702067168 -0.00037256348421196151 0 0.0091829059973169373 -0.00044791224080956642 0 0.0092035955097550578 -0.00028665428026708272 0 0.0083936913181578109 -0.00049448555936839245 0 0.0083936913181578109 -0.00049448555936839245 0 0.0079226318264444453 -0.00062881491945585455 0 0.007136716272222691 -0.00076528452576521205 0 0.0071973418793225309 -0.00046641435809918291 0 0.0070027215293431378 -0.00056481750658324726 0 0.0075400687552207111 -0.00064459046299866491 0 0.007136716272222691 -0.00076528452576521205 0 0.0071973418793225309 -0.00046641435809918291 0 0.0071973418793225309 -0.00046641435809918291 0 0.0074953949684434633 -0.00023180940274313572 0 0.0071241992211096309 -0.00017090828735555824 0 0.0075400687552207111 -0.00064459046299866491 0 0.0071973418793225309 -0.00046641435809918291 0 0.0074953949684434633 -0.00023180940274313572 0 0.0083936913181578109 -0.00049448555936839245 0 0.0074074840635093746 -0.00024922742417721221 0 0.0074074840635093746 -0.00024922742417721221 0 0.0074592770663948569 0.00019550063810610147 0 0.007492197280806071 -0.0002091091500351009 0 0.0078319775157845179 6.5176743335925203e-05 0 0.0074365043401176927 0.00021069625617302845 0 0.0074953949684434633 -0.00023180940274313572 0 0.0071241992211096309 -0.00017090828735555824 0 0.0074365043401176927 0.00021069625617302845 0 0.0086174982406873671 -0.00010552856926544535 0 0.0081594643532540128 -0.0005413481795029355 0 0.0083098529023814521 -4.0426131920871381e-06 0 0.0075512745701128729 -0.00072694680013937827 0 0.007492197280806071 -0.0002091091500351009 0 0.0081594643532540128 -0.0005413481795029355 0 0.007492197280806071 -0.0002091091500351009 0 0.0081594643532540128 -0.0005413481795029355 0 0.0078319775157845179 6.5176743335925203e-05 0 0.0081594643532540128 -0.0005413481795029355 0 0.0083098529023814521 -4.0426131920871381e-06 0 0.0078319775157845179 6.5176743335925203e-05 0 0.0083098529023814521 -4.0426131920871381e-06 0 0.0078319775157845179 6.5176743335925203e-05 0 0.0084276323134181066 0.0002819961910970882 0 0.0078319775157845179 6.5176743335925203e-05 0 0.0078089073277854285 0.00048095644569463034 0 0.0084276323134181066 0.0002819961910970882 0 0.0078319775157845179 6.5176743335925203e-05 0 0.0078089073277854285 0.00048095644569463034 0 0.0074365043401176927 0.00021069625617302845 0 0.0078089073277854285 0.00048095644569463034 0 0.0074365043401176927 0.00021069625617302845 0 0.0074652848788049342 0.00053701643029121365 0 0.0078429615063846259 0.00048531338147829233 0 0.0083383563982604506 0.00049233624503584818 0 0.0078089073277854285 0.00048095644569463034 0 0.007906130596113321 0.00060577644690334043 0 0.0080471209454383887 0.00037858997454785531 0 0.0071241992211096309 -0.00017090828735555824 0 0.0074365043401176927 0.00021069625617302845 0 0.0069541033465569529 0.00010118097996883469 0 0.0074365043401176927 0.00021069625617302845 0 0.0070825032746337684 0.00052031570233173154 0 0.0074652848788049342 0.00053701643029121365 0 0.0074365043401176927 0.00021069625617302845 0 0.0070825032746337684 0.00052031570233173154 0 0.0069541033465569529 0.00010118097996883469 0 0.0070825032746337684 0.00052031570233173154 0 0.00730922038141665 0.00075757225477527323 0 0.0069462894039600178 0.00090703337886655175 0 0.0074652848788049342 0.00053701643029121365 0 0.00730922038141665 0.00075757225477527323 0 0.0076433851474531104 0.00069525772962221325 0 0.0070825032746337684 0.00052031570233173154 0 0.0074652848788049342 0.00053701643029121365 0 0.00730922038141665 0.00075757225477527323 0 0.0078089073277854285 0.00048095644569463034 0 0.0076433851474531104 0.00069525772962221325 0 0.007906130596113321 0.00060577644690334043 0 0.0078089073277854285 0.00048095644569463034 0 0.0074652848788049342 0.00053701643029121365 0 0.0076433851474531104 0.00069525772962221325 0 0.00730922038141665 0.00075757225477527323 0 0.0076433851474531104 0.00069525772962221325 0 0.0074690800595934052 0.00098999980186537714 0 0.0076433851474531104 0.00069525772962221325 0 0.0078662677568449337 0.00083124286954645832 0 0.007906130596113321 0.00060577644690334043 0 0.0078662677568449337 0.00083124286954645832 0 0.0080891247183228557 0.00075410282320243893 0 0.008122702062895136 0.00092137636421625515 0 0.0078662677568449337 0.00083124286954645832 0 0.007906130596113321 0.00060577644690334043 0 0.0080891247183228557 0.00075410282320243893 0 0.007906130596113321 0.00060577644690334043 0 0.0081385441137877823 0.00059839443754155499 0 0.0080891247183228557 0.00075410282320243893 0 0.007906130596113321 0.00060577644690334043 0 0.0081385441137877823 0.00059839443754155499 0 0.0080471209454383887 0.00037858997454785531 0 0.0084511855193027466 0.00054569076642897545 0 0.0081385441137877823 0.00059839443754155499 0 0.0080471209454383887 0.00037858997454785531 0 0.0084511855193027466 0.00054569076642897545 0 0.0081385441137877823 0.00059839443754155499 0 0.0082922925731637523 0.00072971090319413315 0 0.0082922925731637523 0.00072971090319413315 0 0.0080891247183228557 0.00075410282320243893 0 0.0081966765391111862 0.0008163456142010275 0 0.0080891247183228557 0.00075410282320243893 0 0.0081966765391111862 0.0008163456142010275 0 0.008122702062895136 0.00092137636421625515 0 0.0081385441137877823 0.00059839443754155499 0 0.0082922925731637523 0.00072971090319413315 0 0.0080891247183228557 0.00075410282320243893 0 0.0082922925731637523 0.00072971090319413315 0 0.0081966765391111862 0.0008163456142010275 0 0.0082499607686627435 0.00083729540249146198 0 0.0082922925731637523 0.00072971090319413315 0 0.0082499607686627435 0.00083729540249146198 0 0.0082550874976311788 0.00083982602433061663 0 0.0090041652006870674 0.00089028510427497873 0 0.0090778916977956748 0.00074875137436819603 0 0.0089238475939082303 0.00065660613904868685 0 0.0084511855193027466 0.00054569076642897545 0 0.0082922925731637523 0.00072971090319413315 0 0.0082550874976311788 0.00083982602433061663 0 0.0084472611612910632 0.00053775536015742841 0 0.0086161009408934289 0.00083164298317059187 0 0.0090041652006870674 0.00089028510427497873 0 0.0090778916977956748 0.00074875137436819603 0 0.0092033791386692994 0.00080659714363714324 0 0.0090778916977956748 0.00074875137436819603 0 0.0092033791386692994 0.00080659714363714324 0 0.0091975565710785967 0.00062830602365864625 0 0.0094160609692638415 0.00050409221506859622 0 0.0091975565710785967 0.00062830602365864625 0 0.0088110908413649106 0.00031146127865633403 0 0.0091975565710785967 0.00062830602365864625 0 0.0089238475939082303 0.00065660613904868685 0 0.0088110908413649106 0.00031146127865633403 0 0.0090778916977956748 0.00074875137436819603 0 0.0091975565710785967 0.00062830602365864625 0 0.0089238475939082303 0.00065660613904868685 0 0.0084511855193027466 0.00054569076642897545 0 0.0090041652006870674 0.00089028510427497873 0 0.0089238475939082303 0.00065660613904868685 0 0.0084511855193027466 0.00054569076642897545 0 0.0089238475939082303 0.00065660613904868685 0 0.0088110908413649106 0.00031146127865633403 0 0.0091608907477421422 0.00055119880897370934 0 0.0092729975772584891 0.000401049798871381 0 0.0091053365533214671 0.00039060812721675007 0 0.0091608907477421422 0.00055119880897370934 0 0.0091053365533214671 0.00039060812721675007 0 0.0089028391566120055 0.00045454330970999264 0 0.0094160609692638415 0.00050409221506859622 0 0.0091608907477421422 0.00055119880897370934 0 0.0092729975772584891 0.000401049798871381 0 0.0093872206755263431 0.00049051121014346622 0 0.0089798386084525821 0.00044521905818239039 0 0.0092961680548873816 0.00022552873695763902 0 0.0092729975772584891 0.000401049798871381 0 0.0092032493527100419 0.00029547231856116065 0 0.0094580550159744422 0.00032288160673841148 0 0.0092961680548873816 0.00022552873695763902 0 0.0092729975772584891 0.000401049798871381 0 0.0091769014296544868 0.00016846855437145034 0 0.0092961680548873816 0.00022552873695763902 0 0.0092032493527100419 0.00029547231856116065 0 0.0091053365533214671 0.00039060812721675007 0 0.0089782814538326046 0.0002980909998558711 0 0.0089028391566120055 0.00045454330970999264 0 0.0091053365533214671 0.00039060812721675007 0 0.0090965846075222005 0.00024384460520399104 0 0.0089782814538326046 0.0002980909998558711 0 0.0092032493527100419 0.00029547231856116065 0 0.0091053365533214671 0.00039060812721675007 0 0.0090965846075222005 0.00024384460520399104 0 0.0092729975772584891 0.000401049798871381 0 0.0092032493527100419 0.00029547231856116065 0 0.0091053365533214671 0.00039060812721675007 0 0.0091769014296544868 0.00016846855437145034 0 0.0092032493527100419 0.00029547231856116065 0 0.0090965846075222005 0.00024384460520399104 0 0.0089831747882084863 0.00015275698216467496 0 0.0090965846075222005 0.00024384460520399104 0 0.0089782814538326046 0.0002980909998558711 0 0.0088115440767018854 0.00020232454674228245 0 0.0084276323134181066 0.0002819961910970882 0 0.0089028391566120055 0.00045454330970999264 0 0.0089831747882084863 0.00015275698216467496 0 0.0089782814538326046 0.0002980909998558711 0 0.0088115440767018854 0.00020232454674228245 0 0.0089782814538326046 0.0002980909998558711 0 0.0088115440767018854 0.00020232454674228245 0 0.0089028391566120055 0.00045454330970999264 0 0.0086532128863099547 5.8951061732867236e-05 0 0.0088115440767018854 0.00020232454674228245 0 0.0084276323134181066 0.0002819961910970882 0 0.0084276323134181066 0.0002819961910970882 0 0.0086225013637423308 0.00062463647511710931 0 0.0089028391566120055 0.00045454330970999264 0 0.0078089073277854285 0.00048095644569463034 0 0.0084276323134181066 0.0002819961910970882 0 0.0086225013637423308 0.00062463647511710931 0 0.0091608907477421422 0.00055119880897370934 0 0.0086225013637423308 0.00062463647511710931 0 0.0089028391566120055 0.00045454330970999264 0 0.0084511855193027466 0.00054569076642897545 0 0.0088110908413649106 0.00031146127865633403 0 0.0080471209454383887 0.00037858997454785531 0 0.0089798386084525821 0.00044521905818239039 0 0.0083383563982604506 0.00049233624503584818 0 0.0057958127876829328 0.00025706446248847866 0 0.0056279050986758842 0.00037475858536045178 0 0.005795218030242238 0.00048783948208981837 0 0.0057958127876829328 0.00025706446248847866 0 0.0056279050986758842 0.00037475858536045178 0 0.0056370870402325116 0.00016901063179359236 0 0.0057958127876829328 0.00025706446248847866 0 0.0060256142781781492 0.00022735467923592259 0 0.005795218030242238 0.00048783948208981837 0 0.0060256142781781492 0.00022735467923592259 0 0.0058392718413552884 4.9762401375534848e-05 0 0.0060007070151525529 -3.5109372289407851e-05 0 0.0057958127876829328 0.00025706446248847866 0 0.0060256142781781492 0.00022735467923592259 0 0.0058392718413552884 4.9762401375534848e-05 0 0.0058392718413552884 4.9762401375534848e-05 0 0.0056370870402325116 0.00016901063179359236 0 0.0056960412144719036 -5.491165583197954e-05 0 0.0057958127876829328 0.00025706446248847866 0 0.0058392718413552884 4.9762401375534848e-05 0 0.0056370870402325116 0.00016901063179359236 0 0.0056370870402325116 0.00016901063179359236 0 0.0054307352938389062 9.384328533608564e-05 0 0.005448890773455355 0.00034354582852818389 0 0.0056370870402325116 0.00016901063179359236 0 0.0054307352938389062 9.384328533608564e-05 0 0.0056960412144719036 -5.491165583197954e-05 0 0.0080381367300554497 -2.6041894446838925e-06 0 0.0075734986971617941 0.00030466243674201888 0 0.0080381367300554497 -2.6041894446838925e-06 0 0.0081213636424305735 -0.00015222269512812648 0 0.011024438707942263 -0.00055762393342080683 0 0.010820003719715336 -0.0005641818767805211 0 0.010694271757952303 -0.00038233105483476918 0 0.0080381367300554497 -2.6041894446838925e-06 0 0.0049683765925072169 0.00052878277014871389 0 0.011024438707942263 -0.00055762393342080683 0 0.010820003719715336 -0.0005641818767805211 0 0.010922533607374106 -0.00073884092291606133 0 0.005448890773455355 0.00034354582852818389 0 0.0053298639246285411 0.00048828780523013757 0 0.005185893788722795 0.00035342485704591592 0 0.0054307352938389062 9.384328533608564e-05 0 0.005448890773455355 0.00034354582852818389 0 0.005185893788722795 0.00035342485704591592 0 0.0062150762670974248 -0.00024143128457770156 0 0.0052703796914475628 0.00021672177047667572 0 0.005450743546999595 0.0004704126395560125 0 0.0056279050986758842 0.00037475858536045178 0 0.0056370870402325116 0.00016901063179359236 0 0.005448890773455355 0.00034354582852818389 0 0.0056279050986758842 0.00037475858536045178 0 0.005448890773455355 0.00034354582852818389 0 0.0054582504561281496 0.00060682841582630623 0 0.005448890773455355 0.00034354582852818389 0 0.0054582504561281496 0.00060682841582630623 0 0.0053298639246285411 0.00048828780523013757 0 0.0052078404026357087 0.00063840949231137639 0 0.0053298639246285411 0.00048828780523013757 0 0.005185893788722795 0.00035342485704591592 0 0.0054582504561281496 0.00060682841582630623 0 0.0052078404026357087 0.00063840949231137639 0 0.0053298639246285411 0.00048828780523013757 0 0.0054582504561281496 0.00060682841582630623 0 0.0052078404026357087 0.00063840949231137639 0 0.0053025380604005447 0.00076960072992166234 0 0.0054582504561281496 0.00060682841582630623 0 0.0053025380604005447 0.00076960072992166234 0 0.0054619613928980982 0.00081452351416031105 0 0.0054582504561281496 0.00060682841582630623 0 0.0056564975887627225 0.00075179030700389855 0 0.0054619613928980982 0.00081452351416031105 0 0.0054582504561281496 0.00060682841582630623 0 0.0056564975887627225 0.00075179030700389855 0 0.005795218030242238 0.00048783948208981837 0 0.0056279050986758842 0.00037475858536045178 0 0.0054582504561281496 0.00060682841582630623 0 0.005795218030242238 0.00048783948208981837 0 0.005795218030242238 0.00048783948208981837 0 0.0059130351743373593 0.00067279573863536642 0 0.0061175116363636596 0.00049604712710349982 0 0.0060256142781781492 0.00022735467923592259 0 0.005795218030242238 0.00048783948208981837 0 0.0061175116363636596 0.00049604712710349982 0 0.0056564975887627225 0.00075179030700389855 0 0.005795218030242238 0.00048783948208981837 0 0.0059130351743373593 0.00067279573863536642 0 0.0059130351743373593 0.00067279573863536642 0 0.0061175116363636596 0.00049604712710349982 0 0.0061629639273699929 0.00073322189891217998 0 0.0061175116363636596 0.00049604712710349982 0 0.0064297370147707398 0.00048055789225757105 0 0.0061629639273699929 0.00073322189891217998 0 0.0061175116363636596 0.00049604712710349982 0 0.0064297370147707398 0.00048055789225757105 0 0.0063586741344309758 0.00022545092587051665 0 0.0064297370147707398 0.00048055789225757105 0 0.006627804225914676 0.00072193449155463698 0 0.0061629639273699929 0.00073322189891217998 0 0.0070825032746337684 0.00052031570233173154 0 0.0067118547259788965 0.00063028312875747206 0 0.0069462894039600178 0.00090703337886655175 0 0.0065679655352313994 0.00054449815336273227 0 0.0067895715956764104 0.00082378633188299056 0 0.0070825032746337684 0.00052031570233173154 0 0.0067118547259788965 0.00063028312875747206 0 0.006740318508657115 0.0003133300305725477 0 0.0070825032746337684 0.00052031570233173154 0 0.006740318508657115 0.0003133300305725477 0 0.0069541033465569529 0.00010118097996883469 0 0.0067118547259788965 0.00063028312875747206 0 0.006740318508657115 0.0003133300305725477 0 0.0063586741344309758 0.00022545092587051665 0 0.0065679655352313994 0.00054449815336273227 0 0.0063642007677640992 0.00023488276702221224 0 0.006740318508657115 0.0003133300305725477 0 0.006566102330888916 -4.5499931252613597e-07 0 0.0063586741344309758 0.00022545092587051665 0 0.006740318508657115 0.0003133300305725477 0 0.006566102330888916 -4.5499931252613597e-07 0 0.0069541033465569529 0.00010118097996883469 0 0.0060256142781781492 0.00022735467923592259 0 0.0061175116363636596 0.00049604712710349982 0 0.0063586741344309758 0.00022545092587051665 0 0.006566102330888916 -4.5499931252613597e-07 0 0.0063586741344309758 0.00022545092587051665 0 0.0062755861441812066 -8.5517029280757399e-05 0 0.0060256142781781492 0.00022735467923592259 0 0.0063586741344309758 0.00022545092587051665 0 0.0061530721243668596 6.8583011355256556e-05 0 0.0060256142781781492 0.00022735467923592259 0 0.0061530721243668596 6.8583011355256556e-05 0 0.0060007070151525529 -3.5109372289407851e-05 0 0.0063586741344309758 0.00022545092587051665 0 0.0061530721243668596 6.8583011355256556e-05 0 0.0062755861441812066 -8.5517029280757399e-05 0 0.0061530721243668596 6.8583011355256556e-05 0 0.0062755861441812066 -8.5517029280757399e-05 0 0.0060007070151525529 -3.5109372289407851e-05 0 0.0064275665156500661 -0.00043176242755609017 0 0.0059967842440212639 -0.00024307912390031345 0 0.0060007070151525529 -3.5109372289407851e-05 0 0.0062755861441812066 -8.5517029280757399e-05 0 0.006287294672054123 -0.00039481795828442875 0 0.0060007070151525529 -3.5109372289407851e-05 0 0.0076427717835653892 -0.00046506158505919701 0 0.0055771359102678494 7.0041430530038977e-05 0 0.0062755861441812066 -8.5517029280757399e-05 0 0.0064637606808212681 -0.00027213125085425366 0 0.006287294672054123 -0.00039481795828442875 0 0.006566102330888916 -4.5499931252613597e-07 0 0.0062755861441812066 -8.5517029280757399e-05 0 0.0064637606808212681 -0.00027213125085425366 0 0.0064637606808212681 -0.00027213125085425366 0 0.0064469262955580697 -0.0004726556312136986 0 0.006287294672054123 -0.00039481795828442875 0 0.0064637606808212681 -0.00027213125085425366 0 0.0064469262955580697 -0.0004726556312136986 0 0.0066575986797583423 -0.00043120758610499561 0 0.0064469262955580697 -0.0004726556312136986 0 0.0065688221808953614 -0.00052241744480238769 0 0.0066575986797583423 -0.00043120758610499561 0 0.0064324944089777601 -0.00021155431664616884 0 0.0076427717835653892 -0.00046506158505919701 0 0.0064469262955580697 -0.0004726556312136986 0 0.0063147407565018717 -0.00040399384965031268 0 0.0065253159869307674 -0.00064451320518202728 0 0.0076427717835653892 -0.00046506158505919701 0 0.0091008955835617487 -0.00070445969313694904 0 0.0076427717835653892 -0.00046506158505919701 0 0.0085342921106240557 -0.00012533392792883402 0 0.010850732746334741 -0.00027405461429050608 0 0.01121079302564815 -0.00022870822018584695 0 0.01117240526525503 -0.00063622400468654728 0 0.010850732746334741 -0.00027405461429050608 0 0.01121079302564815 -0.00022870822018584695 0 0.010589452355251621 0.00011090755876120153 0 0.0071241992211096309 -0.00017090828735555824 0 0.0067745520412677554 -0.00019736104392667714 0 0.0068927795308334422 -0.00039644888922564335 0 0.0071241992211096309 -0.00017090828735555824 0 0.0069541033465569529 0.00010118097996883469 0 0.0067745520412677554 -0.00019736104392667714 0 0.006566102330888916 -4.5499931252613597e-07 0 0.0064637606808212681 -0.00027213125085425366 0 0.0067745520412677554 -0.00019736104392667714 0 0.006566102330888916 -4.5499931252613597e-07 0 0.0069541033465569529 0.00010118097996883469 0 0.0067745520412677554 -0.00019736104392667714 0 0.0064637606808212681 -0.00027213125085425366 0 0.0067745520412677554 -0.00019736104392667714 0 0.0066575986797583423 -0.00043120758610499561 0 0.0065688221808953614 -0.00052241744480238769 0 0.0066575986797583423 -0.00043120758610499561 0 0.0067861682174950892 -0.00062889006295594428 0 0.0066575986797583423 -0.00043120758610499561 0 0.0068927795308334422 -0.00039644888922564335 0 0.0067861682174950892 -0.00062889006295594428 0 0.0067745520412677554 -0.00019736104392667714 0 0.0066575986797583423 -0.00043120758610499561 0 0.0068927795308334422 -0.00039644888922564335 0 0.0071973418793225309 -0.00046641435809918291 0 0.0071241992211096309 -0.00017090828735555824 0 0.0068927795308334422 -0.00039644888922564335 0 0.0071973418793225309 -0.00046641435809918291 0 0.0068927795308334422 -0.00039644888922564335 0 0.0070027215293431378 -0.00056481750658324726 0 0.0068927795308334422 -0.00039644888922564335 0 0.0070027215293431378 -0.00056481750658324726 0 0.0067861682174950892 -0.00062889006295594428 0 0.007136716272222691 -0.00076528452576521205 0 0.0070027215293431378 -0.00056481750658324726 0 0.0067861682174950892 -0.00062889006295594428 0 0.007136716272222691 -0.00076528452576521205 0 0.0067861682174950892 -0.00062889006295594428 0 0.0067534266328350395 -0.00088593754494568921 0 0.0067861682174950892 -0.00062889006295594428 0 0.0067534266328350395 -0.00088593754494568921 0 0.0065253159869307674 -0.00064451320518202728 0 0.0065688221808953614 -0.00052241744480238769 0 0.0067861682174950892 -0.00062889006295594428 0 0.0065253159869307674 -0.00064451320518202728 0 0.0094603936754695805 -0.00074606321940110269 0 0.0091008955835617487 -0.00070445969313694904 0 0.011680936692634687 -0.00093905823313417288 0 0.011505927563416445 -0.00064970619906179645 0 0.011494541850419622 -0.0010011371118974217 0 0.011345109110086101 -0.0010978757186968586 0 0.011071800782726609 -0.00087296555760322072 0 0.011366025610614547 -0.00096519250309425779 0 0.0094603936754695805 -0.00074606321940110269 0 0.011677165281442966 -0.00066547257933327044 0 0.011345109110086101 -0.0010978757186968586 0 0.011494541850419622 -0.0010011371118974217 0 0.011366025610614547 -0.00096519250309425779 0 0.011494541850419622 -0.0010011371118974217 0 0.011366025610614547 -0.00096519250309425779 0 0.011486030782780956 -0.00097474428964606466 0 0.0092477839090370426 -0.00036531065097984537 0 0.0093156696827916882 -0.00038236261474510489 0 0.0093116617778150647 -0.00032890122032092821 0 0.0079226318264444453 -0.00062881491945585455 0 0.0094603936754695805 -0.00074606321940110269 0 0.0092749070027179272 -0.00042275685698937914 0 0.0093694754124856033 -0.00039874857077645408 0 0.0093156696827916882 -0.00038236261474510489 0 0.0093694754124856033 -0.00039874857077645408 0 0.0093156696827916882 -0.00038236261474510489 0 0.0093116617778150647 -0.00032890122032092821 0 0.0094603936754695805 -0.00074606321940110269 0 0.010378200446988672 -0.00066451929851119571 0 0.01117240526525503 -0.00063622400468654728 0 0.011390286887770266 -0.0010211743629872636 0 0.010663962118842848 -0.00061544782396520052 0 0.011385782223772855 -0.001036145699672568 0 0.010950223401124967 -0.00079306581037482564 0 0.010850732746334741 -0.00027405461429050608 0 0.01117240526525503 -0.00063622400468654728 0 0.010663962118842848 -0.00061544782396520052 0 0.011505927563416445 -0.00064970619906179645 0 0.011410851381300062 -0.00085104818445681004 0 0.011494541850419622 -0.0010011371118974217 0 0.01121079302564815 -0.00022870822018584695 0 0.01117240526525503 -0.00063622400468654728 0 0.011505927563416445 -0.00064970619906179645 0 0.0064469262955580697 -0.0004726556312136986 0 0.0065688221808953614 -0.00052241744480238769 0 0.0065253159869307674 -0.00064451320518202728 0 0.01117240526525503 -0.00063622400468654728 0 0.011505927563416445 -0.00064970619906179645 0 0.011410851381300062 -0.00085104818445681004 0 0.01117240526525503 -0.00063622400468654728 0 0.011410851381300062 -0.00085104818445681004 0 0.011390286887770266 -0.0010211743629872636 0 0.011410851381300062 -0.00085104818445681004 0 0.011494541850419622 -0.0010011371118974217 0 0.011390286887770266 -0.0010211743629872636 0 0.011494541850419622 -0.0010011371118974217 0 0.011390286887770266 -0.0010211743629872636 0 0.011486030782780956 -0.00097474428964606466 0 0.011390286887770266 -0.0010211743629872636 0 0.011394811076037886 -0.0010579462580541591 0 0.011422200872297991 -0.001007732893329944 0 0.011390286887770266 -0.0010211743629872636 0 0.011394811076037886 -0.0010579462580541591 0 0.011378198313201948 -0.0010576009612789747 0 0.011394811076037886 -0.0010579462580541591 0 0.011340079753794427 -0.0010780580280484937 0 0.011378198313201948 -0.0010576009612789747 0 0.011711932600159417 -0.0013311461081374132 0 0.011439977616097472 -0.0012737733361381503 0 0.012048983582671428 -0.0016287111537749473 0 0.011893069949739977 -0.0016401169687670484 0 0.011628896806923967 -0.0014247344130113668 0 0.011394811076037886 -0.0010579462580541591 0 0.011340079753794427 -0.0010780580280484937 0 0.011266147868034161 -0.001121381548707836 0 0.01310107105418336 -0.0014774407154033134 0 0.014107259639291547 -0.0016271208773665114 0 0.013609595978515875 -0.0012586798129501004 0 0.012519996622869595 -0.0015669549158391764 0 0.012920996002362583 -0.0016250138670630746 0 0.011893069949739977 -0.0016401169687670484 0 0.011628896806923967 -0.0014247344130113668 0 0.011516336367898786 -0.0015588180915190454 0 0.011297629045896887 -0.0010441970028532152 0 0.011378198313201948 -0.0010576009612789747 0 0.011305019872008415 -0.00099798959692129572 0 0.011266147868034161 -0.001121381548707836 0 0.011310478112998689 -0.0010809563656883367 0 0.011254936116809833 -0.0011003580711281813 0 0.011340079753794427 -0.0010780580280484937 0 0.011266147868034161 -0.001121381548707836 0 0.011310478112998689 -0.0010809563656883367 0 0.011297629045896887 -0.0010441970028532152 0 0.011254936116809833 -0.0011003580711281813 0 0.011215709095582635 -0.0010018694714307489 0 0.011310478112998689 -0.0010809563656883367 0 0.011297629045896887 -0.0010441970028532152 0 0.011254936116809833 -0.0011003580711281813 0 0.011310478112998689 -0.0010809563656883367 0 0.011297629045896887 -0.0010441970028532152 0 0.011378198313201948 -0.0010576009612789747 0 0.011340079753794427 -0.0010780580280484937 0 0.011310478112998689 -0.0010809563656883367 0 0.011378198313201948 -0.0010576009612789747 0 0.010663962118842848 -0.00061544782396520052 0 0.0098952728460838558 5.2625571570162997e-05 0 0.010589452355251621 0.00011090755876120153 0 0.010850732746334741 -0.00027405461429050608 0 0.010663962118842848 -0.00061544782396520052 0 0.010589452355251621 0.00011090755876120153 0 0.010950223401124967 -0.00079306581037482564 0 0.010959397440421324 -0.00047694223252938621 0 0.011378198313201948 -0.0010576009612789747 0 0.011305019872008415 -0.00099798959692129572 0 0.011298309979940845 -0.0008930214318311633 0 0.011297629045896887 -0.0010441970028532152 0 0.011305019872008415 -0.00099798959692129572 0 0.011215709095582635 -0.0010018694714307489 0 0.011305019872008415 -0.00099798959692129572 0 0.011298309979940845 -0.0008930214318311633 0 0.011215709095582635 -0.0010018694714307489 0 0.0098952728460838558 5.2625571570162997e-05 0 0.009859587435291594 0.00046960855034234889 0 0.010589452355251621 0.00011090755876120153 0 0.0058392718413552884 4.9762401375534848e-05 0 0.0059967842440212639 -0.00024307912390031345 0 0.0060007070151525529 -3.5109372289407851e-05 0 0.0075734986971617941 0.00030466243674201888 0 0.0085342921106240557 -0.00012533392792883402 0 0.0058392718413552884 4.9762401375534848e-05 0 0.0056960412144719036 -5.491165583197954e-05 0 0.0059967842440212639 -0.00024307912390031345 0 0.010922533607374106 -0.00073884092291606133 0 0.01105563892980463 -0.00091277812091258295 0 0.010853799286529705 -0.0009143799330480802 0 0.010922533607374106 -0.00073884092291606133 0 0.010853799286529705 -0.0009143799330480802 0 0.010731408500601154 -0.00075233941557571293 0 0.010820003719715336 -0.0005641818767805211 0 0.010922533607374106 -0.00073884092291606133 0 0.010731408500601154 -0.00075233941557571293 0 0.011024438707942263 -0.00055762393342080683 0 0.010922533607374106 -0.00073884092291606133 0 0.011088428470656542 -0.00079187565770817377 0 0.0090651607143486211 0.00082300934228931233 0 0.0098952728460838558 5.2625571570162997e-05 0 0.009859587435291594 0.00046960855034234889 0 0.011024438707942263 -0.00055762393342080683 0 0.011298309979940845 -0.0008930214318311633 0 0.011088428470656542 -0.00079187565770817377 0 0.0080381367300554497 -2.6041894446838925e-06 0 0.010959397440421324 -0.00047694223252938621 0 0.011298309979940845 -0.0008930214318311633 0 0.011088428470656542 -0.00079187565770817377 0 0.011161811865463835 -0.00089619810419479945 0 0.011088428470656542 -0.00079187565770817377 0 0.01105563892980463 -0.00091277812091258295 0 0.011161811865463835 -0.00089619810419479945 0 0.010922533607374106 -0.00073884092291606133 0 0.011088428470656542 -0.00079187565770817377 0 0.01105563892980463 -0.00091277812091258295 0 0.01105563892980463 -0.00091277812091258295 0 0.011215709095582635 -0.0010018694714307489 0 0.011111781674199869 -0.0010197724204261561 0 0.01105563892980463 -0.00091277812091258295 0 0.011111781674199869 -0.0010197724204261561 0 0.010974772161491611 -0.0010212504635603345 0 0.011298309979940845 -0.0008930214318311633 0 0.011161811865463835 -0.00089619810419479945 0 0.011215709095582635 -0.0010018694714307489 0 0.01105563892980463 -0.00091277812091258295 0 0.011161811865463835 -0.00089619810419479945 0 0.011215709095582635 -0.0010018694714307489 0 0.011215709095582635 -0.0010018694714307489 0 0.011111781674199869 -0.0010197724204261561 0 0.01119155996656894 -0.0011413453120639944 0 0.011111781674199869 -0.0010197724204261561 0 0.010974772161491611 -0.0010212504635603345 0 0.01119155996656894 -0.0011413453120639944 0 0.010974772161491611 -0.0010212504635603345 0 0.010819468470096903 -0.0011141747462648322 0 0.01119155996656894 -0.0011413453120639944 0 0.01105563892980463 -0.00091277812091258295 0 0.010974772161491611 -0.0010212504635603345 0 0.010853799286529705 -0.0009143799330480802 0 0.010974772161491611 -0.0010212504635603345 0 0.010853799286529705 -0.0009143799330480802 0 0.010819468470096903 -0.0011141747462648322 0 0.011097665682630835 -0.0012123983838382179 0 0.011135143347448435 -0.0012040283873608118 0 0.011064982906365053 -0.0013018951921555904 0 0.011097665682630835 -0.0012123983838382179 0 0.011135143347448435 -0.0012040283873608118 0 0.01119155996656894 -0.0011413453120639944 0 0.010961515198003639 -0.0011557063411871587 0 0.011172211753933112 -0.00115759673623088 0 0.011304336471642024 -0.0016152725213148152 0 0.012327641215701056 -0.0014160871459235763 0 0.011230148031098274 -0.0013081324356118737 0 0.011128624124133259 -0.0013116081981484856 0 0.011125803341863727 -0.0013961532205105419 0 0.011135143347448435 -0.0012040283873608118 0 0.011230148031098274 -0.0013081324356118737 0 0.011128624124133259 -0.0013116081981484856 0 0.011135143347448435 -0.0012040283873608118 0 0.011128624124133259 -0.0013116081981484856 0 0.011064982906365053 -0.0013018951921555904 0 0.011128624124133259 -0.0013116081981484856 0 0.011125803341863727 -0.0013961532205105419 0 0.011064982906365053 -0.0013018951921555904 0 0.011439977616097472 -0.0012737733361381503 0 0.011149303469033573 -0.0011966258134319856 0 0.011266147868034161 -0.001121381548707836 0 0.011135143347448435 -0.0012040283873608118 0 0.01119155996656894 -0.0011413453120639944 0 0.011628896806923967 -0.0014247344130113668 0 0.011135143347448435 -0.0012040283873608118 0 0.011230148031098274 -0.0013081324356118737 0 0.011254936116809833 -0.0011003580711281813 0 0.011215709095582635 -0.0010018694714307489 0 0.01119155996656894 -0.0011413453120639944 0 0.011266147868034161 -0.001121381548707836 0 0.011254936116809833 -0.0011003580711281813 0 0.01119155996656894 -0.0011413453120639944 0 0.012920996002362583 -0.0016250138670630746 0 0.012327641215701056 -0.0014160871459235763 0 0.014433777632767536 -0.0015435528053957524 0 0.014107259639291547 -0.0016271208773665114 0 0.014820343111209012 -0.0017413523325639892 0 0.011628896806923967 -0.0014247344130113668 0 0.011230148031098274 -0.0013081324356118737 0 0.011516336367898786 -0.0015588180915190454 0 0.014433777632767536 -0.0015435528053957524 0 0.014107259639291547 -0.0016271208773665114 0 0.014427641876627895 -0.0012918740319369263 0 0.011230148031098274 -0.0013081324356118737 0 0.011516336367898786 -0.0015588180915190454 0 0.011096702031885059 -0.0014579106393971236 0 0.014433777632767536 -0.0015435528053957524 0 0.014820343111209012 -0.0017413523325639892 0 0.015030846670805842 -0.0015062119742139831 0 0.015184830447455239 -0.0015124388432723212 0 0.013175475033435951 -0.0013785871089659241 0 0.014433777632767536 -0.0015435528053957524 0 0.014889089198774928 -0.0012050450232360974 0 0.015096714056240159 -0.0014068978924866922 0 0.012327641215701056 -0.0014160871459235763 0 0.013175475033435951 -0.0013785871089659241 0 0.014433777632767536 -0.0015435528053957524 0 0.014889089198774928 -0.0012050450232360974 0 0.014693303361689171 -0.001121345907799382 0 0.014889089198774928 -0.0012050450232360974 0 0.014693303361689171 -0.001121345907799382 0 0.01483575296051665 -0.00085947863058490883 0 0.01483575296051665 -0.00085947863058490883 0 0.014587449702519571 -0.00070013486945196793 0 0.014510169431611033 -0.0010046787462380398 0 0.014693303361689171 -0.001121345907799382 0 0.01483575296051665 -0.00085947863058490883 0 0.014510169431611033 -0.0010046787462380398 0 0.014889089198774928 -0.0012050450232360974 0 0.01483575296051665 -0.00085947863058490883 0 0.01505301447969954 -0.0010351767136400284 0 0.01483575296051665 -0.00085947863058490883 0 0.01505301447969954 -0.0010351767136400284 0 0.015030453890442256 -0.00071382374480415329 0 0.01483575296051665 -0.00085947863058490883 0 0.014914632168176671 -0.00058469768620781379 0 0.015030453890442256 -0.00071382374480415329 0 0.01483575296051665 -0.00085947863058490883 0 0.014763501852467243 -0.00058415502560301693 0 0.014587449702519571 -0.00070013486945196793 0 0.01483575296051665 -0.00085947863058490883 0 0.014763501852467243 -0.00058415502560301693 0 0.014914632168176671 -0.00058469768620781379 0 0.014763501852467243 -0.00058415502560301693 0 0.014790904244235107 -0.00047226504844029695 0 0.014914632168176671 -0.00058469768620781379 0 0.014790904244235107 -0.00047226504844029695 0 0.014914632168176671 -0.00058469768620781379 0 0.014888555058679634 -0.00038958114898497796 0 0.014914632168176671 -0.00058469768620781379 0 0.015011804691434988 -0.00048741930603994887 0 0.015030453890442256 -0.00071382374480415329 0 0.014914632168176671 -0.00058469768620781379 0 0.015011804691434988 -0.00048741930603994887 0 0.014888555058679634 -0.00038958114898497796 0 0.014694962325337946 -0.00043673507173486181 0 0.014696552850974931 -0.00042134071035719036 0 0.014587449702519571 -0.00070013486945196793 0 0.014190049236750721 -0.00052423415933717957 0 0.014582597180570925 -0.00065374521496085788 0 0.014235738045559285 -0.00052677842340437568 0 0.014190049236750721 -0.00052423415933717957 0 0.014694962325337946 -0.00043673507173486181 0 0.014704589522182754 -0.00042478293514341248 0 0.014715912184690684 -0.00041643764614742991 0 0.014694962325337946 -0.00043673507173486181 0 0.014714289903644097 -0.00043741569104214167 0 0.014695375850142862 -0.0004932236275873613 0 0.014694962325337946 -0.00043673507173486181 0 0.014714289903644097 -0.00043741569104214167 0 0.014715912184690684 -0.00041643764614742991 0 0.014714289903644097 -0.00043741569104214167 0 0.014695375850142862 -0.0004932236275873613 0 0.014748509662753642 -0.00042457034486859628 0 0.014694962325337946 -0.00043673507173486181 0 0.014695375850142862 -0.0004932236275873613 0 0.014587449702519571 -0.00070013486945196793 0 0.014763501852467243 -0.00058415502560301693 0 0.014790904244235107 -0.00047226504844029695 0 0.014695375850142862 -0.0004932236275873613 0 0.014790904244235107 -0.00047226504844029695 0 0.014695375850142862 -0.0004932236275873613 0 0.014748509662753642 -0.00042457034486859628 0 0.014763501852467243 -0.00058415502560301693 0 0.014695375850142862 -0.0004932236275873613 0 0.014587449702519571 -0.00070013486945196793 0 0.014040498079629029 -0.00018032253625569397 0 0.014131255489727592 -0.00060210620262724044 0 0.013808181095037514 -0.00062805524786029205 0 0.014040498079629029 -0.00018032253625569397 0 0.014587449702519571 -0.00070013486945196793 0 0.014131255489727592 -0.00060210620262724044 0 0.014587449702519571 -0.00070013486945196793 0 0.014131255489727592 -0.00060210620262724044 0 0.014123067916948086 -0.00091245476455625082 0 0.014131255489727592 -0.00060210620262724044 0 0.014123067916948086 -0.00091245476455625082 0 0.013808181095037514 -0.00062805524786029205 0 0.014123067916948086 -0.00091245476455625082 0 0.014510169431611033 -0.0010046787462380398 0 0.014206909923644654 -0.0012296774656222074 0 0.014587449702519571 -0.00070013486945196793 0 0.014123067916948086 -0.00091245476455625082 0 0.014510169431611033 -0.0010046787462380398 0 0.014433777632767536 -0.0015435528053957524 0 0.014693303361689171 -0.001121345907799382 0 0.014427641876627895 -0.0012918740319369263 0 0.014693303361689171 -0.001121345907799382 0 0.014510169431611033 -0.0010046787462380398 0 0.014427641876627895 -0.0012918740319369263 0 0.014510169431611033 -0.0010046787462380398 0 0.014427641876627895 -0.0012918740319369263 0 0.014206909923644654 -0.0012296774656222074 0 0.014107259639291547 -0.0016271208773665114 0 0.014206909923644654 -0.0012296774656222074 0 0.013916621727263165 -0.0012029561571909276 0 0.014107259639291547 -0.0016271208773665114 0 0.014427641876627895 -0.0012918740319369263 0 0.014206909923644654 -0.0012296774656222074 0 0.014123067916948086 -0.00091245476455625082 0 0.014206909923644654 -0.0012296774656222074 0 0.013916621727263165 -0.0012029561571909276 0 0.014107259639291547 -0.0016271208773665114 0 0.013916621727263165 -0.0012029561571909276 0 0.013609595978515875 -0.0012586798129501004 0 0.013916621727263165 -0.0012029561571909276 0 0.013609595978515875 -0.0012586798129501004 0 0.013697942956560455 -0.00096224036388386721 0 0.01310107105418336 -0.0014774407154033134 0 0.013609595978515875 -0.0012586798129501004 0 0.013209242062967275 -0.0010012322719436285 0 0.013609595978515875 -0.0012586798129501004 0 0.013697942956560455 -0.00096224036388386721 0 0.013209242062967275 -0.0010012322719436285 0 0.013697942956560455 -0.00096224036388386721 0 0.013209242062967275 -0.0010012322719436285 0 0.01344891636644791 -0.00073748739884184854 0 0.014123067916948086 -0.00091245476455625082 0 0.013916621727263165 -0.0012029561571909276 0 0.013697942956560455 -0.00096224036388386721 0 0.014123067916948086 -0.00091245476455625082 0 0.013697942956560455 -0.00096224036388386721 0 0.013808181095037514 -0.00062805524786029205 0 0.01310107105418336 -0.0014774407154033134 0 0.012692528727207848 -0.0010522485047624265 0 0.012128810938914542 -0.0012345664093647041 0 0.012048983582671428 -0.0016287111537749473 0 0.011893069949739977 -0.0016401169687670484 0 0.012249741494047874 -0.0017231572905134474 0 0.012519996622869595 -0.0015669549158391764 0 0.011956609574093979 -0.0013198399467783863 0 0.01310107105418336 -0.0014774407154033134 0 0.013209242062967275 -0.0010012322719436285 0 0.012692528727207848 -0.0010522485047624265 0 0.012692528727207848 -0.0010522485047624265 0 0.012728309559073347 -0.00071267905391274409 0 0.012287120173864439 -0.00086245099706809233 0 0.013209242062967275 -0.0010012322719436285 0 0.012692528727207848 -0.0010522485047624265 0 0.012728309559073347 -0.00071267905391274409 0 0.013209242062967275 -0.0010012322719436285 0 0.012728309559073347 -0.00071267905391274409 0 0.013115027478396228 -0.00067364770564860171 0 0.013115027478396228 -0.00067364770564860171 0 0.013363540616277763 -0.00041795769261903536 0 0.012766197128261471 -0.00010491152584063735 0 0.012728309559073347 -0.00071267905391274409 0 0.013115027478396228 -0.00067364770564860171 0 0.012766197128261471 -0.00010491152584063735 0 0.014040498079629029 -0.00018032253625569397 0 0.013363540616277763 -0.00041795769261903536 0 0.012766197128261471 -0.00010491152584063735 0 0.013697942956560455 -0.00096224036388386721 0 0.013808181095037514 -0.00062805524786029205 0 0.01344891636644791 -0.00073748739884184854 0 0.013808181095037514 -0.00062805524786029205 0 0.01344891636644791 -0.00073748739884184854 0 0.013363540616277763 -0.00041795769261903536 0 0.013209242062967275 -0.0010012322719436285 0 0.013115027478396228 -0.00067364770564860171 0 0.01344891636644791 -0.00073748739884184854 0 0.013115027478396228 -0.00067364770564860171 0 0.01344891636644791 -0.00073748739884184854 0 0.013363540616277763 -0.00041795769261903536 0 0.014040498079629029 -0.00018032253625569397 0 0.013808181095037514 -0.00062805524786029205 0 0.013363540616277763 -0.00041795769261903536 0 0.014704589522182754 -0.00042478293514341248 0 0.014763842332301543 -0.00030525826833419572 0 0.014783076733449989 -0.00021842216605358507 0 0.014190049236750721 -0.00052423415933717957 0 0.012833484642674706 -0.00036090898377162483 0 0.014190049236750721 -0.00052423415933717957 0 0.014030458544289534 -0.00018285343373817761 0 0.013906058822180135 -0.00075531739841434636 0 0.012979024813517022 -0.00062354191081828356 0 0.01326553107298916 -0.00011289076963615353 0 0.012979024813517022 -0.00062354191081828356 0 0.01326553107298916 -0.00011289076963615353 0 0.012630442501496142 -9.8575101276734026e-05 0 0.014030458544289534 -0.00018285343373817761 0 0.013855861317618132 0.00016189437522425032 0 0.014783076733449989 -0.00021842216605358507 0 0.014840064804947893 -0.00012356774185607591 0 0.014827332681274929 -0.00016409352199504056 0 0.01326553107298916 -0.00011289076963615353 0 0.012630442501496142 -9.8575101276734026e-05 0 0.012633584357792884 0.00050882253348931905 0 0.014763842332301543 -0.00030525826833419572 0 0.014802348826096079 -0.00022440185690165317 0 0.014795258135141735 -0.00029179892553694549 0 0.014763842332301543 -0.00030525826833419572 0 0.014783076733449989 -0.00021842216605358507 0 0.014802348826096079 -0.00022440185690165317 0 0.014783076733449989 -0.00021842216605358507 0 0.014802348826096079 -0.00022440185690165317 0 0.014827332681274929 -0.00016409352199504056 0 0.014802348826096079 -0.00022440185690165317 0 0.014845456645334879 -0.00021018171153585951 0 0.01486172557391496 -0.0001478975238752522 0 0.014802348826096079 -0.00022440185690165317 0 0.01486172557391496 -0.0001478975238752522 0 0.014827332681274929 -0.00016409352199504056 0 0.014802348826096079 -0.00022440185690165317 0 0.014845456645334879 -0.00021018171153585951 0 0.014795258135141735 -0.00029179892553694549 0 0.014845456645334879 -0.00021018171153585951 0 0.014856755585574833 -0.00025568674879049064 0 0.014795258135141735 -0.00029179892553694549 0 0.014845456645334879 -0.00021018171153585951 0 0.014906686411310396 -0.00019896479369534376 0 0.01489610841360499 -0.00015862747367148276 0 0.014845456645334879 -0.00021018171153585951 0 0.014856755585574833 -0.00025568674879049064 0 0.014906686411310396 -0.00019896479369534376 0 0.014906686411310396 -0.00019896479369534376 0 0.014981555964703347 -0.0001923445324158672 0 0.014921424881192632 -0.00026609903642017059 0 0.014906686411310396 -0.00019896479369534376 0 0.014981555964703347 -0.0001923445324158672 0 0.014964058642046316 -0.0001446555235519659 0 0.014981555964703347 -0.0001923445324158672 0 0.014921424881192632 -0.00026609903642017059 0 0.015011722799988889 -0.00025175954421438547 0 0.014856755585574833 -0.00025568674879049064 0 0.014906686411310396 -0.00019896479369534376 0 0.014921424881192632 -0.00026609903642017059 0 0.014856755585574833 -0.00025568674879049064 0 0.014921424881192632 -0.00026609903642017059 0 0.01483386430826039 -0.00032186422688494198 0 0.014921424881192632 -0.00026609903642017059 0 0.014888555058679634 -0.00038958114898497796 0 0.01483386430826039 -0.00032186422688494198 0 0.014921424881192632 -0.00026609903642017059 0 0.015006768125539235 -0.00033713579270866126 0 0.014888555058679634 -0.00038958114898497796 0 0.014921424881192632 -0.00026609903642017059 0 0.015006768125539235 -0.00033713579270866126 0 0.015011722799988889 -0.00025175954421438547 0 0.015011804691434988 -0.00048741930603994887 0 0.015006768125539235 -0.00033713579270866126 0 0.014888555058679634 -0.00038958114898497796 0 0.014888555058679634 -0.00038958114898497796 0 0.014806178188637054 -0.00038932093260275139 0 0.01483386430826039 -0.00032186422688494198 0 0.014790904244235107 -0.00047226504844029695 0 0.014888555058679634 -0.00038958114898497796 0 0.014806178188637054 -0.00038932093260275139 0 0.014790904244235107 -0.00047226504844029695 0 0.014806178188637054 -0.00038932093260275139 0 0.014748509662753642 -0.00042457034486859628 0 0.014806178188637054 -0.00038932093260275139 0 0.014776441020004945 -0.00036571659779910929 0 0.014748509662753642 -0.00042457034486859628 0 0.014776441020004945 -0.00036571659779910929 0 0.014748509662753642 -0.00042457034486859628 0 0.014735441149111 -0.00040601628775038503 0 0.014714289903644097 -0.00043741569104214167 0 0.014748509662753642 -0.00042457034486859628 0 0.014735441149111 -0.00040601628775038503 0 0.014715912184690684 -0.00041643764614742991 0 0.014735441149111 -0.00040601628775038503 0 0.014743979692535054 -0.0003714652091327778 0 0.014714289903644097 -0.00043741569104214167 0 0.014715912184690684 -0.00041643764614742991 0 0.014735441149111 -0.00040601628775038503 0 0.014704589522182754 -0.00042478293514341248 0 0.014763842332301543 -0.00030525826833419572 0 0.014743979692535054 -0.0003714652091327778 0 0.014704589522182754 -0.00042478293514341248 0 0.014715912184690684 -0.00041643764614742991 0 0.014743979692535054 -0.0003714652091327778 0 0.014776441020004945 -0.00036571659779910929 0 0.014735441149111 -0.00040601628775038503 0 0.014743979692535054 -0.0003714652091327778 0 0.014776441020004945 -0.00036571659779910929 0 0.014743979692535054 -0.0003714652091327778 0 0.014795258135141735 -0.00029179892553694549 0 0.014763842332301543 -0.00030525826833419572 0 0.014743979692535054 -0.0003714652091327778 0 0.014795258135141735 -0.00029179892553694549 0 0.014856755585574833 -0.00025568674879049064 0 0.014795258135141735 -0.00029179892553694549 0 0.01483386430826039 -0.00032186422688494198 0 0.014776441020004945 -0.00036571659779910929 0 0.014795258135141735 -0.00029179892553694549 0 0.01483386430826039 -0.00032186422688494198 0 0.014806178188637054 -0.00038932093260275139 0 0.014776441020004945 -0.00036571659779910929 0 0.01483386430826039 -0.00032186422688494198 0 0.011097407421105843 -0.00055515842447106684 0 0.011395082604324609 -0.00054586311957157524 0 0.011213931055482242 -0.00027591974403838772 0 0.011097407421105843 -0.00055515842447106684 0 0.011229818766809861 -0.00070684876073182925 0 0.011071800782726609 -0.00087296555760322072 0 0.010748169259603925 -0.00055546377071912152 0 0.011097407421105843 -0.00055515842447106684 0 0.011071800782726609 -0.00087296555760322072 0 0.011229818766809861 -0.00070684876073182925 0 0.011071800782726609 -0.00087296555760322072 0 0.011369872744677809 -0.00084543058513650196 0 0.011071800782726609 -0.00087296555760322072 0 0.011366025610614547 -0.00096519250309425779 0 0.011369872744677809 -0.00084543058513650196 0 0.011366025610614547 -0.00096519250309425779 0 0.011369872744677809 -0.00084543058513650196 0 0.011486030782780956 -0.00097474428964606466 0 0.011097407421105843 -0.00055515842447106684 0 0.011229818766809861 -0.00070684876073182925 0 0.011395082604324609 -0.00054586311957157524 0 0.011369872744677809 -0.00084543058513650196 0 0.011395082604324609 -0.00054586311957157524 0 0.011586617225968791 -0.00091678100314523221 0 0.011229818766809861 -0.00070684876073182925 0 0.011369872744677809 -0.00084543058513650196 0 0.011395082604324609 -0.00054586311957157524 0 0.011395082604324609 -0.00054586311957157524 0 0.011671252121259457 -0.00053958901830516211 0 0.011693678285263616 -0.00019657818347228236 0 0.011671252121259457 -0.00053958901830516211 0 0.012118859524033675 -0.00052031781883308105 0 0.011693678285263616 -0.00019657818347228236 0 0.011671252121259457 -0.00053958901830516211 0 0.011586617225968791 -0.00091678100314523221 0 0.012118859524033675 -0.00052031781883308105 0 0.011395082604324609 -0.00054586311957157524 0 0.011671252121259457 -0.00053958901830516211 0 0.011586617225968791 -0.00091678100314523221 0 0.011390286887770266 -0.0010211743629872636 0 0.011586617225968791 -0.00091678100314523221 0 0.011422200872297991 -0.001007732893329944 0 0.011369872744677809 -0.00084543058513650196 0 0.011486030782780956 -0.00097474428964606466 0 0.011586617225968791 -0.00091678100314523221 0 0.011390286887770266 -0.0010211743629872636 0 0.011486030782780956 -0.00097474428964606466 0 0.011586617225968791 -0.00091678100314523221 0 0.011525125425503139 -0.00094429216797698378 0 0.011956609574093979 -0.0013198399467783863 0 0.011586617225968791 -0.00091678100314523221 0 0.012128810938914542 -0.0012345664093647041 0 0.012287120173864439 -0.00086245099706809233 0 0.011711932600159417 -0.0013311461081374132 0 0.011956609574093979 -0.0013198399467783863 0 0.012692528727207848 -0.0010522485047624265 0 0.012128810938914542 -0.0012345664093647041 0 0.012287120173864439 -0.00086245099706809233 0 0.012728309559073347 -0.00071267905391274409 0 0.012287120173864439 -0.00086245099706809233 0 0.012118859524033675 -0.00052031781883308105 0 0.012728309559073347 -0.00071267905391274409 0 0.012766197128261471 -0.00010491152584063735 0 0.012118859524033675 -0.00052031781883308105 0 0.011586617225968791 -0.00091678100314523221 0 0.012287120173864439 -0.00086245099706809233 0 0.012118859524033675 -0.00052031781883308105 0 0.012766197128261471 -0.00010491152584063735 0 0.012118859524033675 -0.00052031781883308105 0 0.011693678285263616 -0.00019657818347228236 0 0.012833484642674706 -0.00036090898377162483 0 0.011901704915925069 -0.00033407109130301107 0 0.012979024813517022 -0.00062354191081828356 0 0.012630442501496142 -9.8575101276734026e-05 0 0.012061017305191504 -0.00047697896315430861 0 0.012630442501496142 -9.8575101276734026e-05 0 0.012216204281307255 0.00017410037754008687 0 0.012061017305191504 -0.00047697896315430861 0 0.012630442501496142 -9.8575101276734026e-05 0 0.012216204281307255 0.00017410037754008687 0 0.012633584357792884 0.00050882253348931905 0 0.012216204281307255 0.00017410037754008687 0 0.011777483342187632 -1.2886467179569818e-05 0 0.011910155455436507 0.00055728928599882248 0 0.012216204281307255 0.00017410037754008687 0 0.012061017305191504 -0.00047697896315430861 0 0.011777483342187632 -1.2886467179569818e-05 0 0.011786710801357451 1.7480018798030564e-05 0 0.01187969208561116 0.0005443806699386766 0 0.011901704915925069 -0.00033407109130301107 0 0.011247968841826227 -0.00027693302706223612 0 0.011395082604324609 -0.00054586311957157524 0 0.011693678285263616 -0.00019657818347228236 0 0.011213931055482242 -0.00027591974403838772 0 0.012061017305191504 -0.00047697896315430861 0 0.011777483342187632 -1.2886467179569818e-05 0 0.011213931055482242 -0.00027591974403838772 0 0.011777483342187632 -1.2886467179569818e-05 0 0.011213931055482242 -0.00027591974403838772 0 0.011518034288498288 0.00030816308274319616 0 0.011213931055482242 -0.00027591974403838772 0 0.011102853467431137 0.00029810883086261899 0 0.011518034288498288 0.00030816308274319616 0 0.010771639815408247 -5.6111140195386576e-06 0 0.011213931055482242 -0.00027591974403838772 0 0.011102853467431137 0.00029810883086261899 0 0.010960616555325809 -0.00035309016886118509 0 0.010771639815408247 -5.6111140195386576e-06 0 0.011213931055482242 -0.00027591974403838772 0 0.010960616555325809 -0.00035309016886118509 0 0.011097407421105843 -0.00055515842447106684 0 0.011213931055482242 -0.00027591974403838772 0 0.011159427632313064 0.0008609484808424281 0 0.011421142394119734 0.00065827136791199177 0 0.011603911647585032 0.00093398225612367563 0 0.012303178754816914 0.00041757345947400612 0 0.011138454783870306 0.00092150383869242806 0 0.011113415673953875 0.00088341859419584299 0 0.011113499289567756 0.00062217942575629442 0 0.011421142394119734 0.00065827136791199177 0 0.010822442364966708 0.00065355232099587675 0 0.011113415673953875 0.00088341859419584299 0 0.011113499289567756 0.00062217942575629442 0 0.011102853467431137 0.00029810883086261899 0 0.011518034288498288 0.00030816308274319616 0 0.011421142394119734 0.00065827136791199177 0 0.010822442364966708 0.00065355232099587675 0 0.011113499289567756 0.00062217942575629442 0 0.011102853467431137 0.00029810883086261899 0 0.011113499289567756 0.00062217942575629442 0 0.011102853467431137 0.00029810883086261899 0 0.011421142394119734 0.00065827136791199177 0 0.011777483342187632 -1.2886467179569818e-05 0 0.011518034288498288 0.00030816308274319616 0 0.011860394456739325 0.0004264594908866239 0 0.011518034288498288 0.00030816308274319616 0 0.011705579911920522 0.00072524184030752989 0 0.011860394456739325 0.0004264594908866239 0 0.011518034288498288 0.00030816308274319616 0 0.011705579911920522 0.00072524184030752989 0 0.011421142394119734 0.00065827136791199177 0 0.011705579911920522 0.00072524184030752989 0 0.011421142394119734 0.00065827136791199177 0 0.011603911647585032 0.00093398225612367563 0 0.011705579911920522 0.00072524184030752989 0 0.011603911647585032 0.00093398225612367563 0 0.011860813695578997 0.00096195281660782516 0 0.012739548827503142 0.00050405157572481238 0 0.01187969208561116 0.0005443806699386766 0 0.011705579911920522 0.00072524184030752989 0 0.011961834849922663 0.00085310525694776585 0 0.011860394456739325 0.0004264594908866239 0 0.011705579911920522 0.00072524184030752989 0 0.011961834849922663 0.00085310525694776585 0 0.011860813695578997 0.00096195281660782516 0 0.012739548827503142 0.00050405157572481238 0 0.012163317191144407 0.0009437813283039052 0 0.012216204281307255 0.00017410037754008687 0 0.011910155455436507 0.00055728928599882248 0 0.012633584357792884 0.00050882253348931905 0 0.012029761925881654 0.0011141877265314559 0 0.011910155455436507 0.00055728928599882248 0 0.012633584357792884 0.00050882253348931905 0 0.012739548827503142 0.00050405157572481238 0 0.013855861317618132 0.00016189437522425032 0 0.014840064804947893 -0.00012356774185607591 0 0.014880581986247777 -6.9988575052359214e-05 0 0.014892105926490333 -7.5315186024167851e-05 0 0.014852220432394383 -7.1653518821688126e-05 0 0.014840064804947893 -0.00012356774185607591 0 0.014880581986247777 -6.9988575052359214e-05 0 0.014880581986247777 -6.9988575052359214e-05 0 0.014940784659893671 -3.1210096310994703e-05 0 0.014882657891627588 -4.2193997789989142e-05 0 0.014880581986247777 -6.9988575052359214e-05 0 0.014940784659893671 -3.1210096310994703e-05 0 0.014892105926490333 -7.5315186024167851e-05 0 0.014940784659893671 -3.1210096310994703e-05 0 0.014936479135201018 -1.0566643800560572e-05 0 0.014882657891627588 -4.2193997789989142e-05 0 0.014940784659893671 -3.1210096310994703e-05 0 0.014999744978810538 5.737200421742519e-09 0 0.014936479135201018 -1.0566643800560572e-05 0 0.014999999395672935 -1.2912506066182936e-09 0 0.01499751940909338 2.2295558362394576e-06 0 0.014999996261866936 3.3179191684342624e-09 0 0.014999604298931228 5.4309605071146279e-07 0 0.014116354068901257 0.00046119462648738487 0 0.014116354068901257 0.00046119462648738487 0 0.01336956240954674 0.00067942661714418017 0 0.014996652688809477 1.0739080338738424e-06 0 0.014999990561549775 1.1663816305600402e-09 0 0.014999975567405588 5.0770372898397985e-09 0 0.014116354068901257 0.00046119462648738487 0 0.013483169212793671 0.00062337381631053456 0 0.014116354068901257 0.00046119462648738487 0 0.014998626051916738 4.0011552566497219e-07 0 0.012164036959511364 0.0016046644743149745 0 0.011867188637116794 0.0011894931490649783 0 0.011643316679419759 0.0012307158853222104 0 0.012164036959511364 0.0016046644743149745 0 0.011867188637116794 0.0011894931490649783 0 0.012070035750333977 0.0012236630188898361 0 0.012739548827503142 0.00050405157572481238 0 0.013483169212793671 0.00062337381631053456 0 0.014852220432394383 -7.1653518821688126e-05 0 0.014880581986247777 -6.9988575052359214e-05 0 0.014882657891627588 -4.2193997789989142e-05 0 0.011981524645676455 0.00084006179536329391 0 0.011860813695578997 0.00096195281660782516 0 0.012070035750333977 0.0012236630188898361 0 0.011860813695578997 0.00096195281660782516 0 0.011867188637116794 0.0011894931490649783 0 0.012070035750333977 0.0012236630188898361 0 0.011159427632313064 0.0008609484808424281 0 0.011603911647585032 0.00093398225612367563 0 0.011643316679419759 0.0012307158853222104 0 0.011603911647585032 0.00093398225612367563 0 0.011860813695578997 0.00096195281660782516 0 0.011867188637116794 0.0011894931490649783 0 0.011603911647585032 0.00093398225612367563 0 0.011867188637116794 0.0011894931490649783 0 0.011643316679419759 0.0012307158853222104 0 0.014996652688809477 1.0739080338738424e-06 0 0.014983387593032421 3.8619243033671413e-06 0 0.014999975567405588 5.0770372898397985e-09 0 0.014983387593032421 3.8619243033671413e-06 0 0.014999975567405588 5.0770372898397985e-09 0 0.014983672295162244 5.267486024279698e-06 0 0.014999976205747622 3.5286407667233029e-09 0 0.014999975567405588 5.0770372898397985e-09 0 0.014983672295162244 5.267486024279698e-06 0 0.014963779504762771 1.0105237507402902e-05 0 0.014983387593032421 3.8619243033671413e-06 0 0.014983672295162244 5.267486024279698e-06 0 0.012303178754816914 0.00041757345947400612 0 0.01336956240954674 0.00067942661714418017 0 0.014963817009619592 -5.4439572200325057e-05 0 0.014925029652526291 -0.00010633014415688788 0 0.014918420090273386 -7.5603197852402445e-05 0 0.014963817009619592 -5.4439572200325057e-05 0 0.014968857689663266 -8.0228336647716653e-05 0 0.014998884100190022 -5.8482905253309393e-05 0 0.014997347225489194 -9.6615419371272608e-05 0 0.014968857689663266 -8.0228336647716653e-05 0 0.014998884100190022 -5.8482905253309393e-05 0 0.014963817009619592 -5.4439572200325057e-05 0 0.014968857689663266 -8.0228336647716653e-05 0 0.014925029652526291 -0.00010633014415688788 0 0.014997347225489194 -9.6615419371272608e-05 0 0.014968857689663266 -8.0228336647716653e-05 0 0.014964058642046316 -0.0001446555235519659 0 0.014968857689663266 -8.0228336647716653e-05 0 0.014964058642046316 -0.0001446555235519659 0 0.014925029652526291 -0.00010633014415688788 0 0.014997347225489194 -9.6615419371272608e-05 0 0.014964058642046316 -0.0001446555235519659 0 0.015024880117358093 -0.00012234909717634339 0 0.014981555964703347 -0.0001923445324158672 0 0.014964058642046316 -0.0001446555235519659 0 0.015019899577683574 -0.00015983628414533379 0 0.014964058642046316 -0.0001446555235519659 0 0.01489610841360499 -0.00015862747367148276 0 0.014925029652526291 -0.00010633014415688788 0 0.014906686411310396 -0.00019896479369534376 0 0.014964058642046316 -0.0001446555235519659 0 0.01489610841360499 -0.00015862747367148276 0 0.014925029652526291 -0.00010633014415688788 0 0.01486172557391496 -0.0001478975238752522 0 0.014918420090273386 -7.5603197852402445e-05 0 0.01489610841360499 -0.00015862747367148276 0 0.014925029652526291 -0.00010633014415688788 0 0.01486172557391496 -0.0001478975238752522 0 0.014845456645334879 -0.00021018171153585951 0 0.01489610841360499 -0.00015862747367148276 0 0.01486172557391496 -0.0001478975238752522 0 0.01486172557391496 -0.0001478975238752522 0 0.014827332681274929 -0.00016409352199504056 0 0.014869655273638845 -0.00010889569352224473 0 0.014840064804947893 -0.00012356774185607591 0 0.014827332681274929 -0.00016409352199504056 0 0.014869655273638845 -0.00010889569352224473 0 0.014840064804947893 -0.00012356774185607591 0 0.014892105926490333 -7.5315186024167851e-05 0 0.014869655273638845 -0.00010889569352224473 0 0.014892105926490333 -7.5315186024167851e-05 0 0.014869655273638845 -0.00010889569352224473 0 0.014930263212902426 -4.9425814887323867e-05 0 0.01486172557391496 -0.0001478975238752522 0 0.014869655273638845 -0.00010889569352224473 0 0.014918420090273386 -7.5603197852402445e-05 0 0.014869655273638845 -0.00010889569352224473 0 0.014918420090273386 -7.5603197852402445e-05 0 0.014930263212902426 -4.9425814887323867e-05 0 0.014918420090273386 -7.5603197852402445e-05 0 0.014930263212902426 -4.9425814887323867e-05 0 0.014968144568695142 -2.6121347748236924e-05 0 0.014940784659893671 -3.1210096310994703e-05 0 0.014892105926490333 -7.5315186024167851e-05 0 0.014930263212902426 -4.9425814887323867e-05 0 0.014940784659893671 -3.1210096310994703e-05 0 0.014999744978810538 5.737200421742519e-09 0 0.014999966236290307 -2.4371120441178089e-08 0 0.014940784659893671 -3.1210096310994703e-05 0 0.014930263212902426 -4.9425814887323867e-05 0 0.014999966236290307 -2.4371120441178089e-08 0 0.014930263212902426 -4.9425814887323867e-05 0 0.014999966236290307 -2.4371120441178089e-08 0 0.014968144568695142 -2.6121347748236924e-05 0 0.014999966236290307 -2.4371120441178089e-08 0 0.014999959091817242 -8.8676470576498138e-09 0 0.014968144568695142 -2.6121347748236924e-05 0 0.014963817009619592 -5.4439572200325057e-05 0 0.014918420090273386 -7.5603197852402445e-05 0 0.014968144568695142 -2.6121347748236924e-05 0 0.014963817009619592 -5.4439572200325057e-05 0 0.014996820874126911 -2.1111555324247285e-05 0 0.014998884100190022 -5.8482905253309393e-05 0 0.014963817009619592 -5.4439572200325057e-05 0 0.014968144568695142 -2.6121347748236924e-05 0 0.014996820874126911 -2.1111555324247285e-05 0 0.014999959091817242 -8.8676470576498138e-09 0 0.014968144568695142 -2.6121347748236924e-05 0 0.014996820874126911 -2.1111555324247285e-05 0 0.014999959091817242 -8.8676470576498138e-09 0 0.014996820874126911 -2.1111555324247285e-05 0 0.015000026569523969 -1.1738123551616782e-08 0 0.014996820874126911 -2.1111555324247285e-05 0 0.015000026569523969 -1.1738123551616782e-08 0 0.015016753098552056 -1.6636853799103057e-05 0 0.015000026569523969 -1.1738123551616782e-08 0 0.015016753098552056 -1.6636853799103057e-05 0 0.015000050031966633 -6.6591172513184684e-09 0 0.015016753098552056 -1.6636853799103057e-05 0 0.015034875599100904 -4.3499133420614907e-05 0 0.015032887145281332 -2.33321571730235e-05 0 0.015016753098552056 -1.6636853799103057e-05 0 0.015034875599100904 -4.3499133420614907e-05 0 0.015016688954686641 -3.7801366350347851e-05 0 0.014996820874126911 -2.1111555324247285e-05 0 0.015016688954686641 -3.7801366350347851e-05 0 0.014998884100190022 -5.8482905253309393e-05 0 0.014996820874126911 -2.1111555324247285e-05 0 0.015016753098552056 -1.6636853799103057e-05 0 0.015016688954686641 -3.7801366350347851e-05 0 0.014998884100190022 -5.8482905253309393e-05 0 0.015025619843005331 -9.1865968314555846e-05 0 0.015034174244050253 -6.824340324011284e-05 0 0.014997347225489194 -9.6615419371272608e-05 0 0.014998884100190022 -5.8482905253309393e-05 0 0.015025619843005331 -9.1865968314555846e-05 0 0.015025619843005331 -9.1865968314555846e-05 0 0.015034174244050253 -6.824340324011284e-05 0 0.015053715522464563 -0.00011591898758426751 0 0.015016688954686641 -3.7801366350347851e-05 0 0.014998884100190022 -5.8482905253309393e-05 0 0.015034174244050253 -6.824340324011284e-05 0 0.015034875599100904 -4.3499133420614907e-05 0 0.015016688954686641 -3.7801366350347851e-05 0 0.015034174244050253 -6.824340324011284e-05 0 0.015034875599100904 -4.3499133420614907e-05 0 0.015066060157667201 -7.8189305375330444e-05 0 0.015032887145281332 -2.33321571730235e-05 0 0.015034875599100904 -4.3499133420614907e-05 0 0.015034174244050253 -6.824340324011284e-05 0 0.015066060157667201 -7.8189305375330444e-05 0 0.015228629567125255 3.2203820769738615e-05 0 0.015151659599869666 7.7917878892661306e-05 0 0.015378773937679823 0.00013510304915315591 0 0.015399924782623526 0.00012797386653319142 0 0.015405968791062527 0.00021634183844794247 0 0.015034174244050253 -6.824340324011284e-05 0 0.015066060157667201 -7.8189305375330444e-05 0 0.015053715522464563 -0.00011591898758426751 0 0.015066060157667201 -7.8189305375330444e-05 0 0.015053715522464563 -0.00011591898758426751 0 0.015098276836056196 -0.00017811692750511592 0 0.015378773937679823 0.00013510304915315591 0 0.015363053365706276 2.8262762701489359e-05 0 0.015290237927607968 -6.0421256523699976e-05 0 0.015189245635393053 0.00012842427419973556 0 0.015117040570200316 -4.6277910947294584e-05 0 0.015399924782623526 0.00012797386653319142 0 0.015363053365706276 2.8262762701489359e-05 0 0.015387774146445861 -9.7347268644541984e-05 0 0.014961043864559579 0.00010849952360515184 0 0.014936815992561506 7.9065064340620969e-05 0 0.014879647828688289 5.3822579008679958e-05 0 0.015228629567125255 3.2203820769738615e-05 0 0.01519182353441601 -0.00013540756964156876 0 0.015378773937679823 0.00013510304915315591 0 0.015399924782623526 0.00012797386653319142 0 0.015363053365706276 2.8262762701489359e-05 0 0.015049421372718474 -0.00015289105826103467 0 0.015024880117358093 -0.00012234909717634339 0 0.015053715522464563 -0.00011591898758426751 0 0.015049421372718474 -0.00015289105826103467 0 0.015053715522464563 -0.00011591898758426751 0 0.015098276836056196 -0.00017811692750511592 0 0.014964058642046316 -0.0001446555235519659 0 0.015019899577683574 -0.00015983628414533379 0 0.015024880117358093 -0.00012234909717634339 0 0.015049421372718474 -0.00015289105826103467 0 0.015019899577683574 -0.00015983628414533379 0 0.015024880117358093 -0.00012234909717634339 0 0.014997347225489194 -9.6615419371272608e-05 0 0.015025619843005331 -9.1865968314555846e-05 0 0.015024880117358093 -0.00012234909717634339 0 0.015025619843005331 -9.1865968314555846e-05 0 0.015024880117358093 -0.00012234909717634339 0 0.015053715522464563 -0.00011591898758426751 0 0.014982584117581667 0.00010059576425143066 0 0.014975821482897339 0.00010127576377511505 0 0.014986113457399192 0.00010186354253056271 0 0.014982584117581667 0.00010059576425143066 0 0.014980102217470552 0.00012789325015102188 0 0.014996456980329771 4.1157167740768953e-05 0 0.014982584117581667 0.00010059576425143066 0 0.014986113457399192 0.00010186354253056271 0 0.014980102217470552 0.00012789325015102188 0 0.014961052755242123 8.1510880559219952e-05 0 0.014936815992561506 7.9065064340620969e-05 0 0.01495871567449969 9.5185846900653858e-05 0 0.014961043864559579 0.00010849952360515184 0 0.014936815992561506 7.9065064340620969e-05 0 0.01495871567449969 9.5185846900653858e-05 0 0.01495871567449969 9.5185846900653858e-05 0 0.014975821482897339 0.00010127576377511505 0 0.014968465740574168 0.00010254261097372752 0 0.014961043864559579 0.00010849952360515184 0 0.01495871567449969 9.5185846900653858e-05 0 0.014968465740574168 0.00010254261097372752 0 0.014982584117581667 0.00010059576425143066 0 0.014961052755242123 8.1510880559219952e-05 0 0.014975821482897339 0.00010127576377511505 0 0.014961052755242123 8.1510880559219952e-05 0 0.01495871567449969 9.5185846900653858e-05 0 0.014975821482897339 0.00010127576377511505 0 0.014975821482897339 0.00010127576377511505 0 0.014978575712495079 0.00010007336390153295 0 0.014983616254111348 9.9102270472764114e-05 0 0.01497933437500475 9.8395821047122186e-05 0 0.014987572971480524 9.3598011109605187e-05 0 0.015016867362382041 7.332226983929342e-05 0 0.014961043864559579 0.00010849952360515184 0 0.01497933437500475 9.8395821047122186e-05 0 0.015016867362382041 7.332226983929342e-05 0 0.015189245635393053 0.00012842427419973556 0 0.015151659599869666 7.7917878892661306e-05 0 0.014975821482897339 0.00010127576377511505 0 0.014978575712495079 0.00010007336390153295 0 0.014968465740574168 0.00010254261097372752 0 0.014961043864559579 0.00010849952360515184 0 0.014968465740574168 0.00010254261097372752 0 0.01497933437500475 9.8395821047122186e-05 0 0.014978575712495079 0.00010007336390153295 0 0.014968465740574168 0.00010254261097372752 0 0.01497933437500475 9.8395821047122186e-05 0 0.014978575712495079 0.00010007336390153295 0 0.01497933437500475 9.8395821047122186e-05 0 0.014987572971480524 9.3598011109605187e-05 0 0.014978575712495079 0.00010007336390153295 0 0.014983616254111348 9.9102270472764114e-05 0 0.014987572971480524 9.3598011109605187e-05 0 0.014983616254111348 9.9102270472764114e-05 0 0.014987572971480524 9.3598011109605187e-05 0 0.014990372849479463 9.1328142982689155e-05 0 0.014987572971480524 9.3598011109605187e-05 0 0.014990372849479463 9.1328142982689155e-05 0 0.014997676799728368 8.2653690241203979e-05 0 0.014986113457399192 0.00010186354253056271 0 0.014989527215138305 8.6270451688971151e-05 0 0.014977508366707486 0.00010607820938413348 0 0.014983616254111348 9.9102270472764114e-05 0 0.014990372849479463 9.1328142982689155e-05 0 0.014986113457399192 0.00010186354253056271 0 0.014990372849479463 9.1328142982689155e-05 0 0.014986113457399192 0.00010186354253056271 0 0.014994641385470313 7.8720668171182546e-05 0 0.014975821482897339 0.00010127576377511505 0 0.014983616254111348 9.9102270472764114e-05 0 0.014986113457399192 0.00010186354253056271 0 0.014989527215138305 8.6270451688971151e-05 0 0.014995294706365417 5.0984354758122196e-05 0 0.014977508366707486 0.00010607820938413348 0 0.014986113457399192 0.00010186354253056271 0 0.014989527215138305 8.6270451688971151e-05 0 0.014994641385470313 7.8720668171182546e-05 0 0.014994641385470313 7.8720668171182546e-05 0 0.014995294706365417 5.0984354758122196e-05 0 0.015000440567863465 4.9006739472126759e-05 0 0.014989527215138305 8.6270451688971151e-05 0 0.014994641385470313 7.8720668171182546e-05 0 0.014995294706365417 5.0984354758122196e-05 0 0.014987572971480524 9.3598011109605187e-05 0 0.014997676799728368 8.2653690241203979e-05 0 0.015016867362382041 7.332226983929342e-05 0 0.014997676799728368 8.2653690241203979e-05 0 0.015002209591150477 7.2125355169708834e-05 0 0.015016867362382041 7.332226983929342e-05 0 0.014990372849479463 9.1328142982689155e-05 0 0.014994641385470313 7.8720668171182546e-05 0 0.014997676799728368 8.2653690241203979e-05 0 0.014994641385470313 7.8720668171182546e-05 0 0.014997676799728368 8.2653690241203979e-05 0 0.015002209591150477 7.2125355169708834e-05 0 0.014994641385470313 7.8720668171182546e-05 0 0.015002209591150477 7.2125355169708834e-05 0 0.015000440567863465 4.9006739472126759e-05 0 0.015002209591150477 7.2125355169708834e-05 0 0.015016867362382041 7.332226983929342e-05 0 0.015000440567863465 4.9006739472126759e-05 0 0.015016753098552056 -1.6636853799103057e-05 0 0.015032887145281332 -2.33321571730235e-05 0 0.015000050031966633 -6.6591172513184684e-09 0 0.015151659599869666 7.7917878892661306e-05 0 0.014999933338652122 -1.0904447728052023e-07 0 0.015016867362382041 7.332226983929342e-05 0 0.015000064335449877 5.2962032787026346e-08 0 0.015000440567863465 4.9006739472126759e-05 0 0.014995294706365417 5.0984354758122196e-05 0 0.015000064335449877 5.2962032787026346e-08 0 0.015000440567863465 4.9006739472126759e-05 0 0.014995294706365417 5.0984354758122196e-05 0 0.015000064335449877 5.2962032787026346e-08 0 0.014999961871329149 2.9240930434262997e-08 0 0.014995294706365417 5.0984354758122196e-05 0 0.014999961871329149 2.9240930434262997e-08 0 0.014965488347815942 4.9679301987390176e-05 0 0.014999961871329149 2.9240930434262997e-08 0 0.014965488347815942 4.9679301987390176e-05 0 0.01499988223942215 5.9127564276938665e-08 0 0.014965488347815942 4.9679301987390176e-05 0 0.014929537161271416 6.4408553750962169e-05 0 0.014865768494606281 0.00017907624083045952 0 0.014965488347815942 4.9679301987390176e-05 0 0.014977508366707486 0.00010607820938413348 0 0.014865768494606281 0.00017907624083045952 0 0.014995294706365417 5.0984354758122196e-05 0 0.014965488347815942 4.9679301987390176e-05 0 0.014977508366707486 0.00010607820938413348 0 0.01472347969906143 6.1044876327319528e-05 0 0.014999476568656476 5.2381902495247148e-08 0 0.014819665740455653 3.6413491359083045e-05 0 0.014929537161271416 6.4408553750962169e-05 0 0.014879576549929467 0.00010447776451093044 0 0.014999865931854515 1.8513047122674111e-08 0 0.014805364991464873 8.1059589367370592e-05 0 0.014999913975283507 5.4263277083695941e-09 0 0.01499988223942215 5.9127564276938665e-08 0 0.014929537161271416 6.4408553750962169e-05 0 0.014999865931854515 1.8513047122674111e-08 0 0.014965488347815942 4.9679301987390176e-05 0 0.01499988223942215 5.9127564276938665e-08 0 0.014929537161271416 6.4408553750962169e-05 0 0.014929537161271416 6.4408553750962169e-05 0 0.014879576549929467 0.00010447776451093044 0 0.014865768494606281 0.00017907624083045952 0 0.01472347969906143 6.1044876327319528e-05 0 0.014632026848510223 0.00017261734014841092 0 0.014555968836187259 0.0001439031874411928 0 0.014879576549929467 0.00010447776451093044 0 0.014759255922920699 0.00025514474091507745 0 0.014865768494606281 0.00017907624083045952 0 0.014759255922920699 0.00025514474091507745 0 0.014865768494606281 0.00017907624083045952 0 0.014604358890742793 0.00026630370272250211 0 0.014805364991464873 8.1059589367370592e-05 0 0.014698939097920589 0.00020846456801849167 0 0.014632026848510223 0.00017261734014841092 0 0.014539815404535696 0.00020664085903541546 0 0.014555968836187259 0.0001439031874411928 0 0.014986113457399192 0.00010186354253056271 0 0.014977508366707486 0.00010607820938413348 0 0.014980102217470552 0.00012789325015102188 0 0.014977508366707486 0.00010607820938413348 0 0.014865768494606281 0.00017907624083045952 0 0.014980102217470552 0.00012789325015102188 0 0.014828189911190792 0.00017957896011902642 0 0.014668812938778893 0.00022788199889114689 0 0.014865768494606281 0.00017907624083045952 0 0.014604358890742793 0.00026630370272250211 0 0.014398139023489909 0.00037874961104030196 0 0.014759255922920699 0.00025514474091507745 0 0.014604358890742793 0.00026630370272250211 0 0.014580166096417864 0.000127321304599535 0 0.014604358890742793 0.00026630370272250211 0 0.014398139023489909 0.00037874961104030196 0 0.014412238420858465 0.00020129573121632272 0 0.014668812938778893 0.00022788199889114689 0 0.014331066440969421 0.00011116308544929574 0 0.014398139023489909 0.00037874961104030196 0 0.014412238420858465 0.00020129573121632272 0 0.013657965561840128 0.00020552910663548189 0 0.014412238420858465 0.00020129573121632272 0 0.014182722733963607 -4.7966676650683741e-05 0 0.013657965561840128 0.00020552910663548189 0 0.014604358890742793 0.00026630370272250211 0 0.014412238420858465 0.00020129573121632272 0 0.014580166096417864 0.000127321304599535 0 0.014412238420858465 0.00020129573121632272 0 0.014580166096417864 0.000127321304599535 0 0.014182722733963607 -4.7966676650683741e-05 0 0.014580166096417864 0.000127321304599535 0 0.014569948769023929 -7.8483152691700254e-05 0 0.014182722733963607 -4.7966676650683741e-05 0 0.014569948769023929 -7.8483152691700254e-05 0 0.014182722733963607 -4.7966676650683741e-05 0 0.014038642736464591 -0.00052415739720121899 0 0.013097498148302135 -9.5530617362312139e-05 0 0.012461156276975605 -0.00066118014606437949 0 0.014182722733963607 -4.7966676650683741e-05 0 0.014038642736464591 -0.00052415739720121899 0 0.013562116876214982 -0.00033288902148181465 0 0.014632026848510223 0.00017261734014841092 0 0.014539815404535696 0.00020664085903541546 0 0.01462357179921152 0.00023275735079791415 0 0.012871947680941858 0.00037635547728167575 0 0.013380035059027167 -0.00014578551769386767 0 0.014213328317434328 0.00036577586887115351 0 0.014539815404535696 0.00020664085903541546 0 0.01462357179921152 0.00023275735079791415 0 0.014213328317434328 0.00036577586887115351 0 0.013724263585693099 0.00026807991297209891 0 0.01413200806476499 0.00036439767276084619 0 0.014632026848510223 0.00017261734014841092 0 0.014580166096417864 0.000127321304599535 0 0.01462357179921152 0.00023275735079791415 0 0.014698939097920589 0.00020846456801849167 0 0.014593749613336976 0.00013431323953837861 0 0.013097498148302135 -9.5530617362312139e-05 0 0.013724263585693099 0.00026807991297209891 0 0.011627983952303501 -7.5119782333660552e-05 0 0.012871947680941858 0.00037635547728167575 0 0.012553254025239704 -0.00037993808378306194 0 0.014580166096417864 0.000127321304599535 0 0.014569948769023929 -7.8483152691700254e-05 0 0.01462357179921152 0.00023275735079791415 0 0.012871947680941858 0.00037635547728167575 0 0.013380035059027167 -0.00014578551769386767 0 0.012553254025239704 -0.00037993808378306194 0 0.013380035059027167 -0.00014578551769386767 0 0.012990077709433145 -0.00072284161833945733 0 0.013875701831797855 -0.00057384873987724417 0 0.013380035059027167 -0.00014578551769386767 0 0.012990077709433145 -0.00072284161833945733 0 0.012553254025239704 -0.00037993808378306194 0 0.012990077709433145 -0.00072284161833945733 0 0.012553254025239704 -0.00037993808378306194 0 0.012360491141009259 -0.0009878659645867064 0 0.011627983952303501 -7.5119782333660552e-05 0 0.012553254025239704 -0.00037993808378306194 0 0.011917182053514767 -0.00066594835037047013 0 0.012553254025239704 -0.00037993808378306194 0 0.011917182053514767 -0.00066594835037047013 0 0.012360491141009259 -0.0009878659645867064 0 0.011917182053514767 -0.00066594835037047013 0 0.012360491141009259 -0.0009878659645867064 0 0.01168963430826226 -0.001061415592824701 0 0.011969293492594962 -0.0013960473612293356 0 0.012360491141009259 -0.0009878659645867064 0 0.012773396325138067 -0.0015541048817382299 0 0.011969293492594962 -0.0013960473612293356 0 0.012360491141009259 -0.0009878659645867064 0 0.01168963430826226 -0.001061415592824701 0 0.012990077709433145 -0.00072284161833945733 0 0.012360491141009259 -0.0009878659645867064 0 0.012773396325138067 -0.0015541048817382299 0 0.013255299862230348 -0.00092699070212612432 0 0.013799644854977772 -0.0002339591885973149 0 0.012990077709433145 -0.00072284161833945733 0 0.012773396325138067 -0.0015541048817382299 0 0.013875701831797855 -0.00057384873987724417 0 0.01082975972344921 -0.00081789851670372035 0 0.011019358131810262 -0.0011026703234876033 0 0.01080748978837099 -0.0011838243545980753 0 0.01082975972344921 -0.00081789851670372035 0 0.011378614086953323 -0.00073257841003035841 0 0.011019358131810262 -0.0011026703234876033 0 0.011378614086953323 -0.00073257841003035841 0 0.01168963430826226 -0.001061415592824701 0 0.011019358131810262 -0.0011026703234876033 0 0.011627983952303501 -7.5119782333660552e-05 0 0.01082975972344921 -0.00081789851670372035 0 0.011378614086953323 -0.00073257841003035841 0 0.011627983952303501 -7.5119782333660552e-05 0 0.011917182053514767 -0.00066594835037047013 0 0.011378614086953323 -0.00073257841003035841 0 0.011917182053514767 -0.00066594835037047013 0 0.011378614086953323 -0.00073257841003035841 0 0.01168963430826226 -0.001061415592824701 0 0.01168963430826226 -0.001061415592824701 0 0.011019358131810262 -0.0011026703234876033 0 0.011268097192580871 -0.0014420891461095714 0 0.011969293492594962 -0.0013960473612293356 0 0.01168963430826226 -0.001061415592824701 0 0.011268097192580871 -0.0014420891461095714 0 0.011019358131810262 -0.0011026703234876033 0 0.010700457050474768 -0.0013963226249146042 0 0.011268097192580871 -0.0014420891461095714 0 0.011019358131810262 -0.0011026703234876033 0 0.01080748978837099 -0.0011838243545980753 0 0.010700457050474768 -0.0013963226249146042 0 0.01080748978837099 -0.0011838243545980753 0 0.011012599335637361 -0.0013448080531376447 0 0.010996766440013071 -0.00095160784140096673 0 0.01080748978837099 -0.0011838243545980753 0 0.010996766440013071 -0.00095160784140096673 0 0.010700457050474768 -0.0013963226249146042 0 0.014038642736464591 -0.00052415739720121899 0 0.013114179382980685 -0.00094239263355211291 0 0.013562116876214982 -0.00033288902148181465 0 0.012461156276975605 -0.00066118014606437949 0 0.01209139285885636 -0.0011006581990938018 0 0.01082975972344921 -0.00081789851670372035 0 0.01080748978837099 -0.0011838243545980753 0 0.011012599335637361 -0.0013448080531376447 0 0.013114179382980685 -0.00094239263355211291 0 0.012611978745026843 -0.00044970085665383769 0 0.012030071791884806 -0.0011701421403833006 0 0.013114179382980685 -0.00094239263355211291 0 0.012611978745026843 -0.00044970085665383769 0 0.013562116876214982 -0.00033288902148181465 0 0.011012599335637361 -0.0013448080531376447 0 0.01142187947758082 -0.0010871642579838657 0 0.012030071791884806 -0.0011701421403833006 0 0.011012599335637361 -0.0013448080531376447 0 0.01142187947758082 -0.0010871642579838657 0 0.010996766440013071 -0.00095160784140096673 0 0.01209139285885636 -0.0011006581990938018 0 0.01205140368491241 -0.0011639325527166729 0 0.012611978745026843 -0.00044970085665383769 0 0.012030071791884806 -0.0011701421403833006 0 0.011850857532855103 -0.001126119054613757 0 0.01142187947758082 -0.0010871642579838657 0 0.012030071791884806 -0.0011701421403833006 0 0.011855695280021734 -0.00092749551233241388 0 0.011926103948378206 -0.0010927105052351909 0 0.012030071791884806 -0.0011701421403833006 0 0.011855695280021734 -0.00092749551233241388 0 0.011926103948378206 -0.0010927105052351909 0 0.012030071791884806 -0.0011701421403833006 0 0.011850857532855103 -0.001126119054613757 0 0.014889089198774928 -0.0012050450232360974 0 0.015121368790740183 -0.0011353583287947919 0 0.01505301447969954 -0.0010351767136400284 0 0.015121368790740183 -0.0011353583287947919 0 0.015343324951413597 -0.0010158930989995012 0 0.015096714056240159 -0.0014068978924866922 0 0.013892377178653199 -0.00079199642191551999 0 0.013175475033435951 -0.0013785871089659241 0 0.014889089198774928 -0.0012050450232360974 0 0.015121368790740183 -0.0011353583287947919 0 0.015096714056240159 -0.0014068978924866922 0 0.015121368790740183 -0.0011353583287947919 0 0.015195148071663557 -0.0010160449869325179 0 0.01505301447969954 -0.0010351767136400284 0 0.011926103948378206 -0.0010927105052351909 0 0.011850857532855103 -0.001126119054613757 0 0.012042103802406025 -0.0010988489429435402 0 0.015121368790740183 -0.0011353583287947919 0 0.015343324951413597 -0.0010158930989995012 0 0.015195148071663557 -0.0010160449869325179 0 0.015343324951413597 -0.0010158930989995012 0 0.015256073947352268 -0.00093992034017457147 0 0.015265712314147195 -0.00079895539356239996 0 0.015256073947352268 -0.00093992034017457147 0 0.015181679494677214 -0.00087765300450318856 0 0.015265712314147195 -0.00079895539356239996 0 0.015343324951413597 -0.0010158930989995012 0 0.015256073947352268 -0.00093992034017457147 0 0.015195148071663557 -0.0010160449869325179 0 0.015256073947352268 -0.00093992034017457147 0 0.015195148071663557 -0.0010160449869325179 0 0.015181679494677214 -0.00087765300450318856 0 0.015181679494677214 -0.00087765300450318856 0 0.01505301447969954 -0.0010351767136400284 0 0.015030453890442256 -0.00071382374480415329 0 0.015195148071663557 -0.0010160449869325179 0 0.015181679494677214 -0.00087765300450318856 0 0.01505301447969954 -0.0010351767136400284 0 0.015343324951413597 -0.0010158930989995012 0 0.015265712314147195 -0.00079895539356239996 0 0.015344667588859209 -0.00047664111678621929 0 0.015181679494677214 -0.00087765300450318856 0 0.015030453890442256 -0.00071382374480415329 0 0.015156810822318522 -0.00072775831045301205 0 0.015030453890442256 -0.00071382374480415329 0 0.015156810822318522 -0.00072775831045301205 0 0.015133393482021393 -0.00059260194871665721 0 0.015156810822318522 -0.00072775831045301205 0 0.015265712314147195 -0.00079895539356239996 0 0.015246929127182299 -0.00066511120208967228 0 0.015156810822318522 -0.00072775831045301205 0 0.015246929127182299 -0.00066511120208967228 0 0.015133393482021393 -0.00059260194871665721 0 0.015181679494677214 -0.00087765300450318856 0 0.015156810822318522 -0.00072775831045301205 0 0.015265712314147195 -0.00079895539356239996 0 0.015216634552423218 -0.00053056189613863859 0 0.015133393482021393 -0.00059260194871665721 0 0.015145209083555758 -0.0003965090032400196 0 0.015265712314147195 -0.00079895539356239996 0 0.015246929127182299 -0.00066511120208967228 0 0.015344667588859209 -0.00047664111678621929 0 0.015246929127182299 -0.00066511120208967228 0 0.015216634552423218 -0.00053056189613863859 0 0.015344667588859209 -0.00047664111678621929 0 0.015246929127182299 -0.00066511120208967228 0 0.015216634552423218 -0.00053056189613863859 0 0.015133393482021393 -0.00059260194871665721 0 0.015011804691434988 -0.00048741930603994887 0 0.015133393482021393 -0.00059260194871665721 0 0.015145209083555758 -0.0003965090032400196 0 0.015011804691434988 -0.00048741930603994887 0 0.015030453890442256 -0.00071382374480415329 0 0.015133393482021393 -0.00059260194871665721 0 0.014914539050254907 -0.00011552082149853501 0 0.014728127049452328 -0.00032982758242849832 0 0.014793509548379524 -9.8998666295249175e-05 0 0.013892377178653199 -0.00079199642191551999 0 0.015195963657907598 -0.00024496890741714249 0 0.013655735008458765 -0.00030800724400649422 0 0.013892377178653199 -0.00079199642191551999 0 0.014914539050254907 -0.00011552082149853501 0 0.014793509548379524 -9.8998666295249175e-05 0 0.014880650450322117 -2.8188848391208728e-05 0 0.014793509548379524 -9.8998666295249175e-05 0 0.014880650450322117 -2.8188848391208728e-05 0 0.014879647828688289 5.3822579008679958e-05 0 0.015344667588859209 -0.00047664111678621929 0 0.015145209083555758 -0.0003965090032400196 0 0.015387774146445861 -9.7347268644541984e-05 0 0.015195963657907598 -0.00024496890741714249 0 0.015117040570200316 -4.6277910947294584e-05 0 0.015011804691434988 -0.00048741930603994887 0 0.015006768125539235 -0.00033713579270866126 0 0.015145209083555758 -0.0003965090032400196 0 0.015216634552423218 -0.00053056189613863859 0 0.015344667588859209 -0.00047664111678621929 0 0.015145209083555758 -0.0003965090032400196 0 0.015006768125539235 -0.00033713579270866126 0 0.015011722799988889 -0.00025175954421438547 0 0.015067067505200196 -0.00026793103969688039 0 0.015006768125539235 -0.00033713579270866126 0 0.015145209083555758 -0.0003965090032400196 0 0.015067067505200196 -0.00026793103969688039 0 0.015145209083555758 -0.0003965090032400196 0 0.015067067505200196 -0.00026793103969688039 0 0.015098276836056196 -0.00017811692750511592 0 0.015139042236399081 -0.00037963440772002534 0 0.01519182353441601 -0.00013540756964156876 0 0.015011722799988889 -0.00025175954421438547 0 0.015067067505200196 -0.00026793103969688039 0 0.015046045346447785 -0.00019979695762863773 0 0.015049421372718474 -0.00015289105826103467 0 0.015046045346447785 -0.00019979695762863773 0 0.015098276836056196 -0.00017811692750511592 0 0.015067067505200196 -0.00026793103969688039 0 0.015046045346447785 -0.00019979695762863773 0 0.015098276836056196 -0.00017811692750511592 0 0.014981555964703347 -0.0001923445324158672 0 0.015019899577683574 -0.00015983628414533379 0 0.015046045346447785 -0.00019979695762863773 0 0.014981555964703347 -0.0001923445324158672 0 0.015011722799988889 -0.00025175954421438547 0 0.015046045346447785 -0.00019979695762863773 0 0.015049421372718474 -0.00015289105826103467 0 0.015019899577683574 -0.00015983628414533379 0 0.015046045346447785 -0.00019979695762863773 0 0.015145209083555758 -0.0003965090032400196 0 0.015290237927607968 -6.0421256523699976e-05 0 0.015387774146445861 -9.7347268644541984e-05 0 0.014880650450322117 -2.8188848391208728e-05 0 0.014879647828688289 5.3822579008679958e-05 0 0.014932325300418308 3.5226319746697399e-05 0 0.015363053365706276 2.8262762701489359e-05 0 0.015290237927607968 -6.0421256523699976e-05 0 0.015387774146445861 -9.7347268644541984e-05 0 0.014961052755242123 8.1510880559219952e-05 0 0.014932325300418308 3.5226319746697399e-05 0 0.014996456980329771 4.1157167740768953e-05 0 0.014961052755242123 8.1510880559219952e-05 0 0.014936815992561506 7.9065064340620969e-05 0 0.014932325300418308 3.5226319746697399e-05 0 0.014936815992561506 7.9065064340620969e-05 0 0.014879647828688289 5.3822579008679958e-05 0 0.014932325300418308 3.5226319746697399e-05 0 0.014982584117581667 0.00010059576425143066 0 0.014961052755242123 8.1510880559219952e-05 0 0.014996456980329771 4.1157167740768953e-05 0 0.012611978745026843 -0.00044970085665383769 0 0.013657965561840128 0.00020552910663548189 0 0.013562116876214982 -0.00033288902148181465 0 0.014182722733963607 -4.7966676650683741e-05 0 0.013657965561840128 0.00020552910663548189 0 0.013562116876214982 -0.00033288902148181465 0 0.014914539050254907 -0.00011552082149853501 0 0.014880650450322117 -2.8188848391208728e-05 0 0.014932325300418308 3.5226319746697399e-05 0 0.013655735008458765 -0.00030800724400649422 0 0.014331066440969421 0.00011116308544929574 0 0.014914539050254907 -0.00011552082149853501 0 0.014932325300418308 3.5226319746697399e-05 0 0.014996456980329771 4.1157167740768953e-05 0 0.01319782003029 8.2375809962122256e-08 0 0.014332622040829586 -5.7435200827343147e-05 0 0.013839498409367816 7.4676683432530703e-05 0 0.014999084325681162 -1.2875770167221847e-07 0 0.014999085918340992 -1.5434601066789761e-07 0 0.014332622040829586 -5.7435200827343147e-05 0 0.01319782003029 8.2375809962122256e-08 0 0.014999084325681162 -1.2875770167221847e-07 0 0.014332622040829586 -5.7435200827343147e-05 0 0.014999085918340992 -1.5434601066789761e-07 0 0.014332622040829586 -5.7435200827343147e-05 0 0.014764372508581695 -1.1807539270149788e-05 0 0.014332622040829586 -5.7435200827343147e-05 0 0.014464889450717385 8.1561846265677205e-05 0 0.014764372508581695 -1.1807539270149788e-05 0 0.014332622040829586 -5.7435200827343147e-05 0 0.013839498409367816 7.4676683432530703e-05 0 0.014464889450717385 8.1561846265677205e-05 0 0.013839498409367816 7.4676683432530703e-05 0 0.014464889450717385 8.1561846265677205e-05 0 0.014257775348706238 0.00034002754395705791 0 0.014464889450717385 8.1561846265677205e-05 0 0.014712412779859432 9.4541769853250717e-05 0 0.014764372508581695 -1.1807539270149788e-05 0 0.014464889450717385 8.1561846265677205e-05 0 0.014712412779859432 9.4541769853250717e-05 0 0.014488126380040687 0.00022510716315589816 0 0.014712412779859432 9.4541769853250717e-05 0 0.014764372508581695 -1.1807539270149788e-05 0 0.014721112530727744 4.7596142804937698e-05 0 0.014999085918340992 -1.5434601066789761e-07 0 0.014764372508581695 -1.1807539270149788e-05 0 0.014999856471085343 5.0019725980665347e-08 0 0.014764372508581695 -1.1807539270149788e-05 0 0.014999856471085343 5.0019725980665347e-08 0 0.014721112530727744 4.7596142804937698e-05 0 0.014999856471085343 5.0019725980665347e-08 0 0.014721112530727744 4.7596142804937698e-05 0 0.014819665740455653 3.6413491359083045e-05 0 0.014999856471085343 5.0019725980665347e-08 0 0.014999476568656476 5.2381902495247148e-08 0 0.014819665740455653 3.6413491359083045e-05 0 0.01472347969906143 6.1044876327319528e-05 0 0.014819665740455653 3.6413491359083045e-05 0 0.014555968836187259 0.0001439031874411928 0 0.014721112530727744 4.7596142804937698e-05 0 0.014819665740455653 3.6413491359083045e-05 0 0.014555968836187259 0.0001439031874411928 0 0.014342133961553238 0.00025753140238457995 0 0.014721112530727744 4.7596142804937698e-05 0 0.014555968836187259 0.0001439031874411928 0 0.014536008259084391 0.0001821351833465219 0 0.014685889792147461 6.3541452787404027e-05 0 0.014342133961553238 0.00025753140238457995 0 0.014555968836187259 0.0001439031874411928 0 0.014309764057116377 0.00033567311316025708 0 0.014555968836187259 0.0001439031874411928 0 0.014213328317434328 0.00036577586887115351 0 0.014309764057116377 0.00033567311316025708 0 0.014539815404535696 0.00020664085903541546 0 0.014555968836187259 0.0001439031874411928 0 0.014213328317434328 0.00036577586887115351 0 0.014213328317434328 0.00036577586887115351 0 0.014309764057116377 0.00033567311316025708 0 0.014003729751229684 2.0329625580373519e-05 0 0.014309764057116377 0.00033567311316025708 0 0.014298995195655407 0.00025315896524757199 0 0.014319633361221568 0.0002666770219410778 0 0.014309764057116377 0.00033567311316025708 0 0.014298995195655407 0.00025315896524757199 0 0.014003729751229684 2.0329625580373519e-05 0 0.014298995195655407 0.00025315896524757199 0 0.01383513535561535 0.00012922052101861685 0 0.014212937765607069 0.00011962454906746126 0 0.014280303959301735 0.00022313251868942883 0 0.013799644854977772 -0.0002339591885973149 0 0.014298995195655407 0.00025315896524757199 0 0.014003729751229684 2.0329625580373519e-05 0 0.013875701831797855 -0.00057384873987724417 0 0.013380035059027167 -0.00014578551769386767 0 0.014213328317434328 0.00036577586887115351 0 0.014003729751229684 2.0329625580373519e-05 0 0.013380035059027167 -0.00014578551769386767 0 0.014003729751229684 2.0329625580373519e-05 0 0.013875701831797855 -0.00057384873987724417 0 0.013289190597543804 -0.00030442998525064772 0 0.01383513535561535 0.00012922052101861685 0 0.013652354001464568 -0.00033798189156309608 0 0.01383513535561535 0.00012922052101861685 0 0.013944735179412427 -0.00012000166476964313 0 0.013652354001464568 -0.00033798189156309608 0 0.013944735179412427 -0.00012000166476964313 0 0.013901134593775668 -0.00037054761396674424 0 0.013652354001464568 -0.00033798189156309608 0 0.01411222643515727 -0.0002098343837163802 0 0.013944735179412427 -0.00012000166476964313 0 0.014212937765607069 0.00011962454906746126 0 0.01411222643515727 -0.0002098343837163802 0 0.013944735179412427 -0.00012000166476964313 0 0.013901134593775668 -0.00037054761396674424 0 0.01383513535561535 0.00012922052101861685 0 0.013944735179412427 -0.00012000166476964313 0 0.014212937765607069 0.00011962454906746126 0 0.014212937765607069 0.00011962454906746126 0 0.014373715963062427 0.00021218467387896335 0 0.01429818151191104 0.00021897197730226726 0 0.015028015004786706 -9.2492083024242884e-05 0 0.012405448752468433 0.0001448880880030549 0 0.01411222643515727 -0.0002098343837163802 0 0.014212937765607069 0.00011962454906746126 0 0.014292862933239848 -0.00017027280503436774 0 0.014212937765607069 0.00011962454906746126 0 0.014292862933239848 -0.00017027280503436774 0 0.014539594831406346 -0.00016919590659802018 0 0.01411222643515727 -0.0002098343837163802 0 0.014292862933239848 -0.00017027280503436774 0 0.014237808220835623 -0.00033066378550305228 0 0.014292862933239848 -0.00017027280503436774 0 0.014539594831406346 -0.00016919590659802018 0 0.014433966943952853 -0.00039780087974063133 0 0.012405448752468433 0.0001448880880030549 0 0.011363333893765608 0.00038127864795178975 0 0.014212937765607069 0.00011962454906746126 0 0.014390853888781502 0.0001004222659583069 0 0.014373715963062427 0.00021218467387896335 0 0.012405448752468433 0.0001448880880030549 0 0.013621849802827867 0.00012668835924909325 0 0.014390853888781502 0.0001004222659583069 0 0.014373715963062427 0.00021218467387896335 0 0.014426131544255151 0.00026515172817276404 0 0.014373715963062427 0.00021218467387896335 0 0.014427733393662325 0.00029289249761695177 0 0.014538096430132168 0.00028254980677041517 0 0.014390531924117522 0.00021191041042641101 0 0.014429333396061407 0.0002606792938631822 0 0.014373715963062427 0.00021218467387896335 0 0.014427733393662325 0.00029289249761695177 0 0.014426131544255151 0.00026515172817276404 0 0.014298995195655407 0.00025315896524757199 0 0.014212937765607069 0.00011962454906746126 0 0.01429818151191104 0.00021897197730226726 0 0.014373715963062427 0.00021218467387896335 0 0.01429818151191104 0.00021897197730226726 0 0.014319633361221568 0.0002666770219410778 0 0.014298995195655407 0.00025315896524757199 0 0.01429818151191104 0.00021897197730226726 0 0.014319633361221568 0.0002666770219410778 0 0.014712412779859432 9.4541769853250717e-05 0 0.014538096430132168 0.00028254980677041517 0 0.014488126380040687 0.00022510716315589816 0 0.014536008259084391 0.0001821351833465219 0 0.014429333396061407 0.0002606792938631822 0 0.014342133961553238 0.00025753140238457995 0 0.014309764057116377 0.00033567311316025708 0 0.014319633361221568 0.0002666770219410778 0 0.014427733393662325 0.00029289249761695177 0 0.014538096430132168 0.00028254980677041517 0 0.014488126380040687 0.00022510716315589816 0 0.014464889450717385 8.1561846265677205e-05 0 0.014488126380040687 0.00022510716315589816 0 0.014257775348706238 0.00034002754395705791 0 0.014427733393662325 0.00029289249761695177 0 0.014488126380040687 0.00022510716315589816 0 0.014257775348706238 0.00034002754395705791 0 0.013839498409367816 7.4676683432530703e-05 0 0.01294008425031383 -3.0397113567392629e-05 0 0.0128374191750885 -3.6194149400406325e-05 0 0.013768263422930676 5.1882814354758563e-05 0 0.013584686080703462 9.2391151628596401e-05 0 0.01294008425031383 -3.0397113567392629e-05 0 0.012641618810017246 -5.7468166086016846e-05 0 0.0128374191750885 -3.6194149400406325e-05 0 0.013584686080703462 9.2391151628596401e-05 0 0.013621849802827867 0.00012668835924909325 0 0.01294008425031383 -3.0397113567392629e-05 0 0.012641618810017246 -5.7468166086016846e-05 0 0.012570173057972499 -5.7949606555447481e-05 0 0.014427733393662325 0.00029289249761695177 0 0.014257775348706238 0.00034002754395705791 0 0.014426131544255151 0.00026515172817276404 0 0.012641618810017246 -5.7468166086016846e-05 0 0.012570173057972499 -5.7949606555447481e-05 0 0.012448001397316845 -4.8962508140330569e-06 0 0.012567294613369057 4.2515131812006136e-05 0 0.012570173057972499 -5.7949606555447481e-05 0 0.012448001397316845 -4.8962508140330569e-06 0 0.012405448752468433 0.0001448880880030549 0 0.010230337702971784 0.00082313242389663531 0 0.012567294613369057 4.2515131812006136e-05 0 0.012448001397316845 -4.8962508140330569e-06 0 0.012292730847282371 0.00015438744698819713 0 0.012448001397316845 -4.8962508140330569e-06 0 0.012241595421946905 -1.6692370838983648e-05 0 0.012292730847282371 0.00015438744698819713 0 0.012641618810017246 -5.7468166086016846e-05 0 0.012241595421946905 -1.6692370838983648e-05 0 0.0128374191750885 -3.6194149400406325e-05 0 0.012641618810017246 -5.7468166086016846e-05 0 0.012448001397316845 -4.8962508140330569e-06 0 0.012241595421946905 -1.6692370838983648e-05 0 0.012241595421946905 -1.6692370838983648e-05 0 0.011817732377662126 -4.4839856416697084e-07 0 0.0128374191750885 -3.6194149400406325e-05 0 0.012241595421946905 -1.6692370838983648e-05 0 0.011817732377662126 -4.4839856416697084e-07 0 0.011558512376751809 0.0002044728018918794 0 0.01319782003029 8.2375809962122256e-08 0 0.013839498409367816 7.4676683432530703e-05 0 0.0128374191750885 -3.6194149400406325e-05 0 0.01319782003029 8.2375809962122256e-08 0 0.011817732377662126 -4.4839856416697084e-07 0 0.0128374191750885 -3.6194149400406325e-05 0 0.0099535083455031346 -5.6438588095069298e-08 0 0.0094026113045269193 -9.8455890720547319e-05 0 0.0099536425677600859 -1.2903658673500933e-08 0 0.0093338883409985855 8.6942363845113695e-08 0 0.0093145077438028488 3.1137283463910519e-06 0 0.0095530893524021429 -9.9872523532197041e-05 0 0.0099546838621464122 1.6517532263702656e-06 0 0.0095155803176686649 -0.0002023260511856313 0 0.0095530893524021429 -9.9872523532197041e-05 0 0.0093950643140807266 -0.00018545272084682021 0 0.0095155803176686649 -0.0002023260511856313 0 0.0095530893524021429 -9.9872523532197041e-05 0 0.0092673176062367316 -0.00011421745655564711 0 0.0094390603223109236 -3.6749088799412949e-05 0 0.0095530893524021429 -9.9872523532197041e-05 0 0.009337645171570548 -0.00017395584577540471 0 0.0093950643140807266 -0.00018545272084682021 0 0.0095530893524021429 -9.9872523532197041e-05 0 0.0092673176062367316 -0.00011421745655564711 0 0.009337645171570548 -0.00017395584577540471 0 0.0092673176062367316 -0.00011421745655564711 0 0.0094390603223109236 -3.6749088799412949e-05 0 0.0091798031545023695 1.401983754666024e-05 0 0.0094390603223109236 -3.6749088799412949e-05 0 0.0093165113620043063 0.00013245890238035947 0 0.0091798031545023695 1.401983754666024e-05 0 0.0095530893524021429 -9.9872523532197041e-05 0 0.0094390603223109236 -3.6749088799412949e-05 0 0.0098230570893866331 2.3419908862885251e-05 0 0.0098230570893866331 2.3419908862885251e-05 0 0.0094734107070863754 0.00035856894157539206 0 0.010421898788788584 0.00015810891876833033 0 0.0098230570893866331 2.3419908862885251e-05 0 0.0094734107070863754 0.00035856894157539206 0 0.0093165113620043063 0.00013245890238035947 0 0.0094390603223109236 -3.6749088799412949e-05 0 0.0098230570893866331 2.3419908862885251e-05 0 0.0093165113620043063 0.00013245890238035947 0 0.0098230570893866331 2.3419908862885251e-05 0 0.0099546838621464122 1.6517532263702656e-06 0 0.010421898788788584 0.00015810891876833033 0 0.0095530893524021429 -9.9872523532197041e-05 0 0.0098230570893866331 2.3419908862885251e-05 0 0.0099546838621464122 1.6517532263702656e-06 0 0.011817732377662126 -4.4839856416697084e-07 0 0.0099546838621464122 1.6517532263702656e-06 0 0.010421898788788584 0.00015810891876833033 0 0.011817732377662126 -4.4839856416697084e-07 0 0.010421898788788584 0.00015810891876833033 0 0.011558512376751809 0.0002044728018918794 0 0.0094734107070863754 0.00035856894157539206 0 0.010421898788788584 0.00015810891876833033 0 0.0094430413797072527 0.00089695689727411208 0 0.010452173063919648 0.00023796568051728659 0 0.010592382936614528 0.00045933588024888318 0 0.0094734107070863754 0.00035856894157539206 0 0.0090936996026906719 0.00070941666265445056 0 0.0090739765031218021 0.00039631172072894386 0 0.0094430413797072527 0.00089695689727411208 0 0.0090936996026906719 0.00070941666265445056 0 0.0088954845210846983 0.0011605541820752386 0 0.012241595421946905 -1.6692370838983648e-05 0 0.011558512376751809 0.0002044728018918794 0 0.012292730847282371 0.00015438744698819713 0 0.0094734107070863754 0.00035856894157539206 0 0.0094430413797072527 0.00089695689727411208 0 0.0090936996026906719 0.00070941666265445056 0 0.0090936996026906719 0.00070941666265445056 0 0.0087468463976458043 0.00070280077338942711 0 0.0090739765031218021 0.00039631172072894386 0 0.010592382936614528 0.00045933588024888318 0 0.010230337702971784 0.00082313242389663531 0 0.0084801620538655607 0.0014131275113233009 0 0.0088954845210846983 0.0011605541820752386 0 0.0086080782470936458 0.0010346567111083592 0 0.0088954845210846983 0.0011605541820752386 0 0.0086080782470936458 0.0010346567111083592 0 0.0087468463976458043 0.00070280077338942711 0 0.0086080782470936458 0.0010346567111083592 0 0.0087468463976458043 0.00070280077338942711 0 0.0085204737262405544 0.00083068893558125689 0 0.0090936996026906719 0.00070941666265445056 0 0.0088954845210846983 0.0011605541820752386 0 0.0087468463976458043 0.00070280077338942711 0 0.0087468463976458043 0.00070280077338942711 0 0.0084581629524013713 0.00064170794709568794 0 0.0085204737262405544 0.00083068893558125689 0 0.0087468463976458043 0.00070280077338942711 0 0.0086040007668656236 0.00049597434415476962 0 0.0084581629524013713 0.00064170794709568794 0 0.0086040007668656236 0.00049597434415476962 0 0.0086047335969265844 0.00031393379402777877 0 0.0088042063471520937 0.00037547142277509271 0 0.0087468463976458043 0.00070280077338942711 0 0.0086040007668656236 0.00049597434415476962 0 0.0088042063471520937 0.00037547142277509271 0 0.0086047335969265844 0.00031393379402777877 0 0.0088042063471520937 0.00037547142277509271 0 0.0087594519815834878 0.00019470210424098853 0 0.0088042063471520937 0.00037547142277509271 0 0.0089938244836273648 0.00014655656875968182 0 0.0087594519815834878 0.00019470210424098853 0 0.0087468463976458043 0.00070280077338942711 0 0.0088042063471520937 0.00037547142277509271 0 0.0090739765031218021 0.00039631172072894386 0 0.0094734107070863754 0.00035856894157539206 0 0.0090739765031218021 0.00039631172072894386 0 0.0093165113620043063 0.00013245890238035947 0 0.0090739765031218021 0.00039631172072894386 0 0.0093165113620043063 0.00013245890238035947 0 0.0089938244836273648 0.00014655656875968182 0 0.0088042063471520937 0.00037547142277509271 0 0.0090739765031218021 0.00039631172072894386 0 0.0089938244836273648 0.00014655656875968182 0 0.0089938244836273648 0.00014655656875968182 0 0.0090316423506896573 -5.0080534830127229e-05 0 0.0088245634643662491 3.8808547253869457e-05 0 0.0089938244836273648 0.00014655656875968182 0 0.0091798031545023695 1.401983754666024e-05 0 0.0090316423506896573 -5.0080534830127229e-05 0 0.0093165113620043063 0.00013245890238035947 0 0.0089938244836273648 0.00014655656875968182 0 0.0091798031545023695 1.401983754666024e-05 0 0.0092673176062367316 -0.00011421745655564711 0 0.0090316423506896573 -5.0080534830127229e-05 0 0.0090856058512639292 -0.00017651257524502458 0 0.0092673176062367316 -0.00011421745655564711 0 0.0091798031545023695 1.401983754666024e-05 0 0.0090316423506896573 -5.0080534830127229e-05 0 0.0090316423506896573 -5.0080534830127229e-05 0 0.0088245634643662491 3.8808547253869457e-05 0 0.0089056196775731452 -9.6754209418157839e-05 0 0.0088245634643662491 3.8808547253869457e-05 0 0.0086855784414021763 -7.0200419811280505e-05 0 0.0089056196775731452 -9.6754209418157839e-05 0 0.0085832653271192827 0.00012293673168003744 0 0.0084135225573885534 -2.1634656437327242e-05 0 0.0086855784414021763 -7.0200419811280505e-05 0 0.0088245634643662491 3.8808547253869457e-05 0 0.0085832653271192827 0.00012293673168003744 0 0.0086855784414021763 -7.0200419811280505e-05 0 0.0088245634643662491 3.8808547253869457e-05 0 0.0085832653271192827 0.00012293673168003744 0 0.0087594519815834878 0.00019470210424098853 0 0.0086047335969265844 0.00031393379402777877 0 0.0085832653271192827 0.00012293673168003744 0 0.0087594519815834878 0.00019470210424098853 0 0.0089938244836273648 0.00014655656875968182 0 0.0088245634643662491 3.8808547253869457e-05 0 0.0087594519815834878 0.00019470210424098853 0 0.0082667109094323871 0.00023907607397868316 0 0.0083907823257814759 0.000146216728232368 0 0.0082279618020349079 0.00010100602213482484 0 0.0085832653271192827 0.00012293673168003744 0 0.0083907823257814759 0.000146216728232368 0 0.0084335310773325928 0.00027446037836151673 0 0.0082667109094323871 0.00023907607397868316 0 0.0083907823257814759 0.000146216728232368 0 0.0084335310773325928 0.00027446037836151673 0 0.0086047335969265844 0.00031393379402777877 0 0.0085832653271192827 0.00012293673168003744 0 0.0084335310773325928 0.00027446037836151673 0 0.0085832653271192827 0.00012293673168003744 0 0.0083907823257814759 0.000146216728232368 0 0.0084135225573885534 -2.1634656437327242e-05 0 0.0083907823257814759 0.000146216728232368 0 0.0082279618020349079 0.00010100602213482484 0 0.0084135225573885534 -2.1634656437327242e-05 0 0.0082279618020349079 0.00010100602213482484 0 0.0080921059021927758 -2.7854432732692742e-05 0 0.0084135225573885534 -2.1634656437327242e-05 0 0.0082279618020349079 0.00010100602213482484 0 0.0080102276469016208 0.00017044015168101378 0 0.0080921059021927758 -2.7854432732692742e-05 0 0.0080102276469016208 0.00017044015168101378 0 0.0078366247456112485 -1.1402357177876507e-05 0 0.0080921059021927758 -2.7854432732692742e-05 0 0.0078318721218272099 0.00012291525996310741 0 0.0080102276469016208 0.00017044015168101378 0 0.0078366247456112485 -1.1402357177876507e-05 0 0.0078318721218272099 0.00012291525996310741 0 0.0080102276469016208 0.00017044015168101378 0 0.007812003254066037 0.00025437387815524265 0 0.0080102276469016208 0.00017044015168101378 0 0.007998683462387076 0.00035956267306952352 0 0.007812003254066037 0.00025437387815524265 0 0.0082667109094323871 0.00023907607397868316 0 0.0082279618020349079 0.00010100602213482484 0 0.0080102276469016208 0.00017044015168101378 0 0.0082667109094323871 0.00023907607397868316 0 0.0080102276469016208 0.00017044015168101378 0 0.0081335344455168278 0.00033593454674260456 0 0.0081335344455168278 0.00033593454674260456 0 0.0081507429104932024 0.00054219620622935846 0 0.0082922688531113457 0.00039184336097778874 0 0.0081335344455168278 0.00033593454674260456 0 0.007998683462387076 0.00035956267306952352 0 0.0081507429104932024 0.00054219620622935846 0 0.0080102276469016208 0.00017044015168101378 0 0.0081335344455168278 0.00033593454674260456 0 0.007998683462387076 0.00035956267306952352 0 0.007998683462387076 0.00035956267306952352 0 0.0079706746421479135 0.00052153702495119734 0 0.007812003254066037 0.00025437387815524265 0 0.0080069449780188779 0.00042852419602920855 0 0.0078635188029279202 0.00031235503944193025 0 0.007998683462387076 0.00035956267306952352 0 0.0079706746421479135 0.00052153702495119734 0 0.0081507429104932024 0.00054219620622935846 0 0.0081507429104932024 0.00054219620622935846 0 0.0083176525821529526 0.00053760249724350124 0 0.0082966283856409709 0.00065998690869321008 0 0.0083176525821529526 0.00053760249724350124 0 0.0082922688531113457 0.00039184336097778874 0 0.0084487667459034795 0.00044126489494330108 0 0.0081507429104932024 0.00054219620622935846 0 0.0083176525821529526 0.00053760249724350124 0 0.0082922688531113457 0.00039184336097778874 0 0.0082667109094323871 0.00023907607397868316 0 0.0082922688531113457 0.00039184336097778874 0 0.0084335310773325928 0.00027446037836151673 0 0.0082667109094323871 0.00023907607397868316 0 0.0081335344455168278 0.00033593454674260456 0 0.0082922688531113457 0.00039184336097778874 0 0.0086047335969265844 0.00031393379402777877 0 0.0084335310773325928 0.00027446037836151673 0 0.0084487667459034795 0.00044126489494330108 0 0.0082922688531113457 0.00039184336097778874 0 0.0084335310773325928 0.00027446037836151673 0 0.0084487667459034795 0.00044126489494330108 0 0.0086040007668656236 0.00049597434415476962 0 0.0086047335969265844 0.00031393379402777877 0 0.0084487667459034795 0.00044126489494330108 0 0.0086040007668656236 0.00049597434415476962 0 0.0084487667459034795 0.00044126489494330108 0 0.0084581629524013713 0.00064170794709568794 0 0.0083176525821529526 0.00053760249724350124 0 0.0084487667459034795 0.00044126489494330108 0 0.0084581629524013713 0.00064170794709568794 0 0.0081507429104932024 0.00054219620622935846 0 0.0082966283856409709 0.00065998690869321008 0 0.0082388250627089907 0.000732209006683954 0 0.0083176525821529526 0.00053760249724350124 0 0.0084581629524013713 0.00064170794709568794 0 0.0082966283856409709 0.00065998690869321008 0 0.0084581629524013713 0.00064170794709568794 0 0.0082966283856409709 0.00065998690869321008 0 0.0083603354860087211 0.00078501871516843398 0 0.0082966283856409709 0.00065998690869321008 0 0.0082388250627089907 0.000732209006683954 0 0.0083603354860087211 0.00078501871516843398 0 0.0082388250627089907 0.000732209006683954 0 0.0083603354860087211 0.00078501871516843398 0 0.0082492216988557295 0.00086498634968659152 0 0.0083603354860087211 0.00078501871516843398 0 0.0082492216988557295 0.00086498634968659152 0 0.0084175338199699579 0.00093829052925925875 0 0.0084581629524013713 0.00064170794709568794 0 0.0083603354860087211 0.00078501871516843398 0 0.0085204737262405544 0.00083068893558125689 0 0.0083603354860087211 0.00078501871516843398 0 0.0085204737262405544 0.00083068893558125689 0 0.0084175338199699579 0.00093829052925925875 0 0.0084801620538655607 0.0014131275113233009 0 0.0086080782470936458 0.0010346567111083592 0 0.0083137756465365906 0.001115370092351317 0 0.0086080782470936458 0.0010346567111083592 0 0.0085204737262405544 0.00083068893558125689 0 0.0084175338199699579 0.00093829052925925875 0 0.0086080782470936458 0.0010346567111083592 0 0.0084175338199699579 0.00093829052925925875 0 0.0083137756465365906 0.001115370092351317 0 0.0082492216988557295 0.00086498634968659152 0 0.0084175338199699579 0.00093829052925925875 0 0.0083137756465365906 0.001115370092351317 0 0.014237808220835623 -0.00033066378550305228 0 0.014262347672730387 -0.0004771936244526196 0 0.014082908658119677 -0.00039912536376033404 0 0.014433966943952853 -0.00039780087974063133 0 0.014237808220835623 -0.00033066378550305228 0 0.014262347672730387 -0.0004771936244526196 0 0.014292862933239848 -0.00017027280503436774 0 0.014433966943952853 -0.00039780087974063133 0 0.014237808220835623 -0.00033066378550305228 0 0.014433966943952853 -0.00039780087974063133 0 0.014262347672730387 -0.0004771936244526196 0 0.014307667145874841 -0.00064739216730119416 0 0.011363333893765608 0.00038127864795178975 0 0.0098013306492472155 0.00068084367146084709 0 0.0082492216988557295 0.00086498634968659152 0 0.0083137756465365906 0.001115370092351317 0 0.0081526352348060844 0.00081434345557916731 0 0.014262347672730387 -0.0004771936244526196 0 0.014093230931074129 -0.00057273501987033541 0 0.014082908658119677 -0.00039912536376033404 0 0.014262347672730387 -0.0004771936244526196 0 0.014178565165769982 -0.00062098530788809079 0 0.014093230931074129 -0.00057273501987033541 0 0.014262347672730387 -0.0004771936244526196 0 0.014178565165769982 -0.00062098530788809079 0 0.014307667145874841 -0.00064739216730119416 0 0.014178565165769982 -0.00062098530788809079 0 0.014307667145874841 -0.00064739216730119416 0 0.014051518772481512 -0.00078544649967703713 0 0.0089720921189959703 0.00047660912660396333 0 0.0098013306492472155 0.00068084367146084709 0 0.0082388250627089907 0.000732209006683954 0 0.0082492216988557295 0.00086498634968659152 0 0.0081380852095554249 0.00081393141965499299 0 0.0079706746421479135 0.00052153702495119734 0 0.0081507429104932024 0.00054219620622935846 0 0.0081380852095554249 0.00081393141965499299 0 0.0081507429104932024 0.00054219620622935846 0 0.0082388250627089907 0.000732209006683954 0 0.0081380852095554249 0.00081393141965499299 0 0.0080069449780188779 0.00042852419602920855 0 0.0098013306492472155 0.00068084367146084709 0 0.0098013306492472155 0.00068084367146084709 0 0.011035768505989507 9.3934104237409539e-06 0 0.0080191169644950738 0.00054418228888892075 0 0.0082099729929570649 0.00089197274151260955 0 0.0078292433508709292 0.00069627363932248511 0 0.014051518772481512 -0.00078544649967703713 0 0.013892492212257579 -0.00071509619054322727 0 0.013995730915762892 -0.00065848779881672232 0 0.014051518772481512 -0.00078544649967703713 0 0.013892492212257579 -0.00071509619054322727 0 0.013793109280081092 -0.00091432220923679051 0 0.013892492212257579 -0.00071509619054322727 0 0.013995730915762892 -0.00065848779881672232 0 0.013945136943258241 -0.00055554926949375079 0 0.013892492212257579 -0.00071509619054322727 0 0.013945136943258241 -0.00055554926949375079 0 0.013736744254392814 -0.000624721132002797 0 0.014178565165769982 -0.00062098530788809079 0 0.014051518772481512 -0.00078544649967703713 0 0.014093230931074129 -0.00057273501987033541 0 0.013995730915762892 -0.00065848779881672232 0 0.014093230931074129 -0.00057273501987033541 0 0.013945136943258241 -0.00055554926949375079 0 0.014051518772481512 -0.00078544649967703713 0 0.013995730915762892 -0.00065848779881672232 0 0.014093230931074129 -0.00057273501987033541 0 0.014093230931074129 -0.00057273501987033541 0 0.013945136943258241 -0.00055554926949375079 0 0.014082908658119677 -0.00039912536376033404 0 0.013945136943258241 -0.00055554926949375079 0 0.013901134593775668 -0.00037054761396674424 0 0.013736744254392814 -0.000624721132002797 0 0.013945136943258241 -0.00055554926949375079 0 0.013901134593775668 -0.00037054761396674424 0 0.014082908658119677 -0.00039912536376033404 0 0.01411222643515727 -0.0002098343837163802 0 0.014237808220835623 -0.00033066378550305228 0 0.014082908658119677 -0.00039912536376033404 0 0.01411222643515727 -0.0002098343837163802 0 0.013901134593775668 -0.00037054761396674424 0 0.014082908658119677 -0.00039912536376033404 0 0.013641191821343435 -0.00031852755714785019 0 0.013793315545140804 -0.00084556963451487934 0 0.013901134593775668 -0.00037054761396674424 0 0.013652354001464568 -0.00033798189156309608 0 0.013736744254392814 -0.000624721132002797 0 0.013652354001464568 -0.00033798189156309608 0 0.013717307681847346 -0.00077319774261691565 0 0.013361192669350106 -0.00073392286786762111 0 0.013717307681847346 -0.00077319774261691565 0 0.013541342251270584 -0.0010107371054117579 0 0.013786159085104513 -0.0011829556707257625 0 0.013892492212257579 -0.00071509619054322727 0 0.013736744254392814 -0.000624721132002797 0 0.013793109280081092 -0.00091432220923679051 0 0.013717307681847346 -0.00077319774261691565 0 0.013541342251270584 -0.0010107371054117579 0 0.013361192669350106 -0.00073392286786762111 0 0.013793315545140804 -0.00084556963451487934 0 0.011345028883990563 -0.0007198744276731519 0 0.013541342251270584 -0.0010107371054117579 0 0.013618914762413345 -0.0012685571195976239 0 0.013786159085104513 -0.0011829556707257625 0 0.0084825319058377934 2.1206523609536453e-05 0 0.011345028883990563 -0.0007198744276731519 0 0.010381215385317511 -0.00076953457792038548 0 0.0097585305170019062 -0.00047023449103559748 0 0.0099015382725745234 -0.0010147901237638108 0 0.010173503045854996 -0.0010602702194051066 0 0.0084825319058377934 2.1206523609536453e-05 0 0.0075960796129897487 -0.00099736965494193869 0 0.0074454607988461196 -0.00092460237579990168 0 0.0075814327424943706 -0.00082809746240162434 0 0.010173503045854996 -0.0010602702194051066 0 0.011345028883990563 -0.0007198744276731519 0 0.011035768505989507 9.3934104237409539e-06 0 0.011345028883990563 -0.0007198744276731519 0 0.0078292433508709292 0.00069627363932248511 0 0.0075168867605490139 0.00051296648496558246 0 0.0076977359350019594 0.00045046282194174535 0 0.0080191169644950738 0.00054418228888892075 0 0.0078292433508709292 0.00069627363932248511 0 0.0078350318964945792 0.00052383914342674228 0 0.0078292433508709292 0.00069627363932248511 0 0.0076977359350019594 0.00045046282194174535 0 0.0078350318964945792 0.00052383914342674228 0 0.0080191169644950738 0.00054418228888892075 0 0.0078350318964945792 0.00052383914342674228 0 0.0078044528127616964 0.00040809660987938532 0 0.0076977359350019594 0.00045046282194174535 0 0.0078350318964945792 0.00052383914342674228 0 0.0078044528127616964 0.00040809660987938532 0 0.0076977359350019594 0.00045046282194174535 0 0.0078044528127616964 0.00040809660987938532 0 0.0076714423705757148 0.00028350876497997593 0 0.0080191169644950738 0.00054418228888892075 0 0.0078044528127616964 0.00040809660987938532 0 0.007812003254066037 0.00025437387815524265 0 0.0078044528127616964 0.00040809660987938532 0 0.0076714423705757148 0.00028350876497997593 0 0.007812003254066037 0.00025437387815524265 0 0.0075544049894805017 0.00034598815596106333 0 0.0075168867605490139 0.00051296648496558246 0 0.0076977359350019594 0.00045046282194174535 0 0.0075544049894805017 0.00034598815596106333 0 0.0076977359350019594 0.00045046282194174535 0 0.0076714423705757148 0.00028350876497997593 0 0.0084825319058377934 2.1206523609536453e-05 0 0.0077626237033468761 0.00031680236185555288 0 0.0075595495963752656 0.00033885236022445812 0 0.0076942074975029761 0.00015257207147269854 0 0.0075973838236674867 5.429830247669324e-06 0 0.0084825319058377934 2.1206523609536453e-05 0 0.0074814629932903531 -0.00031932108414495474 0 0.0075595495963752656 0.00033885236022445812 0 0.0076714423705757148 0.00028350876497997593 0 0.0076942074975029761 0.00015257207147269854 0 0.0076714423705757148 0.00028350876497997593 0 0.007812003254066037 0.00025437387815524265 0 0.0076942074975029761 0.00015257207147269854 0 0.0078318721218272099 0.00012291525996310741 0 0.007812003254066037 0.00025437387815524265 0 0.0076942074975029761 0.00015257207147269854 0 0.0078318721218272099 0.00012291525996310741 0 0.0076942074975029761 0.00015257207147269854 0 0.0075973838236674867 5.429830247669324e-06 0 0.0078318721218272099 0.00012291525996310741 0 0.0075973838236674867 5.429830247669324e-06 0 0.0078366247456112485 -1.1402357177876507e-05 0 0.0074454607988461196 -0.00092460237579990168 0 0.007396159351705971 -0.00057673162073841491 0 0.0075814327424943706 -0.00082809746240162434 0 0.007396159351705971 -0.00057673162073841491 0 0.0076291531275641073 -0.00066891296396919962 0 0.0075814327424943706 -0.00082809746240162434 0 0.007396159351705971 -0.00057673162073841491 0 0.0076291531275641073 -0.00066891296396919962 0 0.0075121506702152544 -0.00042199417855874036 0 0.0076291531275641073 -0.00066891296396919962 0 0.0075121506702152544 -0.00042199417855874036 0 0.007678668727994783 -0.00041083834254496886 0 0.0075973838236674867 5.429830247669324e-06 0 0.0077090622122292455 -0.00012417635099780202 0 0.0075452073267029086 -0.00030448043028632999 0 0.007396159351705971 -0.00057673162073841491 0 0.0075121506702152544 -0.00042199417855874036 0 0.0075452073267029086 -0.00030448043028632999 0 0.0074814629932903531 -0.00031932108414495474 0 0.0075387023989839973 -0.00032380275890383635 0 0.0075973838236674867 5.429830247669324e-06 0 0.0077090622122292455 -0.00012417635099780202 0 0.0078366247456112485 -1.1402357177876507e-05 0 0.0077090622122292455 -0.00012417635099780202 0 0.0075452073267029086 -0.00030448043028632999 0 0.0078693328164041107 -0.00019435627422874306 0 0.0075452073267029086 -0.00030448043028632999 0 0.0075775571595446886 -0.0003611663544892903 0 0.0078158580575785272 -0.0004143196126870013 0 0.0075452073267029086 -0.00030448043028632999 0 0.0075775571595446886 -0.0003611663544892903 0 0.0074481285909408067 -0.00024139557223978549 0 0.0075121506702152544 -0.00042199417855874036 0 0.0075452073267029086 -0.00030448043028632999 0 0.0074481285909408067 -0.00024139557223978549 0 0.0075121506702152544 -0.00042199417855874036 0 0.0074481285909408067 -0.00024139557223978549 0 0.007678668727994783 -0.00041083834254496886 0 0.0074481285909408067 -0.00024139557223978549 0 0.0074744532929244467 -0.00044002818443416024 0 0.0075436432953394578 -0.00040754358588173572 0 0.0074481285909408067 -0.00024139557223978549 0 0.0074390991456656222 0.00052959279404281984 0 0.0076836179325389855 0.00013267117543313127 0 0.0074420224993557143 -0.00020537198499263177 0 0.0074719711678712377 3.9805651438282599e-05 0 0.0074744532929244467 -0.00044002818443416024 0 0.0075436432953394578 -0.00040754358588173572 0 0.0075337765320835385 -0.00046871649876591116 0 0.0075436432953394578 -0.00040754358588173572 0 0.0076231333254796292 -0.00042397665484015726 0 0.0075337765320835385 -0.00046871649876591116 0 0.0075775571595446886 -0.0003611663544892903 0 0.0074481285909408067 -0.00024139557223978549 0 0.0075436432953394578 -0.00040754358588173572 0 0.0075775571595446886 -0.0003611663544892903 0 0.0075436432953394578 -0.00040754358588173572 0 0.0076231333254796292 -0.00042397665484015726 0 0.0075775571595446886 -0.0003611663544892903 0 0.0076231333254796292 -0.00042397665484015726 0 0.0078158580575785272 -0.0004143196126870013 0 0.0076231333254796292 -0.00042397665484015726 0 0.0076977077994607032 -0.00041686398452926617 0 0.0078158580575785272 -0.0004143196126870013 0 0.0076231333254796292 -0.00042397665484015726 0 0.0076280141254309068 -0.00045113763831733318 0 0.0076977077994607032 -0.00041686398452926617 0 0.0076231333254796292 -0.00042397665484015726 0 0.0076280141254309068 -0.00045113763831733318 0 0.0075337765320835385 -0.00046871649876591116 0 0.0076280141254309068 -0.00045113763831733318 0 0.0076977077994607032 -0.00041686398452926617 0 0.0076740778219403357 -0.00043173829276342313 0 0.0076280141254309068 -0.00045113763831733318 0 0.0076740778219403357 -0.00043173829276342313 0 0.0076434741638412114 -0.00047613145589021189 0 0.0076977077994607032 -0.00041686398452926617 0 0.0076808449589806033 -0.00043041539621829777 0 0.0076740778219403357 -0.00043173829276342313 0 0.0078158580575785272 -0.0004143196126870013 0 0.0082410702470626842 -0.00021519462965121467 0 0.0087165759716299543 -0.00054766225545225438 0 0.0078247784057030711 -0.00040926501753013866 0 0.0081986378247383487 -0.00050612279721227809 0 0.0076977077994607032 -0.00041686398452926617 0 0.0078158580575785272 -0.0004143196126870013 0 0.0076808449589806033 -0.00043041539621829777 0 0.0075452073267029086 -0.00030448043028632999 0 0.0078158580575785272 -0.0004143196126870013 0 0.0078693328164041107 -0.00019435627422874306 0 0.0078693328164041107 -0.00019435627422874306 0 0.0080921059021927758 -2.7854432732692742e-05 0 0.0082410702470626842 -0.00021519462965121467 0 0.0078158580575785272 -0.0004143196126870013 0 0.0078693328164041107 -0.00019435627422874306 0 0.0082410702470626842 -0.00021519462965121467 0 0.0077090622122292455 -0.00012417635099780202 0 0.0078693328164041107 -0.00019435627422874306 0 0.0078366247456112485 -1.1402357177876507e-05 0 0.0078693328164041107 -0.00019435627422874306 0 0.0078366247456112485 -1.1402357177876507e-05 0 0.0080921059021927758 -2.7854432732692742e-05 0 0.0080921059021927758 -2.7854432732692742e-05 0 0.0084135225573885534 -2.1634656437327242e-05 0 0.0082410702470626842 -0.00021519462965121467 0 0.0084135225573885534 -2.1634656437327242e-05 0 0.0082410702470626842 -0.00021519462965121467 0 0.0086667901311094642 -0.00023702944704785591 0 0.0086667901311094642 -0.00023702944704785591 0 0.0089115760442038568 -0.00020744172355523997 0 0.0089423136159504143 -0.00035224392432969869 0 0.0086667901311094642 -0.00023702944704785591 0 0.0086855784414021763 -7.0200419811280505e-05 0 0.0089115760442038568 -0.00020744172355523997 0 0.0084135225573885534 -2.1634656437327242e-05 0 0.0086667901311094642 -0.00023702944704785591 0 0.0086855784414021763 -7.0200419811280505e-05 0 0.0086855784414021763 -7.0200419811280505e-05 0 0.0089056196775731452 -9.6754209418157839e-05 0 0.0089115760442038568 -0.00020744172355523997 0 0.0090316423506896573 -5.0080534830127229e-05 0 0.0089056196775731452 -9.6754209418157839e-05 0 0.0090856058512639292 -0.00017651257524502458 0 0.0089056196775731452 -9.6754209418157839e-05 0 0.0090856058512639292 -0.00017651257524502458 0 0.0089115760442038568 -0.00020744172355523997 0 0.0090856058512639292 -0.00017651257524502458 0 0.009115528206317525 -0.00026502833359642744 0 0.0092045876815942049 -0.00021425682928285546 0 0.0090856058512639292 -0.00017651257524502458 0 0.0089115760442038568 -0.00020744172355523997 0 0.009115528206317525 -0.00026502833359642744 0 0.0089115760442038568 -0.00020744172355523997 0 0.0089423136159504143 -0.00035224392432969869 0 0.009115528206317525 -0.00026502833359642744 0 0.0089423136159504143 -0.00035224392432969869 0 0.0087165759716299543 -0.00054766225545225438 0 0.0092172463151532335 -0.00032156611284279242 0 0.0089423136159504143 -0.00035224392432969869 0 0.0091794373969450605 -0.00026134142691730744 0 0.0092172463151532335 -0.00032156611284279242 0 0.0089423136159504143 -0.00035224392432969869 0 0.009115528206317525 -0.00026502833359642744 0 0.0091794373969450605 -0.00026134142691730744 0 0.0086667901311094642 -0.00023702944704785591 0 0.0089423136159504143 -0.00035224392432969869 0 0.0087165759716299543 -0.00054766225545225438 0 0.0082410702470626842 -0.00021519462965121467 0 0.0086667901311094642 -0.00023702944704785591 0 0.0087165759716299543 -0.00054766225545225438 0 0.0076808449589806033 -0.00043041539621829777 0 0.0076740778219403357 -0.00043173829276342313 0 0.0076830613042729338 -0.00043176933352180553 0 0.0076751723171961011 -0.00044701545024169098 0 0.0076740778219403357 -0.00043173829276342313 0 0.0076434741638412114 -0.00047613145589021189 0 0.0076751723171961011 -0.00044701545024169098 0 0.0076740778219403357 -0.00043173829276342313 0 0.0076830613042729338 -0.00043176933352180553 0 0.0076751723171961011 -0.00044701545024169098 0 0.0076830613042729338 -0.00043176933352180553 0 0.007706941934822094 -0.00045020349606408465 0 0.0081986378247383487 -0.00050612279721227809 0 0.0084012653102697437 -0.00014514936079934872 0 0.0076808449589806033 -0.00043041539621829777 0 0.0076830613042729338 -0.00043176933352180553 0 0.0076982610042701455 -0.00042575110178641066 0 0.0076830613042729338 -0.00043176933352180553 0 0.0076982610042701455 -0.00042575110178641066 0 0.007706941934822094 -0.00045020349606408465 0 0.0091794373969450605 -0.00026134142691730744 0 0.0091867722955099526 -3.0756301277343305e-06 0 0.0089480971497932077 -0.0001459029007501387 0 0.0086919731861085821 -0.00031204137754517811 0 0.0084012653102697437 -0.00014514936079934872 0 0.0091867722955099526 -3.0756301277343305e-06 0 0.0080955675077789713 6.5942934370624974e-07 0 0.0089480971497932077 -0.0001459029007501387 0 0.0078992613224036484 4.7328822778662826e-05 0 0.0079637786398057183 -4.5761312322339843e-05 0 0.0079866441311647034 -2.2409281531714288e-05 0 0.0084012653102697437 -0.00014514936079934872 0 0.0079135102622776496 -0.00033125911597831336 0 0.0079416976077132453 7.0692226815709041e-08 0 0.0074174891995828773 -7.1474159249575998e-08 0 0.007293454666190493 -4.6611701606081448e-06 0 0.0079414912674171025 -1.1805158567360673e-07 0 0.0076741184024428774 -6.4096657985519441e-05 0 0.0079637786398057183 -4.5761312322339843e-05 0 0.0079866441311647034 -2.2409281531714288e-05 0 0.0079698085866688143 -3.812673061666845e-05 0 0.0079866441311647034 -2.2409281531714288e-05 0 0.0079429120237136351 3.0862649213343499e-08 0 0.0079698085866688143 -3.812673061666845e-05 0 0.0079866441311647034 -2.2409281531714288e-05 0 0.0079429120237136351 3.0862649213343499e-08 0 0.0080931137089225152 -3.9485465168107914e-08 0 0.0084012653102697437 -0.00014514936079934872 0 0.0080947086599775162 9.326798700883109e-08 0 0.0080955675077789713 6.5942934370624974e-07 0 0.0088015684357311292 -0.0001174950839347421 0 0.0089480971497932077 -0.0001459029007501387 0 0.0078992613224036484 4.7328822778662826e-05 0 0.0079866441311647034 -2.2409281531714288e-05 0 0.0080931137089225152 -3.9485465168107914e-08 0 0.0080955675077789713 6.5942934370624974e-07 0 0.0087140955503147675 -5.8279232059330448e-07 0 0.0088015684357311292 -0.0001174950839347421 0 0.0088559120640948254 -9.8067789638326143e-05 0 0.0087140955503147675 -5.8279232059330448e-07 0 0.0088015684357311292 -0.0001174950839347421 0 0.0088559120640948254 -9.8067789638326143e-05 0 0.0090461859397153767 -0.00018921673840356564 0 0.0092077377517531794 -0.00020823363716239893 0 0.0088559120640948254 -9.8067789638326143e-05 0 0.0090461859397153767 -0.00018921673840356564 0 0.0088015684357311292 -0.0001174950839347421 0 0.0088015684357311292 -0.0001174950839347421 0 0.0089480971497932077 -0.0001459029007501387 0 0.0090751388065406571 -0.0002206514249487364 0 0.0089480971497932077 -0.0001459029007501387 0 0.009121697875794187 -0.00025293793462795403 0 0.0090751388065406571 -0.0002206514249487364 0 0.0091794373969450605 -0.00026134142691730744 0 0.0089480971497932077 -0.0001459029007501387 0 0.009121697875794187 -0.00025293793462795403 0 0.009115528206317525 -0.00026502833359642744 0 0.0091794373969450605 -0.00026134142691730744 0 0.009121697875794187 -0.00025293793462795403 0 0.009121697875794187 -0.00025293793462795403 0 0.0091469963270188227 -0.00024453030701879593 0 0.0090751388065406571 -0.0002206514249487364 0 0.009115528206317525 -0.00026502833359642744 0 0.009121697875794187 -0.00025293793462795403 0 0.0091469963270188227 -0.00024453030701879593 0 0.0090461859397153767 -0.00018921673840356564 0 0.0090751388065406571 -0.0002206514249487364 0 0.0091747167466451739 -0.00022954737779187786 0 0.0091469963270188227 -0.00024453030701879593 0 0.0090751388065406571 -0.0002206514249487364 0 0.0091747167466451739 -0.00022954737779187786 0 0.0090461859397153767 -0.00018921673840356564 0 0.0088015684357311292 -0.0001174950839347421 0 0.0090751388065406571 -0.0002206514249487364 0 0.0090461859397153767 -0.00018921673840356564 0 0.0091747167466451739 -0.00022954737779187786 0 0.0092077377517531794 -0.00020823363716239893 0 0.0091747167466451739 -0.00022954737779187786 0 0.0092045876815942049 -0.00021425682928285546 0 0.0092628792476102291 -0.00020781987161463299 0 0.0091747167466451739 -0.00022954737779187786 0 0.0092628792476102291 -0.00020781987161463299 0 0.0092077377517531794 -0.00020823363716239893 0 0.0091469963270188227 -0.00024453030701879593 0 0.0091747167466451739 -0.00022954737779187786 0 0.0092045876815942049 -0.00021425682928285546 0 0.009115528206317525 -0.00026502833359642744 0 0.0091469963270188227 -0.00024453030701879593 0 0.0092045876815942049 -0.00021425682928285546 0 0.0092673176062367316 -0.00011421745655564711 0 0.0090856058512639292 -0.00017651257524502458 0 0.0092045876815942049 -0.00021425682928285546 0 0.0092673176062367316 -0.00011421745655564711 0 0.0092045876815942049 -0.00021425682928285546 0 0.009337645171570548 -0.00017395584577540471 0 0.0092045876815942049 -0.00021425682928285546 0 0.0092628792476102291 -0.00020781987161463299 0 0.009337645171570548 -0.00017395584577540471 0 0.0092628792476102291 -0.00020781987161463299 0 0.009337645171570548 -0.00017395584577540471 0 0.0093950643140807266 -0.00018545272084682021 0 0.0092628792476102291 -0.00020781987161463299 0 0.0093950643140807266 -0.00018545272084682021 0 0.0092077377517531794 -0.00020823363716239893 0 0.0088559120640948254 -9.8067789638326143e-05 0 0.0093338883409985855 8.6942363845113695e-08 0 0.0093145077438028488 3.1137283463910519e-06 0 0.0090067210405574537 -9.6650146780860637e-05 0 0.0094026113045269193 -9.8455890720547319e-05 0 0.0088559120640948254 -9.8067789638326143e-05 0 0.0095155803176686649 -0.0002023260511856313 0 0.0092569062842631656 -0.00019036740348893637 0 0.0088559120640948254 -9.8067789638326143e-05 0 0.0087140955503147675 -5.8279232059330448e-07 0 0.0093338883409985855 8.6942363845113695e-08 0 0.0093950643140807266 -0.00018545272084682021 0 0.0095155803176686649 -0.0002023260511856313 0 0.0092569062842631656 -0.00019036740348893637 0 0.0093950643140807266 -0.00018545272084682021 0 0.0092569062842631656 -0.00019036740348893637 0 0.0092077377517531794 -0.00020823363716239893 0 0.0088559120640948254 -9.8067789638326143e-05 0 0.0092569062842631656 -0.00019036740348893637 0 0.0092077377517531794 -0.00020823363716239893 0 0.010611467171170733 -0.0010860210575001812 0 0.010661234793026589 -0.0013436759556677198 0 0.010468944580658997 -0.0014420086379586645 0 0.010611467171170733 -0.0010860210575001812 0 0.010882916945240479 -0.0011728481034665485 0 0.010661234793026589 -0.0013436759556677198 0 0.010349072776022969 -0.0010203888328296584 0 0.010673691697244563 -0.0011060321265536637 0 0.010611467171170733 -0.0010860210575001812 0 0.010237613437168058 -0.0012260964849890551 0 0.010468944580658997 -0.0014420086379586645 0 0.010611467171170733 -0.0010860210575001812 0 0.010237613437168058 -0.0012260964849890551 0 0.0099628571638741524 -0.0009252830006809252 0 0.010349072776022969 -0.0010203888328296584 0 0.0099956400008021588 -0.00092915481356332908 0 0.010105209308489025 -0.00095540100825062114 0 0.0099628571638741524 -0.0009252830006809252 0 0.0099308651294249973 -0.00075576472971505143 0 0.010105209308489025 -0.00095540100825062114 0 0.010315907787665933 -0.00082785965117131816 0 0.010175005101037186 -0.00067542874437050203 0 0.010105209308489025 -0.00095540100825062114 0 0.010175005101037186 -0.00067542874437050203 0 0.0099308651294249973 -0.00075576472971505143 0 0.010315907787665933 -0.00082785965117131816 0 0.010175005101037186 -0.00067542874437050203 0 0.010361812115941255 -0.00066511875571329568 0 0.010519406183224739 -0.00077146088790601961 0 0.010315907787665933 -0.00082785965117131816 0 0.010465266389206553 -0.0010435345388698477 0 0.010519406183224739 -0.00077146088790601961 0 0.010315907787665933 -0.00082785965117131816 0 0.010361812115941255 -0.00066511875571329568 0 0.010519406183224739 -0.00077146088790601961 0 0.010731408500601154 -0.00075233941557571293 0 0.010637037158842616 -0.00059807709449653519 0 0.010519406183224739 -0.00077146088790601961 0 0.010731408500601154 -0.00075233941557571293 0 0.01067858381836371 -0.00091934948432003446 0 0.010853799286529705 -0.0009143799330480802 0 0.010731408500601154 -0.00075233941557571293 0 0.01067858381836371 -0.00091934948432003446 0 0.010519406183224739 -0.00077146088790601961 0 0.01067858381836371 -0.00091934948432003446 0 0.010465266389206553 -0.0010435345388698477 0 0.010819468470096903 -0.0011141747462648322 0 0.01067858381836371 -0.00091934948432003446 0 0.010465266389206553 -0.0010435345388698477 0 0.010961515198003639 -0.0011557063411871587 0 0.010673691697244563 -0.0011060321265536637 0 0.011097665682630835 -0.0012123983838382179 0 0.010882916945240479 -0.0011728481034665485 0 0.010973534614740637 -0.0012892673494424023 0 0.010853799286529705 -0.0009143799330480802 0 0.010819468470096903 -0.0011141747462648322 0 0.01067858381836371 -0.00091934948432003446 0 0.010105209308489025 -0.00095540100825062114 0 0.010315907787665933 -0.00082785965117131816 0 0.010465266389206553 -0.0010435345388698477 0 0.010882916945240479 -0.0011728481034665485 0 0.010821105500588553 -0.0013830823046601542 0 0.010973534614740637 -0.0012892673494424023 0 0.010882916945240479 -0.0011728481034665485 0 0.010821105500588553 -0.0013830823046601542 0 0.010661234793026589 -0.0013436759556677198 0 0.010901026562190917 -0.0013876685686873686 0 0.01088515179325792 -0.0013529433708383987 0 0.010821105500588553 -0.0013830823046601542 0 0.010973534614740637 -0.0012892673494424023 0 0.010980181694269467 -0.001371483131191447 0 0.010821105500588553 -0.0013830823046601542 0 0.011113521807375669 -0.0014244496585758986 0 0.010931734591041785 -0.0015087938917988496 0 0.011097665682630835 -0.0012123983838382179 0 0.010973534614740637 -0.0012892673494424023 0 0.011064982906365053 -0.0013018951921555904 0 0.011125803341863727 -0.0013961532205105419 0 0.010980181694269467 -0.001371483131191447 0 0.011064982906365053 -0.0013018951921555904 0 0.010973534614740637 -0.0012892673494424023 0 0.010980181694269467 -0.001371483131191447 0 0.011064982906365053 -0.0013018951921555904 0 0.011926103948378206 -0.0010927105052351909 0 0.012042103802406025 -0.0010988489429435402 0 0.011855695280021734 -0.00092749551233241388 0 0.011113521807375669 -0.0014244496585758986 0 0.011278960530071059 -0.0016597230552916409 0 0.010931734591041785 -0.0015087938917988496 0 0.013175475033435951 -0.0013785871089659241 0 0.01100586425648179 -0.0013043629311463873 0 0.012327641215701056 -0.0014160871459235763 0 0.01088515179325792 -0.0013529433708383987 0 0.011435766259896034 -0.0015000848159694117 0 0.011113521807375669 -0.0014244496585758986 0 0.011278960530071059 -0.0016597230552916409 0 0.011278960530071059 -0.0016597230552916409 0 0.010931734591041785 -0.0015087938917988496 0 0.01083225382974597 -0.0016543512980025387 0 0.010821105500588553 -0.0013830823046601542 0 0.010931734591041785 -0.0015087938917988496 0 0.010664467170038569 -0.0014980240979458759 0 0.010931734591041785 -0.0015087938917988496 0 0.01083225382974597 -0.0016543512980025387 0 0.010664467170038569 -0.0014980240979458759 0 0.01100586425648179 -0.0013043629311463873 0 0.010860370931161569 -0.0012896024036436336 0 0.010664467170038569 -0.0014980240979458759 0 0.010468944580658997 -0.0014420086379586645 0 0.010501798564015931 -0.0015957230156724851 0 0.01142187947758082 -0.0010871642579838657 0 0.011855695280021734 -0.00092749551233241388 0 0.010996766440013071 -0.00095160784140096673 0 0.01083225382974597 -0.0016543512980025387 0 0.010664467170038569 -0.0014980240979458759 0 0.010501798564015931 -0.0015957230156724851 0 0.010821105500588553 -0.0013830823046601542 0 0.010664467170038569 -0.0014980240979458759 0 0.010661234793026589 -0.0013436759556677198 0 0.010664467170038569 -0.0014980240979458759 0 0.010661234793026589 -0.0013436759556677198 0 0.010468944580658997 -0.0014420086379586645 0 0.010237613437168058 -0.0012260964849890551 0 0.010468944580658997 -0.0014420086379586645 0 0.010307180608012979 -0.0014057265287812878 0 0.010860370931161569 -0.0012896024036436336 0 0.010705982106114164 -0.0013660202919973548 0 0.010468944580658997 -0.0014420086379586645 0 0.010501798564015931 -0.0015957230156724851 0 0.010502599573370274 -0.00159361231623993 0 0.010501798564015931 -0.0015957230156724851 0 0.010502599573370274 -0.00159361231623993 0 0.010700457050474768 -0.0013963226249146042 0 0.010502599573370274 -0.00159361231623993 0 0.010550894910384889 -0.0017562807894375687 0 0.010700457050474768 -0.0013963226249146042 0 0.010550894910384889 -0.0017562807894375687 0 0.010700457050474768 -0.0013963226249146042 0 0.011268097192580871 -0.0014420891461095714 0 0.010550894910384889 -0.0017562807894375687 0 0.011268097192580871 -0.0014420891461095714 0 0.011697801514557904 -0.0017901994400069683 0 0.010550894910384889 -0.0017562807894375687 0 0.011697801514557904 -0.0017901994400069683 0 0.01173235067914623 -0.0025208277704278476 0 0.011969293492594962 -0.0013960473612293356 0 0.011268097192580871 -0.0014420891461095714 0 0.011697801514557904 -0.0017901994400069683 0 0.010307180608012979 -0.0014057265287812878 0 0.0098024615770663914 -0.0015206006283355138 0 0.0099067021122428208 -0.0011445463881042037 0 0.010550894910384889 -0.0017562807894375687 0 0.010307180608012979 -0.0014057265287812878 0 0.0098024615770663914 -0.0015206006283355138 0 0.010536033295662287 -0.0018868389115200574 0 0.011005207995217575 -0.0014353556212124599 0 0.011005207995217575 -0.0014353556212124599 0 0.0096541080861550291 -0.0013305547314962334 0 0.010468944580658997 -0.0014420086379586645 0 0.010502599573370274 -0.00159361231623993 0 0.010307180608012979 -0.0014057265287812878 0 0.010502599573370274 -0.00159361231623993 0 0.010550894910384889 -0.0017562807894375687 0 0.010307180608012979 -0.0014057265287812878 0 0.013289190597543804 -0.00030442998525064772 0 0.012755289106493747 -0.00088364412221797527 0 0.013361192669350106 -0.00073392286786762111 0 0.013289190597543804 -0.00030442998525064772 0 0.013652354001464568 -0.00033798189156309608 0 0.013361192669350106 -0.00073392286786762111 0 0.011969293492594962 -0.0013960473612293356 0 0.012773396325138067 -0.0015541048817382299 0 0.011697801514557904 -0.0017901994400069683 0 0.013255299862230348 -0.00092699070212612432 0 0.011005207995217575 -0.0014353556212124599 0 0.012773396325138067 -0.0015541048817382299 0 0.011697801514557904 -0.0017901994400069683 0 0.01173235067914623 -0.0025208277704278476 0 0.0097358416229683022 -0.0013329609517326345 0 0.0095356494441536203 -0.0012180913054086538 0 0.0096828197386718152 -0.0011246209014205608 0 0.012755289106493747 -0.00088364412221797527 0 0.013210727701692546 -0.0010855772138436285 0 0.013361192669350106 -0.00073392286786762111 0 0.011005207995217575 -0.0014353556212124599 0 0.011606196677990923 -0.0012269503973993722 0 0.013541342251270584 -0.0010107371054117579 0 0.013210727701692546 -0.0010855772138436285 0 0.013361192669350106 -0.00073392286786762111 0 0.010173503045854996 -0.0010602702194051066 0 0.0084303279391256657 -0.0010655122274527487 0 0.013541342251270584 -0.0010107371054117579 0 0.013618914762413345 -0.0012685571195976239 0 0.013210727701692546 -0.0010855772138436285 0 0.010173503045854996 -0.0010602702194051066 0 0.011606196677990923 -0.0012269503973993722 0 0.0075960796129897487 -0.00099736965494193869 0 0.0075814327424943706 -0.00082809746240162434 0 0.00789336905563723 -0.00092772445560739751 0 0.0093631366908687921 -0.0011274646552646133 0 0.0095356494441536203 -0.0012180913054086538 0 0.0095473160276600515 -0.0010188895448156687 0 0.0095356494441536203 -0.0012180913054086538 0 0.0096828197386718152 -0.0011246209014205608 0 0.0095473160276600515 -0.0010188895448156687 0 0.0096828197386718152 -0.0011246209014205608 0 0.0095473160276600515 -0.0010188895448156687 0 0.0097151342479912823 -0.00087997696983392409 0 0.00789336905563723 -0.00092772445560739751 0 0.0084068933938973942 -0.00093340915763753612 0 0.0080142855477494182 -0.00061841476610579487 0 0.0084303279391256657 -0.0010655122274527487 0 0.0091483751880075698 -0.00085483499086906514 0 0.0076291531275641073 -0.00066891296396919962 0 0.0075814327424943706 -0.00082809746240162434 0 0.00789336905563723 -0.00092772445560739751 0 0.00789336905563723 -0.00092772445560739751 0 0.0078021305279552602 -0.00066276714216385705 0 0.0080142855477494182 -0.00061841476610579487 0 0.0076291531275641073 -0.00066891296396919962 0 0.00789336905563723 -0.00092772445560739751 0 0.0078021305279552602 -0.00066276714216385705 0 0.010237613437168058 -0.0012260964849890551 0 0.0099067021122428208 -0.0011445463881042037 0 0.0099628571638741524 -0.0009252830006809252 0 0.010237613437168058 -0.0012260964849890551 0 0.010307180608012979 -0.0014057265287812878 0 0.0099067021122428208 -0.0011445463881042037 0 0.0096828197386718152 -0.0011246209014205608 0 0.0099067021122428208 -0.0011445463881042037 0 0.0097151342479912823 -0.00087997696983392409 0 0.0097358416229683022 -0.0013329609517326345 0 0.0096828197386718152 -0.0011246209014205608 0 0.0099067021122428208 -0.0011445463881042037 0 0.0097770545131514695 -0.00092593520806388157 0 0.0097151342479912823 -0.00087997696983392409 0 0.0094604500669826404 -0.00071164844317313973 0 0.0099067021122428208 -0.0011445463881042037 0 0.0097770545131514695 -0.00092593520806388157 0 0.0097151342479912823 -0.00087997696983392409 0 0.0099628571638741524 -0.0009252830006809252 0 0.0094604500669826404 -0.00071164844317313973 0 0.0099308651294249973 -0.00075576472971505143 0 0.0099067021122428208 -0.0011445463881042037 0 0.0097770545131514695 -0.00092593520806388157 0 0.0099628571638741524 -0.0009252830006809252 0 0.0097770545131514695 -0.00092593520806388157 0 0.0099628571638741524 -0.0009252830006809252 0 0.0094604500669826404 -0.00071164844317313973 0 0.0091483751880075698 -0.00085483499086906514 0 0.0094348397065109387 -0.00072355024623043285 0 0.0084068933938973942 -0.00093340915763753612 0 0.0094604500669826404 -0.00071164844317313973 0 0.0085577353247904397 -0.00046317293008164704 0 0.0094604500669826404 -0.00071164844317313973 0 0.0085577353247904397 -0.00046317293008164704 0 0.0086581874977822593 -1.3367093123394791e-05 0 0.0085577353247904397 -0.00046317293008164704 0 0.0086581874977822593 -1.3367093123394791e-05 0 0.0079738741241806594 -0.00012650913735211188 0 0.0094604500669826404 -0.00071164844317313973 0 0.0094111381453341539 -0.00012882432731252586 0 0.0097108191113889145 -0.00050351021740288203 0 0.0094604500669826404 -0.00071164844317313973 0 0.0086581874977822593 -1.3367093123394791e-05 0 0.0094111381453341539 -0.00012882432731252586 0 0.007678668727994783 -0.00041083834254496886 0 0.0080142855477494182 -0.00061841476610579487 0 0.0079738741241806594 -0.00012650913735211188 0 0.007678668727994783 -0.00041083834254496886 0 0.0078021305279552602 -0.00066276714216385705 0 0.0080142855477494182 -0.00061841476610579487 0 0.0076291531275641073 -0.00066891296396919962 0 0.007678668727994783 -0.00041083834254496886 0 0.0078021305279552602 -0.00066276714216385705 0 0.0085577353247904397 -0.00046317293008164704 0 0.0080142855477494182 -0.00061841476610579487 0 0.0079738741241806594 -0.00012650913735211188 0 0.0084068933938973942 -0.00093340915763753612 0 0.0085577353247904397 -0.00046317293008164704 0 0.0080142855477494182 -0.00061841476610579487 0 0.0074481285909408067 -0.00024139557223978549 0 0.007678668727994783 -0.00041083834254496886 0 0.0076836179325389855 0.00013267117543313127 0 0.007678668727994783 -0.00041083834254496886 0 0.0079738741241806594 -0.00012650913735211188 0 0.0076836179325389855 0.00013267117543313127 0 0.0074390991456656222 0.00052959279404281984 0 0.0076836179325389855 0.00013267117543313127 0 0.0076412219201606943 0.00066126468814145913 0 0.0079738741241806594 -0.00012650913735211188 0 0.0076836179325389855 0.00013267117543313127 0 0.007883442634127066 0.00039303842116650392 0 0.0086581874977822593 -1.3367093123394791e-05 0 0.0079738741241806594 -0.00012650913735211188 0 0.007883442634127066 0.00039303842116650392 0 0.0076836179325389855 0.00013267117543313127 0 0.007883442634127066 0.00039303842116650392 0 0.0076412219201606943 0.00066126468814145913 0 0.007883442634127066 0.00039303842116650392 0 0.0074056630727507662 0.00083799697770251219 0 0.0076412219201606943 0.00066126468814145913 0 0.0074390991456656222 0.00052959279404281984 0 0.0076412219201606943 0.00066126468814145913 0 0.0075836589264797029 0.00068641870210696767 0 0.0086581874977822593 -1.3367093123394791e-05 0 0.0094111381453341539 -0.00012882432731252586 0 0.0088873132374670382 0.00070952931193236761 0 0.0086581874977822593 -1.3367093123394791e-05 0 0.007883442634127066 0.00039303842116650392 0 0.0088873132374670382 0.00070952931193236761 0 0.007883442634127066 0.00039303842116650392 0 0.0074056630727507662 0.00083799697770251219 0 0.0088873132374670382 0.00070952931193236761 0 0.0074420141252860865 0.00083486514189980653 0 0.0072614273412457781 0.00091303450999240092 0 0.0074056630727507662 0.00083799697770251219 0 0.005557371612220658 0.0012216014022966297 0 0.0058842306490561351 0.00038845492489397103 0 0.005557371612220658 0.0012216014022966297 0 0.0047754863912093468 0.00060204580774329451 0 0.0058842306490561351 0.00038845492489397103 0 0.005557371612220658 0.0012216014022966297 0 0.004786487164346937 0.00098168664790172235 0 0.0047754863912093468 0.00060204580774329451 0 0.0045892316162197966 0.00065932866212232218 0 0.004786487164346937 0.00098168664790172235 0 0.0047754863912093468 0.00060204580774329451 0 0.0045892316162197966 0.00065932866212232218 0 0.0045655300420038509 0.00051468406842823612 0 0.0047754863912093468 0.00060204580774329451 0 0.0073510678328722314 0.00062176941520250518 0 0.0075239308465303439 0.00027647013550351608 0 0.0098715139869133012 0.00027718141269120433 0 0.010077389840603121 -0.00013008614734440926 0 0.010374938798256733 -0.00014328567538059029 0 0.004786487164346937 0.00098168664790172235 0 0.0047020978385741759 0.00065260069211776927 0 0.004702209242901087 0.00071270360508373265 0 0.0045892316162197966 0.00065932866212232218 0 0.004786487164346937 0.00098168664790172235 0 0.004702209242901087 0.00071270360508373265 0 0.0072614273412457781 0.00091303450999240092 0 0.0073510678328722314 0.00062176941520250518 0 0.0094111381453341539 -0.00012882432731252586 0 0.0088873132374670382 0.00070952931193236761 0 0.0098715139869133012 0.00027718141269120433 0 0.0094111381453341539 -0.00012882432731252586 0 0.0098715139869133012 0.00027718141269120433 0 0.0098180694344036333 -0.00020380349152326744 0 0.0094111381453341539 -0.00012882432731252586 0 0.0098180694344036333 -0.00020380349152326744 0 0.0097108191113889145 -0.00050351021740288203 0 0.0098180694344036333 -0.00020380349152326744 0 0.0097108191113889145 -0.00050351021740288203 0 0.0099814356810308431 -0.00046115656175070623 0 0.0098180694344036333 -0.00020380349152326744 0 0.010077389840603121 -0.00013008614734440926 0 0.0099814356810308431 -0.00046115656175070623 0 0.0098715139869133012 0.00027718141269120433 0 0.0098180694344036333 -0.00020380349152326744 0 0.010077389840603121 -0.00013008614734440926 0 0.010077389840603121 -0.00013008614734440926 0 0.010281079368391387 -0.00025001046451556669 0 0.010374938798256733 -0.00014328567538059029 0 0.010205405954786839 -0.00039180237499779704 0 0.010281079368391387 -0.00025001046451556669 0 0.010367866904741665 -0.00033757819862600329 0 0.010077389840603121 -0.00013008614734440926 0 0.010205405954786839 -0.00039180237499779704 0 0.010281079368391387 -0.00025001046451556669 0 0.010077389840603121 -0.00013008614734440926 0 0.010205405954786839 -0.00039180237499779704 0 0.0099814356810308431 -0.00046115656175070623 0 0.010205405954786839 -0.00039180237499779704 0 0.010175005101037186 -0.00067542874437050203 0 0.0099814356810308431 -0.00046115656175070623 0 0.010175005101037186 -0.00067542874437050203 0 0.0099308651294249973 -0.00075576472971505143 0 0.0099814356810308431 -0.00046115656175070623 0 0.010205405954786839 -0.00039180237499779704 0 0.010175005101037186 -0.00067542874437050203 0 0.010351615056087031 -0.00050263288234972967 0 0.0094604500669826404 -0.00071164844317313973 0 0.0099308651294249973 -0.00075576472971505143 0 0.0097108191113889145 -0.00050351021740288203 0 0.0099308651294249973 -0.00075576472971505143 0 0.0097108191113889145 -0.00050351021740288203 0 0.0099814356810308431 -0.00046115656175070623 0 0.010600291955399774 -0.00048642970960364903 0 0.010488318923773641 -0.00039802007356781917 0 0.010694271757952303 -0.00038233105483476918 0 0.010600291955399774 -0.00048642970960364903 0 0.010685561638135554 -0.00050293675058405373 0 0.010637037158842616 -0.00059807709449653519 0 0.010600291955399774 -0.00048642970960364903 0 0.010685561638135554 -0.00050293675058405373 0 0.010694271757952303 -0.00038233105483476918 0 0.010820003719715336 -0.0005641818767805211 0 0.010685561638135554 -0.00050293675058405373 0 0.010694271757952303 -0.00038233105483476918 0 0.010820003719715336 -0.0005641818767805211 0 0.010685561638135554 -0.00050293675058405373 0 0.010637037158842616 -0.00059807709449653519 0 0.010820003719715336 -0.0005641818767805211 0 0.010731408500601154 -0.00075233941557571293 0 0.010637037158842616 -0.00059807709449653519 0 0.010600291955399774 -0.00048642970960364903 0 0.010637037158842616 -0.00059807709449653519 0 0.010490979038881364 -0.00056931281484921847 0 0.010519406183224739 -0.00077146088790601961 0 0.010637037158842616 -0.00059807709449653519 0 0.010490979038881364 -0.00056931281484921847 0 0.010519406183224739 -0.00077146088790601961 0 0.010490979038881364 -0.00056931281484921847 0 0.010361812115941255 -0.00066511875571329568 0 0.010490979038881364 -0.00056931281484921847 0 0.010361812115941255 -0.00066511875571329568 0 0.010351615056087031 -0.00050263288234972967 0 0.010175005101037186 -0.00067542874437050203 0 0.010361812115941255 -0.00066511875571329568 0 0.010351615056087031 -0.00050263288234972967 0 0.010205405954786839 -0.00039180237499779704 0 0.010351615056087031 -0.00050263288234972967 0 0.010367866904741665 -0.00033757819862600329 0 0.010351615056087031 -0.00050263288234972967 0 0.010488318923773641 -0.00039802007356781917 0 0.010367866904741665 -0.00033757819862600329 0 0.010600291955399774 -0.00048642970960364903 0 0.010490979038881364 -0.00056931281484921847 0 0.010488318923773641 -0.00039802007356781917 0 0.010490979038881364 -0.00056931281484921847 0 0.010351615056087031 -0.00050263288234972967 0 0.010488318923773641 -0.00039802007356781917 0 0.010462566260036445 -0.00030065159924586791 0 0.010374938798256733 -0.00014328567538059029 0 0.010694271757952303 -0.00038233105483476918 0 0.0047020978385741759 0.00065260069211776927 0 0.005015343788952499 0.00056830048171758259 0 0.0052703796914475628 0.00021672177047667572 0 0.0075239308465303439 0.00027647013550351608 0 0.0081213636424305735 -0.00015222269512812648 0 0.010488318923773641 -0.00039802007356781917 0 0.010462566260036445 -0.00030065159924586791 0 0.010367866904741665 -0.00033757819862600329 0 0.010462566260036445 -0.00030065159924586791 0 0.010367866904741665 -0.00033757819862600329 0 0.01037438482398686 -0.00024807027564465633 0 0.010281079368391387 -0.00025001046451556669 0 0.010367866904741665 -0.00033757819862600329 0 0.01037438482398686 -0.00024807027564465633 0 0.0047020978385741759 0.00065260069211776927 0 0.004702209242901087 0.00071270360508373265 0 0.0048593811997055467 0.00067203661763511242 0 0.010281079368391387 -0.00025001046451556669 0 0.01037438482398686 -0.00024807027564465633 0 0.010374938798256733 -0.00014328567538059029 0 0.010462566260036445 -0.00030065159924586791 0 0.01037438482398686 -0.00024807027564465633 0 0.010374938798256733 -0.00014328567538059029 0 0.0047020978385741759 0.00065260069211776927 0 0.005015343788952499 0.00056830048171758259 0 0.0048593811997055467 0.00067203661763511242 0 0.0051719503033544091 0.00053117439993277324 0 0.005015343788952499 0.00056830048171758259 0 0.0052703796914475628 0.00021672177047667572 0 0.010488318923773641 -0.00039802007356781917 0 0.010462566260036445 -0.00030065159924586791 0 0.010694271757952303 -0.00038233105483476918 0 0.0051719503033544091 0.00053117439993277324 0 0.0052703796914475628 0.00021672177047667572 0 0.005450743546999595 0.0004704126395560125 0 0.0051719503033544091 0.00053117439993277324 0 0.005450743546999595 0.0004704126395560125 0 0.0049328688854877499 0.0007335287382774986 0 0.0052078404026357087 0.00063840949231137639 0 0.0049328688854877499 0.0007335287382774986 0 0.0050764791663372956 0.00079540006990700177 0 0.0052078404026357087 0.00063840949231137639 0 0.005185893788722795 0.00035342485704591592 0 0.0049328688854877499 0.0007335287382774986 0 0.0049683765925072169 0.00052878277014871389 0 0.005092762862068799 0.00063217240330937664 0 0.0051719503033544091 0.00053117439993277324 0 0.005015343788952499 0.00056830048171758259 0 0.0049328688854877499 0.0007335287382774986 0 0.004702209242901087 0.00071270360508373265 0 0.0049328688854877499 0.0007335287382774986 0 0.0050764791663372956 0.00079540006990700177 0 0.0045892316162197966 0.00065932866212232218 0 0.004702209242901087 0.00071270360508373265 0 0.0044579530781312356 0.00055238719233973495 0 0.0046977238988203636 0.00069353226347793799 0 0.0047704996896298976 0.00066824978272207508 0 0.004702209242901087 0.00071270360508373265 0 0.0048593811997055467 0.00067203661763511242 0 0.0049328688854877499 0.0007335287382774986 0 0.005015343788952499 0.00056830048171758259 0 0.0048593811997055467 0.00067203661763511242 0 0.0049328688854877499 0.0007335287382774986 0 0.0045892316162197966 0.00065932866212232218 0 0.0044579530781312356 0.00055238719233973495 0 0.0044836437751643943 0.00045447645798220087 0 0.0052078404026357087 0.00063840949231137639 0 0.0053025380604005447 0.00076960072992166234 0 0.0050764791663372956 0.00079540006990700177 0 0.0047704996896298976 0.00066824978272207508 0 0.0049751446016912679 0.0006559111199887376 0 0.0044579530781312356 0.00055238719233973495 0 0.0044874934038259973 0.00039729118384853056 0 0.0045970460783775176 0.00034170904735808007 0 0.0044579530781312356 0.00055238719233973495 0 0.0044874934038259973 0.00039729118384853056 0 0.0044836437751643943 0.00045447645798220087 0 0.0044874934038259973 0.00039729118384853056 0 0.0044836437751643943 0.00045447645798220087 0 0.0044308716820180239 0.00037898938797156778 0 0.0045892316162197966 0.00065932866212232218 0 0.0044836437751643943 0.00045447645798220087 0 0.0045655300420038509 0.00051468406842823612 0 0.0044836437751643943 0.00045447645798220087 0 0.0044308716820180239 0.00037898938797156778 0 0.0044787412420649398 0.00035220821618737216 0 0.0044874934038259973 0.00039729118384853056 0 0.0044308716820180239 0.00037898938797156778 0 0.0045344904186996535 0.00049545751555644685 0 0.0044874934038259973 0.00039729118384853056 0 0.0045344904186996535 0.00049545751555644685 0 0.0045970460783775176 0.00034170904735808007 0 0.0045344904186996535 0.00049545751555644685 0 0.004367109202545987 0.00046880690248997392 0 0.0044105426773669533 0.00076761479962866733 0 0.0044308716820180239 0.00037898938797156778 0 0.004367109202545987 0.00046880690248997392 0 0.0044060771869006039 0.00031101463651453609 0 0.0044308716820180239 0.00037898938797156778 0 0.0045344904186996535 0.00049545751555644685 0 0.004367109202545987 0.00046880690248997392 0 0.004367109202545987 0.00046880690248997392 0 0.0042516292833577078 0.00062596856803377678 0 0.0044105426773669533 0.00076761479962866733 0 0.0042516292833577078 0.00062596856803377678 0 0.0044105426773669533 0.00076761479962866733 0 0.004229757289313938 0.00088709098772545903 0 0.0040290543267018043 0.00032671145412065095 0 0.0036119254795294814 0.00070620139565074009 0 0.0039717526871135434 0.0006134451444908428 0 0.0041718419774986635 0.0003850756789948094 0 0.0041691293365349342 0.00052122499094223586 0 0.0042987663215380391 0.0003535527771918523 0 0.0041718419774986635 0.0003850756789948094 0 0.0043336640365444507 0.00020906708920285521 0 0.0040290543267018043 0.00032671145412065095 0 0.0041718419774986635 0.0003850756789948094 0 0.0040290543267018043 0.00032671145412065095 0 0.0039717526871135434 0.0006134451444908428 0 0.0041718419774986635 0.0003850756789948094 0 0.0041691293365349342 0.00052122499094223586 0 0.0039717526871135434 0.0006134451444908428 0 0.0041691293365349342 0.00052122499094223586 0 0.0041190581953307456 0.00072128478589818896 0 0.0039717526871135434 0.0006134451444908428 0 0.004367109202545987 0.00046880690248997392 0 0.0042516292833577078 0.00062596856803377678 0 0.0042987663215380391 0.0003535527771918523 0 0.0042516292833577078 0.00062596856803377678 0 0.0041691293365349342 0.00052122499094223586 0 0.0041190581953307456 0.00072128478589818896 0 0.0042516292833577078 0.00062596856803377678 0 0.0041691293365349342 0.00052122499094223586 0 0.0042987663215380391 0.0003535527771918523 0 0.004367109202545987 0.00046880690248997392 0 0.0042987663215380391 0.0003535527771918523 0 0.0044060771869006039 0.00031101463651453609 0 0.0042987663215380391 0.0003535527771918523 0 0.0045096455168813099 0.00013983723554450081 0 0.0044060771869006039 0.00031101463651453609 0 0.0042987663215380391 0.0003535527771918523 0 0.0043336640365444507 0.00020906708920285521 0 0.0045096455168813099 0.00013983723554450081 0 0.0043336640365444507 0.00020906708920285521 0 0.0045096455168813099 0.00013983723554450081 0 0.0048144957214738505 -0.00011955926422050478 0 0.0041718419774986635 0.0003850756789948094 0 0.0042987663215380391 0.0003535527771918523 0 0.0043336640365444507 0.00020906708920285521 0 0.0045096455168813099 0.00013983723554450081 0 0.0044787412420649398 0.00035220821618737216 0 0.0047754863912093468 0.00060204580774329451 0 0.0045096455168813099 0.00013983723554450081 0 0.0047754863912093468 0.00060204580774329451 0 0.0048144957214738505 -0.00011955926422050478 0 0.0044308716820180239 0.00037898938797156778 0 0.0044060771869006039 0.00031101463651453609 0 0.0044787412420649398 0.00035220821618737216 0 0.0045096455168813099 0.00013983723554450081 0 0.0044060771869006039 0.00031101463651453609 0 0.0044787412420649398 0.00035220821618737216 0 0.0044787412420649398 0.00035220821618737216 0 0.0045655300420038509 0.00051468406842823612 0 0.0047754863912093468 0.00060204580774329451 0 0.0044836437751643943 0.00045447645798220087 0 0.0044787412420649398 0.00035220821618737216 0 0.0045655300420038509 0.00051468406842823612 0 0.0047754863912093468 0.00060204580774329451 0 0.0058842306490561351 0.00038845492489397103 0 0.0048144957214738505 -0.00011955926422050478 0 0.0074056630727507662 0.00083799697770251219 0 0.0058842306490561351 0.00038845492489397103 0 0.0073403577798272987 0.00015689942604590009 0 0.0058842306490561351 0.00038845492489397103 0 0.006059971038837873 -0.00024072291283166146 0 0.0073403577798272987 0.00015689942604590009 0 0.006059971038837873 -0.00024072291283166146 0 0.0073403577798272987 0.00015689942604590009 0 0.0062529881380328587 -0.0016325251725972671 0 0.0076307417326106622 0.00035059598659752231 0 0.0053186466443726488 -8.2336201562861622e-05 0 0.006059971038837873 -0.00024072291283166146 0 0.0048144957214738505 -0.00011955926422050478 0 0.0062529881380328587 -0.0016325251725972671 0 0.0058842306490561351 0.00038845492489397103 0 0.006059971038837873 -0.00024072291283166146 0 0.0048144957214738505 -0.00011955926422050478 0 0.0076412219201606943 0.00066126468814145913 0 0.0075836589264797029 0.00068641870210696767 0 0.0074874316056176594 0.00066143534881548988 0 0.0075573789752193003 0.00065613780727825292 0 0.0076307417326106622 0.00035059598659752231 0 0.0074056630727507662 0.00083799697770251219 0 0.0076412219201606943 0.00066126468814145913 0 0.0073403577798272987 0.00015689942604590009 0 0.0074874316056176594 0.00066143534881548988 0 0.007553573538426844 0.00053060782426379101 0 0.0074617164740961245 0.0005566121069939204 0 0.0075836589264797029 0.00068641870210696767 0 0.0074874316056176594 0.00066143534881548988 0 0.007553573538426844 0.00053060782426379101 0 0.0074831443723190174 8.4309768068683031e-05 0 0.0077453186560881336 2.9838630958839471e-05 0 0.0074874316056176594 0.00066143534881548988 0 0.0074617164740961245 0.0005566121069939204 0 0.0073392719396978773 0.00050261034132095209 0 0.007553573538426844 0.00053060782426379101 0 0.0074617164740961245 0.0005566121069939204 0 0.0074209796129945842 0.00043184526968570534 0 0.007553573538426844 0.00053060782426379101 0 0.0074209796129945842 0.00043184526968570534 0 0.0074897508995689713 0.00035692859328618202 0 0.0054841081364323313 0.00035375410227985875 0 0.0054836643717211964 9.9166604911978993e-05 0 0.0074412663189539251 -0.00050189397913131541 0 0.0074312908318781819 -0.00049408160983354212 0 0.007426440684522014 -0.00048401267206851773 0 0.0074412663189539251 -0.00050189397913131541 0 0.0074312908318781819 -0.00049408160983354212 0 0.0074438667798606322 -0.00050383570392173612 0 0.0077453186560881336 2.9838630958839471e-05 0 0.0054836643717211964 9.9166604911978993e-05 0 0.0047832485645777608 -0.00033691285351465568 0 0.0053186466443726488 -8.2336201562861622e-05 0 0.0043336640365444507 0.00020906708920285521 0 0.0048144957214738505 -0.00011955926422050478 0 0.0042083386406505776 0.00024193922128048684 0 0.0048144957214738505 -0.00011955926422050478 0 0.0042083386406505776 0.00024193922128048684 0 0.0039114282891357611 0.00019156310053297881 0 0.0043336640365444507 0.00020906708920285521 0 0.0042083386406505776 0.00024193922128048684 0 0.0040290543267018043 0.00032671145412065095 0 0.0074617164740961245 0.0005566121069939204 0 0.0074209796129945842 0.00043184526968570534 0 0.0073392719396978773 0.00050261034132095209 0 0.0036241834622001133 0.00023324409706378858 0 0.0038331940568451421 6.1499725495523902e-05 0 0.0037833729914524337 0.00033555686245416991 0 0.0036241834622001133 0.00023324409706378858 0 0.0037833729914524337 0.00033555686245416991 0 0.0035857188162011101 0.00048919737354998188 0 0.0053186466443726488 -8.2336201562861622e-05 0 0.0037730286687078264 0.00024280754939789073 0 0.0038331940568451421 6.1499725495523902e-05 0 0.0037833729914524337 0.00033555686245416991 0 0.0039654760829202799 0.00038289199480527581 0 0.0054841081364323313 0.00035375410227985875 0 0.0053186466443726488 -8.2336201562861622e-05 0 0.0039654760829202799 0.00038289199480527581 0 0.0040290543267018043 0.00032671145412065095 0 0.0038753817029120634 0.00048080237540422209 0 0.0042083386406505776 0.00024193922128048684 0 0.0039114282891357611 0.00019156310053297881 0 0.0039654760829202799 0.00038289199480527581 0 0.0039504141935160645 0.00033671810548832517 0 0.003428615037121472 0.00061671377880478495 0 0.0042083386406505776 0.00024193922128048684 0 0.0039654760829202799 0.00038289199480527581 0 0.0040290543267018043 0.00032671145412065095 0 0.0040290543267018043 0.00032671145412065095 0 0.0036119254795294814 0.00070620139565074009 0 0.0029540804615117164 0.00071307624832997701 0 0.0036119254795294814 0.00070620139565074009 0 0.0029540804615117164 0.00071307624832997701 0 0.0032833114528494746 0.00096572058517829687 0 0.0036119254795294814 0.00070620139565074009 0 0.0032833114528494746 0.00096572058517829687 0 0.0036513990132597922 0.00090929239764812463 0 0.0037833729914524337 0.00033555686245416991 0 0.0039654760829202799 0.00038289199480527581 0 0.0038753817029120634 0.00048080237540422209 0 0.0038753817029120634 0.00048080237540422209 0 0.0035857188162011101 0.00048919737354998188 0 0.0034402740718554505 0.00075485437031374083 0 0.0037833729914524337 0.00033555686245416991 0 0.0038753817029120634 0.00048080237540422209 0 0.0035857188162011101 0.00048919737354998188 0 0.003428615037121472 0.00061671377880478495 0 0.002946762727439657 0.00096288402647687018 0 0.0029540804615117164 0.00071307624832997701 0 0.00269198718651033 0.0012159622382121062 0 0.0029846744308493303 0.0011442297518766576 0 0.0029540804615117164 0.00071307624832997701 0 0.00269198718651033 0.0012159622382121062 0 0.0024351891761513859 0.0012288491345233618 0 0.00269198718651033 0.0012159622382121062 0 0.0029846744308493303 0.0011442297518766576 0 0.0027988098356448035 0.0014416594531672373 0 0.0029846744308493303 0.0011442297518766576 0 0.0032582201320991277 0.0012527212350382697 0 0.0032833114528494746 0.00096572058517829687 0 0.0029846744308493303 0.0011442297518766576 0 0.0032582201320991277 0.0012527212350382697 0 0.0027988098356448035 0.0014416594531672373 0 0.0029540804615117164 0.00071307624832997701 0 0.0029846744308493303 0.0011442297518766576 0 0.0032833114528494746 0.00096572058517829687 0 0.0032582201320991277 0.0012527212350382697 0 0.0032833114528494746 0.00096572058517829687 0 0.0036513990132597922 0.00090929239764812463 0 0.0029025340796990395 0.00038913827666312213 0 0.0032538860011072034 4.9831889236913641e-05 0 0.0031311576146641471 0.00053268021196932437 0 0.0074312908318781819 -0.00049408160983354212 0 0.0074144285502188087 -0.0004727225782222578 0 0.007426440684522014 -0.00048401267206851773 0 0.0051628768311449257 -4.4253389664263656e-05 0 0.0054836643717211964 9.9166604911978993e-05 0 0.0034178231368402726 0.00038318090326470343 0 0.0035857188162011101 0.00048919737354998188 0 0.003397579577580548 0.00066605516838362717 0 0.0032538860011072034 4.9831889236913641e-05 0 0.003397579577580548 0.00066605516838362717 0 0.0031311576146641471 0.00053268021196932437 0 0.0054836643717211964 9.9166604911978993e-05 0 0.0031761834237784849 0.00052309187928401999 0 0.0036241834622001133 0.00023324409706378858 0 0.0034178231368402726 0.00038318090326470343 0 0.0035857188162011101 0.00048919737354998188 0 0.0035857188162011101 0.00048919737354998188 0 0.0034402740718554505 0.00075485437031374083 0 0.003397579577580548 0.00066605516838362717 0 0.00269198718651033 0.0012159622382121062 0 0.0024501177944411521 0.0012165039759548591 0 0.0024351891761513859 0.0012288491345233618 0 0.0034402740718554505 0.00075485437031374083 0 0.003248533005459265 0.00071153287601129461 0 0.003397579577580548 0.00066605516838362717 0 0.0034402740718554505 0.00075485437031374083 0 0.003248533005459265 0.00071153287601129461 0 0.0030867571754491789 0.00079380250591715 0 0.0032158504257970752 0.00065216282565816182 0 0.003397579577580548 0.00066605516838362717 0 0.0031311576146641471 0.00053268021196932437 0 0.003248533005459265 0.00071153287601129461 0 0.0032158504257970752 0.00065216282565816182 0 0.003397579577580548 0.00066605516838362717 0 0.0029025340796990395 0.00038913827666312213 0 0.0031311576146641471 0.00053268021196932437 0 0.0029529054786552105 0.00070247972506976486 0 0.0031311576146641471 0.00053268021196932437 0 0.0031154781954792314 0.00068714093096223735 0 0.0029529054786552105 0.00070247972506976486 0 0.0032158504257970752 0.00065216282565816182 0 0.0031311576146641471 0.00053268021196932437 0 0.0031154781954792314 0.00068714093096223735 0 0.003248533005459265 0.00071153287601129461 0 0.0031154781954792314 0.00068714093096223735 0 0.0030867571754491789 0.00079380250591715 0 0.003248533005459265 0.00071153287601129461 0 0.0032158504257970752 0.00065216282565816182 0 0.0031154781954792314 0.00068714093096223735 0 0.0030867571754491789 0.00079380250591715 0 0.0029529054786552105 0.00070247972506976486 0 0.002869978412727122 0.00085092039104174393 0 0.0031154781954792314 0.00068714093096223735 0 0.0030867571754491789 0.00079380250591715 0 0.0029529054786552105 0.00070247972506976486 0 0.0029529054786552105 0.00070247972506976486 0 0.0028096746291410468 0.00082642478045211914 0 0.002869978412727122 0.00085092039104174393 0 0.0029529054786552105 0.00070247972506976486 0 0.0028096746291410468 0.00082642478045211914 0 0.0027773224001667669 0.00066626600976948307 0 0.0029025340796990395 0.00038913827666312213 0 0.0029529054786552105 0.00070247972506976486 0 0.0027773224001667669 0.00066626600976948307 0 0.0024351891761513859 0.0012288491345233618 0 0.0027646393920056807 0.00096737199530219945 0 0.0025575658645252035 0.0010471325507727073 0 0.002946762727439657 0.00096288402647687018 0 0.0027974494084997796 0.00097575186194251721 0 0.0034402740718554505 0.00075485437031374083 0 0.0030867571754491789 0.00079380250591715 0 0.0027646393920056807 0.00096737199530219945 0 0.0027646393920056807 0.00096737199530219945 0 0.0027878631293496762 0.00088960078115377474 0 0.0027899311309608622 0.00088578810950087775 0 0.0030867571754491789 0.00079380250591715 0 0.0027646393920056807 0.00096737199530219945 0 0.002869978412727122 0.00085092039104174393 0 0.0027646393920056807 0.00096737199530219945 0 0.0027878631293496762 0.00088960078115377474 0 0.002869978412727122 0.00085092039104174393 0 0.0028096746291410468 0.00082642478045211914 0 0.0027878631293496762 0.00088960078115377474 0 0.002869978412727122 0.00085092039104174393 0 0.0027646393920056807 0.00096737199530219945 0 0.0026186985979400131 0.00092234958995516289 0 0.0025575658645252035 0.0010471325507727073 0 0.0026186985979400131 0.00092234958995516289 0 0.0025575658645252035 0.0010471325507727073 0 0.0025085174372911482 0.00083242671404703389 0 0.0024501177944411521 0.0012165039759548591 0 0.0025575658645252035 0.0010471325507727073 0 0.0025085174372911482 0.00083242671404703389 0 0.0024476775420378856 0.0012146737051634165 0 0.0024191652379336407 0.001242996293036952 0 0.0024501177944411521 0.0012165039759548591 0 0.0025737495732330224 0.0014507056936522357 0 0.0023337878972409659 0.0016730747761136619 0 0.0024501177944411521 0.0012165039759548591 0 0.0024351891761513859 0.0012288491345233618 0 0.0025575658645252035 0.0010471325507727073 0 0.00269198718651033 0.0012159622382121062 0 0.0024501177944411521 0.0012165039759548591 0 0.0025737495732330224 0.0014507056936522357 0 0.0025737495732330224 0.0014507056936522357 0 0.0023337878972409659 0.0016730747761136619 0 0.002589679986354506 0.0016968602872672969 0 0.0023337878972409659 0.0016730747761136619 0 0.002589679986354506 0.0016968602872672969 0 0.0024252423494711887 0.0018619397446380942 0 0.0025713286166238361 0.00069657946430296718 0 0.0027899311309608622 0.00088578810950087775 0 0.0024014259730720704 0.00049272716735595222 0 0.0025085174372911482 0.00083242671404703389 0 0.0025713286166238361 0.00069657946430296718 0 0.0024804858946417775 0.00049005842487431631 0 0.0026186985979400131 0.00092234958995516289 0 0.0025085174372911482 0.00083242671404703389 0 0.0026462173940281289 0.00085925515646070644 0 0.0027646393920056807 0.00096737199530219945 0 0.0026186985979400131 0.00092234958995516289 0 0.0026462173940281289 0.00085925515646070644 0 0.0025085174372911482 0.00083242671404703389 0 0.0026462173940281289 0.00085925515646070644 0 0.0025713286166238361 0.00069657946430296718 0 0.0027646393920056807 0.00096737199530219945 0 0.0026462173940281289 0.00085925515646070644 0 0.0027899311309608622 0.00088578810950087775 0 0.0026462173940281289 0.00085925515646070644 0 0.0025713286166238361 0.00069657946430296718 0 0.0027899311309608622 0.00088578810950087775 0 0.0032582201320991277 0.0012527212350382697 0 0.0027849350343302848 0.0017063445117977173 0 0.0035444301207303774 0.0014872357310115347 0 0.0032582201320991277 0.0012527212350382697 0 0.0027988098356448035 0.0014416594531672373 0 0.0027849350343302848 0.0017063445117977173 0 0.00269198718651033 0.0012159622382121062 0 0.0025737495732330224 0.0014507056936522357 0 0.0027988098356448035 0.0014416594531672373 0 0.0025737495732330224 0.0014507056936522357 0 0.0027988098356448035 0.0014416594531672373 0 0.002589679986354506 0.0016968602872672969 0 0.002589679986354506 0.0016968602872672969 0 0.0027849350343302848 0.0017063445117977173 0 0.0025720831289340802 0.0019771947421982541 0 0.0027988098356448035 0.0014416594531672373 0 0.002589679986354506 0.0016968602872672969 0 0.0027849350343302848 0.0017063445117977173 0 0.0027849350343302848 0.0017063445117977173 0 0.0037683433503653912 0.0020655870978027601 0 0.0025069379383257785 0.002501490336841708 0 0.0027849350343302848 0.0017063445117977173 0 0.0035444301207303774 0.0014872357310115347 0 0.0037683433503653912 0.0020655870978027601 0 0.0032582201320991277 0.0012527212350382697 0 0.0035444301207303774 0.0014872357310115347 0 0.0037715660366837898 0.0011676079958515002 0 0.0035444301207303774 0.0014872357310115347 0 0.004124716594808054 0.0014076110485276966 0 0.0037715660366837898 0.0011676079958515002 0 0.0032061097937834192 0.0022397420298943659 0 0.0036736245291976955 0.0016175280844849119 0 0.0035444301207303774 0.0014872357310115347 0 0.0037683433503653912 0.0020655870978027601 0 0.004124716594808054 0.0014076110485276966 0 0.0026535544558510828 0.0024050407167816872 0 0.0032241477649266256 0.0017841993595939026 0 0.0034261621079813226 0.0024823022402883335 0 0.003814103657612138 0.0016762319664148223 0 0.0032241477649266256 0.0017841993595939026 0 0.0034261621079813226 0.0024823022402883335 0 0.003814103657612138 0.0016762319664148223 0 0.0034261621079813226 0.0024823022402883335 0 0.0041313345114646011 0.0021344647640483901 0 0.003814103657612138 0.0016762319664148223 0 0.0041907787663945329 0.0016409010759088792 0 0.0041313345114646011 0.0021344647640483901 0 0.003814103657612138 0.0016762319664148223 0 0.0032241477649266256 0.0017841993595939026 0 0.0040873228692734362 0.0011872751268259074 0 0.0036736245291976955 0.0016175280844849119 0 0.0040298525426098264 0.0012268706502824365 0 0.0040873228692734362 0.0011872751268259074 0 0.0041272882574353931 0.0010025215001303205 0 0.004038329373757585 0.0010979842809379905 0 0.004124716594808054 0.0014076110485276966 0 0.0040873228692734362 0.0011872751268259074 0 0.004038329373757585 0.0010979842809379905 0 0.003814103657612138 0.0016762319664148223 0 0.0040873228692734362 0.0011872751268259074 0 0.0041319067340625957 0.0012770870435902342 0 0.0041319067340625957 0.0012770870435902342 0 0.0043619800468669276 0.0014606935215840566 0 0.0041907787663945329 0.0016409010759088792 0 0.0041319067340625957 0.0012770870435902342 0 0.0045244611604329313 0.0010664269446151646 0 0.0047455762248921566 0.0014030911662379544 0 0.003814103657612138 0.0016762319664148223 0 0.0041319067340625957 0.0012770870435902342 0 0.0041907787663945329 0.0016409010759088792 0 0.0041590876786731677 0.0013164137050725654 0 0.0045514976990141051 0.001420828895105879 0 0.0040873228692734362 0.0011872751268259074 0 0.0041319067340625957 0.0012770870435902342 0 0.0042658702585284996 0.0010293331805825041 0 0.0041319067340625957 0.0012770870435902342 0 0.0042658702585284996 0.0010293331805825041 0 0.0045244611604329313 0.0010664269446151646 0 0.0044105426773669533 0.00076761479962866733 0 0.0042658702585284996 0.0010293331805825041 0 0.004229757289313938 0.00088709098772545903 0 0.0044105426773669533 0.00076761479962866733 0 0.0042658702585284996 0.0010293331805825041 0 0.0045244611604329313 0.0010664269446151646 0 0.0041272882574353931 0.0010025215001303205 0 0.004229757289313938 0.00088709098772545903 0 0.0041562621435323023 0.00084177661433115759 0 0.0041272882574353931 0.0010025215001303205 0 0.0041756375539822614 0.0010311926657535584 0 0.004229757289313938 0.00088709098772545903 0 0.0040873228692734362 0.0011872751268259074 0 0.0042658702585284996 0.0010293331805825041 0 0.0041756375539822614 0.0010311926657535584 0 0.0042658702585284996 0.0010293331805825041 0 0.0041756375539822614 0.0010311926657535584 0 0.004229757289313938 0.00088709098772545903 0 0.0040873228692734362 0.0011872751268259074 0 0.0041272882574353931 0.0010025215001303205 0 0.0041756375539822614 0.0010311926657535584 0 0.0042516292833577078 0.00062596856803377678 0 0.004229757289313938 0.00088709098772545903 0 0.0041562621435323023 0.00084177661433115759 0 0.0042516292833577078 0.00062596856803377678 0 0.0041562621435323023 0.00084177661433115759 0 0.0041190581953307456 0.00072128478589818896 0 0.0041562621435323023 0.00084177661433115759 0 0.0040821903173740232 0.00090847996943239592 0 0.0041190581953307456 0.00072128478589818896 0 0.0041272882574353931 0.0010025215001303205 0 0.0040821903173740232 0.00090847996943239592 0 0.004038329373757585 0.0010979842809379905 0 0.0041272882574353931 0.0010025215001303205 0 0.0041562621435323023 0.00084177661433115759 0 0.0040821903173740232 0.00090847996943239592 0 0.0040821903173740232 0.00090847996943239592 0 0.0039450246593667974 0.00088816841508223708 0 0.0041190581953307456 0.00072128478589818896 0 0.0040821903173740232 0.00090847996943239592 0 0.0039450246593667974 0.00088816841508223708 0 0.004038329373757585 0.0010979842809379905 0 0.0039450246593667974 0.00088816841508223708 0 0.0041190581953307456 0.00072128478589818896 0 0.0039717526871135434 0.0006134451444908428 0 0.0036119254795294814 0.00070620139565074009 0 0.0039717526871135434 0.0006134451444908428 0 0.0036513990132597922 0.00090929239764812463 0 0.0039450246593667974 0.00088816841508223708 0 0.0039717526871135434 0.0006134451444908428 0 0.0036513990132597922 0.00090929239764812463 0 0.0039450246593667974 0.00088816841508223708 0 0.0036513990132597922 0.00090929239764812463 0 0.0037715660366837898 0.0011676079958515002 0 0.0032582201320991277 0.0012527212350382697 0 0.0036513990132597922 0.00090929239764812463 0 0.0037715660366837898 0.0011676079958515002 0 0.004124716594808054 0.0014076110485276966 0 0.0037715660366837898 0.0011676079958515002 0 0.004038329373757585 0.0010979842809379905 0 0.0039450246593667974 0.00088816841508223708 0 0.0037715660366837898 0.0011676079958515002 0 0.004038329373757585 0.0010979842809379905 0 0.0055892439195163015 -2.5069101251321844e-06 0 0.00618816148801298 9.7748433205161976e-07 0 0.0055039822650334649 -3.3986467393516645e-07 0 0.0055892439195163015 -2.5069101251321844e-06 0 0.0053183837296965492 -1.5317104050863705e-06 0 0.0055039822650334649 -3.3986467393516645e-07 0 0.0055892439195163015 -2.5069101251321844e-06 0 0.0052629836523106505 2.8451478629969997e-05 0 0.0053183837296965492 -1.5317104050863705e-06 0 0.0052629836523106505 2.8451478629969997e-05 0 0.0051020616891540825 1.6990950211895057e-05 0 0.0053183837296965492 -1.5317104050863705e-06 0 0.0051394259675974514 2.1237077779575929e-05 0 0.0052629836523106505 2.8451478629969997e-05 0 0.0051020616891540825 1.6990950211895057e-05 0 0.0051394259675974514 2.1237077779575929e-05 0 0.0052629836523106505 2.8451478629969997e-05 0 0.0051190077953522442 8.0613635525462302e-05 0 0.005292170009892223 0.00030960435323226906 0 0.0051190077953522442 8.0613635525462302e-05 0 0.0050549834305151 3.8441147395052008e-05 0 0.0052629836523106505 2.8451478629969997e-05 0 0.005292170009892223 0.00030960435323226906 0 0.0051190077953522442 8.0613635525462302e-05 0 0.0055892439195163015 -2.5069101251321844e-06 0 0.0052629836523106505 2.8451478629969997e-05 0 0.005292170009892223 0.00030960435323226906 0 0.0077022210896108148 -0.00053813800834951213 0 0.0076920887286664394 -0.00049151426576504276 0 0.0076612699025926248 -0.00053990346974900586 0 0.0064999479456335461 -0.00014732405645539968 0 0.006174641333737789 -1.7083576693265589e-05 0 0.0061892027801206334 3.267673299379594e-07 0 0.0068096383983102153 3.0428212767535267e-05 0 0.0055892439195163015 -2.5069101251321844e-06 0 0.005292170009892223 0.00030960435323226906 0 0.0057035716719882864 0.00061959885907121104 0 0.0055892439195163015 -2.5069101251321844e-06 0 0.00618816148801298 9.7748433205161976e-07 0 0.006002782145799598 0.00052519114185723228 0 0.0054426958646038911 0.00019367842966111227 0 0.0068096383983102153 3.0428212767535267e-05 0 0.0064999479456335461 -0.00014732405645539968 0 0.0068096383983102153 3.0428212767535267e-05 0 0.006189826053391999 1.7095019722490735e-10 0 0.0066909440937312848 1.8866895364626024e-08 0 0.0068933093421670987 -1.2560282290484101e-10 0 0.0068096383983102153 3.0428212767535267e-05 0 0.0076741184024428774 -6.4096657985519441e-05 0 0.0068104750688049 1.3179899650502562e-05 0 0.0068945167751544249 7.1979613694636658e-08 0 0.007293454666190493 -4.6611701606081448e-06 0 0.0068096383983102153 3.0428212767535267e-05 0 0.0068938074729014845 1.155437488347776e-08 0 0.0068945167751544249 7.1979613694636658e-08 0 0.0074174891995828773 -7.1474159249575998e-08 0 0.007293454666190493 -4.6611701606081448e-06 0 0.0079135102622776496 -0.00033125911597831336 0 0.0068096383983102153 3.0428212767535267e-05 0 0.0079637786398057183 -4.5761312322339843e-05 0 0.0079556520955938754 -4.2440849931871045e-05 0 0.0079698085866688143 -3.812673061666845e-05 0 0.007706941934822094 -0.00045020349606408465 0 0.0076920887286664394 -0.00049151426576504276 0 0.007673769143153937 -0.00047080450550506718 0 0.007706941934822094 -0.00045020349606408465 0 0.0077280393223741004 -0.00049991887385226433 0 0.0076920887286664394 -0.00049151426576504276 0 0.0077022210896108148 -0.00053813800834951213 0 0.0077280393223741004 -0.00049991887385226433 0 0.0076920887286664394 -0.00049151426576504276 0 0.0076920887286664394 -0.00049151426576504276 0 0.0076547479893876464 -0.00049747613373270097 0 0.0076612699025926248 -0.00053990346974900586 0 0.0076920887286664394 -0.00049151426576504276 0 0.0076547479893876464 -0.00049747613373270097 0 0.007673769143153937 -0.00047080450550506718 0 0.0076751723171961011 -0.00044701545024169098 0 0.007706941934822094 -0.00045020349606408465 0 0.007673769143153937 -0.00047080450550506718 0 0.0076751723171961011 -0.00044701545024169098 0 0.007673769143153937 -0.00047080450550506718 0 0.0076434741638412114 -0.00047613145589021189 0 0.0076547479893876464 -0.00049747613373270097 0 0.0076434741638412114 -0.00047613145589021189 0 0.0076483772805693486 -0.00054561459210277765 0 0.0076547479893876464 -0.00049747613373270097 0 0.007673769143153937 -0.00047080450550506718 0 0.0076434741638412114 -0.00047613145589021189 0 0.0076502169087510202 -0.00049699313537646703 0 0.0075683896947027658 -0.00056828059665978972 0 0.0075295462359537641 -0.00055200329346885319 0 0.0076612699025926248 -0.00053990346974900586 0 0.0076509806606237215 -0.00061665276744283571 0 0.0076547479893876464 -0.00049747613373270097 0 0.0075295462359537641 -0.00055200329346885319 0 0.0076612699025926248 -0.00053990346974900586 0 0.0077022210896108148 -0.00053813800834951213 0 0.0076612699025926248 -0.00053990346974900586 0 0.0076509806606237215 -0.00061665276744283571 0 0.0051099843734461947 4.7143930412378759e-05 0 0.005155245491559636 5.3130301276339252e-05 0 0.0051130028453196998 3.2062743745396947e-05 0 0.006174641333737789 -1.7083576693265589e-05 0 0.0056052597101083103 6.5325928506995183e-05 0 0.0051394259675974514 2.1237077779575929e-05 0 0.0051099843734461947 4.7143930412378759e-05 0 0.0051130028453196998 3.2062743745396947e-05 0 0.0051394259675974514 2.1237077779575929e-05 0 0.0051190077953522442 8.0613635525462302e-05 0 0.0051099843734461947 4.7143930412378759e-05 0 0.0057053115510503532 -0.00013500487516193859 0 0.006174641333737789 -1.7083576693265589e-05 0 0.006174641333737789 -1.7083576693265589e-05 0 0.006551783282077968 -0.00032625124973258168 0 0.0062962485432873404 0.0004440644556905223 0 0.0054457947426204628 6.6737306428923504e-05 0 0.0056480495703095769 -8.9214712240442992e-05 0 0.0075295462359537641 -0.00055200329346885319 0 0.0076509806606237215 -0.00061665276744283571 0 0.0074774103095001133 -0.00071288227399084875 0 0.0075683896947027658 -0.00056828059665978972 0 0.0076173060416954413 -0.00060787292774604413 0 0.0076483772805693486 -0.00054561459210277765 0 0.007606555699357617 -0.00062495513265603433 0 0.007567850901366596 -0.00058918475728203968 0 0.0075295462359537641 -0.00055200329346885319 0 0.0073833812798771662 -0.00066637528697467805 0 0.0074774103095001133 -0.00071288227399084875 0 0.007606555699357617 -0.00062495513265603433 0 0.00753589763264754 -0.00064695880044334593 0 0.007567850901366596 -0.00058918475728203968 0 0.00753589763264754 -0.00064695880044334593 0 0.0075025447956055006 -0.0005982758810104895 0 0.0074578774435257403 -0.00070668659000757523 0 0.00753589763264754 -0.00064695880044334593 0 0.0075025447956055006 -0.0005982758810104895 0 0.007567850901366596 -0.00058918475728203968 0 0.0075025447956055006 -0.0005982758810104895 0 0.0075728619825966015 -0.00053311770814312655 0 0.007477658004353082 -0.00051572915948018007 0 0.0075025447956055006 -0.0005982758810104895 0 0.007567850901366596 -0.00058918475728203968 0 0.0075728619825966015 -0.00053311770814312655 0 0.0076483772805693486 -0.00054561459210277765 0 0.007567850901366596 -0.00058918475728203968 0 0.0075728619825966015 -0.00053311770814312655 0 0.0076434741638412114 -0.00047613145589021189 0 0.0075728619825966015 -0.00053311770814312655 0 0.0075749345364751371 -0.00048812840347463684 0 0.0076434741638412114 -0.00047613145589021189 0 0.0076483772805693486 -0.00054561459210277765 0 0.0075728619825966015 -0.00053311770814312655 0 0.0076280141254309068 -0.00045113763831733318 0 0.0076434741638412114 -0.00047613145589021189 0 0.0075749345364751371 -0.00048812840347463684 0 0.0076280141254309068 -0.00045113763831733318 0 0.0075749345364751371 -0.00048812840347463684 0 0.0075337765320835385 -0.00046871649876591116 0 0.0075728619825966015 -0.00053311770814312655 0 0.0075749345364751371 -0.00048812840347463684 0 0.007477658004353082 -0.00051572915948018007 0 0.0075749345364751371 -0.00048812840347463684 0 0.0075337765320835385 -0.00046871649876591116 0 0.007477658004353082 -0.00051572915948018007 0 0.0074744532929244467 -0.00044002818443416024 0 0.0074622606872023385 -0.00048784980386090275 0 0.0075337765320835385 -0.00046871649876591116 0 0.0074719711678712377 3.9805651438282599e-05 0 0.0074831443723190174 8.4309768068683031e-05 0 0.0074622606872023385 -0.00048784980386090275 0 0.0075337765320835385 -0.00046871649876591116 0 0.007477658004353082 -0.00051572915948018007 0 0.0074622606872023385 -0.00048784980386090275 0 0.0074412663189539251 -0.00050189397913131541 0 0.007477658004353082 -0.00051572915948018007 0 0.007477658004353082 -0.00051572915948018007 0 0.0074438667798606322 -0.00050383570392173612 0 0.0074233028910451254 -0.00049576857815160932 0 0.0074412663189539251 -0.00050189397913131541 0 0.007477658004353082 -0.00051572915948018007 0 0.0074438667798606322 -0.00050383570392173612 0 0.0073812168547151271 -0.00050619013827762026 0 0.0077261628524543987 -0.00062476415574317431 0 0.0075025447956055006 -0.0005982758810104895 0 0.007477658004353082 -0.00051572915948018007 0 0.0073729531426382326 -0.00064060796313734935 0 0.0075025447956055006 -0.0005982758810104895 0 0.0073729531426382326 -0.00064060796313734935 0 0.0074578774435257403 -0.00070668659000757523 0 0.0074312908318781819 -0.00049408160983354212 0 0.0074438667798606322 -0.00050383570392173612 0 0.0074233028910451254 -0.00049576857815160932 0 0.0074312908318781819 -0.00049408160983354212 0 0.0074144285502188087 -0.0004727225782222578 0 0.0074233028910451254 -0.00049576857815160932 0 0.0074144285502188087 -0.0004727225782222578 0 0.0074233028910451254 -0.00049576857815160932 0 0.0073889823186241901 -0.00045763328181231024 0 0.0077261628524543987 -0.00062476415574317431 0 0.0048927412580199161 -0.00016100599204306495 0 0.0073729531426382326 -0.00064060796313734935 0 0.0073743030361269439 -0.00071407621100945786 0 0.0072642768602956195 -0.00082660120952980567 0 0.0073729531426382326 -0.00064060796313734935 0 0.0074578774435257403 -0.00070668659000757523 0 0.0073743030361269439 -0.00071407621100945786 0 0.0074578774435257403 -0.00070668659000757523 0 0.0073885091247470475 -0.0007595478724553152 0 0.0074120826176009751 -0.00078766896516306844 0 0.0074578774435257403 -0.00070668659000757523 0 0.0073743030361269439 -0.00071407621100945786 0 0.0073885091247470475 -0.0007595478724553152 0 0.0073743030361269439 -0.00071407621100945786 0 0.0073885091247470475 -0.0007595478724553152 0 0.0073323430379761108 -0.00077922736482115751 0 0.0049308913671678263 -0.00073029803826613223 0 0.0042398093688654917 -0.00012941194281686772 0 0.0073885091247470475 -0.0007595478724553152 0 0.0073909576087641633 -0.00078825556814258394 0 0.0073382504819193553 -0.00079566051456323535 0 0.0073909576087641633 -0.00078825556814258394 0 0.0074105711906135002 -0.00078962900929158695 0 0.0072778679177973298 -0.00084041403905509644 0 0.0073885091247470475 -0.0007595478724553152 0 0.0073382504819193553 -0.00079566051456323535 0 0.0073323430379761108 -0.00077922736482115751 0 0.0015256128508107283 -0.00039918960254200901 0 0.0014678748415799185 -0.0001648248595333989 0 0.0014423184643096833 -0.00050318979231502177 0 0.0073885091247470475 -0.0007595478724553152 0 0.0073909576087641633 -0.00078825556814258394 0 0.0074120826176009751 -0.00078766896516306844 0 0.0054614875555895927 -0.00074521074655461202 0 0.0049308913671678263 -0.00073029803826613223 0 0.001595492245016707 -0.00051579336875186049 0 0.0015256128508107283 -0.00039918960254200901 0 0.0014501764424842529 -0.00050593401197867845 0 0.0049308913671678263 -0.00073029803826613223 0 0.0030754268679840297 -0.00067016777919886596 0 0.0019541620684730009 -0.00086471784775552277 0 0.0030754268679840297 -0.00067016777919886596 0 0.0015256128508107283 -0.00039918960254200901 0 0.0016667558678754746 -0.00040500509486440513 0 0.0016030473276034661 -0.00032647732993909182 0 0.001595492245016707 -0.00051579336875186049 0 0.0015256128508107283 -0.00039918960254200901 0 0.0016667558678754746 -0.00040500509486440513 0 0.001595492245016707 -0.00051579336875186049 0 0.0016667558678754746 -0.00040500509486440513 0 0.0018373748693788665 -0.00042245138469452581 0 0.0016667558678754746 -0.00040500509486440513 0 0.0016030473276034661 -0.00032647732993909182 0 0.0016950424447530401 -0.00034326199075952968 0 0.0016667558678754746 -0.00040500509486440513 0 0.0016950424447530401 -0.00034326199075952968 0 0.0017701171611334257 -0.00037020918672377775 0 0.0073743030361269439 -0.00071407621100945786 0 0.0073323430379761108 -0.00077922736482115751 0 0.0072642768602956195 -0.00082660120952980567 0 0.0017701171611334257 -0.00037020918672377775 0 0.0018095361002556506 -0.00037153054769626021 0 0.0017522574750045653 -0.00033352344602198726 0 0.0016667558678754746 -0.00040500509486440513 0 0.0017701171611334257 -0.00037020918672377775 0 0.0018373748693788665 -0.00042245138469452581 0 0.0016950424447530401 -0.00034326199075952968 0 0.0017701171611334257 -0.00037020918672377775 0 0.0017522574750045653 -0.00033352344602198726 0 0.0017701171611334257 -0.00037020918672377775 0 0.0018095361002556506 -0.00037153054769626021 0 0.0018182965515590051 -0.00041710772629296197 0 0.0018095361002556506 -0.00037153054769626021 0 0.0018182965515590051 -0.00041710772629296197 0 0.0018370277154404378 -0.00040793656349741428 0 0.0031471553271633073 0.00026157384273183708 0 0.0042398093688654917 -0.00012941194281686772 0 0.0072778679177973298 -0.00084041403905509644 0 0.0073018298361759732 -0.00081077742981041897 0 0.0072642768602956195 -0.00082660120952980567 0 0.0042398093688654917 -0.00012941194281686772 0 0.0048927412580199161 -0.00016100599204306495 0 0.0073382504819193553 -0.00079566051456323535 0 0.0073018298361759732 -0.00081077742981041897 0 0.0073323430379761108 -0.00077922736482115751 0 0.0073909576087641633 -0.00078825556814258394 0 0.0072778679177973298 -0.00084041403905509644 0 0.0073382504819193553 -0.00079566051456323535 0 0.0072778679177973298 -0.00084041403905509644 0 0.0073382504819193553 -0.00079566051456323535 0 0.0073018298361759732 -0.00081077742981041897 0 0.0073018298361759732 -0.00081077742981041897 0 0.0073323430379761108 -0.00077922736482115751 0 0.0072642768602956195 -0.00082660120952980567 0 0.0051628768311449257 -4.4253389664263656e-05 0 0.0048927412580199161 -0.00016100599204306495 0 0.0029025340796990395 0.00038913827666312213 0 0.0027773224001667669 0.00066626600976948307 0 0.0026136330271824804 0.00067221083966470334 0 0.0028096746291410468 0.00082642478045211914 0 0.0027773224001667669 0.00066626600976948307 0 0.0026271401476128456 0.00073321566882472201 0 0.0027773224001667669 0.00066626600976948307 0 0.0026136330271824804 0.00067221083966470334 0 0.0026271401476128456 0.00073321566882472201 0 0.0042398093688654917 -0.00012941194281686772 0 0.0038279830309412947 -0.00013092029220286843 0 0.0048927412580199161 -0.00016100599204306495 0 0.0038279830309412947 -0.00013092029220286843 0 0.00452118000961544 0.00010585871511373955 0 0.0044591098272558109 0.00016317182182916021 0 0.004435488271009428 6.5978321684893063e-05 0 0.0030910037425137056 0.00019546614807342769 0 0.0038279830309412947 -0.00013092029220286843 0 0.0018370277154404378 -0.00040793656349741428 0 0.0018014841792494351 -0.00028789073007629115 0 0.0018624935140545489 -0.00022411104992346492 0 0.0027878631293496762 0.00088960078115377474 0 0.0027759987471754578 0.00085431638327668419 0 0.0027899311309608622 0.00088578810950087775 0 0.0018370277154404378 -0.00040793656349741428 0 0.0018624935140545489 -0.00022411104992346492 0 0.0020187512282760175 -0.0001506118070751127 0 0.0038279830309412947 -0.00013092029220286843 0 0.0022379166279561857 0.00042290345238932817 0 0.0028096746291410468 0.00082642478045211914 0 0.0027878631293496762 0.00088960078115377474 0 0.0027759987471754578 0.00085431638327668419 0 0.0018095361002556506 -0.00037153054769626021 0 0.0018370277154404378 -0.00040793656349741428 0 0.0018014841792494351 -0.00028789073007629115 0 0.0018014841792494351 -0.00028789073007629115 0 0.0016802267761793098 -0.00020376536716337472 0 0.0016761240868054242 -0.00028050027828766536 0 0.0018095361002556506 -0.00037153054769626021 0 0.0017522574750045653 -0.00033352344602198726 0 0.0018014841792494351 -0.00028789073007629115 0 0.0017522574750045653 -0.00033352344602198726 0 0.0018014841792494351 -0.00028789073007629115 0 0.0016761240868054242 -0.00028050027828766536 0 0.0018014841792494351 -0.00028789073007629115 0 0.0018624935140545489 -0.00022411104992346492 0 0.0016802267761793098 -0.00020376536716337472 0 0.0018624935140545489 -0.00022411104992346492 0 0.0020187512282760175 -0.0001506118070751127 0 0.0017711566646617721 -8.6908844474323018e-05 0 0.0018624935140545489 -0.00022411104992346492 0 0.0017711566646617721 -8.6908844474323018e-05 0 0.0016802267761793098 -0.00020376536716337472 0 0.0017711566646617721 -8.6908844474323018e-05 0 0.0020150274895512949 0.0001180831490195888 0 0.0018681967477955079 0.00016966223962316829 0 0.0020187512282760175 -0.0001506118070751127 0 0.0017711566646617721 -8.6908844474323018e-05 0 0.0020150274895512949 0.0001180831490195888 0 0.0017711566646617721 -8.6908844474323018e-05 0 0.0014129411115809721 -2.8955686465852725e-05 0 0.0018681967477955079 0.00016966223962316829 0 0.0015213771184200123 -0.00015215013081654327 0 0.0015260073847637716 -0.00022058337282394487 0 0.0014129411115809721 -2.8955686465852725e-05 0 0.0017711566646617721 -8.6908844474323018e-05 0 0.0015213771184200123 -0.00015215013081654327 0 0.0014129411115809721 -2.8955686465852725e-05 0 0.0017711566646617721 -8.6908844474323018e-05 0 0.0015213771184200123 -0.00015215013081654327 0 0.0016802267761793098 -0.00020376536716337472 0 0.0015213771184200123 -0.00015215013081654327 0 0.0014678748415799185 -0.0001648248595333989 0 0.0015260073847637716 -0.00022058337282394487 0 0.0015213771184200123 -0.00015215013081654327 0 0.0016802267761793098 -0.00020376536716337472 0 0.0014678748415799185 -0.0001648248595333989 0 0.0016802267761793098 -0.00020376536716337472 0 0.0016761240868054242 -0.00028050027828766536 0 0.0014678748415799185 -0.0001648248595333989 0 0.0016030473276034661 -0.00032647732993909182 0 0.0016761240868054242 -0.00028050027828766536 0 0.0014678748415799185 -0.0001648248595333989 0 0.0016030473276034661 -0.00032647732993909182 0 0.0016950424447530401 -0.00034326199075952968 0 0.0016761240868054242 -0.00028050027828766536 0 0.0016950424447530401 -0.00034326199075952968 0 0.0017522574750045653 -0.00033352344602198726 0 0.0016761240868054242 -0.00028050027828766536 0 0.0015256128508107283 -0.00039918960254200901 0 0.0016030473276034661 -0.00032647732993909182 0 0.0014678748415799185 -0.0001648248595333989 0 0.0014678748415799185 -0.0001648248595333989 0 0.0015260073847637716 -0.00022058337282394487 0 0.0018509933858926759 -1.9435850821471385e-05 0 0.0014678748415799185 -0.0001648248595333989 0 0.0018509933858926759 -1.9435850821471385e-05 0 0.0018939079164792126 0.00066740279782747823 0 0.0015260073847637716 -0.00022058337282394487 0 0.0017502360124077179 -0.00044587905044101816 0 0.0014875026141323653 -0.00015215357291915109 0 0.0015260073847637716 -0.00022058337282394487 0 0.0014875026141323653 -0.00015215357291915109 0 0.0014129411115809721 -2.8955686465852725e-05 0 0.0015260073847637716 -0.00022058337282394487 0 0.0017502360124077179 -0.00044587905044101816 0 0.0018509933858926759 -1.9435850821471385e-05 0 0.0017502360124077179 -0.00044587905044101816 0 0.0018509933858926759 -1.9435850821471385e-05 0 0.0028442536816454277 -0.00016299964871834582 0 0.0018509933858926759 -1.9435850821471385e-05 0 0.00243997256526333 0.00030655351493933357 0 0.0028442536816454277 -0.00016299964871834582 0 0.0018509933858926759 -1.9435850821471385e-05 0 0.0018939079164792126 0.00066740279782747823 0 0.00243997256526333 0.00030655351493933357 0 0.00083133719920426281 -0.00020191471021208695 0 0.0033054696474513973 -7.6970518076812112e-05 0 0.0049728840465705984 -0.00065251062237672776 0 0.0042937005879716715 -0.00063560999854418254 0 0.0045595836644165572 -0.00033477065099403935 0 0.0033054696474513973 -7.6970518076812112e-05 0 0.0030754268679840297 -0.00067016777919886596 0 0.0014678748415799185 -0.0001648248595333989 0 0.0012022737790303732 -0.00049538189725548706 0 0.0014423184643096833 -0.00050318979231502177 0 0.0043505230970204084 -0.0008958270607724683 0 0.0049031301252508925 -0.00090957506066606986 0 0.0053007083505600102 -0.0004489162288634404 0 0.0049308913671678263 -0.00073029803826613223 0 0.0061754666047079331 -0.00048438832329376512 0 0.0074578774435257403 -0.00070668659000757523 0 0.0074120826176009751 -0.00078766896516306844 0 0.007532408749378626 -0.0007270500246956969 0 0.007606555699357617 -0.00062495513265603433 0 0.00753589763264754 -0.00064695880044334593 0 0.007532408749378626 -0.0007270500246956969 0 0.0030754268679840297 -0.00067016777919886596 0 0.0061754666047079331 -0.00048438832329376512 0 0.00753589763264754 -0.00064695880044334593 0 0.0074578774435257403 -0.00070668659000757523 0 0.007532408749378626 -0.0007270500246956969 0 0.0073833812798771662 -0.00066637528697467805 0 0.0072237041895112869 -0.00082894885703380594 0 0.0074774103095001133 -0.00071288227399084875 0 0.0033054696474513973 -7.6970518076812112e-05 0 0.0056052597101083103 6.5325928506995183e-05 0 0.0049728840465705984 -0.00065251062237672776 0 0.0054457947426204628 6.6737306428923504e-05 0 0.0056480495703095769 -8.9214712240442992e-05 0 0.0049728840465705984 -0.00065251062237672776 0 0.0045595836644165572 -0.00033477065099403935 0 0.0054457947426204628 6.6737306428923504e-05 0 0.0076173060416954413 -0.00060787292774604413 0 0.0061754666047079331 -0.00048438832329376512 0 0.0061754666047079331 -0.00048438832329376512 0 0.006551783282077968 -0.00032625124973258168 0 0.005155245491559636 5.3130301276339252e-05 0 0.0051130028453196998 3.2062743745396947e-05 0 0.0051444937149308688 0.00012939834252016969 0 0.0051820231536623788 0.00010321612592070588 0 0.005155245491559636 5.3130301276339252e-05 0 0.0051444937149308688 0.00012939834252016969 0 0.0051130028453196998 3.2062743745396947e-05 0 0.0051444937149308688 0.00012939834252016969 0 0.0048540258312202988 0.00018755503885852529 0 0.0042393384961814983 0.00045960678079047735 0 0.0047566675393648965 0.00023238669849037747 0 0.0032323449552536208 0.00076156053159098607 0 0.0038980894735427076 -2.136166380493226e-05 0 0.0048540258312202988 0.00018755503885852529 0 0.0033054696474513973 -7.6970518076812112e-05 0 0.0042393384961814983 0.00045960678079047735 0 0.00243997256526333 0.00030655351493933357 0 0.0032323449552536208 0.00076156053159098607 0 0.0028442536816454277 -0.00016299964871834582 0 0.0018939079164792126 0.00066740279782747823 0 0.00243997256526333 0.00030655351493933357 0 0.0032323449552536208 0.00076156053159098607 0 0.0017502360124077179 -0.00044587905044101816 0 0.0011608882945132284 -0.00034268386599491969 0 0.0014389162440002995 -0.00012592783212705784 0 0.0016635023317199602 -0.00061350281772999465 0 0.0026284981915881667 -0.00020778774732843188 0 0.0017502360124077179 -0.00044587905044101816 0 0.0028442536816454277 -0.00016299964871834582 0 0.0033206330462223913 -0.0012465942825995592 0 0.0033206330462223913 -0.0012465942825995592 0 0.003699478480249741 -0.00043992473348376587 0 0.0046309203279055406 -0.0003445497519073023 0 0.0028442536816454277 -0.00016299964871834582 0 0.0033206330462223913 -0.0012465942825995592 0 0.003699478480249741 -0.00043992473348376587 0 0.0026284981915881667 -0.00020778774732843188 0 0.0044660610737342898 -0.00021208713459425235 0 0.0028442536816454277 -0.00016299964871834582 0 0.003699478480249741 -0.00043992473348376587 0 0.0038980894735427076 -2.136166380493226e-05 0 0.0032323449552536208 0.00076156053159098607 0 0.0028442536816454277 -0.00016299964871834582 0 0.0038980894735427076 -2.136166380493226e-05 0 0.003699478480249741 -0.00043992473348376587 0 0.0038980894735427076 -2.136166380493226e-05 0 0.0046309203279055406 -0.0003445497519073023 0 0.0038980894735427076 -2.136166380493226e-05 0 0.0046309203279055406 -0.0003445497519073023 0 0.0048540258312202988 0.00018755503885852529 0 0.0038476111057563316 -2.7706296521938736e-05 0 0.00401666603310039 3.1384482135533811e-05 0 0.0039305239536512725 -4.5388954152487326e-05 0 0.00401666603310039 3.1384482135533811e-05 0 0.0041291911914333908 -4.1623816813072212e-07 0 0.0039305239536512725 -4.5388954152487326e-05 0 0.0044660610737342898 -0.00021208713459425235 0 0.0048192340191302524 -1.2310541399117551e-07 0 0.00401666603310039 3.1384482135533811e-05 0 0.0041291911914333908 -4.1623816813072212e-07 0 0.0048186162882059447 4.4257255006176041e-07 0 0.0046309203279055406 -0.0003445497519073023 0 0.0048209365480607717 1.9212550255185544e-07 0 0.0048540258312202988 0.00018755503885852529 0 0.0048209365480607717 1.9212550255185544e-07 0 0.0048540258312202988 0.00018755503885852529 0 0.0050679930910208304 2.6383714897176703e-05 0 0.0051130028453196998 3.2062743745396947e-05 0 0.0048540258312202988 0.00018755503885852529 0 0.0051020616891540825 1.6990950211895057e-05 0 0.0051394259675974514 2.1237077779575929e-05 0 0.0051130028453196998 3.2062743745396947e-05 0 0.0051020616891540825 1.6990950211895057e-05 0 0.0048540258312202988 0.00018755503885852529 0 0.0051020616891540825 1.6990950211895057e-05 0 0.0050679930910208304 2.6383714897176703e-05 0 0.0051020616891540825 1.6990950211895057e-05 0 0.0053183837296965492 -1.5317104050863705e-06 0 0.0050679930910208304 2.6383714897176703e-05 0 0.0048209365480607717 1.9212550255185544e-07 0 0.0055039822650334649 -3.3986467393516645e-07 0 0.0050679930910208304 2.6383714897176703e-05 0 0.0053183837296965492 -1.5317104050863705e-06 0 0.0055039822650334649 -3.3986467393516645e-07 0 0.0050679930910208304 2.6383714897176703e-05 0 0.0019047291679585745 -1.670137923783035e-07 0 0.0023392127042134213 -0.00017952367089706128 0 0.0022093870892387303 -0.00022696295847958036 0 0.0019047291679585745 -1.670137923783035e-07 0 0.0023392127042134213 -0.00017952367089706128 0 0.0026711430645431165 -6.5279409181705918e-07 0 0.0023392127042134213 -0.00017952367089706128 0 0.0020782279705297002 -0.00028683515101988392 0 0.0022093870892387303 -0.00022696295847958036 0 0.0020782279705297002 -0.00028683515101988392 0 0.0019831606241843178 -0.00046510417572010035 0 0.0022093870892387303 -0.00022696295847958036 0 0.0023392127042134213 -0.00017952367089706128 0 0.0026207658260599133 -1.3666345171699214e-05 0 0.0021339430376547258 -0.000102514327863315 0 0.0023392127042134213 -0.00017952367089706128 0 0.0021339430376547258 -0.000102514327863315 0 0.0020782279705297002 -0.00028683515101988392 0 0.0023392127042134213 -0.00017952367089706128 0 0.0026711430645431165 -6.5279409181705918e-07 0 0.0026207658260599133 -1.3666345171699214e-05 0 0.0026711430645431165 -6.5279409181705918e-07 0 0.0034377238668536524 1.2112359287876041e-06 0 0.0026207658260599133 -1.3666345171699214e-05 0 0.0041291911914333908 -4.1623816813072212e-07 0 0.0034402749886394725 3.8762425877326746e-07 0 0.0039305239536512725 -4.5388954152487326e-05 0 0.0034377238668536524 1.2112359287876041e-06 0 0.0024409773399255361 0.00050688719259883057 0 0.0026207658260599133 -1.3666345171699214e-05 0 0.0034389263480813382 8.4623939170351462e-08 0 0.0032031190775259938 0.00025709149857800146 0 0.0024409773399255361 0.00050688719259883057 0 0.0026207658260599133 -1.3666345171699214e-05 0 0.0020079713203169625 0.00024365695608115939 0 0.0026207658260599133 -1.3666345171699214e-05 0 0.0020079713203169625 0.00024365695608115939 0 0.0021339430376547258 -0.000102514327863315 0 0.0020079713203169625 0.00024365695608115939 0 0.0015875899602717058 4.7777425600065368e-06 0 0.0021339430376547258 -0.000102514327863315 0 0.0026284981915881667 -0.00020778774732843188 0 0.0032031190775259938 0.00025709149857800146 0 0.0018383313162578213 0.00062368769643256748 0 0.0024409773399255361 0.00050688719259883057 0 0.0020079713203169625 0.00024365695608115939 0 0.0018383313162578213 0.00062368769643256748 0 0.0020079713203169625 0.00024365695608115939 0 0.0015078517865570178 0.00031808123923876905 0 0.0026284981915881667 -0.00020778774732843188 0 0.0013661955692600379 2.9298971614597832e-05 0 0.0020079713203169625 0.00024365695608115939 0 0.0015078517865570178 0.00031808123923876905 0 0.0015875899602717058 4.7777425600065368e-06 0 0.0015078517865570178 0.00031808123923876905 0 0.0015875899602717058 4.7777425600065368e-06 0 0.0013023322399318348 -2.674660671673853e-05 0 0.0015875899602717058 4.7777425600065368e-06 0 0.0013106535197139326 -0.00023229215589353112 0 0.0013041809045134334 -0.00011016878381749441 0 0.0013106535197139326 -0.00023229215589353112 0 0.0018038645768729466 -0.00021377642764899252 0 0.0017628805407015663 -0.00041692536406817145 0 0.0015875899602717058 4.7777425600065368e-06 0 0.0013106535197139326 -0.00023229215589353112 0 0.0018038645768729466 -0.00021377642764899252 0 0.0015875899602717058 4.7777425600065368e-06 0 0.0021339430376547258 -0.000102514327863315 0 0.0018038645768729466 -0.00021377642764899252 0 0.0021339430376547258 -0.000102514327863315 0 0.0018038645768729466 -0.00021377642764899252 0 0.0020782279705297002 -0.00028683515101988392 0 0.0018038645768729466 -0.00021377642764899252 0 0.0020782279705297002 -0.00028683515101988392 0 0.0017628805407015663 -0.00041692536406817145 0 0.0020782279705297002 -0.00028683515101988392 0 0.0017628805407015663 -0.00041692536406817145 0 0.0019831606241843178 -0.00046510417572010035 0 0.0015099631528280152 -0.00041724755418342998 0 0.00099172561817266686 -0.00028384214466295758 0 0.0013106535197139326 -0.00023229215589353112 0 0.0011683694938903592 -0.00030666910094361477 0 0.00099646433356830153 -0.00035588943216965588 0 0.0012980304317770101 -0.00019209389213214952 0 0.0015099631528280152 -0.00041724755418342998 0 0.0013106535197139326 -0.00023229215589353112 0 0.00099646433356830153 -0.00035588943216965588 0 0.0008771332512384029 -0.00034379790819523707 0 0.0008771332512384029 -0.00034379790819523707 0 0.00079311451297476524 -0.00033103743134984409 0 0.00063336368422504583 -0.00041696663344833248 0 0.0008771332512384029 -0.00034379790819523707 0 0.00079311451297476524 -0.00033103743134984409 0 0.001067561531316389 -0.000190720399565778 0 0.00079311451297476524 -0.00033103743134984409 0 0.0009643686104322532 -0.00022002562288739812 0 0.001067561531316389 -0.000190720399565778 0 0.0009643686104322532 -0.00022002562288739812 0 0.001067561531316389 -0.000190720399565778 0 0.0011488457143169696 -0.00011412208402333975 0 0.0013106535197139326 -0.00023229215589353112 0 0.0008771332512384029 -0.00034379790819523707 0 0.001067561531316389 -0.000190720399565778 0 0.0013106535197139326 -0.00023229215589353112 0 0.001067561531316389 -0.000190720399565778 0 0.0013041809045134334 -0.00011016878381749441 0 0.001067561531316389 -0.000190720399565778 0 0.0013041809045134334 -0.00011016878381749441 0 0.0013023322399318348 -2.674660671673853e-05 0 0.0015875899602717058 4.7777425600065368e-06 0 0.0013041809045134334 -0.00011016878381749441 0 0.0013023322399318348 -2.674660671673853e-05 0 0.0017502360124077179 -0.00044587905044101816 0 0.0014389162440002995 -0.00012592783212705784 0 0.0014875026141323653 -0.00015215357291915109 0 0.0014389162440002995 -0.00012592783212705784 0 0.0013023322399318348 -2.674660671673853e-05 0 0.0014875026141323653 -0.00015215357291915109 0 0.0013661955692600379 2.9298971614597832e-05 0 0.0013794819238184335 2.8981521714735472e-05 0 0.0014875026141323653 -0.00015215357291915109 0 0.0011488457143169696 -0.00011412208402333975 0 0.0014129411115809721 -2.8955686465852725e-05 0 0.001067561531316389 -0.000190720399565778 0 0.0013023322399318348 -2.674660671673853e-05 0 0.0011488457143169696 -0.00011412208402333975 0 0.0013023322399318348 -2.674660671673853e-05 0 0.0014875026141323653 -0.00015215357291915109 0 0.0011488457143169696 -0.00011412208402333975 0 0.0011488457143169696 -0.00011412208402333975 0 0.00090039887892570268 -0.00013169370805916691 0 0.00085000763229987875 -0.00025415461225654335 0 0.0011488457143169696 -0.00011412208402333975 0 0.00090039887892570268 -0.00013169370805916691 0 0.0014129411115809721 -2.8955686465852725e-05 0 0.0014129411115809721 -2.8955686465852725e-05 0 0.0018681967477955079 0.00016966223962316829 0 0.0019701961490143811 0.00053670891299009184 0 0.0013194552423894568 0.00023639475897945186 0 0.0013851094098396672 3.7274449040603816e-05 0 0.001741094234940053 0.00088909328818144809 0 0.0014129411115809721 -2.8955686465852725e-05 0 0.0019701961490143811 0.00053670891299009184 0 0.0020187512282760175 -0.0001506118070751127 0 0.0020150274895512949 0.0001180831490195888 0 0.0024014259730720704 0.00049272716735595222 0 0.0020150274895512949 0.0001180831490195888 0 0.0020776676086694422 0.00032456834056377782 0 0.0024014259730720704 0.00049272716735595222 0 0.0020150274895512949 0.0001180831490195888 0 0.0020776676086694422 0.00032456834056377782 0 0.0018681967477955079 0.00016966223962316829 0 0.0020776676086694422 0.00032456834056377782 0 0.0019701961490143811 0.00053670891299009184 0 0.0024014259730720704 0.00049272716735595222 0 0.0020776676086694422 0.00032456834056377782 0 0.0018681967477955079 0.00016966223962316829 0 0.0019701961490143811 0.00053670891299009184 0 0.001741094234940053 0.00088909328818144809 0 0.0022599147816908345 0.00075949226378437733 0 0.0023212787222876684 0.0010405330949090565 0 0.001741094234940053 0.00088909328818144809 0 0.0019701961490143811 0.00053670891299009184 0 0.0022599147816908345 0.00075949226378437733 0 0.0019701961490143811 0.00053670891299009184 0 0.0024014259730720704 0.00049272716735595222 0 0.0022599147816908345 0.00075949226378437733 0 0.001741094234940053 0.00088909328818144809 0 0.0021008896072529423 0.0016792315762991163 0 0.0023212787222876684 0.0010405330949090565 0 0.0013194552423894568 0.00023639475897945186 0 0.0013253129256672704 0.0012116340999648572 0 0.0013253129256672704 0.0012116340999648572 0 0.0022747547286198692 0.0017722872454752543 0 0.00090039887892570268 -0.00013169370805916691 0 0.00064192887436870553 -0.00032412526075106021 0 0.00075168953021534379 -0.00029416796670627549 0 0.00090039887892570268 -0.00013169370805916691 0 0.00085000763229987875 -0.00025415461225654335 0 0.00075168953021534379 -0.00029416796670627549 0 0.0009643686104322532 -0.00022002562288739812 0 0.0011488457143169696 -0.00011412208402333975 0 0.00085000763229987875 -0.00025415461225654335 0 0.00079311451297476524 -0.00033103743134984409 0 0.0009643686104322532 -0.00022002562288739812 0 0.00085000763229987875 -0.00025415461225654335 0 0.00079311451297476524 -0.00033103743134984409 0 0.00070713764171785078 -0.00034700115278195456 0 0.0005984859067309625 -0.00038269188059286723 0 0.00085000763229987875 -0.00025415461225654335 0 0.00070713764171785078 -0.00034700115278195456 0 0.00075168953021534379 -0.00029416796670627549 0 0.00079311451297476524 -0.00033103743134984409 0 0.00085000763229987875 -0.00025415461225654335 0 0.00070713764171785078 -0.00034700115278195456 0 0.00070713764171785078 -0.00034700115278195456 0 0.00067416301714471531 -0.00035235145766318029 0 0.00062591784588679434 -0.00037131986953379707 0 0.00070713764171785078 -0.00034700115278195456 0 0.00067416301714471531 -0.00035235145766318029 0 0.00075168953021534379 -0.00029416796670627549 0 0.00067416301714471531 -0.00035235145766318029 0 0.00064192887436870553 -0.00032412526075106021 0 0.00064032062574597348 -0.00037152510550219508 0 0.00074798299151962845 0.0011969526746248979 0 0.00093280840058985396 0.0016154800978698508 0 0.0013216998620294816 0.00042076004266804429 0 0.0013253129256672704 0.0012116340999648572 0 0.00085677723995394839 -7.9456638233378182e-05 0 0.0010483426004654001 0.0021718760050038876 0 0.0013253129256672704 0.0012116340999648572 0 0.00067416301714471531 -0.00035235145766318029 0 0.00064192887436870553 -0.00032412526075106021 0 0.00075168953021534379 -0.00029416796670627549 0 0.00064032062574597348 -0.00037152510550219508 0 0.0005802526304248001 -0.00034398818733653982 0 0.00062591784588679434 -0.00037131986953379707 0 0.00085677723995394839 -7.9456638233378182e-05 0 0.00076072765307906034 -0.00024029802377855661 0 0.00043741753977794766 -2.7750956398387437e-05 0 0.00038459146791092717 -2.785620135055671e-05 0 0.0003872116933487708 -8.9320286887401956e-05 0 0.00038459146791092717 -2.785620135055671e-05 0 0.0003872116933487708 -8.9320286887401956e-05 0 0.00033707776547043771 -5.9695350288970007e-05 0 0.0010483426004654001 0.0021718760050038876 0 0.00085677723995394839 -7.9456638233378182e-05 0 0.00037663863935971474 7.3921639266111698e-05 0 0.00043741753977794766 -2.7750956398387437e-05 0 0.00038459146791092717 -2.785620135055671e-05 0 0.00067416301714471531 -0.00035235145766318029 0 0.00064032062574597348 -0.00037152510550219508 0 0.00062591784588679434 -0.00037131986953379707 0 0.00070713764171785078 -0.00034700115278195456 0 0.00062591784588679434 -0.00037131986953379707 0 0.0005984859067309625 -0.00038269188059286723 0 0.0005802526304248001 -0.00034398818733653982 0 0.00062591784588679434 -0.00037131986953379707 0 0.0005984859067309625 -0.00038269188059286723 0 0.0005802526304248001 -0.00034398818733653982 0 0.0005984859067309625 -0.00038269188059286723 0 0.00047786035584925109 -0.00030766722347267019 0 0.0005802526304248001 -0.00034398818733653982 0 0.00047786035584925109 -0.00030766722347267019 0 0.00043298944990336803 -0.00020604108216472992 0 0.0005984859067309625 -0.00038269188059286723 0 0.00047786035584925109 -0.00030766722347267019 0 0.00043627416773082327 -0.00034467227018348645 0 0.00047786035584925109 -0.00030766722347267019 0 0.00037237268400557689 -0.00023241033497257266 0 0.00043627416773082327 -0.00034467227018348645 0 0.00047786035584925109 -0.00030766722347267019 0 0.00037237268400557689 -0.00023241033497257266 0 0.00043298944990336803 -0.00020604108216472992 0 0.00070227691260998926 -0.00040932173092527607 0 0.0005802526304248001 -0.00034398818733653982 0 0.00043298944990336803 -0.00020604108216472992 0 0.00043741753977794766 -2.7750956398387437e-05 0 0.00043298944990336803 -0.00020604108216472992 0 0.0003872116933487708 -8.9320286887401956e-05 0 0.00043298944990336803 -0.00020604108216472992 0 0.00037906681816991426 -0.00014128703006679593 0 0.00037270809604526888 -0.00016559897112588973 0 0.00085677723995394839 -7.9456638233378182e-05 0 0.00043126632233870518 -0.00023961334328966526 0 0.00043298944990336803 -0.00020604108216472992 0 0.0003872116933487708 -8.9320286887401956e-05 0 0.00037906681816991426 -0.00014128703006679593 0 0.0003872116933487708 -8.9320286887401956e-05 0 0.00037906681816991426 -0.00014128703006679593 0 0.00036071664893081151 -0.00011089112398364387 0 0.00037906681816991426 -0.00014128703006679593 0 0.00037270809604526888 -0.00016559897112588973 0 0.00036587802285902265 -0.00013736632606647939 0 0.00037270809604526888 -0.00016559897112588973 0 0.00036587802285902265 -0.00013736632606647939 0 0.00036897937461209527 -0.00013781876191613809 0 0.00032561782854625894 -0.00014228250283807012 0 0.00036897937461209527 -0.00013781876191613809 0 0.00039008348894425824 -7.5313550314479671e-05 0 0.00037270809604526888 -0.00016559897112588973 0 0.00032561782854625894 -0.00014228250283807012 0 0.00036897937461209527 -0.00013781876191613809 0 0.00043298944990336803 -0.00020604108216472992 0 0.00037270809604526888 -0.00016559897112588973 0 0.00032561782854625894 -0.00014228250283807012 0 0.00024980911511490598 3.4006560475296348e-05 0 0.00032561782854625894 -0.00014228250283807012 0 0.00017390782085444347 -5.5807519017429962e-05 0 0.00024980911511490598 3.4006560475296348e-05 0 0.00032561782854625894 -0.00014228250283807012 0 0.00039008348894425824 -7.5313550314479671e-05 0 0.00037237268400557689 -0.00023241033497257266 0 0.00032561782854625894 -0.00014228250283807012 0 0.00023929368910009739 -0.00017748476058483087 0 0.00032561782854625894 -0.00014228250283807012 0 0.00017390782085444347 -5.5807519017429962e-05 0 0.00023929368910009739 -0.00017748476058483087 0 0.00037237268400557689 -0.00023241033497257266 0 0.00043298944990336803 -0.00020604108216472992 0 0.00032561782854625894 -0.00014228250283807012 0 0.00023929368910009739 -0.00017748476058483087 0 4.2216102393175167e-05 -7.6808394235386876e-05 0 -2.6066738978464512e-05 -0.00012352048348192294 0 0.00023929368910009739 -0.00017748476058483087 0 -2.6066738978464512e-05 -0.00012352048348192294 0 0.00020549774064278765 -0.00026386073825153151 0 -8.5677817538885886e-05 3.9858515643118207e-05 0 0.00017390782085444347 -5.5807519017429962e-05 0 4.2216102393175167e-05 -7.6808394235386876e-05 0 0.00017390782085444347 -5.5807519017429962e-05 0 0.00023929368910009739 -0.00017748476058483087 0 4.2216102393175167e-05 -7.6808394235386876e-05 0 -8.5677817538885886e-05 3.9858515643118207e-05 0 4.2216102393175167e-05 -7.6808394235386876e-05 0 -0.00017840957491630673 -4.3154474969042714e-05 0 4.2216102393175167e-05 -7.6808394235386876e-05 0 -0.00017840957491630673 -4.3154474969042714e-05 0 -2.6066738978464512e-05 -0.00012352048348192294 0 -0.00017840957491630673 -4.3154474969042714e-05 0 -2.6066738978464512e-05 -0.00012352048348192294 0 -0.00037331521378883113 -4.1724195410638052e-05 0 -0.00059612108616886601 4.5308914640237159e-05 0 -0.00017840957491630673 -4.3154474969042714e-05 0 -0.00037331521378883113 -4.1724195410638052e-05 0 -2.6066738978464512e-05 -0.00012352048348192294 0 0.00020549774064278765 -0.00026386073825153151 0 -0.00018002327881910487 -0.00015229723214230697 0 -2.6066738978464512e-05 -0.00012352048348192294 0 -0.00018002327881910487 -0.00015229723214230697 0 -0.00037331521378883113 -4.1724195410638052e-05 0 0.00020549774064278765 -0.00026386073825153151 0 0.00049121699601054059 -0.00050938002167798995 0 1.0903714656038599e-05 -0.00031773445989517253 0 0.00020549774064278765 -0.00026386073825153151 0 1.0903714656038599e-05 -0.00031773445989517253 0 -0.00018002327881910487 -0.00015229723214230697 0 0.00037237268400557689 -0.00023241033497257266 0 0.00023929368910009739 -0.00017748476058483087 0 0.00043627416773082327 -0.00034467227018348645 0 0.00023929368910009739 -0.00017748476058483087 0 0.00020549774064278765 -0.00026386073825153151 0 0.00043627416773082327 -0.00034467227018348645 0 0.00020549774064278765 -0.00026386073825153151 0 0.00043627416773082327 -0.00034467227018348645 0 0.00049121699601054059 -0.00050938002167798995 0 0.0005984859067309625 -0.00038269188059286723 0 0.00043627416773082327 -0.00034467227018348645 0 0.00063336368422504583 -0.00041696663344833248 0 0.00079311451297476524 -0.00033103743134984409 0 0.0005984859067309625 -0.00038269188059286723 0 0.00063336368422504583 -0.00041696663344833248 0 0.00043627416773082327 -0.00034467227018348645 0 0.00063336368422504583 -0.00041696663344833248 0 0.00049121699601054059 -0.00050938002167798995 0 0.00099646433356830153 -0.00035588943216965588 0 0.0008771332512384029 -0.00034379790819523707 0 0.00049121699601054059 -0.00050938002167798995 0 0.00049121699601054059 -0.00050938002167798995 0 -0.00011466085282935914 -0.00058786600599897067 0 1.0903714656038599e-05 -0.00031773445989517253 0 0.00053512201061794551 -0.00052064796840755581 0 0.00039373228544296954 -0.00056360902724932873 0 0.0008771332512384029 -0.00034379790819523707 0 0.00063336368422504583 -0.00041696663344833248 0 0.00049121699601054059 -0.00050938002167798995 0 0.00099646433356830153 -0.00035588943216965588 0 0.00049121699601054059 -0.00050938002167798995 0 0.0010703797318983013 -0.0005487577356869097 0 -0.00011466085282935914 -0.00058786600599897067 0 -0.00040533766539961261 -0.00056627804461180104 0 -0.00032396181948760445 -0.00027316111916392998 0 0.0011683694938903592 -0.00030666910094361477 0 0.00099646433356830153 -0.00035588943216965588 0 0.0010703797318983013 -0.0005487577356869097 0 0.00039373228544296954 -0.00056360902724932873 0 0.00099172561817266686 -0.00028384214466295758 0 0.0011683694938903592 -0.00030666910094361477 0 0.0010703797318983013 -0.0005487577356869097 0 0.0013115086786842937 -0.00050299889792286318 0 0.00099172561817266686 -0.00028384214466295758 0 0.00024302257424594926 -8.250553966285482e-05 0 -0.00032396181948760445 -0.00027316111916392998 0 -0.00051766824993533403 -2.7855516563717653e-05 0 -0.00055444856404627207 -0.0001886365444900136 0 -0.00040533766539961261 -0.00056627804461180104 0 -0.00032396181948760445 -0.00027316111916392998 0 -0.00055444856404627207 -0.0001886365444900136 0 -0.00011466085282935914 -0.00058786600599897067 0 -0.00032396181948760445 -0.00027316111916392998 0 1.0903714656038599e-05 -0.00031773445989517253 0 -0.00032396181948760445 -0.00027316111916392998 0 1.0903714656038599e-05 -0.00031773445989517253 0 -0.00018002327881910487 -0.00015229723214230697 0 -0.00032396181948760445 -0.00027316111916392998 0 -0.00018002327881910487 -0.00015229723214230697 0 -0.00051766824993533403 -2.7855516563717653e-05 0 -0.00018002327881910487 -0.00015229723214230697 0 -0.00037331521378883113 -4.1724195410638052e-05 0 -0.00051766824993533403 -2.7855516563717653e-05 0 -0.00069612741021195669 1.7600800448188428e-05 0 -0.00051766824993533403 -2.7855516563717653e-05 0 -0.00057025121501799616 4.5720312916291595e-05 0 -0.00069612741021195669 1.7600800448188428e-05 0 -0.00037331521378883113 -4.1724195410638052e-05 0 -0.00051766824993533403 -2.7855516563717653e-05 0 -0.00051766824993533403 -2.7855516563717653e-05 0 -0.00048307666984104947 0.00011444195510769536 0 -0.00055444856404627207 -0.0001886365444900136 0 0.0002720324332904484 -1.2440142843060003e-05 0 0.00024302257424594926 -8.250553966285482e-05 0 -0.00051766824993533403 -2.7855516563717653e-05 0 -0.00057025121501799616 4.5720312916291595e-05 0 -0.00048307666984104947 0.00011444195510769536 0 -0.00057025121501799616 4.5720312916291595e-05 0 0.00015126350202493091 3.6090993701777589e-07 0 -0.00048307666984104947 0.00011444195510769536 0 -0.00065851522766979277 -1.7749577125998716e-05 0 -0.00057025121501799616 4.5720312916291595e-05 0 0.00015126350202493091 3.6090993701777589e-07 0 0.0001534556540444209 -1.0113024819208081e-07 0 0.0002720324332904484 -1.2440142843060003e-05 0 0.00015399666924201266 4.6944855811570133e-07 0 0.00095405666453316483 9.2838887206711626e-06 0 0.0010286732189746198 -4.7341157215768862e-07 0 0.00095405666453316483 9.2838887206711626e-06 0 0.0012749419269398844 -5.8521166851927461e-05 0 0.0010286732189746198 -4.7341157215768862e-07 0 0.00095405666453316483 9.2838887206711626e-06 0 0.0012749419269398844 -5.8521166851927461e-05 0 0.0011880967798772774 -6.1955358931620522e-05 0 0.00099172561817266686 -0.00028384214466295758 0 0.00180176519915323 -6.831920473349152e-05 0 0.0012749419269398844 -5.8521166851927461e-05 0 0.0011880967798772774 -6.1955358931620522e-05 0 0.0012455027540918416 7.9953118412249243e-05 0 0.001100127717277436 5.2543266105002882e-05 0 0.0011880967798772774 -6.1955358931620522e-05 0 0.0012455027540918416 7.9953118412249243e-05 0 0.0019024628111217097 4.7677095861681461e-07 0 0.0012749419269398844 -5.8521166851927461e-05 0 0.0010286732189746198 -4.7341157215768862e-07 0 0.0019033580014542737 -6.3813209004208941e-08 0 0.00180176519915323 -6.831920473349152e-05 0 0.0019024628111217097 4.7677095861681461e-07 0 0.0012749419269398844 -5.8521166851927461e-05 0 0.0012455027540918416 7.9953118412249243e-05 0 0.0023885154898562566 0.0036322074528177713 0 0.0028312249887887378 0.0039929163753045149 0 0.0032009124561521956 0.003336155580991991 0 0.0023885154898562566 0.0036322074528177713 0 0.0022106713927760461 0.0030742625631167263 0 0.0020176433597262865 0.0036403942571976463 0 0.0023885154898562566 0.0036322074528177713 0 0.0018024713685060145 0.0040913991904514115 0 0.0021797303145032086 0.0042302845225367309 0 0.0023885154898562566 0.0036322074528177713 0 0.0028312249887887378 0.0039929163753045149 0 0.0021797303145032086 0.0042302845225367309 0 0.0035621987781294458 0.0037416512045644326 0 0.0031814087902284215 0.0043023045387272293 0 0.0037218222737123484 0.0042513337088448651 0 0.0028312249887887378 0.0039929163753045149 0 0.0035621987781294458 0.0037416512045644326 0 0.0031814087902284215 0.0043023045387272293 0 0.0035621987781294458 0.0037416512045644326 0 0.0032009124561521956 0.003336155580991991 0 0.0040311490704871538 0.0029534652191100887 0 0.0028312249887887378 0.0039929163753045149 0 0.0035621987781294458 0.0037416512045644326 0 0.0032009124561521956 0.003336155580991991 0 0.0032009124561521956 0.003336155580991991 0 0.0034261621079813226 0.0024823022402883335 0 0.0027719113700160423 0.003001881824716428 0 0.0032009124561521956 0.003336155580991991 0 0.0034261621079813226 0.0024823022402883335 0 0.0040311490704871538 0.0029534652191100887 0 0.0034261621079813226 0.0024823022402883335 0 0.0040311490704871538 0.0029534652191100887 0 0.0041313345114646011 0.0021344647640483901 0 0.0026535544558510828 0.0024050407167816872 0 0.0027719113700160423 0.003001881824716428 0 0.0022106713927760461 0.0030742625631167263 0 0.0026535544558510828 0.0024050407167816872 0 0.0034261621079813226 0.0024823022402883335 0 0.0027719113700160423 0.003001881824716428 0 0.0023885154898562566 0.0036322074528177713 0 0.0032009124561521956 0.003336155580991991 0 0.0027719113700160423 0.003001881824716428 0 0.0023885154898562566 0.0036322074528177713 0 0.0027719113700160423 0.003001881824716428 0 0.0022106713927760461 0.0030742625631167263 0 0.0037683433503653912 0.0020655870978027601 0 0.0030760077641900888 0.0029200618841264243 0 0.0025069379383257785 0.002501490336841708 0 0.0032061097937834192 0.0022397420298943659 0 0.0026369142941015103 0.0029798683127178773 0 0.0027148937076573922 0.0017522519884717366 0 0.0021085559341749334 0.0022867866638245572 0 0.0027849350343302848 0.0017063445117977173 0 0.0025069379383257785 0.002501490336841708 0 0.0015966348474345078 0.002662948416340859 0 0.0015966348474345078 0.002662948416340859 0 0.0021131851903408373 0.0031208388201520625 0 0.0015285663857828018 0.0036570700756901821 0 0.0025069379383257785 0.002501490336841708 0 0.0015966348474345078 0.002662948416340859 0 0.0021131851903408373 0.0031208388201520625 0 0.0030760077641900888 0.0029200618841264243 0 0.0025069379383257785 0.002501490336841708 0 0.0021131851903408373 0.0031208388201520625 0 0.0026369142941015103 0.0029798683127178773 0 0.0020992577751419304 0.0035832845494960016 0 0.0030760077641900888 0.0029200618841264243 0 0.0021131851903408373 0.0031208388201520625 0 0.0020176433597262865 0.0036403942571976463 0 0.0022379166279561857 0.00042290345238932817 0 0.0024477496001660544 0.00050561232074010788 0 0.0024191652379336407 0.001242996293036952 0 0.0023727521747561567 0.0012118654465275542 0 0.0024014259730720704 0.00049272716735595222 0 0.0024804858946417775 0.00049005842487431631 0 0.0022599147816908345 0.00075949226378437733 0 0.0025713286166238361 0.00069657946430296718 0 0.0024014259730720704 0.00049272716735595222 0 0.0024804858946417775 0.00049005842487431631 0 0.0023337878972409659 0.0016730747761136619 0 0.0022542584706153734 0.0019550124957226282 0 0.0024252423494711887 0.0018619397446380942 0 0.002589679986354506 0.0016968602872672969 0 0.0025720831289340802 0.0019771947421982541 0 0.0024252423494711887 0.0018619397446380942 0 0.0022542584706153734 0.0019550124957226282 0 0.0024252423494711887 0.0018619397446380942 0 0.0023797446070997008 0.0020299129361811461 0 0.0025720831289340802 0.0019771947421982541 0 0.0024252423494711887 0.0018619397446380942 0 0.0023797446070997008 0.0020299129361811461 0 0.0015966348474345078 0.002662948416340859 0 0.00096700736314440363 0.0035252836144552832 0 0.0015285663857828018 0.0036570700756901821 0 0.0021085559341749334 0.0022867866638245572 0 0.0016636949012001376 0.0030918163362732378 0 0.0023797446070997008 0.0020299129361811461 0 0.0022822746838856447 0.0021178704342301687 0 0.0023157817474893172 0.0022776265666072121 0 0.0025720831289340802 0.0019771947421982541 0 0.0023797446070997008 0.0020299129361811461 0 0.0023157817474893172 0.0022776265666072121 0 0.0023727521747561567 0.0012118654465275542 0 0.0022747547286198692 0.0017722872454752543 0 0.0022542584706153734 0.0019550124957226282 0 0.0022822746838856447 0.0021178704342301687 0 0.0021574482862873607 0.0022260918198553086 0 0.0024804858946417775 0.00049005842487431631 0 0.0022599147816908345 0.00075949226378437733 0 0.0023212787222876684 0.0010405330949090565 0 0.0022542584706153734 0.0019550124957226282 0 0.0023797446070997008 0.0020299129361811461 0 0.0022822746838856447 0.0021178704342301687 0 0.0022822746838856447 0.0021178704342301687 0 0.0021574482862873607 0.0022260918198553086 0 0.0023157817474893172 0.0022776265666072121 0 0.0020628492298373283 0.0024696138857547194 0 0.0021574482862873607 0.0022260918198553086 0 0.0023157817474893172 0.0022776265666072121 0 0.00096700736314440363 0.0035252836144552832 0 0.0011899932311020454 0.0038406039168000505 0 0.0015285663857828018 0.0036570700756901821 0 0.00096700736314440363 0.0035252836144552832 0 0.0011899932311020454 0.0038406039168000505 0 0.00092258576334468267 0.0038054543929911021 0 0.0011899932311020454 0.0038406039168000505 0 0.0015285663857828018 0.0036570700756901821 0 0.0013861361174077307 0.0040837719957803296 0 0.0011899932311020454 0.0038406039168000505 0 0.0011411489324324019 0.0040879153630132732 0 0.0013861361174077307 0.0040837719957803296 0 0.0011899932311020454 0.0038406039168000505 0 0.0011411489324324019 0.0040879153630132732 0 0.00092258576334468267 0.0038054543929911021 0 0.0009197248663003726 0.0037277798681950754 0 0.00092090858921453557 0.0044491183853321795 0 0.00073087353671946612 0.0039509073310247892 0 0.00092258576334468267 0.0038054543929911021 0 0.00085996963475210714 0.0040158072016669589 0 0.00073087353671946612 0.0039509073310247892 0 0.00096700736314440363 0.0035252836144552832 0 0.00092258576334468267 0.0038054543929911021 0 0.002089521376362907 0.0025365067582264968 0 0.0020628492298373283 0.0024696138857547194 0 0.0023157817474893172 0.0022776265666072121 0 0.0010483426004654001 0.0021718760050038876 0 0.0016636949012001376 0.0030918163362732378 0 0.0011411489324324019 0.0040879153630132732 0 0.00092258576334468267 0.0038054543929911021 0 0.00094875110892841757 0.004321226469003377 0 0.0021131851903408373 0.0031208388201520625 0 0.0020176433597262865 0.0036403942571976463 0 0.0015285663857828018 0.0036570700756901821 0 0.0015285663857828018 0.0036570700756901821 0 0.0013861361174077307 0.0040837719957803296 0 0.0018024713685060145 0.0040913991904514115 0 0.0023885154898562566 0.0036322074528177713 0 0.0020176433597262865 0.0036403942571976463 0 0.0018024713685060145 0.0040913991904514115 0 0.0020176433597262865 0.0036403942571976463 0 0.0015285663857828018 0.0036570700756901821 0 0.0018024713685060145 0.0040913991904514115 0 0.0018024713685060145 0.0040913991904514115 0 0.001405021290260522 0.004460786821372899 0 0.0017894460901845346 0.0045671439587735103 0 0.0013861361174077307 0.0040837719957803296 0 0.0018024713685060145 0.0040913991904514115 0 0.001405021290260522 0.004460786821372899 0 0.0013861361174077307 0.0040837719957803296 0 0.001405021290260522 0.004460786821372899 0 0.001187372846544642 0.0043523853398092748 0 0.001405021290260522 0.004460786821372899 0 0.0011415479154136007 0.0045820709347204813 0 0.0011769404472680477 0.0046905874278425075 0 0.001405021290260522 0.004460786821372899 0 0.001513039508016275 0.0047109315645458673 0 0.0011769404472680477 0.0046905874278425075 0 0.001405021290260522 0.004460786821372899 0 0.001513039508016275 0.0047109315645458673 0 0.0017894460901845346 0.0045671439587735103 0 0.001513039508016275 0.0047109315645458673 0 0.0016252166770889904 0.0049473625988670257 0 0.0017894460901845346 0.0045671439587735103 0 0.00082534467082778556 0.0040240965854555083 0 0.00085996963475210714 0.0040158072016669589 0 0.00083299883738317587 0.0040289897802751459 0 0.0010483426004654001 0.0021718760050038876 0 0.00051669908426092779 0.0018278097921932805 0 0.00073087353671946612 0.0039509073310247892 0 0.00082534467082778556 0.0040240965854555083 0 0.00085996963475210714 0.0040158072016669589 0 0.00037663863935971474 7.3921639266111698e-05 0 0.00038459146791092717 -2.785620135055671e-05 0 0.00033707776547043771 -5.9695350288970007e-05 0 0.00094875110892841757 0.004321226469003377 0 0.001187372846544642 0.0043523853398092748 0 0.0010893137558554561 0.0044768249125584436 0 0.0011411489324324019 0.0040879153630132732 0 0.00094875110892841757 0.004321226469003377 0 0.001187372846544642 0.0043523853398092748 0 0.0011411489324324019 0.0040879153630132732 0 0.0013861361174077307 0.0040837719957803296 0 0.001187372846544642 0.0043523853398092748 0 0.0011415479154136007 0.0045820709347204813 0 0.0011051441401359369 0.004602062119188401 0 0.0011626042633155805 0.004576276303352186 0 0.001405021290260522 0.004460786821372899 0 0.001187372846544642 0.0043523853398092748 0 0.0011415479154136007 0.0045820709347204813 0 0.001187372846544642 0.0043523853398092748 0 0.0011415479154136007 0.0045820709347204813 0 0.0010893137558554561 0.0044768249125584436 0 0.0011415479154136007 0.0045820709347204813 0 0.0010893137558554561 0.0044768249125584436 0 0.0011051441401359369 0.004602062119188401 0 0.00094875110892841757 0.004321226469003377 0 0.0010893137558554561 0.0044768249125584436 0 0.0011051441401359369 0.004602062119188401 0 0.00092090858921453557 0.0044491183853321795 0 0.00069125240162719922 0.0027259035858600467 0 0.00051669908426092779 0.0018278097921932805 0 0.00069125240162719922 0.0027259035858600467 0 0.00036085920307977218 -0.0001340680896357154 0 0.00036587802285902265 -0.00013736632606647939 0 0.00036897937461209527 -0.00013781876191613809 0 0.00036085920307977218 -0.0001340680896357154 0 0.00036587802285902265 -0.00013736632606647939 0 0.00036071664893081151 -0.00011089112398364387 0 0.00037906681816991426 -0.00014128703006679593 0 0.00036587802285902265 -0.00013736632606647939 0 0.00036071664893081151 -0.00011089112398364387 0 0.00033707776547043771 -5.9695350288970007e-05 0 0.00036085920307977218 -0.0001340680896357154 0 0.00036071664893081151 -0.00011089112398364387 0 0.0003872116933487708 -8.9320286887401956e-05 0 0.00033707776547043771 -5.9695350288970007e-05 0 0.00036071664893081151 -0.00011089112398364387 0 0.00036085920307977218 -0.0001340680896357154 0 0.00036897937461209527 -0.00013781876191613809 0 0.00039008348894425824 -7.5313550314479671e-05 0 0.0011051441401359369 0.004602062119188401 0 0.0011626042633155805 0.004576276303352186 0 0.0013230824212161119 0.0044458598294153679 0 0.00069125240162719922 0.0027259035858600467 0 0.00085559984948299899 0.0020621051926093033 0 0.0011415479154136007 0.0045820709347204813 0 0.0011626042633155805 0.004576276303352186 0 0.0011769404472680477 0.0046905874278425075 0 0.0011626042633155805 0.004576276303352186 0 0.0010465880297758628 0.0044198511984933223 0 0.0011769404472680477 0.0046905874278425075 0 0.0011437896477116589 0.0041409899678449104 0 0.0010465880297758628 0.0044198511984933223 0 0.0013230824212161119 0.0044458598294153679 0 0.0011626042633155805 0.004576276303352186 0 0.0010465880297758628 0.0044198511984933223 0 0.0013230824212161119 0.0044458598294153679 0 0.001513039508016275 0.0047109315645458673 0 0.0013191744913982678 0.0051289805552141732 0 0.0016252166770889904 0.0049473625988670257 0 0.0011364026898071397 0.0046927039303656564 0 0.00098315515982375155 0.0047171450289096124 0 0.001513039508016275 0.0047109315645458673 0 0.0011769404472680477 0.0046905874278425075 0 0.0013191744913982678 0.0051289805552141732 0 0.0010465880297758628 0.0044198511984933223 0 0.0011769404472680477 0.0046905874278425075 0 0.00063548001318698623 0.0043553527537827557 0 0.00080175173027404454 0.0040341023100758898 0 0.0010465880297758628 0.0044198511984933223 0 0.00063548001318698623 0.0043553527537827557 0 0.0013362686186803078 0.0051533038390509482 0 0.0013191744913982678 0.0051289805552141732 0 0.0016252166770889904 0.0049473625988670257 0 0.0013362686186803078 0.0051533038390509482 0 0.0014633919792798563 0.0050577556613373292 0 0.0016252166770889904 0.0049473625988670257 0 0.0014633919792798563 0.0050577556613373292 0 0.0017673804253194342 0.0049714126367788212 0 0.0016252166770889904 0.0049473625988670257 0 0.0016192411850057247 0.0050428914147583066 0 0.0014633919792798563 0.0050577556613373292 0 0.0017673804253194342 0.0049714126367788212 0 0.0017673804253194342 0.0049714126367788212 0 0.0021693010043956893 0.004902722740714377 0 0.0018540106335680354 0.0049542631877502437 0 0.0017673804253194342 0.0049714126367788212 0 0.0016252166770889904 0.0049473625988670257 0 0.0021693010043956893 0.004902722740714377 0 0.0016252166770889904 0.0049473625988670257 0 0.0017894460901845346 0.0045671439587735103 0 0.0021693010043956893 0.004902722740714377 0 0.0028312249887887378 0.0039929163753045149 0 0.0021693010043956893 0.004902722740714377 0 0.0021797303145032086 0.0042302845225367309 0 0.0017894460901845346 0.0045671439587735103 0 0.0021693010043956893 0.004902722740714377 0 0.0021797303145032086 0.0042302845225367309 0 0.0018024713685060145 0.0040913991904514115 0 0.0017894460901845346 0.0045671439587735103 0 0.0021797303145032086 0.0042302845225367309 0 0.0028312249887887378 0.0039929163753045149 0 0.0021693010043956893 0.004902722740714377 0 0.0031814087902284215 0.0043023045387272293 0 0.0031814087902284215 0.0043023045387272293 0 0.0034947935136513016 0.0047545364894643425 0 0.0037218222737123484 0.0042513337088448651 0 0.0021693010043956893 0.004902722740714377 0 0.0031814087902284215 0.0043023045387272293 0 0.0034947935136513016 0.0047545364894643425 0 0.0021693010043956893 0.004902722740714377 0 0.001701762964458853 0.0052502047768731982 0 0.0018074485274653812 0.0050251904005480024 0 0.0021989249916619285 0.004932603488884503 0 0.0025762440586669681 0.0049840341769792169 0 0.001701762964458853 0.0052502047768731982 0 0.0018074485274653812 0.0050251904005480024 0 0.0016013092924994099 0.0051234903761405099 0 0.0018074485274653812 0.0050251904005480024 0 0.0017278588011485447 0.00498771209820318 0 0.0016013092924994099 0.0051234903761405099 0 0.0018074485274653812 0.0050251904005480024 0 0.0017278588011485447 0.00498771209820318 0 0.0018540106335680354 0.0049542631877502437 0 0.0021693010043956893 0.004902722740714377 0 0.0018074485274653812 0.0050251904005480024 0 0.0018540106335680354 0.0049542631877502437 0 0.0016192411850057247 0.0050428914147583066 0 0.0017421031732818781 0.0049759082837638174 0 0.0017673804253194342 0.0049714126367788212 0 0.0017421031732818781 0.0049759082837638174 0 0.0017278588011485447 0.00498771209820318 0 0.0018540106335680354 0.0049542631877502437 0 0.0017421031732818781 0.0049759082837638174 0 0.0017673804253194342 0.0049714126367788212 0 0.0018540106335680354 0.0049542631877502437 0 0.0017278588011485447 0.00498771209820318 0 0.0016449933848205567 0.0049636607485809715 0 0.0015601600151882466 0.0050287092472187976 0 0.0017421031732818781 0.0049759082837638174 0 0.0017278588011485447 0.00498771209820318 0 0.0016449933848205567 0.0049636607485809715 0 0.0016449933848205567 0.0049636607485809715 0 0.0015601600151882466 0.0050287092472187976 0 0.0014920695797700782 0.0049680880588426962 0 0.0015601600151882466 0.0050287092472187976 0 0.0014920695797700782 0.0049680880588426962 0 0.0014140439763080767 0.0050441603451157847 0 0.0013394477821967873 0.0049548584659716687 0 0.0014920695797700782 0.0049680880588426962 0 0.0014140439763080767 0.0050441603451157847 0 0.0013394477821967873 0.0049548584659716687 0 0.0014140439763080767 0.0050441603451157847 0 0.0012726366910323903 0.005050305329802795 0 0.0014140439763080767 0.0050441603451157847 0 0.0013367914863032756 0.0051043969642831817 0 0.0012726366910323903 0.005050305329802795 0 0.0015601600151882466 0.0050287092472187976 0 0.0014140439763080767 0.0050441603451157847 0 0.0014407307253748378 0.0051288341973239346 0 0.0014140439763080767 0.0050441603451157847 0 0.0013367914863032756 0.0051043969642831817 0 0.0014407307253748378 0.0051288341973239346 0 0.0013367914863032756 0.0051043969642831817 0 0.0014407307253748378 0.0051288341973239346 0 0.001301844644147809 0.0051867412377166796 0 0.0017278588011485447 0.00498771209820318 0 0.0015601600151882466 0.0050287092472187976 0 0.0016013092924994099 0.0051234903761405099 0 0.0015601600151882466 0.0050287092472187976 0 0.0014407307253748378 0.0051288341973239346 0 0.0016013092924994099 0.0051234903761405099 0 0.001107320777328818 0.0050830655372894693 0 0.0010687848149505479 0.0050526903645054695 0 0.0011209156472302294 0.0050377798960804347 0 0.0010635261365175047 0.0050806676007531335 0 0.001107320777328818 0.0050830655372894693 0 0.0010687848149505479 0.0050526903645054695 0 0.0010687848149505479 0.0050526903645054695 0 0.0011209156472302294 0.0050377798960804347 0 0.0010809586039968223 0.0049916716733517299 0 0.00099451896064952044 0.0049452179125010105 0 0.0010687848149505479 0.0050526903645054695 0 0.0010809586039968223 0.0049916716733517299 0 0.0011209156472302294 0.0050377798960804347 0 0.0010809586039968223 0.0049916716733517299 0 0.0011486052255849928 0.0049836450509851077 0 0.0011209156472302294 0.0050377798960804347 0 0.0011486052255849928 0.0049836450509851077 0 0.0011922776853218043 0.0050276102988396163 0 0.0011209156472302294 0.0050377798960804347 0 0.0011785514296736071 0.0050744390331269977 0 0.0011922776853218043 0.0050276102988396163 0 0.001107320777328818 0.0050830655372894693 0 0.0011209156472302294 0.0050377798960804347 0 0.0011785514296736071 0.0050744390331269977 0 0.0011785514296736071 0.0050744390331269977 0 0.0011922776853218043 0.0050276102988396163 0 0.0012726366910323903 0.005050305329802795 0 0.0011922776853218043 0.0050276102988396163 0 0.0012428021423501205 0.0049863492871269335 0 0.0012726366910323903 0.005050305329802795 0 0.0011486052255849928 0.0049836450509851077 0 0.0011922776853218043 0.0050276102988396163 0 0.0012428021423501205 0.0049863492871269335 0 0.0013394477821967873 0.0049548584659716687 0 0.0012428021423501205 0.0049863492871269335 0 0.0012726366910323903 0.005050305329802795 0 0.0013367914863032756 0.0051043969642831817 0 0.0012726366910323903 0.005050305329802795 0 0.0012394577976260243 0.0051224273612437412 0 0.0013367914863032756 0.0051043969642831817 0 0.0012394577976260243 0.0051224273612437412 0 0.001301844644147809 0.0051867412377166796 0 0.0012036103165832062 0.0051801890806383458 0 0.0012394577976260243 0.0051224273612437412 0 0.001301844644147809 0.0051867412377166796 0 0.0012036103165832062 0.0051801890806383458 0 0.0012394577976260243 0.0051224273612437412 0 0.0011517404855117014 0.0051321185997793969 0 0.0011785514296736071 0.0050744390331269977 0 0.0012726366910323903 0.005050305329802795 0 0.0012394577976260243 0.0051224273612437412 0 0.0011785514296736071 0.0050744390331269977 0 0.0012394577976260243 0.0051224273612437412 0 0.0011517404855117014 0.0051321185997793969 0 0.001107320777328818 0.0050830655372894693 0 0.0011785514296736071 0.0050744390331269977 0 0.0011517404855117014 0.0051321185997793969 0 0.0012036103165832062 0.0051801890806383458 0 0.0011517404855117014 0.0051321185997793969 0 0.001118725051216615 0.0051942560718052349 0 0.0011517404855117014 0.0051321185997793969 0 0.0010717440601030889 0.0051267459835398583 0 0.001118725051216615 0.0051942560718052349 0 0.001107320777328818 0.0050830655372894693 0 0.0011517404855117014 0.0051321185997793969 0 0.0010717440601030889 0.0051267459835398583 0 0.0010635261365175047 0.0050806676007531335 0 0.001107320777328818 0.0050830655372894693 0 0.0010717440601030889 0.0051267459835398583 0 0.001118725051216615 0.0051942560718052349 0 0.0012083331454979715 0.0052519182726494286 0 0.0010888939428186192 0.0052736788185944045 0 0.0012036103165832062 0.0051801890806383458 0 0.001118725051216615 0.0051942560718052349 0 0.0012083331454979715 0.0052519182726494286 0 0.0012083331454979715 0.0052519182726494286 0 0.001301844644147809 0.0051867412377166796 0 0.0014105646348292927 0.0053280989873949304 0 0.0012036103165832062 0.0051801890806383458 0 0.0012083331454979715 0.0052519182726494286 0 0.001301844644147809 0.0051867412377166796 0 0.0012083331454979715 0.0052519182726494286 0 0.0011911347951108638 0.0053435761716352824 0 0.0014105646348292927 0.0053280989873949304 0 0.0051117357119806021 0.0040988524491686364 0 0.0043603780383029292 0.0044129222072514258 0 0.0047129731595299314 0.0037448754113480116 0 0.0030379589186841026 0.0048100296226381975 0 0.0029092438572185268 0.0048577432285191926 0 0.0012083331454979715 0.0052519182726494286 0 0.0011911347951108638 0.0053435761716352824 0 0.0010888939428186192 0.0052736788185944045 0 0.001701762964458853 0.0052502047768731982 0 0.0016013092924994099 0.0051234903761405099 0 0.0014105646348292927 0.0053280989873949304 0 0.0014407307253748378 0.0051288341973239346 0 0.0016013092924994099 0.0051234903761405099 0 0.0014105646348292927 0.0053280989873949304 0 0.0014407307253748378 0.0051288341973239346 0 0.001301844644147809 0.0051867412377166796 0 0.0014105646348292927 0.0053280989873949304 0 0.0025762440586669681 0.0049840341769792169 0 0.0029092438572185268 0.0048577432285191926 0 0.0034947935136513016 0.0047545364894643425 0 0.0043603780383029292 0.0044129222072514258 0 0.0037218222737123484 0.0042513337088448651 0 0.0035621987781294458 0.0037416512045644326 0 0.0037218222737123484 0.0042513337088448651 0 0.0043375456258167942 0.0036243586483776648 0 0.0043603780383029292 0.0044129222072514258 0 0.0037218222737123484 0.0042513337088448651 0 0.0042228525010884086 0.0035351957837151371 0 0.0037601104154422697 0.0042132901162175761 0 0.0042727356197190224 0.0035867016876733031 0 0.0035621987781294458 0.0037416512045644326 0 0.0043375456258167942 0.0036243586483776648 0 0.0040311490704871538 0.0029534652191100887 0 0.0042228525010884086 0.0035351957837151371 0 0.0047129731595299314 0.0037448754113480116 0 0.0047231264177763953 0.0029451853292094743 0 0.0042727356197190224 0.0035867016876733031 0 0.0047887388115603439 0.0029616144316211689 0 0.0043603780383029292 0.0044129222072514258 0 0.0042228525010884086 0.0035351957837151371 0 0.0047129731595299314 0.0037448754113480116 0 0.0051117357119806021 0.0040988524491686364 0 0.0052175208638974334 0.0035397937823399366 0 0.0056673703783914871 0.0036141468562193341 0 0.0051117357119806021 0.0040988524491686364 0 0.0047129731595299314 0.0037448754113480116 0 0.0052175208638974334 0.0035397937823399366 0 0.0047129731595299314 0.0037448754113480116 0 0.0052175208638974334 0.0035397937823399366 0 0.0047231264177763953 0.0029451853292094743 0 0.0052175208638974334 0.0035397937823399366 0 0.0047231264177763953 0.0029451853292094743 0 0.0052970491214473564 0.003015811976716863 0 0.0052970491214473564 0.003015811976716863 0 0.0056300934255961886 0.0026795037720576732 0 0.0052148146762298385 0.0024471918661156146 0 0.0047231264177763953 0.0029451853292094743 0 0.0052970491214473564 0.003015811976716863 0 0.0052148146762298385 0.0024471918661156146 0 0.0048492000957539357 0.0029823076740965577 0 0.004574416458998116 0.002525142131327188 0 0.0052148146762298385 0.0024471918661156146 0 0.0047887388115603439 0.0029616144316211689 0 0.0051863023123767194 0.0024756506555527989 0 0.0048492000957539357 0.0029823076740965577 0 0.004574416458998116 0.002525142131327188 0 0.0040311490704871538 0.0029534652191100887 0 0.004574416458998116 0.002525142131327188 0 0.0040311490704871538 0.0029534652191100887 0 0.0041313345114646011 0.0021344647640483901 0 0.0043375456258167942 0.0036243586483776648 0 0.0048492000957539357 0.0029823076740965577 0 0.0040311490704871538 0.0029534652191100887 0 0.0061857700692864127 0.0030126125696953309 0 0.0062496748636589206 0.0027385909562428266 0 0.0064240039189790918 0.0031011603427141855 0 0.0061857700692864127 0.0030126125696953309 0 0.0059303482354496478 0.0028890910909269134 0 0.0059725069166868556 0.0032367064101996293 0 0.0061857700692864127 0.0030126125696953309 0 0.0062496748636589206 0.0027385909562428266 0 0.0059303482354496478 0.0028890910909269134 0 0.0062548722400424814 0.0031074141753007455 0 0.0064591371755477675 0.0027251620396499224 0 0.0062496748636589206 0.0027385909562428266 0 0.0064240039189790918 0.0031011603427141855 0 0.0064935739914772526 0.0026883639957445008 0 0.0062496748636589206 0.0027385909562428266 0 0.0064935739914772526 0.0026883639957445008 0 0.006369661019244543 0.0024536849498456681 0 0.0062496748636589206 0.0027385909562428266 0 0.0060139606569632889 0.0024327935173142465 0 0.006369661019244543 0.0024536849498456681 0 0.0062496748636589206 0.0027385909562428266 0 0.0059303482354496478 0.0028890910909269134 0 0.0060139606569632889 0.0024327935173142465 0 0.0056300934255961886 0.0026795037720576732 0 0.0059303482354496478 0.0028890910909269134 0 0.0060139606569632889 0.0024327935173142465 0 0.0052970491214473564 0.003015811976716863 0 0.0056300934255961886 0.0026795037720576732 0 0.0056607559796911493 0.0032350554615701637 0 0.0056300934255961886 0.0026795037720576732 0 0.0059303482354496478 0.0028890910909269134 0 0.0056607559796911493 0.0032350554615701637 0 0.0059303482354496478 0.0028890910909269134 0 0.0059725069166868556 0.0032367064101996293 0 0.0056607559796911493 0.0032350554615701637 0 0.0059725069166868556 0.0032367064101996293 0 0.0056607559796911493 0.0032350554615701637 0 0.0058567041191826697 0.0034901927950962016 0 0.0056607559796911493 0.0032350554615701637 0 0.0056673703783914871 0.0036141468562193341 0 0.0058567041191826697 0.0034901927950962016 0 0.0059725069166868556 0.0032367064101996293 0 0.0058567041191826697 0.0034901927950962016 0 0.0062172532290824447 0.003579796710121221 0 0.0052175208638974334 0.0035397937823399366 0 0.0052970491214473564 0.003015811976716863 0 0.0056607559796911493 0.0032350554615701637 0 0.0052175208638974334 0.0035397937823399366 0 0.0056607559796911493 0.0032350554615701637 0 0.0056673703783914871 0.0036141468562193341 0 0.0051117357119806021 0.0040988524491686364 0 0.0056673703783914871 0.0036141468562193341 0 0.0057900725122245495 0.0038288671932313698 0 0.0051014105759202974 0.0040993378400970377 0 0.0038649306919809169 0.0040636657760486292 0 0.0058567041191826697 0.0034901927950962016 0 0.0057584600640268394 0.003748716786420519 0 0.0062172532290824447 0.003579796710121221 0 0.0038649306919809169 0.0040636657760486292 0 0.0057836317621708464 0.0033501255769855407 0 0.0056673703783914871 0.0036141468562193341 0 0.0058567041191826697 0.0034901927950962016 0 0.0057584600640268394 0.003748716786420519 0 0.0061857700692864127 0.0030126125696953309 0 0.0059725069166868556 0.0032367064101996293 0 0.0062172532290824447 0.003579796710121221 0 0.0061857700692864127 0.0030126125696953309 0 0.0062172532290824447 0.003579796710121221 0 0.0064240039189790918 0.0031011603427141855 0 0.0057836317621708464 0.0033501255769855407 0 0.0062548722400424814 0.0031074141753007455 0 0.0057986447677421098 0.0034259998197869969 0 0.0060383365896661371 0.0030651451604449759 0 0.0061388460606065414 0.0033449581491331983 0 0.0053988114158207744 0.0034826258541214771 0 0.0060630505952210152 0.003822857906194414 0 0.0061388460606065414 0.0033449581491331983 0 0.0057836317621708464 0.0033501255769855407 0 0.006020440854038747 0.0033774735293611714 0 0.0053988114158207744 0.0034826258541214771 0 0.0055819926230949906 0.0041622653983599605 0 0.0060630505952210152 0.003822857906194414 0 0.0055819926230949906 0.0041622653983599605 0 0.0060630505952210152 0.003822857906194414 0 0.006097009227265829 0.0046279301169339744 0 0.0053988114158207744 0.0034826258541214771 0 0.0055819926230949906 0.0041622653983599605 0 0.0049606817979627104 0.0041406517156421397 0 0.0057836317621708464 0.0033501255769855407 0 0.0025967493326672277 0.0047573605297000941 0 0.0055819926230949906 0.0041622653983599605 0 0.0049606817979627104 0.0041406517156421397 0 0.0053052331351713562 0.0047077137180604979 0 0.0025967493326672277 0.0047573605297000941 0 0.0033757220532449877 0.0051902442783593487 0 0.0055819926230949906 0.0041622653983599605 0 0.0053052331351713562 0.0047077137180604979 0 0.006097009227265829 0.0046279301169339744 0 0.0011911347951108638 0.0053435761716352824 0 0.0010589564423748984 0.0053470027510325461 0 0.0010888939428186192 0.0052736788185944045 0 0.0030379589186841026 0.0048100296226381975 0 0.0038649306919809169 0.0040636657760486292 0 0.0038649306919809169 0.0040636657760486292 0 0.0025967493326672277 0.0047573605297000941 0 0.0034079803648768103 0.0038041410396896986 0 0.0049287422859162471 0.003414515287664181 0 0.0040443709613553567 0.004843379574760903 0 0.0010589564423748984 0.0053470027510325461 0 0.0010888939428186192 0.0052736788185944045 0 0.0010076281953071719 0.0052787079297999303 0 0.0010888939428186192 0.0052736788185944045 0 0.0010076281953071719 0.0052787079297999303 0 0.001026159772586462 0.0051881250460475252 0 0.0025967493326672277 0.0047573605297000941 0 0.00071455415974976664 0.0053732287299454911 0 0.00082121843370044163 0.0052930988020922767 0 0.00087704654128996373 0.0051815874415493896 0 0.00073469192762401188 0.0051794645617553254 0 0.001118725051216615 0.0051942560718052349 0 0.0010888939428186192 0.0052736788185944045 0 0.001026159772586462 0.0051881250460475252 0 0.00071455415974976664 0.0053732287299454911 0 0.001076488883092676 0.0049729670902765701 0 0.0010717440601030889 0.0051267459835398583 0 0.001118725051216615 0.0051942560718052349 0 0.001026159772586462 0.0051881250460475252 0 0.0010717440601030889 0.0051267459835398583 0 0.001026159772586462 0.0051881250460475252 0 0.00099531507416526365 0.0050592443357455113 0 0.00087704654128996373 0.0051815874415493896 0 0.00086925844313131097 0.0050548441308607243 0 0.00099531507416526365 0.0050592443357455113 0 0.00087704654128996373 0.0051815874415493896 0 0.00077925438673223961 0.005054277379278202 0 0.00073469192762401188 0.0051794645617553254 0 0.00087704654128996373 0.0051815874415493896 0 0.00077925438673223961 0.005054277379278202 0 0.00086925844313131097 0.0050548441308607243 0 0.00078015596443287648 0.0049532344942845984 0 0.00077925438673223961 0.005054277379278202 0 0.00083360173308618985 0.0049945225114082911 0 0.00077925438673223961 0.005054277379278202 0 0.00083360173308618985 0.0049945225114082911 0 0.00086925844313131097 0.0050548441308607243 0 0.00086925844313131097 0.0050548441308607243 0 0.00089411464340936485 0.0049926414627871245 0 0.00099531507416526365 0.0050592443357455113 0 0.00083360173308618985 0.0049945225114082911 0 0.00086925844313131097 0.0050548441308607243 0 0.00089411464340936485 0.0049926414627871245 0 0.0008883307695481149 0.0048165887661409355 0 0.0010687848149505479 0.0050526903645054695 0 0.00089411464340936485 0.0049926414627871245 0 0.0010687848149505479 0.0050526903645054695 0 0.00089411464340936485 0.0049926414627871245 0 0.00099531507416526365 0.0050592443357455113 0 0.0010635261365175047 0.0050806676007531335 0 0.0010687848149505479 0.0050526903645054695 0 0.00099531507416526365 0.0050592443357455113 0 0.0010635261365175047 0.0050806676007531335 0 0.0010717440601030889 0.0051267459835398583 0 0.00099531507416526365 0.0050592443357455113 0 0.0053052331351713562 0.0047077137180604979 0 0.0056140773608882796 0.0052676594625095082 0 0.006097009227265829 0.0046279301169339744 0 0.000594074656764647 0.0045292768005873365 0 0.0016083407945235672 0.0039208431264608091 0 0.0033757220532449877 0.0051902442783593487 0 0.000594074656764647 0.0045292768005873365 0 0.00077925438673223961 0.005054277379278202 0 0.00073469192762401188 0.0051794645617553254 0 0.00064156649509182321 0.0050465075257493351 0 0.00070227254641186268 0.0049406532711829673 0 0.00077925438673223961 0.005054277379278202 0 0.00064156649509182321 0.0050465075257493351 0 0.00070227254641186268 0.0049406532711829673 0 0.00078015596443287648 0.0049532344942845984 0 0.00077925438673223961 0.005054277379278202 0 -0.00055754587886976646 0.0048934022128461147 0 0.000594074656764647 0.0045292768005873365 0 -0.0029316194368107307 0.0027569069355930184 0 -0.002823397092291428 0.0032270138738201113 0 -0.0033040414478090977 0.0032791925423540894 0 -0.0033040414478090977 0.0032791925423540894 0 -0.003171171366474647 0.0034211928436856435 0 -0.0033399400856761068 0.0033569377464106949 0 -0.002823397092291428 0.0032270138738201113 0 -0.0033040414478090977 0.0032791925423540894 0 -0.003171171366474647 0.0034211928436856435 0 -0.0033040414478090977 0.0032791925423540894 0 -0.0035123522774988007 0.0032482181017196164 0 -0.0033399400856761068 0.0033569377464106949 0 -0.003702766340111303 0.0031754987136846818 0 -0.0033040414478090977 0.0032791925423540894 0 -0.0035123522774988007 0.0032482181017196164 0 -0.003702766340111303 0.0031754987136846818 0 -0.0035123522774988007 0.0032482181017196164 0 -0.0034703465807811862 0.0032606384437332643 0 -0.0035123522774988007 0.0032482181017196164 0 -0.0034703465807811862 0.0032606384437332643 0 -0.0034287723584916184 0.0032618695202180524 0 -0.0034703465807811862 0.0032606384437332643 0 -0.0034287723584916184 0.0032618695202180524 0 -0.0034099728065377787 0.0032726799743473243 0 -0.0034287723584916184 0.0032618695202180524 0 -0.0033816158698935571 0.003296640620639002 0 -0.0033783344818414693 0.0032681159319155216 0 -0.0035123522774988007 0.0032482181017196164 0 -0.0034287723584916184 0.0032618695202180524 0 -0.0033816158698935571 0.003296640620639002 0 -0.0035123522774988007 0.0032482181017196164 0 -0.0033816158698935571 0.003296640620639002 0 -0.0033399400856761068 0.0033569377464106949 0 -0.0033100250705583494 0.0033538574871939189 0 -0.0033816158698935571 0.003296640620639002 0 -0.0032875946792495633 0.003324512255689457 0 -0.0033100250705583494 0.0033538574871939189 0 -0.0033816158698935571 0.003296640620639002 0 -0.0033399400856761068 0.0033569377464106949 0 -0.0033816158698935571 0.003296640620639002 0 -0.0032875946792495633 0.003324512255689457 0 -0.0033217300673936911 0.003284565741144906 0 -0.0032875946792495633 0.003324512255689457 0 -0.0032598530926156539 0.0032914602128259157 0 -0.0031556128001182689 0.0032894319404286991 0 -0.0032875946792495633 0.003324512255689457 0 -0.0032670726151154414 0.0033576939703341339 0 -0.0031556128001182689 0.0032894319404286991 0 -0.0033100250705583494 0.0033538574871939189 0 -0.0032670726151154414 0.0033576939703341339 0 -0.0032799474211798714 0.0033883432498235727 0 -0.0033100250705583494 0.0033538574871939189 0 -0.0032875946792495633 0.003324512255689457 0 -0.0032670726151154414 0.0033576939703341339 0 0.0065557617976660879 0.0039599654029920765 0 0.0060630505952210152 0.003822857906194414 0 0.006097009227265829 0.0046279301169339744 0 0.0016131419232295865 0.0036980371753820981 0 0.0016083407945235672 0.0039208431264608091 0 -0.0032799474211798714 0.0033883432498235727 0 -0.003171171366474647 0.0034211928436856435 0 -0.0033399400856761068 0.0033569377464106949 0 -0.0033100250705583494 0.0033538574871939189 0 -0.0032799474211798714 0.0033883432498235727 0 -0.0033399400856761068 0.0033569377464106949 0 -0.003303921762378724 0.0032712765623168993 0 -0.0033249919922262788 0.003267535740810111 0 -0.0033120322382711492 0.0032392199231078647 0 -0.0033249919922262788 0.003267535740810111 0 -0.003342725143319473 0.0032762822175990856 0 -0.0033380554282329859 0.0032578173562361722 0 -0.003303921762378724 0.0032712765623168993 0 -0.0033249919922262788 0.003267535740810111 0 -0.0033236872256735151 0.0032857919609081752 0 -0.0033249919922262788 0.003267535740810111 0 -0.003342725143319473 0.0032762822175990856 0 -0.0033236872256735151 0.0032857919609081752 0 -0.0033184925870491178 0.0033077882567690898 0 -0.0033236872256735151 0.0032857919609081752 0 -0.0033478143611188295 0.0032963707795706566 0 -0.003342725143319473 0.0032762822175990856 0 -0.0033236872256735151 0.0032857919609081752 0 -0.0033478143611188295 0.0032963707795706566 0 -0.003342725143319473 0.0032762822175990856 0 -0.0033478143611188295 0.0032963707795706566 0 -0.0033631413538587574 0.0032824739659239972 0 -0.0033702099880966686 0.003299939860624386 0 -0.0033478143611188295 0.0032963707795706566 0 -0.0033631413538587574 0.0032824739659239972 0 -0.0033702099880966686 0.003299939860624386 0 -0.0033631413538587574 0.0032824739659239972 0 -0.0033840925900040933 0.0032873514383722343 0 -0.0033631413538587574 0.0032824739659239972 0 -0.0033558788226295063 0.0032682233002415961 0 -0.0033724030888612837 0.0032686045161896731 0 -0.003342725143319473 0.0032762822175990856 0 -0.0033631413538587574 0.0032824739659239972 0 -0.0033558788226295063 0.0032682233002415961 0 -0.003342725143319473 0.0032762822175990856 0 -0.0033558788226295063 0.0032682233002415961 0 -0.0033380554282329859 0.0032578173562361722 0 -0.0033558788226295063 0.0032682233002415961 0 -0.003350058256659732 0.003258003145250593 0 -0.0033380554282329859 0.0032578173562361722 0 -0.0033724030888612837 0.0032686045161896731 0 -0.0033558593149573377 0.003261318733657456 0 -0.003350058256659732 0.003258003145250593 0 -0.0033724030888612837 0.0032686045161896731 0 -0.0033783344818414693 0.0032681159319155216 0 -0.0033558593149573377 0.003261318733657456 0 -0.0033558788226295063 0.0032682233002415961 0 -0.0033724030888612837 0.0032686045161896731 0 -0.003350058256659732 0.003258003145250593 0 -0.0034010742983127608 0.0032984707582319498 0 -0.0033840925900040933 0.0032873514383722343 0 -0.0034099728065377787 0.0032726799743473243 0 -0.0033724030888612837 0.0032686045161896731 0 -0.0033840925900040933 0.0032873514383722343 0 -0.0034099728065377787 0.0032726799743473243 0 -0.0033631413538587574 0.0032824739659239972 0 -0.0033724030888612837 0.0032686045161896731 0 -0.0033840925900040933 0.0032873514383722343 0 -0.0033724030888612837 0.0032686045161896731 0 -0.0034099728065377787 0.0032726799743473243 0 -0.0033783344818414693 0.0032681159319155216 0 -0.0034287723584916184 0.0032618695202180524 0 -0.0034099728065377787 0.0032726799743473243 0 -0.0033783344818414693 0.0032681159319155216 0 -0.0033783344818414693 0.0032681159319155216 0 -0.0033217300673936911 0.003284565741144906 0 -0.0033558593149573377 0.003261318733657456 0 -0.0033816158698935571 0.003296640620639002 0 -0.0033783344818414693 0.0032681159319155216 0 -0.0033217300673936911 0.003284565741144906 0 -0.0032875946792495633 0.003324512255689457 0 -0.0033217300673936911 0.003284565741144906 0 -0.0032598530926156539 0.0032914602128259157 0 -0.0032598530926156539 0.0032914602128259157 0 -0.0033103514907757287 0.0032819597014626619 0 -0.0032655735690597636 0.0033057009219972463 0 -0.0033217300673936911 0.003284565741144906 0 -0.0032598530926156539 0.0032914602128259157 0 -0.0033103514907757287 0.0032819597014626619 0 -0.0033483417144346875 0.003291982320110774 0 -0.0033462099557860867 0.0032432077058872004 0 -0.0033525900431046127 0.003226158515257841 0 -0.0033558593149573377 0.003261318733657456 0 -0.003350058256659732 0.003258003145250593 0 -0.0033217300673936911 0.003284565741144906 0 -0.0033103514907757287 0.0032819597014626619 0 -0.0033558593149573377 0.003261318733657456 0 -0.0033525900431046127 0.003226158515257841 0 -0.003350058256659732 0.003258003145250593 0 -0.0033322636382710573 0.0032369275622875881 0 -0.003350058256659732 0.003258003145250593 0 -0.0033380554282329859 0.0032578173562361722 0 -0.0033322636382710573 0.0032369275622875881 0 -0.0033322636382710573 0.0032369275622875881 0 -0.0033342383478623819 0.0032154562807010559 0 -0.003309147855971984 0.0032001319889711946 0 -0.0033525900431046127 0.003226158515257841 0 -0.0033322636382710573 0.0032369275622875881 0 -0.0033342383478623819 0.0032154562807010559 0 -0.0033322636382710573 0.0032369275622875881 0 -0.0033120322382711492 0.0032392199231078647 0 -0.003309147855971984 0.0032001319889711946 0 -0.0033249919922262788 0.003267535740810111 0 -0.0033380554282329859 0.0032578173562361722 0 -0.0033120322382711492 0.0032392199231078647 0 -0.0033380554282329859 0.0032578173562361722 0 -0.0033322636382710573 0.0032369275622875881 0 -0.0033120322382711492 0.0032392199231078647 0 0.0010101744372009425 0.0016944443973725112 0 0.00027603932566526689 0.0017377056031648501 0 0.00033701860346965756 0.0024450232105608844 0 -0.00056900657091914339 0.0018809712828280498 0 -0.00046688826724353984 0.0027894723858863167 0 -0.00056900657091914339 0.0018809712828280498 0 -0.00046688826724353984 0.0027894723858863167 0 -0.0010037996252403386 0.0022962241733672636 0 -0.00046688826724353984 0.0027894723858863167 0 -0.0010037996252403386 0.0022962241733672636 0 -0.0015674913710589664 0.0025042097290798124 0 -0.0019351766952343614 0.0029491434462141568 0 -0.0022531645827138305 0.0031451572062118154 0 -0.0033342383478623819 0.0032154562807010559 0 -0.003309147855971984 0.0032001319889711946 0 -0.0033420283178820531 0.0031988474944190815 0 -0.00056900657091914339 0.0018809712828280498 0 -0.0010037996252403386 0.0022962241733672636 0 -0.0015092957937514438 0.0019883163544866518 0 0.00027603932566526689 0.0017377056031648501 0 -0.00048263684265412897 0.0025364923339850692 0 0.0011107985209338003 0.0017050005762357635 0 0.0005249233739642264 0.0017836460045697734 0 0.00091015796709756076 0.0014410773938642362 0 -0.0011769021892165401 0.0030913418413158491 0 5.1131829789858762e-05 0.0020960961092394265 0 -0.00028637798408952898 0.0027908173046250657 0 -0.0010601002329315703 0.0028763226979200535 0 -0.00021902938080201658 0.0021360975575305582 0 -0.0013664420630920449 0.0033606867182865165 0 -0.0013004360062331482 0.0025900018785122397 0 -6.5647604532325285e-05 0.0023856298019455271 0 -0.00048263684265412897 0.0025364923339850692 0 5.1131829789858762e-05 0.0020960961092394265 0 -0.00095189195251294781 0.003601183665096183 0 -0.00043092966583148899 0.0032593539015366752 0 -0.0013664420630920449 0.0033606867182865165 0 -0.00095189195251294781 0.003601183665096183 0 -0.00043092966583148899 0.0032593539015366752 0 -0.00050403063311727663 0.0040319621366857678 0 -0.00048263684265412897 0.0025364923339850692 0 -0.0011769021892165401 0.0030913418413158491 0 -0.00048263684265412897 0.0025364923339850692 0 -0.0022531645827138305 0.0031451572062118154 0 -0.0010037996252403386 0.0022962241733672636 0 -0.0015092957937514438 0.0019883163544866518 0 -0.0015674913710589664 0.0025042097290798124 0 -0.0033483417144346875 0.003291982320110774 0 -0.0022531645827138305 0.0031451572062118154 0 -0.0033103514907757287 0.0032819597014626619 0 -0.0032986623587539783 0.0033226768993868641 0 -0.0032655735690597636 0.0033057009219972463 0 -0.00095189195251294781 0.003601183665096183 0 -0.00050403063311727663 0.0040319621366857678 0 -0.0016579295315353843 0.0037631292948677232 0 -0.0033525900431046127 0.003226158515257841 0 -0.0033342383478623819 0.0032154562807010559 0 -0.0033420283178820531 0.0031988474944190815 0 -0.0022531645827138305 0.0031451572062118154 0 -0.0023643914654196763 0.003551374947054064 0 -0.0032655735690597636 0.0033057009219972463 0 -0.0032270165894677048 0.0033022418575221271 0 -0.0032238890065818407 0.003335170949033509 0 -0.0032986623587539783 0.0033226768993868641 0 -0.0032655735690597636 0.0033057009219972463 0 -0.0032238890065818407 0.003335170949033509 0 -0.0032598530926156539 0.0032914602128259157 0 -0.0032655735690597636 0.0033057009219972463 0 -0.0032270165894677048 0.0033022418575221271 0 -0.0032598530926156539 0.0032914602128259157 0 -0.0032270165894677048 0.0033022418575221271 0 -0.0031556128001182689 0.0032894319404286991 0 -0.0032270165894677048 0.0033022418575221271 0 -0.0032238890065818407 0.003335170949033509 0 -0.0031556128001182689 0.0032894319404286991 0 -0.0016579295315353843 0.0037631292948677232 0 -0.0017002010350667899 0.003330905748301811 0 -0.0021325955585456591 0.0031465241615418501 0 -0.0017002010350667899 0.003330905748301811 0 -0.0021325955585456591 0.0031465241615418501 0 -0.0016261011163654013 0.0031004751071344659 0 -0.00095189195251294781 0.003601183665096183 0 -0.0016579295315353843 0.0037631292948677232 0 -0.0013664420630920449 0.0033606867182865165 0 -0.0016579295315353843 0.0037631292948677232 0 -0.0017002010350667899 0.003330905748301811 0 -0.0013664420630920449 0.0033606867182865165 0 -0.0017002010350667899 0.003330905748301811 0 -0.0013664420630920449 0.0033606867182865165 0 -0.0016261011163654013 0.0031004751071344659 0 -0.0013664420630920449 0.0033606867182865165 0 -0.0016261011163654013 0.0031004751071344659 0 -0.0013004360062331482 0.0025900018785122397 0 -0.0018512246410933803 0.0028153193893045267 0 -0.0016261011163654013 0.0031004751071344659 0 -0.0013004360062331482 0.0025900018785122397 0 -0.0018512246410933803 0.0028153193893045267 0 -0.001980554323525298 0.0024725678196949206 0 -0.0021938587242384547 0.0027463973558282855 0 -0.0018512246410933803 0.0028153193893045267 0 -0.0021325955585456591 0.0031465241615418501 0 -0.0021938587242384547 0.0027463973558282855 0 -0.0018512246410933803 0.0028153193893045267 0 -0.0021325955585456591 0.0031465241615418501 0 -0.0016261011163654013 0.0031004751071344659 0 -0.001980554323525298 0.0024725678196949206 0 -0.0013004360062331482 0.0025900018785122397 0 -0.0014610543342269118 0.0020505553031552586 0 -0.001980554323525298 0.0024725678196949206 0 -0.0018604019327328502 0.0018381007814347926 0 -0.0024186737351186783 0.0022055757907279449 0 -0.0018512246410933803 0.0028153193893045267 0 -0.001980554323525298 0.0024725678196949206 0 -0.0013004360062331482 0.0025900018785122397 0 -0.0013004360062331482 0.0025900018785122397 0 -0.0014610543342269118 0.0020505553031552586 0 -0.00084195692414623365 0.0016473129573499777 0 -0.0014610543342269118 0.0020505553031552586 0 -0.0014650785541224826 0.0015095203508820529 0 -0.00084195692414623365 0.0016473129573499777 0 -0.0014610543342269118 0.0020505553031552586 0 -0.0018604019327328502 0.0018381007814347926 0 -0.0014650785541224826 0.0015095203508820529 0 -0.001980554323525298 0.0024725678196949206 0 -0.0014610543342269118 0.0020505553031552586 0 -0.0018604019327328502 0.0018381007814347926 0 0.0018428737927629942 0.0015277277608900023 0 -0.0013526048517455136 0.00052061410527445026 0 -0.0018604019327328502 0.0018381007814347926 0 -0.0019829105971952252 0.00072749272005001261 0 -0.0014650785541224826 0.0015095203508820529 0 -0.0018604019327328502 0.0018381007814347926 0 -0.0019829105971952252 0.00072749272005001261 0 -0.0024186737351186783 0.0022055757907279449 0 -0.00098899035290005177 0.00077949076611678425 0 -0.0014650785541224826 0.0015095203508820529 0 -0.00084195692414623365 0.0016473129573499777 0 -0.0019596966748325561 0.00072386663072195945 0 -0.00098899035290005177 0.00077949076611678425 0 -0.0014650785541224826 0.0015095203508820529 0 0.00022463580629744105 0.00077399565365927599 0 5.1131829789858762e-05 0.0020960961092394265 0 -0.00098899035290005177 0.00077949076611678425 0 0.00026740384881621018 0.00050611570552585032 0 -0.00084195692414623365 0.0016473129573499777 0 0.00026740384881621018 0.00050611570552585032 0 -0.00084195692414623365 0.0016473129573499777 0 -6.5647604532325285e-05 0.0023856298019455271 0 -0.0013004360062331482 0.0025900018785122397 0 -0.00084195692414623365 0.0016473129573499777 0 -6.5647604532325285e-05 0.0023856298019455271 0 0.0005249233739642264 0.0017836460045697734 0 0.00056201664238549368 0.0014505360240984729 0 0.00091015796709756076 0.0014410773938642362 0 5.1131829789858762e-05 0.0020960961092394265 0 0.0012250424589362995 0.0012603514155344927 0 0.00056201664238549368 0.0014505360240984729 0 0.00091015796709756076 0.0014410773938642362 0 0.00096704731768930299 0.001110929308344897 0 0.00026740384881621018 0.00050611570552585032 0 5.9322880683052904e-05 0.0026236511579473777 0 0.0013298789191395093 0.001511685052461101 0 0.00026740384881621018 0.00050611570552585032 0 0.0013298789191395093 0.001511685052461101 0 0.0013391817985139889 9.9230450750593125e-05 0 0.00096704731768930299 0.001110929308344897 0 0.0014125453695139143 0.0012656335444740619 0 0.0013588685650990772 0.00079736260230701939 0 0.0013298789191395093 0.001511685052461101 0 0.0025976849830216626 0.0004165872383769917 0 0.0013391817985139889 9.9230450750593125e-05 0 0.0012250424589362995 0.0012603514155344927 0 0.0017278567719242819 0.00071410812345786326 0 0.0016639966244731419 0.0016168121670625838 0 0.0011107985209338003 0.0017050005762357635 0 0.0014125453695139143 0.0012656335444740619 0 0.0011107985209338003 0.0017050005762357635 0 0.00091015796709756076 0.0014410773938642362 0 0.0014125453695139143 0.0012656335444740619 0 0.00091015796709756076 0.0014410773938642362 0 0.00096704731768930299 0.001110929308344897 0 0.0014125453695139143 0.0012656335444740619 0 0.0066806687663565857 0.0030346117296959482 0 0.0064738777148215338 0.0033924590756620856 0 0.0068819598491777012 0.0033473535645116869 0 0.0066806687663565857 0.0030346117296959482 0 0.0068819598491777012 0.0033473535645116869 0 0.0068499828747228481 0.0029803648676584526 0 0.0064035266224936405 0.0030579034138797957 0 0.0061388460606065414 0.0033449581491331983 0 0.0064738777148215338 0.0033924590756620856 0 0.0066806687663565857 0.0030346117296959482 0 0.0064035266224936405 0.0030579034138797957 0 0.0064738777148215338 0.0033924590756620856 0 0.0060383365896661371 0.0030651451604449759 0 0.0064035266224936405 0.0030579034138797957 0 0.0061388460606065414 0.0033449581491331983 0 0.0065557617976660879 0.0039599654029920765 0 0.0060630505952210152 0.003822857906194414 0 0.0064738777148215338 0.0033924590756620856 0 0.0060630505952210152 0.003822857906194414 0 0.0061388460606065414 0.0033449581491331983 0 0.0064738777148215338 0.0033924590756620856 0 0.0016131419232295865 0.0036980371753820981 0 0.0017665438104067215 0.0033184255620871332 0 0.0065557617976660879 0.0039599654029920765 0 0.0064738777148215338 0.0033924590756620856 0 0.0068819598491777012 0.0033473535645116869 0 -0.0032670726151154414 0.0033576939703341339 0 -0.0032799474211798714 0.0033883432498235727 0 -0.0033248985989402071 0.0033212190553498101 0 -0.0032670726151154414 0.0033576939703341339 0 -0.0033248985989402071 0.0033212190553498101 0 -0.0029904175213899416 0.0032323504094063124 0 -0.0032238890065818407 0.003335170949033509 0 -0.0031556128001182689 0.0032894319404286991 0 -0.0029904175213899416 0.0032323504094063124 0 -0.0032670726151154414 0.0033576939703341339 0 -0.0031556128001182689 0.0032894319404286991 0 -0.0029904175213899416 0.0032323504094063124 0 -0.0023643914654196763 0.003551374947054064 0 -0.0029705288137403547 0.0032900155476504288 0 -0.0016579295315353843 0.0037631292948677232 0 -0.0021325955585456591 0.0031465241615418501 0 -0.0029904175213899416 0.0032323504094063124 0 -0.0029904175213899416 0.0032323504094063124 0 -0.0026314883147812952 0.0027622898294860357 0 -0.0030370901702839819 0.0024578332291734215 0 -0.0021325955585456591 0.0031465241615418501 0 -0.0029904175213899416 0.0032323504094063124 0 -0.0026314883147812952 0.0027622898294860357 0 -0.0026314883147812952 0.0027622898294860357 0 -0.0021938587242384547 0.0027463973558282855 0 -0.0023721283679899469 0.0025442726881983826 0 -0.0021325955585456591 0.0031465241615418501 0 -0.0026314883147812952 0.0027622898294860357 0 -0.0021938587242384547 0.0027463973558282855 0 0.0017665438104067215 0.0033184255620871332 0 0.0020948550396830161 0.0027060104548716252 0 -0.0033248985989402071 0.0033212190553498101 0 -0.0029904175213899416 0.0032323504094063124 0 -0.0030370901702839819 0.0024578332291734215 0 0.0068819598491777012 0.0033473535645116869 0 0.0068499828747228481 0.0029803648676584526 0 0.0069776251288555299 0.0030057275170783018 0 0.0068819598491777012 0.0033473535645116869 0 0.0069776251288555299 0.0030057275170783018 0 0.0070151132518430949 0.0029509187333969129 0 0.0069776251288555299 0.0030057275170783018 0 0.0069490413612598462 0.0028046931756407468 0 0.0071382706172328373 0.0027001404198677046 0 0.0068499828747228481 0.0029803648676584526 0 0.0069776251288555299 0.0030057275170783018 0 0.0069490413612598462 0.0028046931756407468 0 0.0068499828747228481 0.0029803648676584526 0 0.0069490413612598462 0.0028046931756407468 0 0.0067782613159873047 0.0027365529186442355 0 -0.0019829105971952252 0.00072749272005001261 0 -0.0024186737351186783 0.0022055757907279449 0 -0.0030370901702839819 0.0024578332291734215 0 0.0069776251288555299 0.0030057275170783018 0 0.0070151132518430949 0.0029509187333969129 0 0.0069716983305663375 0.0028061958235148076 0 0.0069842423696376025 0.0029725436579482634 0 0.007078252892114007 0.0027554129080959566 0 -0.001980554323525298 0.0024725678196949206 0 -0.0023721283679899469 0.0025442726881983826 0 -0.0024186737351186783 0.0022055757907279449 0 -0.001980554323525298 0.0024725678196949206 0 -0.0021938587242384547 0.0027463973558282855 0 -0.0023721283679899469 0.0025442726881983826 0 -0.0026314883147812952 0.0027622898294860357 0 -0.0023721283679899469 0.0025442726881983826 0 -0.0026184266409078859 0.0024954705203224284 0 -0.0023721283679899469 0.0025442726881983826 0 -0.0026184266409078859 0.0024954705203224284 0 -0.0024186737351186783 0.0022055757907279449 0 -0.0026184266409078859 0.0024954705203224284 0 -0.0024186737351186783 0.0022055757907279449 0 -0.0030370901702839819 0.0024578332291734215 0 -0.0026314883147812952 0.0027622898294860357 0 -0.0026184266409078859 0.0024954705203224284 0 -0.0030370901702839819 0.0024578332291734215 0 0.0071382706172328373 0.0027001404198677046 0 0.0069674134468786586 0.0024888624403856213 0 0.0072351034930721548 0.0024241131065371054 0 0.007078252892114007 0.0027554129080959566 0 0.0063629391708874003 0.0023283680559438116 0 0.0018428737927629942 0.0015277277608900023 0 0.0020948550396830161 0.0027060104548716252 0 0.0070178273113317927 0.0027397019944852487 0 0.0069716983305663375 0.0028061958235148076 0 0.0069764907705278248 0.0026772258369243481 0 0.0070178273113317927 0.0027397019944852487 0 0.0070151132518430949 0.0029509187333969129 0 0.0069716983305663375 0.0028061958235148076 0 0.0069490413612598462 0.0028046931756407468 0 0.0067782613159873047 0.0027365529186442355 0 0.0069674134468786586 0.0024888624403856213 0 0.0069490413612598462 0.0028046931756407468 0 0.0071382706172328373 0.0027001404198677046 0 0.0069674134468786586 0.0024888624403856213 0 0.0067223826258575028 0.0025326119643558293 0 0.0067782613159873047 0.0027365529186442355 0 0.0064935739914772526 0.0026883639957445008 0 0.0067223826258575028 0.0025326119643558293 0 0.0067782613159873047 0.0027365529186442355 0 0.0069674134468786586 0.0024888624403856213 0 0.0067782613159873047 0.0027365529186442355 0 0.006593852383382841 0.0028664779401734804 0 0.0064935739914772526 0.0026883639957445008 0 0.0066806687663565857 0.0030346117296959482 0 0.0067782613159873047 0.0027365529186442355 0 0.006593852383382841 0.0028664779401734804 0 0.0066806687663565857 0.0030346117296959482 0 0.0068499828747228481 0.0029803648676584526 0 0.0067782613159873047 0.0027365529186442355 0 0.0066806687663565857 0.0030346117296959482 0 0.0064035266224936405 0.0030579034138797957 0 0.006593852383382841 0.0028664779401734804 0 0.0060383365896661371 0.0030651451604449759 0 0.0064035266224936405 0.0030579034138797957 0 0.0064935739914772526 0.0026883639957445008 0 0.0064035266224936405 0.0030579034138797957 0 0.006593852383382841 0.0028664779401734804 0 0.0064935739914772526 0.0026883639957445008 0 0.0064935739914772526 0.0026883639957445008 0 0.006599013378013099 0.0024257173444738973 0 0.006369661019244543 0.0024536849498456681 0 0.0067223826258575028 0.0025326119643558293 0 0.0064935739914772526 0.0026883639957445008 0 0.006599013378013099 0.0024257173444738973 0 0.006599013378013099 0.0024257173444738973 0 0.0066944539309831399 0.002137052370072326 0 0.0067837256299373566 0.0023306878964469506 0 0.006599013378013099 0.0024257173444738973 0 0.0066944539309831399 0.002137052370072326 0 0.0065187497533746924 0.002234566753297793 0 0.0066944539309831399 0.002137052370072326 0 0.0065187497533746924 0.002234566753297793 0 0.0064571781571933868 0.0020394605576536814 0 0.0066944539309831399 0.002137052370072326 0 0.0068471611704627074 0.0021463016715135108 0 0.0067719289593317867 0.0019985702385605219 0 0.0066944539309831399 0.002137052370072326 0 0.0068471611704627074 0.0021463016715135108 0 0.0067837256299373566 0.0023306878964469506 0 0.0068471611704627074 0.0021463016715135108 0 0.0067837256299373566 0.0023306878964469506 0 0.0069445871980677509 0.0022910720951729935 0 0.0067223826258575028 0.0025326119643558293 0 0.0067837256299373566 0.0023306878964469506 0 0.0069674134468786586 0.0024888624403856213 0 0.0067223826258575028 0.0025326119643558293 0 0.006599013378013099 0.0024257173444738973 0 0.0067837256299373566 0.0023306878964469506 0 0.0069674134468786586 0.0024888624403856213 0 0.007106900578312203 0.0022261665577761255 0 0.0069445871980677509 0.0022910720951729935 0 0.0067837256299373566 0.0023306878964469506 0 0.0069674134468786586 0.0024888624403856213 0 0.0069445871980677509 0.0022910720951729935 0 0.0069674134468786586 0.0024888624403856213 0 0.0072351034930721548 0.0024241131065371054 0 0.007106900578312203 0.0022261665577761255 0 0.0018428737927629942 0.0015277277608900023 0 0.0063629391708874003 0.0023283680559438116 0 0.0063629391708874003 0.0023283680559438116 0 0.0070095061586230283 0.00216693292214551 0 0.0069005210668788104 0.0020703297529667919 0 0.0069506855596495106 0.0021417239752332595 0 0.0068120917836848489 0.0021117114938027527 0 0.0068505662433841503 0.0020011940356444895 0 0.0069005210668788104 0.0020703297529667919 0 0.0068120917836848489 0.0021117114938027527 0 0.0063629391708874003 0.0023283680559438116 0 0.0068319832603678313 0.0017411881419343972 0 0.007106900578312203 0.0022261665577761255 0 0.0069445871980677509 0.0022910720951729935 0 0.0069897281186488032 0.0020480046464214211 0 0.0068471611704627074 0.0021463016715135108 0 0.0069445871980677509 0.0022910720951729935 0 0.0069897281186488032 0.0020480046464214211 0 0.0070095061586230283 0.00216693292214551 0 0.0072685022353163762 0.0020976211071778734 0 0.0072685022353163762 0.0020976211071778734 0 0.0072504370257388002 0.0017329762994746482 0 0.0074220731142754931 0.0020354602544357986 0 0.0076997676733399512 0.0018962101719331177 0 0.0078206992443231246 0.0021093952134069835 0 0.0072685022353163762 0.0020976211071778734 0 0.0068319832603678313 0.0017411881419343972 0 0.0074220731142754931 0.0020354602544357986 0 0.0076997676733399512 0.0018962101719331177 0 0.0075966985600286648 0.0016980042113717596 0 0.0075966985600286648 0.0016980042113717596 0 0.0079547845325788052 0.0017446671874588432 0 0.0077609402868044188 0.001453703404141516 0 0.0076997676733399512 0.0018962101719331177 0 0.0075966985600286648 0.0016980042113717596 0 0.0079547845325788052 0.0017446671874588432 0 0.0075966985600286648 0.0016980042113717596 0 0.0071960888301939117 0.0017084122772268624 0 0.0074014810554288426 0.0015301217189127817 0 0.0074220731142754931 0.0020354602544357986 0 0.0075966985600286648 0.0016980042113717596 0 0.0071960888301939117 0.0017084122772268624 0 0.0071960888301939117 0.0017084122772268624 0 0.0068687830821608222 0.0017442354579846435 0 0.0070806257101265063 0.0020212187817985148 0 0.0068687830821608222 0.0017442354579846435 0 0.0066374530749474915 0.0018996443384858004 0 0.0065623876450463916 0.0016535087175617571 0 0.0068687830821608222 0.0017442354579846435 0 0.0068113985962770423 0.0014609092692000421 0 0.0065623876450463916 0.0016535087175617571 0 0.0071960888301939117 0.0017084122772268624 0 0.0068687830821608222 0.0017442354579846435 0 0.0068113985962770423 0.0014609092692000421 0 0.0066944539309831399 0.002137052370072326 0 0.0064571781571933868 0.0020394605576536814 0 0.0066374530749474915 0.0018996443384858004 0 0.006910230343213199 0.0019986879337215895 0 0.0066637096594145163 0.0019195674195597514 0 0.0066944539309831399 0.002137052370072326 0 0.0067719289593317867 0.0019985702385605219 0 0.0066374530749474915 0.0018996443384858004 0 0.0068687830821608222 0.0017442354579846435 0 0.0070806257101265063 0.0020212187817985148 0 0.0066374530749474915 0.0018996443384858004 0 0.007444446195411545 0.0020973856787365407 0 0.0071960888301939117 0.0017084122772268624 0 0.0070806257101265063 0.0020212187817985148 0 0.0068471611704627074 0.0021463016715135108 0 0.0069897281186488032 0.0020480046464214211 0 0.0067719289593317867 0.0019985702385605219 0 0.0072685022353163762 0.0020976211071778734 0 0.006910230343213199 0.0019986879337215895 0 0.0079926193467054103 0.00083756974392105554 0 0.0079668615626619418 0.00083455925132833685 0 0.0079651111852684885 0.0008394233357722254 0 0.0048482604547333812 0.00029707781656256808 0 0.0048111949883737409 -0.0002957337915701264 0 0.0017110183957510111 -0.0011312986505430428 0 0.0025976849830216626 0.0004165872383769917 0 0.0013391817985139889 9.9230450750593125e-05 0 0.0038697994861831824 -0.00067830783578392531 0 0.0017110183957510111 -0.0011312986505430428 0 0.0025976849830216626 0.0004165872383769917 0 0.0017110183957510111 -0.0011312986505430428 0 0.0013391817985139889 9.9230450750593125e-05 0 0.00039608988603958867 -0.00056692420528477888 0 0.00026740384881621018 0.00050611570552585032 0 0.0013391817985139889 9.9230450750593125e-05 0 0.00039608988603958867 -0.00056692420528477888 0 0.0048111949883737409 -0.0002957337915701264 0 0.0048645172549258301 0.00064003512751743602 0 0.0017110183957510111 -0.0011312986505430428 0 -0.00039724362989985551 -0.0015510781808344301 0 0.00039608988603958867 -0.00056692420528477888 0 0.0079651111852684885 0.0008394233357722254 0 0.0079408512406973341 0.00084715593291094071 0 0.0079987539501341492 0.00084742189264100398 0 -0.00039724362989985551 -0.0015510781808344301 0 0.00039608988603958867 -0.00056692420528477888 0 -0.0012004346848484594 -0.0003978237948807464 0 0.0048645172549258301 0.00064003512751743602 0 0.0015323841475295139 0.00071661803153481537 0 -0.00098899035290005177 0.00077949076611678425 0 0.00026740384881621018 0.00050611570552585032 0 -0.0012004346848484594 -0.0003978237948807464 0 0.00026740384881621018 0.00050611570552585032 0 0.00039608988603958867 -0.00056692420528477888 0 -0.0012004346848484594 -0.0003978237948807464 0 0.0043642771252542876 0.0015809020987493682 0 0.0044780518674709998 0.0015503216592542312 0 0.0044340993444998249 0.0014229587048819117 0 0.0043993446796586951 0.0016540608164593565 0 0.0043642771252542876 0.0015809020987493682 0 0.0044780518674709998 0.0015503216592542312 0 -0.0019596966748325561 0.00072386663072195945 0 -0.00098899035290005177 0.00077949076611678425 0 -0.0012004346848484594 -0.0003978237948807464 0 0.0018428737927629942 0.0015277277608900023 0 0.0015323841475295139 0.00071661803153481537 0 0.0045554892705886767 0.0014446534575818623 0 0.0044780518674709998 0.0015503216592542312 0 0.0044340993444998249 0.0014229587048819117 0 0.0048645172549258301 0.00064003512751743602 0 0.0068319832603678313 0.0017411881419343972 0 0.0079561620577406223 0.00090161497946252586 0 0.0079186670375349343 0.0009016244946097547 0 0.0079709743246010201 0.00084906860961484669 0 0.0068319832603678313 0.0017411881419343972 0 0.0080989105331204809 0.0012155578451350712 0 0.0076997676733399512 0.0018962101719331177 0 0.0078206992443231246 0.0021093952134069835 0 0.0079547845325788052 0.0017446671874588432 0 0.0079709743246010201 0.00084906860961484669 0 0.0079987539501341492 0.00084742189264100398 0 0.0080343594725690946 0.00083278197957507665 0 0.0079561620577406223 0.00090161497946252586 0 0.0079709743246010201 0.00084906860961484669 0 0.0079987539501341492 0.00084742189264100398 0 0.0048645172549258301 0.00064003512751743602 0 0.00882531527513211 0.00064265159158956059 0 0.0079987539501341492 0.00084742189264100398 0 0.0080220007210086951 0.0008387256635164291 0 0.0080449600811683588 0.00083738063646803136 0 0.0079926193467054103 0.00083756974392105554 0 0.0079987539501341492 0.00084742189264100398 0 0.0080220007210086951 0.0008387256635164291 0 0.0079926193467054103 0.00083756974392105554 0 0.0079651111852684885 0.0008394233357722254 0 0.0079987539501341492 0.00084742189264100398 0 0.0080500317144148823 0.00084017347263257364 0 0.0080449600811683588 0.00083738063646803136 0 0.00808592697219572 0.00083346376471653911 0 0.0080500317144148823 0.00084017347263257364 0 0.00808592697219572 0.00083346376471653911 0 0.0081167670403737967 0.00083554875484915592 0 0.0087661671972864529 0.00087397623344320492 0 0.0087119712492229433 0.00090207304810449509 0 0.0080500317144148823 0.00084017347263257364 0 0.0080220007210086951 0.0008387256635164291 0 0.0080449600811683588 0.00083738063646803136 0 0.0079987539501341492 0.00084742189264100398 0 0.0080449600811683588 0.00083738063646803136 0 0.0080343594725690946 0.00083278197957507665 0 0.0080449600811683588 0.00083738063646803136 0 0.00808592697219572 0.00083346376471653911 0 0.0080343594725690946 0.00083278197957507665 0 0.0080762739260705919 0.0014052203600444014 0 0.007878693270834446 0.0011142858698700935 0 0.0081934921350317897 0.0010960685452315335 0 0.00808592697219572 0.00083346376471653911 0 0.0080343594725690946 0.00083278197957507665 0 0.0081169356566183608 0.00083190571711696582 0 0.008035534394171661 0.0011446895915594485 0 0.008158242131085805 0.00096310113431118062 0 0.0079547845325788052 0.0017446671874588432 0 0.0080762739260705919 0.0014052203600444014 0 0.0077609402868044188 0.001453703404141516 0 0.0080989105331204809 0.0012155578451350712 0 0.008035534394171661 0.0011446895915594485 0 0.0080762739260705919 0.0014052203600444014 0 0.007878693270834446 0.0011142858698700935 0 0.0077609402868044188 0.001453703404141516 0 0.0078662677568449337 0.00083124286954645832 0 0.007878693270834446 0.0011142858698700935 0 0.008122702062895136 0.00092137636421625515 0 0.0082499607686627435 0.00083729540249146198 0 0.008122702062895136 0.00092137636421625515 0 0.0081934921350317897 0.0010960685452315335 0 0.0081966765391111862 0.0008163456142010275 0 0.0082499607686627435 0.00083729540249146198 0 0.008122702062895136 0.00092137636421625515 0 0.007878693270834446 0.0011142858698700935 0 0.008122702062895136 0.00092137636421625515 0 0.0081934921350317897 0.0010960685452315335 0 0.00808592697219572 0.00083346376471653911 0 0.0081169356566183608 0.00083190571711696582 0 0.0081167670403737967 0.00083554875484915592 0 0.0082344604154043297 0.00085315206733915371 0 0.008158242131085805 0.00096310113431118062 0 0.0082499607686627435 0.00083729540249146198 0 0.0082550874976311788 0.00083982602433061663 0 0.0081167670403737967 0.00083554875484915592 0 0.0082499607686627435 0.00083729540249146198 0 0.0081169356566183608 0.00083190571711696582 0 0.0081167670403737967 0.00083554875484915592 0 0.0086161009408934289 0.00083164298317059187 0 0.0087119712492229433 0.00090207304810449509 0 0.0090041652006870674 0.00089028510427497873 0 0.0092033791386692994 0.00080659714363714324 0 0.0093121396122730175 0.00098286490466489959 0 0.007226207380406754 0.0013405311811698877 0 0.0068113985962770423 0.0014609092692000421 0 0.006983215494118556 0.0011054901237491286 0 0.0071960888301939117 0.0017084122772268624 0 0.007226207380406754 0.0013405311811698877 0 0.0074014810554288426 0.0015301217189127817 0 0.0071960888301939117 0.0017084122772268624 0 0.007226207380406754 0.0013405311811698877 0 0.0068113985962770423 0.0014609092692000421 0 0.007226207380406754 0.0013405311811698877 0 0.0074014810554288426 0.0015301217189127817 0 0.0075633978781421184 0.0012662647808077895 0 0.0075966985600286648 0.0016980042113717596 0 0.0074014810554288426 0.0015301217189127817 0 0.0077609402868044188 0.001453703404141516 0 0.0074014810554288426 0.0015301217189127817 0 0.0077609402868044188 0.001453703404141516 0 0.0075633978781421184 0.0012662647808077895 0 0.007878693270834446 0.0011142858698700935 0 0.0077609402868044188 0.001453703404141516 0 0.0075633978781421184 0.0012662647808077895 0 0.007226207380406754 0.0013405311811698877 0 0.0075633978781421184 0.0012662647808077895 0 0.0074690800595934052 0.00098999980186537714 0 0.007878693270834446 0.0011142858698700935 0 0.0075633978781421184 0.0012662647808077895 0 0.0074690800595934052 0.00098999980186537714 0 0.0078662677568449337 0.00083124286954645832 0 0.007878693270834446 0.0011142858698700935 0 0.0074690800595934052 0.00098999980186537714 0 0.0076433851474531104 0.00069525772962221325 0 0.0078662677568449337 0.00083124286954645832 0 0.0074690800595934052 0.00098999980186537714 0 0.00730922038141665 0.00075757225477527323 0 0.0074690800595934052 0.00098999980186537714 0 0.0071635331616872883 0.00093700969309052859 0 0.007226207380406754 0.0013405311811698877 0 0.0074690800595934052 0.00098999980186537714 0 0.006983215494118556 0.0011054901237491286 0 0.0074690800595934052 0.00098999980186537714 0 0.006983215494118556 0.0011054901237491286 0 0.0071635331616872883 0.00093700969309052859 0 0.0069782999695941492 0.0010992982035422185 0 0.0067895715956764104 0.00082378633188299056 0 0.006983215494118556 0.0011054901237491286 0 0.0071635331616872883 0.00093700969309052859 0 0.0069462894039600178 0.00090703337886655175 0 0.00730922038141665 0.00075757225477527323 0 0.0071635331616872883 0.00093700969309052859 0 0.0069462894039600178 0.00090703337886655175 0 0.006983215494118556 0.0011054901237491286 0 0.0063610935091263227 0.00094332600363887726 0 0.0065120979880630356 0.0012439792637172758 0 0.006627804225914676 0.00072193449155463698 0 0.0063610935091263227 0.00094332600363887726 0 0.0061629639273699929 0.00073322189891217998 0 0.006983215494118556 0.0011054901237491286 0 0.006627804225914676 0.00072193449155463698 0 0.0063610935091263227 0.00094332600363887726 0 0.0068113985962770423 0.0014609092692000421 0 0.006983215494118556 0.0011054901237491286 0 0.0065120979880630356 0.0012439792637172758 0 0.0063610935091263227 0.00094332600363887726 0 0.0065120979880630356 0.0012439792637172758 0 0.0061105751956996813 0.0012126532662745969 0 0.0065120979880630356 0.0012439792637172758 0 0.0063512292970101091 0.0014778349585291149 0 0.0061105751956996813 0.0012126532662745969 0 0.0068113985962770423 0.0014609092692000421 0 0.0063512292970101091 0.0014778349585291149 0 0.0065623876450463916 0.0016535087175617571 0 0.0068113985962770423 0.0014609092692000421 0 0.0065120979880630356 0.0012439792637172758 0 0.0063512292970101091 0.0014778349585291149 0 0.0058724000621007228 0.0013320479736260438 0 0.0061105751956996813 0.0012126532662745969 0 0.0060764518066522511 0.0014814768614356359 0 0.0063512292970101091 0.0014778349585291149 0 0.0061105751956996813 0.0012126532662745969 0 0.0060764518066522511 0.0014814768614356359 0 0.0058724000621007228 0.0013320479736260438 0 0.0061105751956996813 0.0012126532662745969 0 0.0057719014279939149 0.0011009717701645166 0 0.0061105751956996813 0.0012126532662745969 0 0.0060389007694326806 0.00097137466552410729 0 0.0057719014279939149 0.0011009717701645166 0 0.0060389007694326806 0.00097137466552410729 0 0.0058326101984542932 0.00087583999690866565 0 0.0057719014279939149 0.0011009717701645166 0 0.0063610935091263227 0.00094332600363887726 0 0.0061105751956996813 0.0012126532662745969 0 0.0060389007694326806 0.00097137466552410729 0 0.0063610935091263227 0.00094332600363887726 0 0.0060389007694326806 0.00097137466552410729 0 0.0061629639273699929 0.00073322189891217998 0 0.0060389007694326806 0.00097137466552410729 0 0.0061629639273699929 0.00073322189891217998 0 0.0058326101984542932 0.00087583999690866565 0 0.0059130351743373593 0.00067279573863536642 0 0.0061629639273699929 0.00073322189891217998 0 0.0058326101984542932 0.00087583999690866565 0 0.0056564975887627225 0.00075179030700389855 0 0.0059130351743373593 0.00067279573863536642 0 0.0058326101984542932 0.00087583999690866565 0 0.0056564975887627225 0.00075179030700389855 0 0.0058326101984542932 0.00087583999690866565 0 0.005602768929118076 0.00094264602106791141 0 0.005602768929118076 0.00094264602106791141 0 0.0055406311910982985 0.0011091775932679986 0 0.0057719014279939149 0.0011009717701645166 0 0.0058326101984542932 0.00087583999690866565 0 0.005602768929118076 0.00094264602106791141 0 0.0057719014279939149 0.0011009717701645166 0 0.0053025380604005447 0.00076960072992166234 0 0.0050764791663372956 0.00079540006990700177 0 0.0053422058482150373 0.00094867140012953313 0 0.0053025380604005447 0.00076960072992166234 0 0.0053422058482150373 0.00094867140012953313 0 0.0054619613928980982 0.00081452351416031105 0 0.005602768929118076 0.00094264602106791141 0 0.0053422058482150373 0.00094867140012953313 0 0.0054619613928980982 0.00081452351416031105 0 0.0056564975887627225 0.00075179030700389855 0 0.005602768929118076 0.00094264602106791141 0 0.0054619613928980982 0.00081452351416031105 0 0.005602768929118076 0.00094264602106791141 0 0.0053422058482150373 0.00094867140012953313 0 0.0055406311910982985 0.0011091775932679986 0 0.0049751446016912679 0.0006559111199887376 0 0.005288971792450913 0.00084184384748230644 0 0.0045344904186996535 0.00049545751555644685 0 0.0045970460783775176 0.00034170904735808007 0 0.0050391430701120631 0.00054541434509363014 0 0.0045344904186996535 0.00049545751555644685 0 0.0050391430701120631 0.00054541434509363014 0 0.0048505974388407666 0.00096765646337294744 0 0.0050391430701120631 0.00054541434509363014 0 0.0048505974388407666 0.00096765646337294744 0 0.0055933056349858458 0.0012038384173024717 0 0.0045344904186996535 0.00049545751555644685 0 0.0044105426773669533 0.00076761479962866733 0 0.0048505974388407666 0.00096765646337294744 0 0.0055406311910982985 0.0011091775932679986 0 0.0057719014279939149 0.0011009717701645166 0 0.0055933056349858458 0.0012038384173024717 0 0.005288971792450913 0.00084184384748230644 0 0.0055820172437938574 0.0011837599066180072 0 0.0058724000621007228 0.0013320479736260438 0 0.0057719014279939149 0.0011009717701645166 0 0.0055933056349858458 0.0012038384173024717 0 0.0058724000621007228 0.0013320479736260438 0 0.0055933056349858458 0.0012038384173024717 0 0.0056861500343017481 0.0015617958966661944 0 0.0048505974388407666 0.00096765646337294744 0 0.0055933056349858458 0.0012038384173024717 0 0.0052555358088633352 0.0015213493287537325 0 0.0055933056349858458 0.0012038384173024717 0 0.0052555358088633352 0.0015213493287537325 0 0.0056861500343017481 0.0015617958966661944 0 0.0050425245897582124 0.0015087907761979532 0 0.0055120801598697927 0.0015662428635060924 0 0.0048257997563011809 0.001502760766754502 0 0.0053362141970247079 0.001559461279114884 0 0.0051569446422181434 0.0019656704491121239 0 0.0048505974388407666 0.00096765646337294744 0 0.0045244611604329313 0.0010664269446151646 0 0.0047455762248921566 0.0014030911662379544 0 0.0044105426773669533 0.00076761479962866733 0 0.0048505974388407666 0.00096765646337294744 0 0.0045244611604329313 0.0010664269446151646 0 0.0048505974388407666 0.00096765646337294744 0 0.0052555358088633352 0.0015213493287537325 0 0.0047455762248921566 0.0014030911662379544 0 0.0048257997563011809 0.001502760766754502 0 0.0043619800468669276 0.0014606935215840566 0 0.0044560176352634422 0.0017680905296449684 0 0.0050425245897582124 0.0015087907761979532 0 0.0045514976990141051 0.001420828895105879 0 0.0043619800468669276 0.0014606935215840566 0 0.0041907787663945329 0.0016409010759088792 0 0.0044560176352634422 0.0017680905296449684 0 0.0041907787663945329 0.0016409010759088792 0 0.0044560176352634422 0.0017680905296449684 0 0.0041313345114646011 0.0021344647640483901 0 0.0048257997563011809 0.001502760766754502 0 0.0044560176352634422 0.0017680905296449684 0 0.0047322433115357379 0.0020576208651913244 0 0.0044560176352634422 0.0017680905296449684 0 0.0047322433115357379 0.0020576208651913244 0 0.0041313345114646011 0.0021344647640483901 0 0.004574416458998116 0.002525142131327188 0 0.0047322433115357379 0.0020576208651913244 0 0.0041313345114646011 0.0021344647640483901 0 0.0053362141970247079 0.001559461279114884 0 0.0051569446422181434 0.0019656704491121239 0 0.0056217904788874633 0.0021263442561596192 0 0.0048257997563011809 0.001502760766754502 0 0.0047322433115357379 0.0020576208651913244 0 0.0051569446422181434 0.0019656704491121239 0 0.004574416458998116 0.002525142131327188 0 0.0047322433115357379 0.0020576208651913244 0 0.0052148146762298385 0.0024471918661156146 0 0.0047322433115357379 0.0020576208651913244 0 0.0051569446422181434 0.0019656704491121239 0 0.0052148146762298385 0.0024471918661156146 0 0.0051569446422181434 0.0019656704491121239 0 0.0052148146762298385 0.0024471918661156146 0 0.0056217904788874633 0.0021263442561596192 0 0.0056300934255961886 0.0026795037720576732 0 0.0056217904788874633 0.0021263442561596192 0 0.0060139606569632889 0.0024327935173142465 0 0.0056300934255961886 0.0026795037720576732 0 0.0052148146762298385 0.0024471918661156146 0 0.0056217904788874633 0.0021263442561596192 0 0.0056217904788874633 0.0021263442561596192 0 0.0060154152786025183 0.0020045537526391893 0 0.0058943214051425273 0.0016438311822317953 0 0.0056217904788874633 0.0021263442561596192 0 0.0060154152786025183 0.0020045537526391893 0 0.0060139606569632889 0.0024327935173142465 0 0.0060139606569632889 0.0024327935173142465 0 0.006369661019244543 0.0024536849498456681 0 0.0062696898130244986 0.0021615195601924421 0 0.006369661019244543 0.0024536849498456681 0 0.0065187497533746924 0.002234566753297793 0 0.0062696898130244986 0.0021615195601924421 0 0.006599013378013099 0.0024257173444738973 0 0.006369661019244543 0.0024536849498456681 0 0.0065187497533746924 0.002234566753297793 0 0.0065187497533746924 0.002234566753297793 0 0.0064571781571933868 0.0020394605576536814 0 0.0062696898130244986 0.0021615195601924421 0 0.0060154152786025183 0.0020045537526391893 0 0.0060139606569632889 0.0024327935173142465 0 0.0062696898130244986 0.0021615195601924421 0 0.0064571781571933868 0.0020394605576536814 0 0.0062696898130244986 0.0021615195601924421 0 0.0062710053200619722 0.001810013839301957 0 0.0060154152786025183 0.0020045537526391893 0 0.0062696898130244986 0.0021615195601924421 0 0.0062710053200619722 0.001810013839301957 0 0.0062710053200619722 0.001810013839301957 0 0.0066374530749474915 0.0018996443384858004 0 0.0065623876450463916 0.0016535087175617571 0 0.0064571781571933868 0.0020394605576536814 0 0.0062710053200619722 0.001810013839301957 0 0.0066374530749474915 0.0018996443384858004 0 0.0063512292970101091 0.0014778349585291149 0 0.0062710053200619722 0.001810013839301957 0 0.0065623876450463916 0.0016535087175617571 0 0.0063512292970101091 0.0014778349585291149 0 0.0062710053200619722 0.001810013839301957 0 0.0060764518066522511 0.0014814768614356359 0 0.0058724000621007228 0.0013320479736260438 0 0.0060764518066522511 0.0014814768614356359 0 0.0058943214051425273 0.0016438311822317953 0 0.0062710053200619722 0.001810013839301957 0 0.0060764518066522511 0.0014814768614356359 0 0.0058943214051425273 0.0016438311822317953 0 0.0058724000621007228 0.0013320479736260438 0 0.0056861500343017481 0.0015617958966661944 0 0.0058943214051425273 0.0016438311822317953 0 0.0055120801598697927 0.0015662428635060924 0 0.0058661916314977905 0.0016219314102409387 0 0.0053362141970247079 0.001559461279114884 0 0.0056217904788874633 0.0021263442561596192 0 0.0058943214051425273 0.0016438311822317953 0 0.0060154152786025183 0.0020045537526391893 0 0.0062710053200619722 0.001810013839301957 0 0.0058943214051425273 0.0016438311822317953 0 
</DataArray>
</PointData>
<CellData Scalars="region_id,cross_section_updated," Vectors="" Tensors="stress,">
<DataArray type="Float64" Name="region_id" format="ascii">
6 5 5 5 5 5 5 5 5 6 5 5 6 5 5 5 5 5 5 5 6 6 5 5 5 5 5 5 5 5 5 5 5 5 5 5 5 5 6 5 5 5 5 6 5 5 5 6 5 5 5 5 5 5 5 6 5 5 5 6 5 6 5 5 6 5 5 5 5 6 5 5 6 6 5 5 6 5 5 5 5 6 6 5 5 5 5 6 6 5 5 5 5 5 6 6 5 5 5 5 6 6 5 5 6 5 6 5 6 5 6 5 5 6 5 6 5 5 5 5 5 6 5 6 6 6 5 6 6 5 5 5 6 5 6 5 5 5 5 5 5 5 5 6 5 6 5 5 5 5 6 5 5 6 5 5 5 5 5 5 5 5 6 5 5 5 5 5 5 5 5 5 5 5 5 5 5 5 5 5 5 5 5 6 5 5 5 5 5 5 5 5 5 5 5 5 5 5 5 5 5 5 5 5 5 5 5 5 5 5 6 5 5 5 5 5 5 5 5 5 5 5 5 6 5 5 5 5 5 6 5 5 5 5 5 5 5 5 5 5 6 5 5 5 5 5 6 5 5 5 6 5 5 5 5 5 6 5 5 6 5 6 5 5 5 6 6 5 6 5 5 5 6 5 5 5 5 5 5 6 5 5 6 5 6 5 5 5 5 5 6 5 5 6 6 5 5 5 6 5 5 5 6 5 5 6 5 5 5 5 5 5 5 5 5 6 5 5 5 5 5 5 5 5 5 5 5 5 5 5 5 5 5 5 5 5 5 5 6 5 6 5 5 5 5 5 5 5 6 5 5 5 5 5 5 6 5 5 6 5 5 5 5 5 5 6 6 5 5 5 5 6 6 5 5 5 5 6 5 5 5 5 6 5 6 5 6 6 5 5 5 5 5 5 6 5 5 6 5 6 5 5 5 5 5 5 5 5 5 6 5 5 5 5 5 5 5 5 6 5 5 5 6 5 5 5 5 5 6 5 5 5 5 5 5 5 6 5 5 6 5 6 6 5 5 5 5 5 5 5 5 5 5 5 5 5 5 5 5 5 5 5 5 5 5 5 5 5 5 5 5 5 5 5 5 5 5 5 5 5 5 5 5 5 5 5 5 5 5 5 5 6 6 5 5 5 6 5 5 5 5 5 6 5 5 5 5 5 5 5 5 5 6 5 5 5 6 5 6 5 5 5 5 5 6 5 5 5 5 5 5 5 5 6 5 5 5 5 5 5 5 5 5 5 5 5 5 5 5 5 5 5 5 5 5 5 5 5 5 5 5 5 5 5 5 5 5 5 5 5 5 5 5 6 5 5 6 5 5 6 5 5 5 5 5 5 5 5 5 5 5 5 5 6 5 5 5 5 5 5 5 5 5 6 5 5 5 5 5 5 5 5 6 5 5 6 5 5 6 5 5 5 5 5 5 6 6 5 5 5 5 5 5 6 5 5 5 5 5 5 5 5 5 5 5 5 5 6 5 5 5 5 5 5 5 5 5 5 5 5 5 5 5 5 5 5 5 5 5 5 5 5 5 5 5 5 5 5 5 5 5 5 5 5 5 5 5 5 5 5 5 5 5 5 5 5 5 5 6 5 6 5 5 5 6 5 5 6 6 5 5 6 5 5 5 5 5 6 5 5 5 5 5 5 5 5 6 6 6 5 5 5 5 5 5 5 6 5 5 5 5 5 5 5 5 5 5 5 5 5 5 6 5 5 5 5 5 5 5 6 5 5 5 5 5 5 6 5 5 5 5 6 5 5 5 6 5 5 5 5 5 5 6 5 5 5 5 5 5 5 5 5 5 5 5 6 5 5 5 5 5 5 5 5 6 5 6 5 6 5 6 5 5 5 5 6 6 5 5 5 6 6 5 5 6 5 5 5 5 5 5 5 5 5 5 5 5 5 5 5 5 5 6 5 5 5 5 5 5 5 6 6 5 5 5 6 5 5 5 5 5 5 5 5 5 5 6 5 5 5 5 6 5 6 5 5 5 5 5 5 5 6 5 5 5 6 5 5 5 5 5 5 5 5 5 5 5 5 5 6 5 5 5 5 5 6 5 5 5 5 5 5 5 5 5 5 5 5 5 5 5 6 5 5 5 5 5 6 5 6 5 5 5 5 5 5 5 5 5 6 5 5 5 5 5 5 5 5 5 5 5 5 5 5 5 5 5 5 5 6 5 6 5 5 5 5 5 5 5 5 5 5 5 5 5 5 5 5 5 5 5 5 6 5 5 5 5 5 5 5 5 5 5 6 5 5 5 5 5 5 5 5 5 6 5 5 6 5 5 5 5 6 5 5 5 5 5 5 5 5 5 5 5 5 5 5 5 6 5 5 5 6 5 5 6 5 5 5 5 5 5 5 5 5 5 5 5 5 5 5 5 5 5 5 5 5 5 5 5 5 6 5 5 5 5 5 5 5 5 5 5 5 5 5 5 5 5 5 5 5 5 5 5 6 5 5 5 5 6 5 5 6 5 6 5 5 5 5 5 6 5 5 5 5 5 5 5 6 5 5 5 5 5 5 5 6 5 5 5 6 5 5 5 5 5 5 5 5 5 5 5 5 5 5 5 5 5 6 5 5 5 6 5 6 5 5 5 5 6 6 5 5 5 5 5 5 5 5 5 5 5 5 5 5 5 5 5 5 5 6 5 5 5 6 5 5 6 5 5 6 5 6 5 5 6 5 5 5 5 5 5 5 5 5 5 5 5 5 5 5 5 6 6 5 5 5 5 5 6 5 5 5 5 5 5 5 5 5 5 5 5 5 5 5 5 6 5 5 5 5 5 6 5 5 5 5 5 5 5 5 5 5 5 5 5 5 5 5 5 6 5 5 5 5 6 5 5 5 5 6 5 5 6 5 5 6 5 5 5 5 5 5 5 5 6 5 5 5 5 5 5 6 5 5 5 6 5 6 5 5 5 5 6 5 6 5 5 6 5 5 5 5 5 6 5 5 5 5 5 6 5 5 5 6 6 5 5 5 6 5 5 6 5 5 5 5 5 5 5 5 6 5 5 5 5 5 5 5 5 5 5 6 5 5 5 6 5 5 5 6 5 5 5 5 5 6 5 5 5 5 5 5 5 5 5 5 5 5 5 5 5 5 5 5 5 5 5 5 5 5 5 5 5 5 5 5 5 5 5 5 5 5 6 5 5 5 6 5 5 5 5 5 5 5 5 6 5 6 5 5 5 5 5 5 5 5 5 6 5 5 6 5 5 5 6 5 5 5 5 6 5 5 5 5 5 5 5 5 5 5 6 5 5 5 5 5 5 6 5 5 5 5 5 6 5 5 6 5 6 5 5 5 6 5 5 5 6 5 5 5 5 5 6 6 5 5 5 5 5 5 5 5 5 5 5 6 5 6 5 5 6 5 5 5 5 5 5 5 5 5 6 6 5 5 5 5 5 6 5 6 5 5 5 5 5 6 5 5 5 6 5 6 5 6 5 5 5 5 5 5 5 5 5 5 5 5 5 5 5 5 5 5 5 5 5 6 5 5 5 5 5 5 5 5 5 5 5 5 5 5 5 5 5 5 5 5 5 5 5 5 5 6 5 6 5 5 6 5 6 5 5 5 5 6 5 5 5 5 5 5 5 5 5 5 5 6 5 5 5 5 5 5 5 6 6 5 5 5 5 5 5 5 5 5 5 5 5 5 5 5 5 5 5 5 5 5 5 5 6 5 5 5 5 5 5 5 5 5 5 5 5 5 6 5 5 5 6 5 5 5 5 6 5 5 5 5 5 5 5 5 6 5 5 5 5 5 5 5 5 5 5 5 5 5 5 5 5 5 5 5 5 5 5 5 6 5 5 5 5 5 6 5 5 6 5 5 5 5 5 5 5 5 5 5 5 5 5 5 5 5 5 5 5 5 5 5 5 5 5 5 5 5 5 5 5 5 5 5 6 5 5 5 5 5 5 5 5 5 5 5 5 5 6 5 6 5 5 5 5 5 5 5 5 5 5 5 5 6 5 5 5 5 5 6 5 5 5 5 5 5 5 5 5 5 5 6 5 5 5 6 5 5 5 5 6 5 5 5 5 5 5 5 5 5 5 5 5 6 5 5 5 5 6 5 6 6 5 5 6 5 5 5 5 5 5 5 5 5 5 5 5 5 5 5 5 5 5 5 5 5 5 5 6 5 5 5 5 5 5 5 5 5 6 5 5 5 5 5 6 5 5 5 5 5 5 5 5 5 5 5 5 5 5 5 5 5 5 5 5 5 5 5 5 5 5 5 5 5 5 5 5 5 5 5 5 5 5 5 5 5 5 5 5 5 5 5 5 5 5 5 5 5 5 5 5 5 5 5 5 5 5 5 5 5 5 5 5 5 5 5 6 5 5 5 5 5 5 5 5 6 5 5 5 5 5 5 5 5 5 5 5 5 5 5 6 5 5 5 5 5 5 5 5 5 6 5 5 5 5 5 5 5 5 5 5 5 5 5 5 6 5 5 5 6 5 5 5 5 6 6 5 6 5 5 6 5 5 6 5 6 6 5 5 5 5 5 6 5 5 5 5 5 5 6 5 5 6 6 6 5 5 5 5 6 5 6 5 5 5 5 5 5 6 5 5 6 6 5 5 5 5 5 5 6 6 5 5 5 5 5 5 5 5 5 5 6 5 6 5 5 5 5 5 5 6 5 5 5 5 5 5 5 5 5 5 5 5 5 5 5 5 5 5 6 5 5 5 5 5 5 5 5 5 5 5 5 5 5 5 5 5 5 5 5 5 5 5 5 5 5 5 5 5 5 5 5 5 5 5 5 5 5 5 5 5 5 5 6 6 5 5 5 5 5 5 5 5 5 5 5 5 5 5 5 5 5 5 5 5 5 5 5 5 5 5 5 5 5 5 5 5 5 5 5 5 5 5 5 5 5 5 5 5 5 5 5 6 5 5 5 6 5 5 5 5 6 5 6 5 5 5 5 5 5 6 5 5 5 6 6 5 5 5 6 5 6 5 5 5 6 5 5 5 6 5 5 6 5 5 6 5 6 6 5 6 6 5 5 6 5 6 5 5 5 5 6 6 5 5 5 5 6 5 5 6 5 5 6 6 6 5 6 5 5 5 6 5 6 5 5 6 5 5 5 6 5 5 5 5 5 5 5 6 5 5 5 6 5 5 5 5 5 5 5 6 5 5 5 5 5 5 5 5 5 5 5 5 5 5 5 5 6 6 5 5 5 6 5 6 5 6 5 5 5 5 6 5 6 5 5 5 5 5 5 5 6 5 5 6 5 5 5 5 5 5 6 5 5 5 5 5 5 5 5 5 5 5 6 5 5 5 5 5 5 5 5 5 5 5 6 5 5 5 6 5 5 5 5 5 5 5 5 5 5 5 5 5 5 5 5 6 5 5 5 5 6 5 5 6 5 5 5 5 6 5 5 6 5 5 5 5 5 5 5 5 5 5 5 5 5 5 5 5 5 6 5 5 5 5 5 5 5 5 6 5 5 5 5 5 5 5 5 5 5 5 5 5 5 5 5 5 5 5 5 5 5 6 5 5 5 5 6 5 5 5 6 5 6 5 5 5 5 5 5 5 5 6 5 5 5 5 5 5 5 5 5 5 6 5 5 6 5 6 5 5 5 5 5 5 5 5 6 6 5 6 6 5 5 5 6 5 6 5 5 5 5 5 5 5 5 5 5 6 5 5 5 6 5 5 5 5 5 5 6 5 5 5 5 6 5 5 5 5 5 5 5 5 5 5 5 5 5 5 5 5 5 5 5 5 5 5 5 5 5 5 5 6 5 5 5 5 5 6 5 5 5 5 5 5 5 5 5 5 5 5 5 6 5 5 5 5 6 5 5 5 5 5 5 5 5 5 5 5 5 6 5 5 5 5 5 5 5 5 5 5 6 5 5 5 5 5 5 5 5 5 5 5 5 5 5 5 5 5 5 5 5 5 5 5 5 5 5 5 5 5 5 5 5 5 5 5 5 5 5 5 6 6 5 5 5 6 5 5 5 5 5 6 5 5 6 5 5 5 5 5 6 5 5 5 5 6 5 5 5 5 5 5 5 5 5 5 5 5 5 5 5 5 5 5 5 6 5 5 5 5 5 5 5 6 5 5 5 5 5 5 5 5 5 5 5 5 6 5 5 6 5 5 5 5 5 5 5 6 5 5 5 6 6 5 5 5 5 5 5 5 5 5 5 5 5 5 5 5 5 5 5 5 5 5 5 5 5 5 5 5 5 6 5 5 5 5 5 5 5 6 5 5 5 5 5 5 5 5 5 6 5 5 6 5 5 5 5 5 5 5 5 5 5 5 5 5 5 5 6 5 5 5 5 5 5 5 5 5 5 5 5 5 5 5 5 5 5 5 5 5 5 6 5 5 5 5 5 5 5 5 5 5 5 5 5 5 5 5 5 5 5 5 5 5 5 6 5 5 5 6 5 5 6 5 5 5 5 5 5 5 5 5 5 5 5 5 5 5 6 6 5 5 5 5 5 6 5 5 5 5 5 5 5 5 5 5 5 5 5 6 5 5 5 5 5 5 5 5 5 5 5 5 5 5 5 5 5 6 5 5 5 5 5 6 5 5 5 6 6 5 5 5 5 5 5 5 5 5 5 5 5 5 5 5 5 5 5 5 5 5 5 5 5 5 5 5 6 5 5 6 5 5 5 5 5 5 5 5 5 5 5 5 5 5 6 5 5 5 5 5 5 5 5 5 5 5 5 5 5 5 5 5 5 6 5 5 6 5 5 5 5 5 5 5 5 5 5 5 5 5 5 5 5 5 5 5 5 5 5 6 5 5 5 5 6 5 5 5 5 5 5 5 5 5 5 5 5 5 6 5 5 5 5 5 6 6 5 6 5 5 5 5 5 5 6 5 5 5 6 5 5 5 5 5 5 5 6 5 5 5 6 5 5 5 5 5 5 5 5 6 5 5 5 5 5 5 6 5 5 5 5 5 5 5 5 5 5 6 5 6 5 6 6 5 5 5 5 5 5 5 5 5 5 5 5 5 5 5 5 6 5 5 5 5 5 5 5 5 5 5 5 5 5 5 5 5 5 5 5 5 5 5 5 6 5 6 6 5 5 5 5 6 5 5 5 5 5 5 6 5 5 5 6 5 5 5 6 5 5 5 6 5 5 5 5 5 5 5 5 5 6 5 5 5 5 5 5 5 5 5 5 5 5 5 5 5 6 5 5 5 5 5 6 5 6 5 5 6 5 5 6 5 5 5 5 6 5 5 6 5 5 5 5 6 5 5 6 5 5 5 5 5 5 5 5 5 5 5 5 5 5 5 5 6 5 6 5 5 5 5 5 5 5 5 5 6 5 5 5 5 5 5 5 6 5 6 5 6 5 5 5 5 5 5 5 5 5 5 5 5 5 5 5 5 5 5 5 5 5 5 5 5 6 5 5 5 5 5 5 5 6 5 5 5 5 5 5 5 5 5 6 5 5 5 5 5 6 5 5 5 5 5 5 5 5 5 5 5 6 5 5 5 5 5 5 5 5 5 5 5 5 5 5 5 5 5 5 5 5 5 5 5 5 5 6 5 5 5 5 5 5 5 5 5 6 5 5 5 5 5 6 5 5 5 6 5 6 5 5 5 5 5 5 5 5 5 5 5 5 5 5 6 5 5 5 5 6 5 5 5 6 5 5 5 6 5 5 5 5 5 5 5 5 5 5 5 5 5 5 5 5 5 5 5 5 5 5 5 5 5 6 5 6 5 5 6 5 5 6 5 5 5 5 5 5 6 5 5 5 5 5 5 5 5 5 5 5 6 6 5 5 5 5 5 5 5 5 5 5 6 6 5 6 5 5 5 6 5 5 5 5 5 5 5 5 5 5 6 5 6 5 6 5 5 5 5 5 5 6 5 5 5 5 5 5 5 5 5 5 5 5 6 5 5 5 5 6 5 5 5 5 5 6 6 5 5 5 5 5 5 5 5 5 5 5 5 5 5 5 5 5 5 5 5 5 5 5 5 5 6 5 5 5 6 5 5 5 5 5 5 5 5 5 6 5 5 5 5 5 5 5 5 5 5 5 5 5 5 5 5 5 5 5 5 5 5 5 5 5 5 5 6 5 5 5 5 5 5 5 5 5 5 5 5 5 5 5 5 5 5 5 5 5 5 5 5 5 5 5 5 5 5 5 5 5 6 5 5 5 6 5 5 5 5 6 5 5 5 5 6 5 5 6 5 5 5 5 5 5 5 6 5 5 5 5 5 5 5 5 5 5 5 5 5 6 6 5 5 5 6 5 5 6 6 5 5 5 5 5 5 6 5 5 5 5 5 5 6 5 5 6 5 5 5 6 5 5 5 6 5 5 5 5 5 6 5 6 6 5 5 6 5 5 5 6 5 5 5 5 5 5 5 5 6 5 5 5 5 5 5 5 5 5 5 5 5 5 5 5 5 5 5 5 5 5 5 5 5 5 5 5 5 5 5 5 5 6 5 5 5 5 5 5 5 5 5 5 5 5 5 5 5 5 5 5 5 6 5 5 5 5 5 6 5 5 5 5 5 5 5 5 5 5 5 5 5 5 5 5 5 5 5 6 6 5 5 5 5 6 5 5 5 5 5 5 6 5 5 5 5 5 5 5 5 5 6 5 5 5 5 5 5 5 5 5 5 5 5 5 6 5 5 5 5 5 5 6 5 5 5 5 5 5 6 5 5 5 5 5 6 5 5 5 5 5 5 6 5 6 5 5 5 6 5 5 5 5 5 5 5 5 5 5 5 5 5 5 5 5 5 5 5 5 5 5 5 5 5 5 5 5 5 5 5 5 5 5 5 5 6 5 5 5 6 5 6 5 6 5 5 5 5 5 6 5 5 5 6 5 5 5 6 5 5 5 5 5 5 5 5 5 6 5 5 5 5 5 5 6 5 5 6 6 5 5 6 5 5 6 5 5 6 5 5 5 5 5 5 5 5 5 5 5 5 5 5 5 5 5 5 5 5 5 5 5 5 5 6 5 5 5 5 5 5 5 5 5 5 5 5 5 5 5 6 5 5 6 5 5 5 6 5 5 6 6 5 5 5 5 5 5 5 6 5 5 5 5 5 5 5 5 5 5 5 5 5 6 5 5 6 5 5 5 5 5 5 5 5 5 5 5 5 5 5 5 5 5 5 5 5 5 5 5 5 5 5 5 5 5 6 5 5 5 5 5 5 5 6 5 5 5 5 5 6 5 5 5 5 6 6 5 6 5 5 5 6 5 5 6 5 5 5 5 6 5 5 5 5 5 5 5 5 5 5 5 6 6 5 5 5 5 5 5 5 5 5 6 5 5 6 5 5 5 5 5 5 5 5 5 6 5 6 5 6 5 6 5 6 6 5 6 5 6 5 5 5 5 5 6 5 5 6 5 5 6 5 6 6 5 6 5 5 5 5 5 5 5 5 5 5 5 6 5 5 5 6 5 5 6 5 5 5 5 5 5 5 5 5 5 5 5 5 5 5 5 5 5 5 5 5 5 5 5 5 5 5 5 5 5 5 5 5 5 5 5 6 5 5 5 5 5 5 6 6 5 5 5 5 5 5 5 5 5 5 6 5 5 5 6 5 5 5 5 5 5 5 5 6 5 5 5 5 5 5 5 5 5 5 6 5 5 5 5 5 5 6 5 5 5 5 5 5 6 5 5 5 6 5 5 5 5 5 5 5 5 5 5 6 5 5 5 5 5 5 5 6 5 6 5 5 5 5 5 5 5 5 5 5 5 5 5 5 5 5 5 5 5 5 5 5 5 6 5 5 5 5 5 5 5 5 5 5 5 5 5 5 5 5 5 5 5 5 5 5 5 5 5 5 5 5 5 5 5 5 5 5 5 5 5 5 5 5 5 5 5 5 5 5 5 5 5 5 5 5 5 5 5 5 5 5 5 5 5 5 5 5 5 6 5 5 5 5 5 5 5 6 5 5 5 5 5 5 5 5 5 5 5 5 5 5 5 5 5 5 5 5 5 5 6 5 5 5 5 5 5 5 5 5 5 5 5 5 5 5 5 5 5 5 5 5 5 5 5 6 5 5 5 6 5 5 5 5 5 5 5 5 5 5 5 5 5 5 5 5 5 5 5 5 5 5 5 5 5 5 5 5 5 5 5 5 5 6 5 6 5 5 5 5 5 6 5 6 5 5 5 5 5 5 5 5 5 5 5 5 5 6 5 5 5 5 5 5 5 5 5 5 6 5 5 5 5 5 5 5 5 6 5 5 5 6 6 5 5 6 5 5 5 5 5 5 6 5 5 6 5 5 5 6 5 5 5 5 5 6 5 5 6 6 6 5 5 5 5 5 5 5 5 5 5 5 5 5 5 6 5 5 5 6 5 5 5 5 5 5 6 5 5 6 5 5 5 5 5 5 5 5 5 5 5 5 5 5 5 5 5 6 5 5 5 5 5 5 5 5 5 5 5 5 5 5 5 5 5 6 5 5 5 5 5 5 6 5 5 5 5 6 5 5 5 5 5 6 5 5 5 5 5 5 5 5 6 5 5 5 5 6 5 5 5 5 5 5 5 5 5 6 5 5 5 5 5 5 5 5 5 5 5 5 5 6 5 5 5 6 5 5 6 5 5 5 5 5 6 5 5 5 5 5 5 6 5 6 5 5 5 6 5 5 5 6 6 5 6 5 6 5 6 5 6 5 5 5 5 5 6 5 5 5 5 6 5 5 5 5 5 5 5 5 5 5 6 5 5 5 5 5 5 5 5 5 5 5 5 5 5 5 5 5 5 5 5 5 5 5 5 5 5 5 5 5 5 5 5 5 5 6 5 5 5 5 5 5 5 6 5 5 6 5 5 5 5 5 5 5 5 5 5 6 6 5 5 5 5 5 5 5 5 5 5 5 5 6 5 6 5 6 5 5 5 5 6 6 6 5 5 6 5 5 6 5 6 5 5 5 6 6 5 5 6 6 5 5 5 5 5 6 5 5 5 5 5 5 5 5 5 6 5 5 5 5 5 5 6 5 5 6 5 5 5 5 5 5 5 5 5 6 5 5 6 6 5 5 5 5 5 5 5 5 5 6 5 5 5 5 5 5 6 5 5 6 5 5 6 5 6 5 5 5 5 5 5 5 5 5 5 5 5 5 5 5 6 5 5 5 6 5 5 5 5 5 5 5 5 5 5 5 5 5 5 6 5 5 5 5 6 5 5 5 5 5 5 5 6 5 6 5 5 6 5 5 5 6 5 5 5 5 5 5 6 5 6 5 5 5 6 5 6 5 5 5 5 5 6 5 6 5 5 5 5 5 5 5 5 5 5 5 5 5 5 6 5 5 5 5 6 6 5 5 6 6 6 5 5 5 6 5 5 5 5 5 5 5 5 6 5 5 5 5 6 5 5 5 5 5 5 5 6 5 6 5 5 5 6 5 5 5 5 5 5 6 5 5 6 5 5 5 6 5 5 5 5 5 5 5 6 5 6 5 6 5 5 5 5 5 5 5 5 5 5 5 5 5 5 6 5 6 5 6 5 5 6 5 5 5 6 5 6 5 5 5 5 6 5 6 6 5 5 5 5 5 5 5 6 5 5 5 5 5 5 5 5 5 5 5 5 5 5 5 5 6 6 6 6 5 5 6 5 5 5 6 5 5 5 5 6 5 5 6 6 5 6 5 5 5 5 5 5 5 5 5 5 6 6 5 5 5 5 6 6 5 5 6 5 5 5 5 6 5 5 5 5 5 5 6 5 6 5 5 5 5 6 5 5 5 5 5 5 5 5 5 5 6 5 5 5 5 5 5 6 6 6 5 5 5 5 5 5 5 5 5 6 5 5 5 6 5 5 6 5 5 5 6 5 5 5 5 5 6 5 6 5 6 5 5 5 5 6 5 6 5 5 5 5 5 5 5 5 5 6 5 5 5 5 5 5 5 5 5 5 5 5 5 5 5 5 6 6 5 5 5 5 5 5 5 5 5 5 5 5 5 5 5 6 6 6 5 5 5 5 5 6 6 5 5 5 6 6 5 5 5 5 6 5 5 5 6 6 5 5 6 5 5 5 5 5 5 5 5 5 5 5 5 5 5 5 5 5 5 5 5 5 5 5 5 5 5 5 5 5 5 5 6 5 5 5 5 5 5 5 6 5 6 5 5 5 5 5 6 5 6 5 6 5 5 5 5 6 5 5 5 5 5 5 5 5 5 5 5 5 5 5 5 5 5 5 5 5 5 5 5 5 5 5 5 5 5 5 5 5 5 5 6 5 5 5 5 5 5 5 6 5 5 5 5 5 5 5 5 5 5 5 5 5 5 6 6 5 5 5 5 5 6 5 5 5 5 5 5 5 5 5 5 5 5 6 5 5 5 5 6 5 5 6 5 5 6 5 6 5 5 5 5 5 5 5 6 5 5 5 5 6 5 5 5 5 5 5 6 5 5 5 5 5 5 5 5 5 6 5 5 5 5 5 5 5 5 6 5 6 5 5 6 5 5 6 5 5 5 5 5 5 5 5 5 6 5 5 5 6 5 5 5 6 5 5 5 5 5 5 5 5 5 5 5 5 5 5 5 5 5 5 5 5 6 5 5 5 5 5 5 6 5 5 5 6 5 5 6 5 5 6 5 5 6 5 6 5 5 6 6 5 5 5 5 5 5 5 5 5 5 5 5 5 5 5 5 5 5 5 5 5 6 5 5 5 5 5 6 6 6 5 6 5 6 5 5 5 6 5 5 6 5 6 5 5 5 6 5 6 5 6 5 5 5 5 5 6 6 5 5 5 5 5 5 5 5 5 6 5 5 5 6 5 6 6 5 5 5 5 5 5 5 5 5 5 5 5 5 5 5 5 5 5 6 5 5 5 5 5 5 5 5 6 5 5 5 6 5 5 5 5 5 5 5 5 5 5 5 6 5 5 5 5 5 5 6 5 6 5 5 6 5 5 5 5 5 5 5 5 5 5 5 5 5 5 5 5 6 5 5 5 6 6 5 5 6 5 6 5 5 5 5 6 6 5 5 5 5 5 5 6 5 5 5 6 6 5 5 5 5 5 5 5 5 5 6 5 5 5 5 5 6 5 5 6 5 6 5 5 5 5 5 5 5 5 5 5 5 5 5 5 5 6 5 5 5 5 5 6 5 5 5 5 5 5 5 5 5 6 5 5 5 5 6 5 5 5 5 5 5 5 5 5 6 5 5 5 5 5 5 5 6 5 5 6 6 5 5 5 6 5 5 6 5 5 5 5 5 5 6 5 5 6 5 6 5 5 5 5 5 5 5 6 5 6 5 5 5 6 5 5 5 5 5 6 5 5 6 5 5 6 5 6 5 5 5 5 5 5 5 5 5 5 5 5 5 5 5 5 5 5 5 5 5 6 5 5 5 5 5 6 5 6 5 5 5 5 5 5 5 6 5 5 5 5 5 5 5 5 5 5 5 6 5 5 5 5 5 5 5 5 5 5 5 5 5 5 5 6 5 6 5 6 6 6 5 5 6 6 5 5 6 5 5 5 5 6 5 5 5 6 5 6 5 6 5 5 5 5 6 5 5 5 5 5 5 5 5 6 5 6 5 5 5 5 5 5 5 5 5 5 5 5 5 5 5 5 5 5 5 5 5 5 5 6 5 5 6 5 5 5 5 5 5 5 5 5 5 6 6 5 6 5 5 5 6 6 5 6 5 5 5 5 5 5 5 5 5 5 5 5 6 5 5 5 5 5 5 5 5 6 5 5 5 5 5 5 5 5 5 5 5 5 5 6 6 5 5 6 5 5 5 5 5 6 5 5 5 5 5 5 5 5 6 5 5 5 5 6 5 5 5 5 5 5 5 5 5 6 6 5 5 5 5 5 5 6 5 6 5 6 5 5 5 6 5 5 5 6 5 5 6 5 5 5 5 5 5 5 5 5 5 5 6 5 5 5 5 6 5 5 5 5 5 5 5 5 5 5 5 5 5 5 5 5 5 5 5 5 6 5 5 5 5 5 6 5 5 5 5 5 6 5 5 5 5 6 5 5 5 5 5 5 5 5 5 5 5 5 5 5 5 5 5 5 5 5 5 5 5 5 5 5 6 5 5 5 5 5 5 5 5 5 5 5 5 5 5 5 5 5 5 5 5 5 5 5 5 5 5 5 5 5 5 5 5 6 5 5 5 5 5 5 5 5 5 5 6 6 5 5 5 5 5 5 5 5 5 5 5 5 5 6 5 5 5 5 5 5 5 5 5 5 5 5 5 5 5 5 5 5 5 5 5 5 5 5 5 5 5 5 5 5 5 5 5 5 5 5 5 5 5 5 5 5 5 5 5 5 5 5 6 5 5 5 5 5 5 5 5 5 5 5 5 5 5 5 5 5 5 5 5 5 5 5 5 5 5 5 5 5 5 6 5 5 5 6 5 5 5 5 5 5 5 5 5 6 5 5 6 5 5 5 5 5 6 5 5 5 5 5 6 5 5 5 5 5 5 5 5 5 5 5 5 5 5 5 5 5 5 5 5 6 5 5 5 5 5 5 5 5 5 5 5 6 5 5 5 5 5 5 5 5 5 5 5 5 5 5 5 5 5 5 6 5 5 5 5 5 5 5 5 5 5 5 5 5 5 5 5 5 6 5 5 5 5 5 5 5 5 5 5 5 5 5 6 5 5 5 5 5 5 5 5 5 5 5 5 5 6 5 6 5 5 5 5 5 5 5 5 5 5 5 5 5 5 5 5 5 5 5 5 5 5 5 5 5 5 6 5 5 5 5 5 5 6 5 5 5 5 6 5 5 5 5 6 5 5 5 5 5 5 5 5 5 5 6 5 5 5 5 6 5 5 5 5 5 5 5 5 6 5 5 5 6 5 5 5 5 5 5 5 5 5 5 5 6 6 5 5 6 5 5 5 5 6 6 5 5 5 5 5 5 5 5 5 6 5 5 5 5 5 5 5 5 5 5 5 5 5 5 5 5 5 5 5 5 5 5 5 6 5 6 5 5 5 5 5 5 5 5 5 5 6 5 5 5 5 6 5 5 6 5 5 6 5 5 5 6 5 5 6 5 5 5 5 5 5 5 5 5 5 5 5 5 5 5 5 5 5 5 5 5 5 5 5 5 5 5 5 5 5 5 5 5 5 5 5 5 5 5 5 5 5 5 5 5 5 5 5 5 5 5 5 5 5 5 5 5 5 5 5 5 5 5 5 5 5 6 6 5 5 5 5 5 5 5 5 5 6 5 5 5 5 5 6 5 5 5 6 5 5 5 5 5 5 5 5 5 5 5 5 5 5 5 5 5 5 5 5 6 5 5 5 5 5 5 5 5 5 5 5 5 5 5 5 5 5 5 6 5 5 5 5 6 5 5 6 5 5 5 5 5 5 5 5 5 5 5 5 5 5 5 5 5 5 5 5 5 5 5 5 5 5 5 5 5 5 5 5 5 5 5 5 5 5 5 5 6 5 5 5 5 5 5 5 5 6 5 5 5 5 5 5 5 5 5 5 5 5 5 5 5 5 5 5 5 5 5 5 5 5 5 5 5 5 6 6 5 5 5 5 5 5 5 5 6 6 5 5 5 6 5 5 5 5 5 5 5 5 5 5 6 5 5 5 5 5 5 5 5 5 5 5 5 5 5 5 5 5 5 5 5 5 5 5 5 5 5 5 5 5 5 5 5 5 5 6 5 5 5 5 6 5 5 5 5 5 5 5 5 5 5 5 5 5 5 5 5 6 5 6 5 5 5 5 6 5 5 5 5 5 5 5 5 5 5 5 5 5 5 5 5 5 5 5 5 5 5 5 5 5 5 5 5 5 5 6 5 5 5 5 5 5 5 5 5 5 5 6 5 5 6 5 6 5 5 5 5 5 5 6 5 5 5 5 5 5 5 5 5 5 5 5 6 5 6 5 5 6 5 5 5 5 5 5 5 5 5 5 5 5 5 5 5 5 5 5 5 5 5 5 5 5 5 5 5 5 5 5 5 5 5 5 5 5 5 5 5 5 5 5 5 5 5 5 5 5 5 5 5 6 5 5 5 5 5 5 5 5 5 5 5 5 5 5 5 5 5 5 5 5 5 5 5 5 5 5 5 5 5 5 5 5 5 5 5 5 5 5 5 6 5 5 5 5 5 6 5 5 5 5 5 5 5 5 5 5 5 5 5 5 5 5 5 5 5 5 5 5 5 5 5 5 5 5 5 5 5 5 5 5 5 5 5 5 5 5 5 5 5 5 5 5 5 5 5 5 5 5 5 5 6 5 6 5 5 5 5 5 5 5 5 6 5 5 5 5 5 5 5 5 5 5 5 5 5 5 5 5 5 5 5 6 5 5 5 5 5 5 5 5 6 5 5 5 5 5 5 5 5 5 5 5 5 5 5 5 5 5 5 5 5 5 5 5 5 5 6 5 5 5 5 5 5 5 5 5 5 5 5 5 6 5 5 5 5 5 5 5 5 5 5 5 5 5 5 5 5 5 5 6 5 5 5 5 5 5 5 5 5 5 5 5 5 5 5 5 5 5 5 5 5 5 5 5 5 5 6 5 5 5 5 6 5 5 5 5 5 5 5 5 5 5 5 5 5 5 5 5 5 5 6 5 5 6 5 5 5 5 5 5 5 5 5 6 5 5 5 5 6 5 5 6 5 5 5 5 5 5 5 5 5 5 5 5 5 5 5 5 5 5 5 5 5 5 5 5 5 5 5 5 5 6 5 5 6 5 5 5 5 5 5 6 5 5 5 6 5 5 5 5 5 5 5 5 5 5 5 5 5 5 5 5 5 5 5 5 5 5 5 5 5 6 5 5 5 5 5 6 5 5 5 5 5 5 5 5 5 5 5 5 5 6 5 5 5 5 5 5 5 5 5 5 5 5 6 5 5 5 5 5 6 5 5 6 5 5 5 5 5 6 5 5 6 5 5 5 5 5 5 5 5 5 5 5 6 5 5 5 5 5 5 5 5 5 5 5 5 5 5 5 5 5 5 5 5 5 5 5 5 5 5 5 5 5 6 5 5 6 5 5 6 5 5 5 6 5 5 5 6 5 5 5 5 5 5 5 5 5 5 5 5 5 5 5 5 6 5 5 5 5 5 5 5 5 5 5 5 5 5 5 6 5 5 5 5 5 5 5 5 5 5 5 5 5 5 5 5 5 5 5 5 5 5 5 5 5 5 5 5 5 5 5 5 5 5 5 6 5 5 5 5 5 5 5 5 5 5 5 5 5 5 5 5 5 6 5 5 5 5 6 5 5 5 5 5 5 5 5 5 5 5 5 6 5 5 5 5 5 5 5 6 5 5 5 5 5 5 5 5 5 5 5 6 5 5 5 5 5 5 5 5 5 5 5 5 5 5 5 5 5 6 5 5 5 5 6 5 5 5 5 5 6 5 5 6 5 6 6 5 5 5 5 5 5 5 5 5 5 5 5 5 5 5 5 6 6 5 5 5 5 5 5 5 5 5 6 5 5 5 5 5 6 5 5 5 5 5 5 6 5 5 6 5 6 5 5 6 5 6 5 5 5 6 5 5 5 5 5 5 6 6 5 6 5 5 6 5 5 5 5 5 5 5 5 5 5 5 5 5 6 5 5 5 5 5 5 5 5 5 5 6 6 5 5 6 5 5 5 6 5 6 5 5 5 5 6 5 5 6 5 5 5 5 5 5 5 6 5 5 5 5 5 5 5 5 5 5 5 6 5 5 5 5 5 6 6 5 5 5 5 5 5 6 5 5 5 5 6 5 6 5 5 5 5 5 5 5 5 5 5 5 5 5 6 5 5 5 5 6 5 5 5 5 5 5 5 5 5 5 5 5 5 5 5 5 5 5 5 5 5 5 6 5 5 5 5 5 5 5 5 5 5 5 5 5 5 5 6 5 5 5 5 5 5 6 5 5 5 5 5 5 5 5 5 5 5 5 5 5 5 5 5 5 5 5 5 5 5 5 5 5 5 5 5 5 5 5 6 5 5 5 5 5 5 5 5 5 5 5 5 5 5 5 5 5 5 5 6 5 5 5 5 5 5 6 6 5 5 5 5 6 6 5 5 5 5 5 5 5 5 5 5 6 5 5 5 5 5 5 5 5 5 5 5 5 5 5 5 5 5 5 5 5 5 5 5 5 6 5 5 5 5 5 5 5 5 5 5 6 5 5 5 5 5 5 5 5 5 5 5 5 5 5 5 5 5 6 5 5 5 5 5 5 5 5 5 6 6 5 6 5 5 5 5 5 5 5 5 5 5 5 5 5 5 5 5 5 5 5 5 5 5 6 5 5 5 6 5 5 5 5 5 5 5 5 5 5 6 5 5 5 5 5 6 5 6 6 5 5 5 5 5 5 5 5 5 5 5 5 5 5 5 5 5 6 5 5 6 5 5 5 6 5 5 6 5 6 5 5 5 5 5 5 5 5 5 5 5 6 5 5 5 6 5 5 5 5 5 5 5 5 5 5 6 5 5 5 5 5 6 5 5 5 5 5 5 5 6 5 5 5 5 5 5 5 5 5 5 5 5 5 5 6 6 5 5 5 5 6 5 5 5 5 6 5 5 5 5 5 6 5 6 5 5 5 5 5 5 5 5 5 5 5 5 5 5 6 6 5 5 5 5 5 5 5 5 5 5 5 5 5 5 5 5 5 5 5 5 5 5 5 5 5 5 5 5 5 6 5 5 5 5 5 5 5 5 5 5 5 5 5 6 6 5 5 6 5 5 5 5 5 5 5 5 5 5 5 5 5 5 5 5 5 5 5 5 5 5 5 5 5 5 5 5 5 5 5 5 5 5 5 5 5 5 5 5 5 5 5 5 5 5 5 5 5 5 5 5 6 5 6 5 5 5 5 5 6 5 5 5 5 5 6 6 5 5 5 5 5 5 5 5 6 5 5 5 5 5 5 5 5 5 5 6 5 5 6 5 5 6 5 5 5 5 5 5 5 6 6 5 6 6 5 5 6 5 5 5 5 5 5 5 5 5 5 6 5 5 5 5 5 5 5 5 5 5 5 5 5 5 5 5 5 5 5 5 5 5 5 5 5 5 5 5 5 5 5 5 5 5 5 5 5 5 5 5 5 5 5 6 5 5 5 5 6 5 5 6 5 5 5 5 5 5 5 5 5 5 5 5 5 5 5 5 5 5 5 6 5 5 5 5 5 5 5 5 5 5 5 5 5 5 5 5 5 5 5 5 5 5 6 5 5 5 5 5 5 5 5 5 5 6 5 5 5 5 5 5 6 5 5 5 6 5 5 5 6 5 5 5 5 5 5 6 5 5 5 5 6 5 6 6 5 5 5 5 5 5 5 5 5 5 5 5 6 5 5 5 5 5 5 5 5 5 5 5 5 5 5 6 5 5 5 5 5 6 5 5 5 5 5 5 6 5 5 5 5 5 5 5 5 5 5 5 5 5 5 5 5 5 5 5 5 5 5 5 6 6 5 5 5 6 5 5 5 5 5 6 5 5 5 5 5 5 5 5 5 5 5 5 5 5 5 5 6 5 5 5 5 5 5 5 5 5 5 5 5 5 5 5 5 5 5 6 5 5 5 5 5 5 5 6 5 5 5 5 5 5 5 5 5 5 6 5 5 5 5 6 5 6 5 5 6 5 5 5 5 5 6 5 5 5 5 5 6 5 6 5 5 5 5 6 5 5 5 5 5 5 5 5 6 5 5 5 5 5 5 5 5 5 5 5 5 5 5 5 5 5 6 5 5 5 5 5 6 5 5 5 5 5 5 5 5 5 5 5 5 5 5 5 5 5 5 5 5 5 5 5 5 5 5 5 5 5 5 5 5 5 5 5 5 5 5 5 5 5 5 5 5 6 5 5 5 5 5 5 5 5 5 5 5 5 5 5 5 5 5 5 5 5 5 5 5 5 5 5 5 6 5 5 5 5 5 6 5 5 5 6 6 5 5 5 5 5 5 5 5 5 5 5 5 5 6 5 5 5 5 5 6 5 6 5 6 5 6 6 5 5 5 5 5 5 5 5 5 5 6 5 6 5 5 5 5 5 5 5 5 5 5 5 6 5 5 5 5 5 5 5 5 6 5 5 5 5 5 5 5 5 5 5 5 5 6 5 5 5 5 5 5 5 5 5 5 5 5 5 5 5 5 5 5 5 5 5 5 5 5 5 5 6 5 5 5 6 5 5 6 5 6 5 5 5 6 5 5 5 5 5 5 5 5 5 5 5 5 5 5 5 5 5 5 5 5 5 5 5 5 5 5 6 5 5 5 5 5 5 5 6 5 5 6 5 5 5 5 5 5 5 5 5 5 5 6 5 5 5 5 5 6 5 5 5 5 5 5 5 6 6 5 5 5 5 6 5 5 5 5 5 5 6 5 5 5 5 5 5 5 5 5 6 6 5 5 5 5 5 6 5 5 5 6 5 6 5 6 5 5 5 5 5 6 5 5 5 5 5 5 5 5 5 5 5 5 6 5 5 5 5 5 5 5 5 5 5 5 5 5 5 5 5 5 5 5 5 5 6 5 5 5 5 5 6 5 5 5 6 5 5 5 5 5 5 5 5 5 5 5 5 5 5 5 5 5 5 5 5 5 5 5 5 5 5 5 5 5 5 5 5 6 5 5 5 5 5 5 5 5 5 5 5 5 5 6 5 5 5 6 5 5 5 5 6 5 5 5 5 5 5 5 5 5 5 5 5 5 5 5 5 5 5 5 5 5 5 5 5 5 5 5 5 5 5 5 5 5 5 5 5 6 5 5 5 6 5 5 5 6 5 5 5 6 5 5 6 6 5 5 5 5 5 5 6 5 6 5 5 6 5 5 5 5 5 5 5 6 5 5 5 5 5 5 5 5 5 6 5 5 6 5 5 5 5 5 5 5 5 5 5 5 5 5 5 5 5 5 5 6 5 5 5 5 5 5 5 5 6 5 5 5 5 5 5 5 5 5 5 5 5 5 5 5 5 5 5 5 5 5 5 6 5 5 5 5 5 5 6 5 5 5 5 5 5 6 5 5 5 5 5 5 5 5 5 5 5 5 5 5 5 5 5 5 5 5 5 5 5 5 5 5 5 5 5 5 5 5 5 6 6 5 5 6 6 5 6 5 6 5 6 5 5 5 5 5 5 5 5 5 5 6 5 5 5 5 6 5 5 6 6 5 5 6 5 5 5 5 5 5 5 5 5 5 5 5 5 5 5 6 5 5 5 5 6 5 5 5 5 5 6 5 5 5 5 5 6 5 5 5 5 5 6 5 6 6 5 5 5 5 5 5 5 5 5 5 5 6 5 6 5 5 5 5 6 5 5 5 6 6 5 6 5 5 5 6 5 5 5 5 5 5 5 5 5 5 5 5 5 5 5 5 5 5 5 5 5 5 5 5 5 5 5 5 5 6 5 6 5 5 6 5 5 6 5 5 6 5 5 6 6 5 5 5 6 5 6 5 5 5 6 5 5 5 6 5 5 5 5 5 5 6 5 5 5 5 5 5 5 5 5 5 5 5 5 5 5 5 5 5 5 6 5 5 5 6 5 5 6 5 5 5 5 5 5 5 5 5 6 5 6 5 5 5 5 5 5 5 5 5 5 5 6 5 5 5 5 5 5 6 5 5 5 5 5 5 5 5 5 5 6 6 5 5 5 5 5 5 5 5 5 5 5 6 6 5 5 6 5 5 6 5 5 5 5 5 5 5 5 5 5 5 5 6 5 5 5 5 5 5 5 5 5 5 5 5 5 5 5 5 5 5 5 5 5 5 5 5 5 5 5 5 5 5 5 5 6 5 5 5 5 6 5 6 5 5 5 5 5 5 5 5 5 6 5 5 5 6 5 5 5 6 5 5 5 6 5 5 5 5 5 5 5 5 5 5 5 5 5 5 5 5 5 6 6 5 5 5 5 6 5 6 6 5 5 5 5 5 5 5 6 5 5 6 5 5 5 5 5 5 5 5 5 5 6 5 5 5 6 5 5 5 5 5 5 5 5 5 5 5 5 5 6 5 5 5 5 5 5 5 5 5 5 6 6 5 5 5 5 5 5 5 6 5 5 5 5 5 6 5 5 5 5 5 5 5 5 5 5 5 5 5 5 5 5 5 6 5 5 5 5 5 5 5 5 5 5 5 5 5 5 5 5 5 5 5 5 5 5 5 5 5 5 5 5 5 5 5 5 5 5 5 5 5 5 5 5 5 5 5 5 5 5 5 5 6 5 5 5 5 6 5 5 5 6 5 5 6 5 5 5 5 5 5 5 5 6 5 5 5 5 5 5 6 5 5 5 5 5 5 5 5 5 5 5 5 5 5 6 5 6 5 5 5 6 5 5 6 5 5 5 6 5 6 5 5 6 6 5 5 5 6 5 5 6 5 5 5 5 5 5 5 5 5 5 5 5 5 5 6 6 5 5 5 6 5 5 5 5 5 5 5 5 5 5 5 5 5 5 5 5 5 5 5 6 5 5 5 5 5 5 5 5 5 5 5 5 5 5 5 5 5 5 5 5 5 5 5 5 5 5 5 5 6 5 5 5 5 5 5 5 5 5 6 5 5 5 6 5 5 6 5 6 5 5 6 5 5 6 6 5 6 5 5 5 6 5 5 5 5 5 5 5 5 5 5 5 5 5 5 5 5 5 5 5 5 5 5 6 5 5 5 5 6 5 5 5 5 6 5 5 5 5 5 6 5 5 5 5 5 5 5 5 5 5 6 5 5 5 5 5 6 5 5 5 5 5 6 5 5 5 5 5 5 5 5 6 5 5 5 5 5 5 5 6 6 5 5 5 5 5 5 5 5 5 5 5 5 5 5 5 5 5 5 5 5 5 5 5 5 5 6 6 5 5 6 5 5 6 6 5 6 5 5 5 5 5 5 5 5 5 5 6 5 5 5 5 6 5 6 5 5 5 5 6 5 5 5 6 5 5 5 5 5 6 5 6 5 6 5 5 5 6 5 5 5 5 5 6 5 5 5 5 5 6 5 6 5 5 5 5 5 5 6 5 5 6 5 5 5 5 5 5 5 5 5 5 5 5 5 5 5 6 5 5 5 5 5 5 5 5 5 5 5 5 5 5 5 5 5 5 5 5 5 5 5 5 5 5 5 5 6 5 5 5 5 5 6 5 5 5 5 6 5 5 5 5 5 6 5 5 5 5 5 5 5 5 5 5 5 5 5 5 5 5 5 5 5 5 5 5 5 5 5 5 5 5 6 5 5 
</DataArray>
<DataArray type="Float64" Name="stress" NumberOfComponents="9" format="ascii">
2.6923509336702054 -0.45009943358607529 0 -0.45009943358607529 -0.0030432313462120135 0 0 0 0 1498.1085929777182 -1.6732209114816148 0 -1.6732209114816148 0.0023808999927264832 0 0 0 0 1132.8436024290349 -552.09800807198485 0 -552.09800807198485 -52.270909455061854 0 0 0 0 1479.1218182502489 -549.9735238628906 0 -549.9735238628906 -54.104903245821191 0 0 0 0 98.54991451742535 -112.95970915316522 0 -112.95970915316522 130.83205971457801 0 0 0 0 434.91139494124218 -26.709573595997462 0 -26.709573595997462 0.5924631778563374 0 0 0 0 -53.123797299231228 98.378716344108255 0 98.378716344108255 23.395506938223903 0 0 0 0 49.99662067405734 -40.922880782331369 0 -40.922880782331369 -216.63995862478086 0 0 0 0 165.96630162269139 -475.44494404509504 0 -475.44494404509504 50.86281846891152 0 0 0 0 5.3766623711034072 -1.630547660006286 0 -1.630547660006286 0.44760440736627949 0 0 0 0 498.04711669948301 80.028210465275848 0 80.028210465275848 -46.707214568910828 0 0 0 0 1497.8301310569877 550.32181936532731 0 550.32181936532731 -34.265628998962704 0 0 0 0 9.372998347456047 -4.4272984894174385 0 -4.4272984894174385 1.0673243284402063 0 0 0 0 488.29171556847257 -136.04875914091764 0 -136.04875914091764 -25.022439825240056 0 0 0 0 768.14876996765452 -366.77537455679055 0 -366.77537455679055 129.0034939232213 0 0 0 0 -75.511859283058584 32.327467730400464 0 32.327467730400464 179.92534125365162 0 0 0 0 1501.0395943208391 476.51112557530996 0 476.51112557530996 1716.0216454344236 0 0 0 0 1715.7867684923403 186.73936936620885 0 186.73936936620885 -116.88141738327346 0 0 0 0 -41.652401494866353 44.80320795371221 0 44.80320795371221 -11.067238223849639 0 0 0 0 219.80826501576666 136.2429724623255 0 136.2429724623255 -129.32100112059481 0 0 0 0 14.01403943897229 -0.37331717500870809 0 -0.37331717500870809 1.2404752011604807 0 0 0 0 26.982505635970256 6.256390212343053 0 6.256390212343053 1.2673049056506751 0 0 0 0 34.824205559787515 -3.1541421429396905 0 -3.1541421429396905 -68.763771240637823 0 0 0 0 36.73682018652471 22.283059089941062 0 22.283059089941062 -61.698990189535479 0 0 0 0 34.939537634363774 1.3856697576406447 0 1.3856697576406447 -36.420462710299205 0 0 0 0 36.164513307202014 25.604596091158008 0 25.604596091158008 -36.099373600457113 0 0 0 0 34.059515045235457 35.283893006932651 0 35.283893006932651 -30.041618620619431 0 0 0 0 30.681002715824434 22.469138656333357 0 22.469138656333357 -23.359942462749952 0 0 0 0 65.618849970096107 51.030436184287794 0 51.030436184287794 -0.052094560800536746 0 0 0 0 33.668616347330499 30.047806011106559 0 30.047806011106559 -21.608471727286577 0 0 0 0 21.952234858523298 28.854200516231792 0 28.854200516231792 -0.0071135458326043377 0 0 0 0 15.671294373656565 23.8021071895913 0 23.8021071895913 -14.224459642889887 0 0 0 0 17.723981478975475 21.01154174131733 0 21.01154174131733 -14.479982820061856 0 0 0 0 18.938517144124489 20.919276907813412 0 20.919276907813412 -14.473705395625576 0 0 0 0 14.505791866526124 16.536851177118042 0 16.536851177118042 -12.454355681919196 0 0 0 0 12.12952088577731 17.496809730541614 0 17.496809730541614 -6.8340724909093922 0 0 0 0 31.684177641909628 21.453494248125182 0 21.453494248125182 -25.615861243596964 0 0 0 0 30.63527161869024 17.709552105460055 0 17.709552105460055 -24.359363068532005 0 0 0 0 0.18278100791187057 -0.0056996912898235053 0 -0.0056996912898235053 -0.01103187419480511 0 0 0 0 51.956784860078187 -23.466533419076359 0 -23.466533419076359 -0.54942250089707889 0 0 0 0 19.160266952458187 12.997384139087414 0 12.997384139087414 -7.7019754210764617 0 0 0 0 21.500125248199765 53.064373029815158 0 53.064373029815158 -36.075059703545108 0 0 0 0 24.679990731478028 10.911523556588087 0 10.911523556588087 -7.9005860005267508 0 0 0 0 -0.085058705428195935 0.020108426419099601 0 0.020108426419099601 -0.0030283412985242578 0 0 0 0 17.28871882733074 5.8898427053930646 0 5.8898427053930646 2.0595489431310767 0 0 0 0 -22.670267984358361 29.199032327513034 0 29.199032327513034 -5.8034798189423711 0 0 0 0 11.625193078871234 14.725287815338174 0 14.725287815338174 0.039646804249322563 0 0 0 0 0.038182533496105009 0.14962907409449144 0 0.14962907409449144 -0.14223419554497374 0 0 0 0 31.763272189466079 18.915089375816365 0 18.915089375816365 -48.493511201615405 0 0 0 0 4.3407661862584064 22.940624968385379 0 22.940624968385379 -9.4858577708671703 0 0 0 0 8.8590621527473559 14.513536119806709 0 14.513536119806709 -8.7761494402406584 0 0 0 0 12.87328072321543 8.3995992222400702 0 8.3995992222400702 -2.3165027333123662 0 0 0 0 3.4878091440782555 14.631282983771868 0 14.631282983771868 -1.6437351754659772 0 0 0 0 27.049091024135123 22.933734022401822 0 22.933734022401822 36.997634190366092 0 0 0 0 44.783349609719153 2.4803904007490516 0 2.4803904007490516 -15.181609548944294 0 0 0 0 2.7790546403080612 0.35649423403158664 0 0.35649423403158664 -0.18558874097318384 0 0 0 0 17.870843073113065 11.398838639440029 0 11.398838639440029 8.0089690693725117 0 0 0 0 9.1503204107575584 13.832097907053829 0 13.832097907053829 7.6643860361640677 0 0 0 0 23.579742770867597 3.3756887889037799 0 3.3756887889037799 1.8059761708618964 0 0 0 0 5.4879326516878066 0.87630591595406315 0 0.87630591595406315 -0.55582501850679944 0 0 0 0 27.424933836897253 3.3294852895101883 0 3.3294852895101883 2.053581639416052 0 0 0 0 18.212632822583799 1.7201363672230769 0 1.7201363672230769 -0.7925100439987931 0 0 0 0 17.073116254183333 9.7146773703495182 0 9.7146773703495182 -5.8436504676317611 0 0 0 0 13.376776030076144 8.6475286333595562 0 8.6475286333595562 -3.3660950000679435 0 0 0 0 16.13584101519956 3.2438851148019889 0 3.2438851148019889 0.29591746907971472 0 0 0 0 13.870517573930556 8.1745661652249311 0 8.1745661652249311 -6.0052919246377954 0 0 0 0 16.273455349386495 0.83891710515683826 0 0.83891710515683826 1.4983325065722966 0 0 0 0 22.0282564727313 1.9952139176035928 0 1.9952139176035928 -2.468417843523639 0 0 0 0 33.336247597902911 2.6942612942917634 0 2.6942612942917634 -4.683284584477974 0 0 0 0 5.0586456900585191 -0.2674356540009768 0 -0.2674356540009768 -0.035020691653764147 0 0 0 0 36.275378395410371 8.1381394660323849 0 8.1381394660323849 2.9678758299225478 0 0 0 0 18.782531248638406 1.0768640597150636 0 1.0768640597150636 -36.814138092855799 0 0 0 0 5.1744721502514892 2.4627663302431984 0 2.4627663302431984 -1.2377379376324753 0 0 0 0 13.680864439975295 1.042780630482314 0 1.042780630482314 0.16205254607577435 0 0 0 0 20.262700203384156 6.7682271268347662 0 6.7682271268347662 -15.427497888558932 0 0 0 0 13.720813564230411 9.4427623318116698 0 9.4427623318116698 -15.693077170532575 0 0 0 0 14.8550093020894 -0.99893163381199201 0 -0.99893163381199201 -3.2646275600045094 0 0 0 0 16.185523790991283 4.1691918451807055 0 4.1691918451807055 -2.0664581192826859 0 0 0 0 25.356089859983058 3.8281875114649999 0 3.8281875114649999 0.3369999766873093 0 0 0 0 24.886641684966889 2.0198051932854924 0 2.0198051932854924 -0.23288137080978188 0 0 0 0 35.747248853644123 13.585865845985637 0 13.585865845985637 -15.83758116826229 0 0 0 0 23.522909918704656 3.006114223235441 0 3.006114223235441 -0.12080168120588541 0 0 0 0 22.070441652182438 -1.2149247776117846 0 -1.2149247776117846 -3.7074354362166702 0 0 0 0 11.51813349762233 9.2279321091316007 0 9.2279321091316007 5.6602974660171057 0 0 0 0 25.683637140980863 2.9770769961619408 0 2.9770769961619408 5.7363529695784763 0 0 0 0 15.040180162875913 -2.7390651039488603 0 -2.7390651039488603 -10.193147644894225 0 0 0 0 -48.944005636182283 -30.513645036014083 0 -30.513645036014083 -3.4933154130274033 0 0 0 0 17.801786972170902 -3.2434484753671668 0 -3.2434484753671668 -4.005491860533037 0 0 0 0 2.5185006290182628 -3.4912062316292349 0 -3.4912062316292349 -2.135771118140505 0 0 0 0 -60.578340637730889 6.1009738476046493 0 6.1009738476046493 77.489475804626863 0 0 0 0 -39.872453380510706 15.277553210603742 0 15.277553210603742 -8.7460337017107008 0 0 0 0 -2.1021278114822053 59.158381923739057 0 59.158381923739057 40.424489965842554 0 0 0 0 27.334978643486465 9.7109409200536163 0 9.7109409200536163 3.7787956231219368 0 0 0 0 21.090257725150877 2.1920122704741232 0 2.1920122704741232 1.7087731737419745 0 0 0 0 2.2807579146057151 -0.93308911130930028 0 -0.93308911130930028 1.4380603198816828 0 0 0 0 12.583417121116298 0.68277786680709696 0 0.68277786680709696 0.16102297028749363 0 0 0 0 20.491711297407164 2.4044605771041461 0 2.4044605771041461 1.8548960147131766 0 0 0 0 20.854503730090073 1.9389872635685492 0 1.9389872635685492 1.7543215724366519 0 0 0 0 20.643891480533057 1.8852344707636348 0 1.8852344707636348 1.7981392180143985 0 0 0 0 26.059745153761469 -9.6783605612693151 0 -9.6783605612693151 2.0647846525860132 0 0 0 0 12.999377089634251 -2.7777348078884145 0 -2.7777348078884145 -2.808264438244306 0 0 0 0 4.6360608758924045 0.8508091517046239 0 0.8508091517046239 0.051035577986894287 0 0 0 0 26.087204222641049 9.5153708134508292 0 9.5153708134508292 3.219800043705618 0 0 0 0 12.315397461556131 1.8198212037605117 0 1.8198212037605117 -7.9176847148050911 0 0 0 0 14.875787447711872 3.0052147975477714 0 3.0052147975477714 -0.62805324682385311 0 0 0 0 8.2461866118246689 0.5363260350886776 0 0.5363260350886776 -8.3133653695331304 0 0 0 0 14.083078564294098 4.6153313611160236 0 4.6153313611160236 -0.26946426181914762 0 0 0 0 14.941406545243808 4.5744811385825415 0 4.5744811385825415 -3.3761500370710564 0 0 0 0 1.1893154863160902 0.64454421302345821 0 0.64454421302345821 -0.54993820728896825 0 0 0 0 9.8309040595486294 0.42784246113808422 0 0.42784246113808422 -6.6299924805649653 0 0 0 0 16.866916748513958 4.0349794596423436 0 4.0349794596423436 -0.92316153196824824 0 0 0 0 14.813117480807705 -1.5964097233702259 0 -1.5964097233702259 -2.685747863440489 0 0 0 0 11.700706146511948 -0.25816535232573301 0 -0.25816535232573301 -3.9139388591529496 0 0 0 0 9.7359404751616978 -1.5949354527785431 0 -1.5949354527785431 -0.80960680036796995 0 0 0 0 15.374818963377038 -4.1323873083871945 0 -4.1323873083871945 -3.6632777775006531 0 0 0 0 12.593543977224954 -3.2799709222478377 0 -3.2799709222478377 -2.3392789007950703 0 0 0 0 14.5726991960546 -2.5207685511020372 0 -2.5207685511020372 -3.6812190554783228 0 0 0 0 14.649947360240276 -2.2959455143441208 0 -2.2959455143441208 -2.8721920197873487 0 0 0 0 14.610397806754918 -3.0112965432614329 0 -3.0112965432614329 -2.301897911584029 0 0 0 0 6.5090227779000998 -3.1213664815791731 0 -3.1213664815791731 -2.6671277928752772 0 0 0 0 34.060110088641522 7.9892421122166581 0 7.9892421122166581 -2.2106647342639008 0 0 0 0 3.2167691040074793 0.15859148362908115 0 0.15859148362908115 -0.058527080228400585 0 0 0 0 5.439342483994551 -0.19406350555937024 0 -0.19406350555937024 -3.4447507049621322 0 0 0 0 15.838967368407438 0.96635692729612543 0 0.96635692729612543 -2.4313486349699889 0 0 0 0 10.533331494471213 0.60180705061559969 0 0.60180705061559969 -0.92800147644441222 0 0 0 0 20.2645643475295 -1.6112459366204348 0 -1.6112459366204348 -2.3223152775268785 0 0 0 0 12.891741689491028 1.47359596118946 0 1.47359596118946 -1.0559201058543977 0 0 0 0 12.612408252423279 -2.7512928364615306 0 -2.7512928364615306 -0.69110739767353624 0 0 0 0 9.2132843330626883 -0.3026742194188401 0 -0.3026742194188401 0.47619057432361422 0 0 0 0 18.01663321014712 -17.517357199218054 0 -17.517357199218054 9.0251558462684898 0 0 0 0 18.924563743439649 43.327575153287711 0 43.327575153287711 -2.7516258291817621 0 0 0 0 21.837671220186166 -6.6238476618142386 0 -6.6238476618142386 -0.89895408482959738 0 0 0 0 9.6913409318825217 -4.1988523293387416 0 -4.1988523293387416 -3.5591012136024993 0 0 0 0 24.107640968351916 -5.1163480067457385 0 -5.1163480067457385 -3.5539454463329321 0 0 0 0 15.779497533341839 6.9927508506368454 0 6.9927508506368454 -3.3726700312653781 0 0 0 0 -0.91542264687814168 -22.763005743339704 0 -22.763005743339704 -2.9131394372132036 0 0 0 0 34.96955246500147 -12.790694205777299 0 -12.790694205777299 -68.174002003951159 0 0 0 0 15.204472467091364 -6.655892696513007 0 -6.655892696513007 60.264460466926266 0 0 0 0 147.15464098973098 50.45422819690225 0 50.45422819690225 31.991385923495045 0 0 0 0 33.719938744328829 -28.772498762747773 0 -28.772498762747773 28.002961240188029 0 0 0 0 -38.827799985367164 26.192116394787831 0 26.192116394787831 30.348579579773059 0 0 0 0 23.207162381489979 -28.947425789666283 0 -28.947425789666283 -3.526345544193191 0 0 0 0 -43.017716443755489 -16.009663167341898 0 -16.009663167341898 2.2367367797427313 0 0 0 0 1.9411956093866287 0.379649211252719 0 0.379649211252719 -2.7758038012804982 0 0 0 0 3.9643270762517204 -8.9850678824993793 0 -8.9850678824993793 -26.615138933418621 0 0 0 0 1.2693742991209191 -0.69790040256380337 0 -0.69790040256380337 0.64332230996517348 0 0 0 0 15.51807456874667 39.302681138063917 0 39.302681138063917 -6.0736260349532358 0 0 0 0 -22.953634366785991 41.812991602250463 0 41.812991602250463 45.626048651667617 0 0 0 0 -72.280695931880473 146.41092288181557 0 146.41092288181557 603.13353302686846 0 0 0 0 141.33115787585848 -77.963524837893289 0 -77.963524837893289 14.453884362759368 0 0 0 0 -2.0245161322384178 1.5030786961615465 0 1.5030786961615465 1.5832957285028137 0 0 0 0 124.34823903920187 -50.579516996282791 0 -50.579516996282791 -35.990229496900497 0 0 0 0 69.817687578630284 91.38826729719608 0 91.38826729719608 -91.664096021913338 0 0 0 0 9.3111904942926031 5.6728153957590202 0 5.6728153957590202 3.0623081214069767 0 0 0 0 -12.041837236738502 -20.578924705343752 0 -20.578924705343752 -3.6755837733931003 0 0 0 0 89.598731114601833 1.6360398469180382 0 1.6360398469180382 -0.44522926778756755 0 0 0 0 150.60201844788753 151.6122335769104 0 151.6122335769104 169.27547050290673 0 0 0 0 16.158713858316332 27.309095778611265 0 27.309095778611265 171.58786486636791 0 0 0 0 79.051560261214036 96.743843349274044 0 96.743843349274044 149.83567800693936 0 0 0 0 357.1507265674154 520.50600845380563 0 520.50600845380563 519.20263306159825 0 0 0 0 66.015152505937294 186.44314092473414 0 186.44314092473414 256.8264468749731 0 0 0 0 893.20989803395651 443.86408437815669 0 443.86408437815669 164.61052529942128 0 0 0 0 3.046814225516556 2.6246969001670628 0 2.6246969001670628 2.1962897553566321 0 0 0 0 780.81610909761366 286.20456603375311 0 286.20456603375311 5.5777403115307607 0 0 0 0 736.56612622406465 705.11116101925336 0 705.11116101925336 370.05703095173652 0 0 0 0 620.16341259801266 407.0907882164542 0 407.0907882164542 147.54803201005018 0 0 0 0 706.44358472836666 611.63582753447997 0 611.63582753447997 377.97204184118556 0 0 0 0 879.81453400140163 284.31755194079227 0 284.31755194079227 145.20493643362656 0 0 0 0 870.04136861570805 461.18866018171832 0 461.18866018171832 446.54523679398471 0 0 0 0 1210.1070195688408 505.08855658831578 0 505.08855658831578 -32.488436941706958 0 0 0 0 910.90301993536195 567.12233354309444 0 567.12233354309444 229.41161069668462 0 0 0 0 1499.6868473388204 679.09652549202542 0 679.09652549202542 28.102291989255168 0 0 0 0 1101.850845903482 709.11796256384071 0 709.11796256384071 146.11199808238385 0 0 0 0 1330.3123784323179 780.88399384849265 0 780.88399384849265 167.40117388264497 0 0 0 0 1073.5887267110083 660.42407422012991 0 660.42407422012991 276.26191733156645 0 0 0 0 879.89053239216628 947.44475298136581 0 947.44475298136581 482.17113650570576 0 0 0 0 745.01870585644247 663.40943836036263 0 663.40943836036263 321.39215924838311 0 0 0 0 1241.3406818563089 984.70943283599047 0 984.70943283599047 456.03064885758397 0 0 0 0 1499.9989909136129 948.69238197372704 0 948.69238197372704 304.54874852361479 0 0 0 0 745.89749738501996 1074.7472164689789 0 1074.7472164689789 1390.1144973254009 0 0 0 0 2136.4210584603425 823.44769565645663 0 823.44769565645663 672.97389759149303 0 0 0 0 1216.9966521515016 892.7029690699602 0 892.7029690699602 674.76097139836281 0 0 0 0 189.99025987309506 657.82113744766923 0 657.82113744766923 1098.442698025443 0 0 0 0 10.370665317299668 4.371938465713713 0 4.371938465713713 2.3113619929765825 0 0 0 0 34.331871333362869 9.2228729646350871 0 9.2228729646350871 189.89033586525352 0 0 0 0 4.8103986479418381 44.385666090758832 0 44.385666090758832 130.90068486220707 0 0 0 0 86.263377478557231 -111.02463065938093 0 -111.02463065938093 -66.116769933144496 0 0 0 0 174.05457158981153 -85.224052389521717 0 -85.224052389521717 -18.245508524757547 0 0 0 0 468.22210830038057 360.12957637274411 0 360.12957637274411 302.22081806333017 0 0 0 0 203.27012629314777 39.159092189126852 0 39.159092189126852 77.398940603535323 0 0 0 0 315.72249060364265 463.89346237108754 0 463.89346237108754 630.58327124456866 0 0 0 0 110.08523010577483 -31.483490535597078 0 -31.483490535597078 13.14297115612937 0 0 0 0 68.324579894542694 -26.591282237159348 0 -26.591282237159348 6.2813263095170555 0 0 0 0 68.453750241218586 -0.29113814716207465 0 -0.29113814716207465 4.0808229296862777 0 0 0 0 110.89668758170228 -4.3180168699120518 0 -4.3180168699120518 -4.8633241307700477 0 0 0 0 69.181539270888607 5.9179694464061949 0 5.9179694464061949 52.84025393057123 0 0 0 0 59.080016640931717 -11.197395772932085 0 -11.197395772932085 -2.8771076936913857 0 0 0 0 67.105579314428724 -5.6198433820471152 0 -5.6198433820471152 -0.030541029371032261 0 0 0 0 62.175458421651456 3.8424826518762596 0 3.8424826518762596 4.0513857602258252 0 0 0 0 50.162805409032444 -8.9502498129458345 0 -8.9502498129458345 4.9660715382453082 0 0 0 0 42.272099016932771 -8.1181853806121609 0 -8.1181853806121609 0.022545310505554403 0 0 0 0 39.046536645717424 -2.7035336094010383 0 -2.7035336094010383 8.5200529724410572 0 0 0 0 25.741355155972997 -0.48266681296951575 0 -0.48266681296951575 8.5872224755946256 0 0 0 0 28.83132433900937 -13.562510628698892 0 -13.562510628698892 -10.595602895634215 0 0 0 0 34.526401938583149 2.0166231686412104 0 2.0166231686412104 11.341603276916963 0 0 0 0 45.123296139943704 -11.304176556940035 0 -11.304176556940035 28.353468318070099 0 0 0 0 44.350348580243008 -16.618183318728803 0 -16.618183318728803 -4.9407718692232407 0 0 0 0 26.75487078223523 -5.1705674431046873 0 -5.1705674431046873 -6.2217803527525177 0 0 0 0 24.881351737395562 -12.481127371255704 0 -12.481127371255704 7.9151698500358521 0 0 0 0 -15.930152243076009 -6.294998454706171 0 -6.294998454706171 10.732965817917439 0 0 0 0 -0.21086493566530784 0.081484050832472121 0 0.081484050832472121 -0.18890412120401062 0 0 0 0 27.421193107133149 -7.5045356186227359 0 -7.5045356186227359 2.2140733463859679 0 0 0 0 32.721453176018258 -6.980206451714988 0 -6.980206451714988 1.6382760323398688 0 0 0 0 30.372698317398317 -17.452122984211471 0 -17.452122984211471 -4.2990071442936966 0 0 0 0 26.000844466405397 -9.5171441562815211 0 -9.5171441562815211 5.5537769152690615 0 0 0 0 24.254843688639085 -12.611017098064556 0 -12.611017098064556 5.6021152778005359 0 0 0 0 44.764127158556221 -13.364197829355135 0 -13.364197829355135 -3.348368185429905 0 0 0 0 33.849633922363864 -24.007277311278962 0 -24.007277311278962 -0.40084754975912062 0 0 0 0 19.528649338415562 -8.8400111170856821 0 -8.8400111170856821 12.994929810319491 0 0 0 0 38.296521733020199 -18.279492724951513 0 -18.279492724951513 -0.0060212393429310354 0 0 0 0 32.076615136455075 -10.298862614468085 0 -10.298862614468085 12.866687776019813 0 0 0 0 7.9194069314471562 -24.339075545716 0 -24.339075545716 18.213388876205027 0 0 0 0 28.261657489430945 -4.0093622488483351 0 -4.0093622488483351 -13.647894687954059 0 0 0 0 0.18010248900040438 -0.075615746587629928 0 -0.075615746587629928 0.016529944863456245 0 0 0 0 22.710105849670072 -28.787648290804324 0 -28.787648290804324 12.204869813855048 0 0 0 0 13.336265832029312 -16.183071164754367 0 -16.183071164754367 9.2102694885601153 0 0 0 0 -5.7429152671611519 -14.510877007194672 0 -14.510877007194672 17.402624801325317 0 0 0 0 1.0890759441845148 2.904595168703942 0 2.904595168703942 -3.2780867877038418 0 0 0 0 12.95764901732764 -10.318007899815299 0 -10.318007899815299 10.01680284054909 0 0 0 0 0.35272273307964497 -0.10320675491292164 0 -0.10320675491292164 0.0045602318502784307 0 0 0 0 -6.5150945608475013 -4.6372118614484572 0 -4.6372118614484572 -0.00789085779000534 0 0 0 0 9.7129384668151033 -8.8612859890642071 0 -8.8612859890642071 -22.174370881384171 0 0 0 0 0.73253695177845657 0.424845574120437 0 0.424845574120437 -0.0016477696945160548 0 0 0 0 -2.9766573212255025 -3.4068554549506183 0 -3.4068554549506183 -3.4002307834908887 0 0 0 0 3.2820860480860574 14.55037944695291 0 14.55037944695291 -2.5932445667716308 0 0 0 0 -7.9090262436293415 -1.9733001457989054 0 -1.9733001457989054 1.8152359703160528 0 0 0 0 19.643910114027676 8.9355771740233152 0 8.9355771740233152 5.5388993915427989 0 0 0 0 15.236373110921704 1.4503626946851611 0 1.4503626946851611 -2.1818297946148988 0 0 0 0 20.030887783072103 -9.4182273564442855 0 -9.4182273564442855 1.3609946921579734 0 0 0 0 14.190040117140597 7.2035655576898066 0 7.2035655576898066 21.294760144032935 0 0 0 0 1.3884117443352579 -2.7116006244183275 0 -2.7116006244183275 -0.15943399894479712 0 0 0 0 19.10512154294338 -3.2480677924483086 0 -3.2480677924483086 9.2246373154512504 0 0 0 0 12.572288661925995 -6.3771066596689039 0 -6.3771066596689039 14.806390396034551 0 0 0 0 14.223278248529823 -15.349938357957022 0 -15.349938357957022 8.6529648239951928 0 0 0 0 20.251994284495595 -4.6005167081290566 0 -4.6005167081290566 2.6350472791640946 0 0 0 0 27.354420608309738 -7.1373591346146306 0 -7.1373591346146306 0.21278035422695751 0 0 0 0 9.8876195843166172 -7.8779339059753752 0 -7.8779339059753752 -0.35649063234919454 0 0 0 0 25.752917341280863 -7.4641472976123673 0 -7.4641472976123673 -5.5819363928186476 0 0 0 0 41.557222713410738 -3.8291713605051143 0 -3.8291713605051143 -18.788497966210684 0 0 0 0 41.314216934726574 -21.949715342153922 0 -21.949715342153922 9.0682867665855156 0 0 0 0 1.6161265589636855 -1.3300727756432558 0 -1.3300727756432558 0.18615617121181049 0 0 0 0 76.276984766765963 34.914402871809443 0 34.914402871809443 24.611979909645235 0 0 0 0 60.713105531656765 7.8930243963224029 0 7.8930243963224029 -16.714439267826279 0 0 0 0 35.530682441367389 24.511668619777311 0 24.511668619777311 24.32201379482774 0 0 0 0 4.3829365378960254 -17.19457670398824 0 -17.19457670398824 20.088681090986483 0 0 0 0 28.379900356831058 -7.8665141076520424 0 -7.8665141076520424 0.56485273137634806 0 0 0 0 11.93916789661138 -9.212153244848821 0 -9.212153244848821 0.67346127710647452 0 0 0 0 4.3846825038976043 -13.829029450643507 0 -13.829029450643507 26.635527693740869 0 0 0 0 30.292505556146352 -13.666070169736372 0 -13.666070169736372 -10.197502172155851 0 0 0 0 12.653449917968842 -5.2950316759549363 0 -5.2950316759549363 -0.47092311289224287 0 0 0 0 31.511451425496489 8.6570462752657704 0 8.6570462752657704 11.243297865912609 0 0 0 0 7.0076915721014856 -2.1631009237335874 0 -2.1631009237335874 0.09060460272196047 0 0 0 0 12.690603743736574 -10.986435706706629 0 -10.986435706706629 -7.6818498759812996 0 0 0 0 30.461516468974878 -13.236195724358254 0 -13.236195724358254 -11.850790163202419 0 0 0 0 34.422335856274003 -8.2823552201120947 0 -8.2823552201120947 -15.13959048792276 0 0 0 0 39.982382331331735 -11.724519073593669 0 -11.724519073593669 -12.013853624793647 0 0 0 0 23.954261438490391 -3.3383247627015784 0 -3.3383247627015784 -9.9614372241513074 0 0 0 0 16.303276552585885 -0.21700680962612751 0 -0.21700680962612751 -17.174802073159981 0 0 0 0 22.785444558882517 9.1633685314829734 0 9.1633685314829734 -0.89815544778146217 0 0 0 0 29.824840422064881 -1.451425132120022 0 -1.451425132120022 1.453782550934875 0 0 0 0 50.399021375116718 -44.547736887862939 0 -44.547736887862939 -74.133572208740532 0 0 0 0 13.214713003259021 -8.9362365911266295 0 -8.9362365911266295 -12.517213800437105 0 0 0 0 26.944698340477913 -8.0179559476189617 0 -8.0179559476189617 -3.4768386072559041 0 0 0 0 326.02352438599337 24.716450539968946 0 24.716450539968946 -70.867046839963166 0 0 0 0 15.536089612403885 42.40483710413605 0 42.40483710413605 12.058799900026941 0 0 0 0 -21.180292500332143 30.742250279884217 0 30.742250279884217 64.619151263181891 0 0 0 0 36.155868732879753 24.642269904098953 0 24.642269904098953 -7.3664149046394414 0 0 0 0 34.695337192753868 33.129523586749869 0 33.129523586749869 78.679921233177424 0 0 0 0 -7.239208646449697 80.862944416773473 0 80.862944416773473 12.874287338438364 0 0 0 0 28.548219925396275 -11.086666989680488 0 -11.086666989680488 -0.84742190855325117 0 0 0 0 280.77288238747497 -98.080716512465145 0 -98.080716512465145 -111.05723487495078 0 0 0 0 -106.33049277439386 -47.607499465448029 0 -47.607499465448029 69.060892491000175 0 0 0 0 -3.008482103774881 -4.7497408132575671 0 -4.7497408132575671 0.20159550224080369 0 0 0 0 9.9004790646249603 -13.870161244891506 0 -13.870161244891506 -5.1167638111577389 0 0 0 0 4.3034886593103394 0.51893844789792354 0 0.51893844789792354 -0.16530880668899428 0 0 0 0 31.916707899610628 -43.204595395176739 0 -43.204595395176739 -2.8230104171478914 0 0 0 0 36.765288240436348 -22.716539536744477 0 -22.716539536744477 7.842948086515662 0 0 0 0 18.27901265581022 -1.2738220895560062 0 -1.2738220895560062 9.7457037162947699 0 0 0 0 62.372959723819804 -9.4087365358483908 0 -9.4087365358483908 -7.438646831719268 0 0 0 0 -15.699933036026778 -38.380832006633341 0 -38.380832006633341 -24.58355166923684 0 0 0 0 9.4631133983459961 -12.778289373512749 0 -12.778289373512749 2.7244900028040577 0 0 0 0 39.090528509543219 0.38486766614619228 0 0.38486766614619228 -8.3287272604413261 0 0 0 0 25.463386616633215 -13.450177497471827 0 -13.450177497471827 -18.992091454426031 0 0 0 0 18.668789826363806 -6.1673109489196882 0 -6.1673109489196882 -2.5037862192527136 0 0 0 0 4.0712297032469937 -9.5366751587620087 0 -9.5366751587620087 -2.451201128821527 0 0 0 0 29.419744387465471 -14.397718349691417 0 -14.397718349691417 -4.8258426609951357 0 0 0 0 12.929279154235701 -9.2941534268408077 0 -9.2941534268408077 -0.45495190410326813 0 0 0 0 31.133870980418578 -15.059650178425471 0 -15.059650178425471 -7.7100874711512688 0 0 0 0 0.6358927413524178 -9.3904323724877372 0 -9.3904323724877372 4.1511885581168144 0 0 0 0 11.970085891019608 -15.422561959021017 0 -15.422561959021017 12.107680206581904 0 0 0 0 12.181995719951374 -12.478525902301385 0 -12.478525902301385 8.2672471485677761 0 0 0 0 27.522859668919409 -8.3310542339656593 0 -8.3310542339656593 1.0953956488516106 0 0 0 0 23.892096385062985 -4.6110422887492426 0 -4.6110422887492426 -1.0185107437583774 0 0 0 0 40.993030080870085 -6.3291005406179011 0 -6.3291005406179011 -5.2206426489854039 0 0 0 0 2.7996923357841297 -12.385178593218704 0 -12.385178593218704 4.2803263346393692 0 0 0 0 2.6699993021145509 -1.156002603473155 0 -1.156002603473155 -0.4948295364754447 0 0 0 0 26.496941402871471 -8.319609668331065 0 -8.319609668331065 1.659346479865583 0 0 0 0 43.306923473275674 -28.949375179963056 0 -28.949375179963056 1.5827439823275 0 0 0 0 31.420458281834726 -0.81079564923012981 0 -0.81079564923012981 -5.0554588938545066 0 0 0 0 44.957319297556751 -22.645218138537288 0 -22.645218138537288 7.1800129188516451 0 0 0 0 44.866172069527238 -23.592686941799919 0 -23.592686941799919 14.06636266437539 0 0 0 0 48.744713552463509 -13.212994172683437 0 -13.212994172683437 -2.6197603222377097 0 0 0 0 42.209048980505031 -14.349551723605259 0 -14.349551723605259 12.497113332593045 0 0 0 0 48.814111073214008 -17.283795366847599 0 -17.283795366847599 0.91308304294045683 0 0 0 0 31.105575372595922 -31.605130480702627 0 -31.605130480702627 25.045323141895508 0 0 0 0 0.6476050837386822 -2.0467490753237598 0 -2.0467490753237598 1.3724208949739747 0 0 0 0 35.558672216531704 -17.984726006722241 0 -17.984726006722241 -2.7632911844813464 0 0 0 0 34.085944872720574 -16.1078570316281 0 -16.1078570316281 0.83673617586038063 0 0 0 0 28.402629703952698 -16.853985963554805 0 -16.853985963554805 -7.1407882106772149 0 0 0 0 34.807796913504717 -10.012057220885879 0 -10.012057220885879 -9.6057731786241085 0 0 0 0 40.786831000783422 -5.9590390710308156 0 -5.9590390710308156 -17.60474684406995 0 0 0 0 39.608017389557062 -9.9439325572613342 0 -9.9439325572613342 -2.738202595656503 0 0 0 0 42.846828424248088 -11.309926739306178 0 -11.309926739306178 -9.6226974513656884 0 0 0 0 46.949681297250208 -6.7597591325583863 0 -6.7597591325583863 -13.513569280210049 0 0 0 0 37.500391800022044 -3.1212075958362675 0 -3.1212075958362675 -13.845353119267749 0 0 0 0 33.9520371755425 4.3113803786372387 0 4.3113803786372387 -16.249412273308565 0 0 0 0 47.578037774823315 1.7363820128029204 0 1.7363820128029204 -16.656283728200549 0 0 0 0 40.299798388830823 -2.6638635901642687 0 -2.6638635901642687 -8.7085841251642364 0 0 0 0 48.870646087392743 -1.3243453317255458 0 -1.3243453317255458 -5.4062592610213756 0 0 0 0 58.168315153510775 -6.8977075125641534 0 -6.8977075125641534 -8.4839957921946585 0 0 0 0 63.506012547681166 -17.23884604951246 0 -17.23884604951246 2.6477010719174139 0 0 0 0 44.822589402683661 -11.57425610761041 0 -11.57425610761041 1.7689658595826927 0 0 0 0 70.754844668043006 -9.2748868842393648 0 -9.2748868842393648 5.6994485701113149 0 0 0 0 59.621609897672897 -14.404270513155147 0 -14.404270513155147 4.1871670973592359 0 0 0 0 76.061695599426457 -4.298610981317978 0 -4.298610981317978 -5.5501718134518017 0 0 0 0 29.130496420708369 -5.394546033562051 0 -5.394546033562051 -3.5622568653878233 0 0 0 0 31.048219331163637 -8.6662149334773062 0 -8.6662149334773062 0.7596375768400776 0 0 0 0 23.448203912543249 -14.298074918747091 0 -14.298074918747091 -2.5689455177251475 0 0 0 0 24.923846395376444 -10.213734276025644 0 -10.213734276025644 -1.0421611974606115 0 0 0 0 40.968610796426219 2.3821346324761521 0 2.3821346324761521 -0.046112221752615312 0 0 0 0 23.289354904566622 -8.2590753312371632 0 -8.2590753312371632 -2.9382038887833701 0 0 0 0 30.207243688462768 -2.280186820022891 0 -2.280186820022891 -13.071567233889027 0 0 0 0 22.102124037082831 -10.060325330836775 0 -10.060325330836775 -5.8491318169951683 0 0 0 0 23.203933130987934 -11.729556818561036 0 -11.729556818561036 -9.4149000215704746 0 0 0 0 30.842719083473639 -4.9800132213899815 0 -4.9800132213899815 -5.2267148893415651 0 0 0 0 30.989683088331731 2.2994245098064425 0 2.2994245098064425 -7.610068387670708 0 0 0 0 39.837677119703585 -5.4074153504809033 0 -5.4074153504809033 -20.439047818858626 0 0 0 0 39.416053976667172 -0.57548735041450527 0 -0.57548735041450527 -24.608773279600939 0 0 0 0 36.722851010609048 -0.50545455650116011 0 -0.50545455650116011 -2.1643970171675431 0 0 0 0 28.916378600017197 -1.0481892526755701 0 -1.0481892526755701 -10.589183599994612 0 0 0 0 30.565061126075307 0.40801451976074077 0 0.40801451976074077 -13.058511931436215 0 0 0 0 23.577406783500919 -7.0476154194539049 0 -7.0476154194539049 -24.400398182667914 0 0 0 0 33.182064782624366 -2.3037038520103579 0 -2.3037038520103579 -28.107212988481024 0 0 0 0 25.114802063008483 -14.763608279458964 0 -14.763608279458964 -17.737975996646583 0 0 0 0 25.610917209829495 -12.303776828460741 0 -12.303776828460741 -6.6674198223736312 0 0 0 0 38.65972893495443 0.79077358378561335 0 0.79077358378561335 -6.7735764361094244 0 0 0 0 32.890532990651991 -4.4380710837077402 0 -4.4380710837077402 -15.67685370512072 0 0 0 0 35.503216925964807 -7.1609149373476839 0 -7.1609149373476839 -16.090006783477634 0 0 0 0 24.811147707308464 -1.853419397227789 0 -1.853419397227789 -2.0349058579241088 0 0 0 0 34.624853579822229 -3.6677616877484525 0 -3.6677616877484525 -16.544912458466115 0 0 0 0 33.711116508566192 -1.1517046690091775 0 -1.1517046690091775 -6.4843302410229171 0 0 0 0 34.545253422234964 -4.1628382445701391 0 -4.1628382445701391 -17.409332133246835 0 0 0 0 19.854312299241428 -16.068786814456416 0 -16.068786814456416 -17.538487484965799 0 0 0 0 30.568983438250143 -5.4417221357386723 0 -5.4417221357386723 -14.194051956739486 0 0 0 0 23.7584307527286 -13.862702008517456 0 -13.862702008517456 -24.046173619502525 0 0 0 0 16.337778738189357 -10.636294766668552 0 -10.636294766668552 -2.5411287299419261 0 0 0 0 16.029256347673112 -3.3949042826407236 0 -3.3949042826407236 -5.2513229716728373 0 0 0 0 15.726978316931309 -0.44692609169685638 0 -0.44692609169685638 -4.0348956653174612 0 0 0 0 14.991715989335717 0.5707893707694498 0 0.5707893707694498 -0.35760553555820351 0 0 0 0 24.144713551158929 -1.6950528881960736 0 -1.6950528881960736 -3.144887392841234 0 0 0 0 14.375504143390572 -18.958665233540387 0 -18.958665233540387 -13.123134726811486 0 0 0 0 8.4698481411060733 2.139257499322575 0 2.139257499322575 -0.51275714660939009 0 0 0 0 6.4922688966159363 4.428645829499338 0 4.428645829499338 0.22201649693596553 0 0 0 0 40.229764761555998 -0.038019712545246165 0 -0.038019712545246165 -1.1734765655585591 0 0 0 0 12.01325362534044 2.6413679548441138 0 2.6413679548441138 1.3903184846142551 0 0 0 0 9.4830166589604232 -6.7965434000378542 0 -6.7965434000378542 -2.334171634409195 0 0 0 0 31.70291405122407 13.319393671519467 0 13.319393671519467 22.515027432547722 0 0 0 0 5.5985876173687288 -3.5756494570813793 0 -3.5756494570813793 0.010520912958534523 0 0 0 0 70.886304581923469 29.907523257649018 0 29.907523257649018 10.091070822480859 0 0 0 0 48.256985800730035 14.679487678860269 0 14.679487678860269 26.600634139550685 0 0 0 0 75.721717602922581 54.948840437624746 0 54.948840437624746 44.611654599282758 0 0 0 0 89.813714843689013 32.450871791507488 0 32.450871791507488 5.0464791914177383 0 0 0 0 4.8497721297496952 -4.0136977075257292 0 -4.0136977075257292 -0.5072179936608181 0 0 0 0 5.6788081047980086 -10.007288054205731 0 -10.007288054205731 1.0230808699402445 0 0 0 0 -0.39416371832369634 -5.7656374606392671 0 -5.7656374606392671 -1.3093419074921171 0 0 0 0 -26.419793559831305 -25.088959740637279 0 -25.088959740637279 1.473982862942421 0 0 0 0 28.416351730560891 -7.6917576982590283 0 -7.6917576982590283 -0.92719702675356563 0 0 0 0 20.795286106184747 -8.6447798617662173 0 -8.6447798617662173 -1.539552208865576 0 0 0 0 30.220383831470826 -17.407285374630447 0 -17.407285374630447 -10.34483077944742 0 0 0 0 29.460397937946254 -13.121363893287707 0 -13.121363893287707 -24.063333856576588 0 0 0 0 31.249893947751843 -18.380956552198988 0 -18.380956552198988 -29.593732797899861 0 0 0 0 57.821562207303941 -12.276517995223116 0 -12.276517995223116 -33.184244546967648 0 0 0 0 20.747743850457482 -0.18573337596694728 0 -0.18573337596694728 -20.684089175886356 0 0 0 0 35.393151657248382 -16.744372388097418 0 -16.744372388097418 -25.024818137489319 0 0 0 0 6.3064801015944285 -1.0150830134090469 0 -1.0150830134090469 0.12979998261850501 0 0 0 0 0.90794850031670649 4.2974799402985013 0 4.2974799402985013 13.114111692155234 0 0 0 0 -71.828746798109933 -78.285725814800628 0 -78.285725814800628 -16.848358358482074 0 0 0 0 1.9831811813444276 -2.6019194743351832 0 -2.6019194743351832 2.6642368045428007 0 0 0 0 83.695919345362199 45.268307094132069 0 45.268307094132069 30.999984364506844 0 0 0 0 0.23571045755355158 -0.81115724070408035 0 -0.81115724070408035 0.10474821342580767 0 0 0 0 60.138609348294267 48.754192680209798 0 48.754192680209798 11.66068007206195 0 0 0 0 60.256569192301413 37.740553584145722 0 37.740553584145722 34.278564793095256 0 0 0 0 82.542726661486086 34.995737999043229 0 34.995737999043229 17.097710647616196 0 0 0 0 98.899679017504241 7.5486520828574903 0 7.5486520828574903 24.105876338655321 0 0 0 0 94.001223053623107 24.607663613130903 0 24.607663613130903 26.093756308372853 0 0 0 0 92.543979793430481 21.855067660856704 0 21.855067660856704 38.2527992500031 0 0 0 0 111.12949750863481 26.181232275230059 0 26.181232275230059 18.371967188072759 0 0 0 0 258.70375562264599 53.548611500816719 0 53.548611500816719 14.109613838360985 0 0 0 0 103.01715072520528 14.571885082022725 0 14.571885082022725 8.1658223904741476 0 0 0 0 0.62458708089628345 -0.65744419109511654 0 -0.65744419109511654 1.0848567229645298 0 0 0 0 13.316928254102095 -62.343670450911986 0 -62.343670450911986 29.100197541689283 0 0 0 0 70.538611194713667 7.735347901739523 0 7.735347901739523 -22.702225052338463 0 0 0 0 115.38599202135811 -79.480186652386919 0 -79.480186652386919 74.613518994775745 0 0 0 0 99.335845474619418 3.4167156497429048 0 3.4167156497429048 50.922134318398463 0 0 0 0 102.61262715297926 29.133838940861835 0 29.133838940861835 39.152873596835192 0 0 0 0 100.72383008445649 23.966974676422048 0 23.966974676422048 26.065473285343238 0 0 0 0 74.034768721943692 27.441890241697607 0 27.441890241697607 41.960914755433691 0 0 0 0 21.042367945197839 59.485739377491321 0 59.485739377491321 67.384703398430375 0 0 0 0 0.15019156618461693 0.11750683175160503 0 0.11750683175160503 -0.018930694646904445 0 0 0 0 166.34657757187597 43.986881681379529 0 43.986881681379529 1.5373612783624822 0 0 0 0 118.10230070180023 33.180206153001883 0 33.180206153001883 -3.1735324781076031 0 0 0 0 124.81252520961061 49.808146308219477 0 49.808146308219477 -2.5261684861483373 0 0 0 0 0.1689772891280068 0.36467197392439488 0 0.36467197392439488 -0.08480160942742454 0 0 0 0 123.24406904215175 50.493196376643596 0 50.493196376643596 1.4398736358258759 0 0 0 0 142.83654090126947 29.808781264450417 0 29.808781264450417 9.6260002568211576 0 0 0 0 176.68208991597021 53.407396295673436 0 53.407396295673436 17.967172108687151 0 0 0 0 66.466142597355429 29.938393284873825 0 29.938393284873825 3.8116842845704753 0 0 0 0 62.700805705062521 33.562459211031083 0 33.562459211031083 0.40557178643726388 0 0 0 0 0.17340076070272126 0.16774682201028668 0 0.16774682201028668 -0.088806076567478409 0 0 0 0 69.681308197923499 35.408353284427463 0 35.408353284427463 -8.4119310614893834 0 0 0 0 74.518268031029947 30.648663342078507 0 30.648663342078507 -3.7510367793377668 0 0 0 0 61.36969547071385 32.883201716766592 0 32.883201716766592 8.9359186159542219 0 0 0 0 78.532610332349577 17.203653081270573 0 17.203653081270573 2.5050609717626262 0 0 0 0 76.068749363203096 19.967066733924952 0 19.967066733924952 15.130680521381748 0 0 0 0 106.66747591275498 33.676010812706458 0 33.676010812706458 2.5524246161760971 0 0 0 0 36.550351745103399 22.305777222734235 0 22.305777222734235 14.370890223357719 0 0 0 0 6.3354668869914121 -3.3081553894055205 0 -3.3081553894055205 -0.33865683989720752 0 0 0 0 27.485913811920909 2.8571158276128656 0 2.8571158276128656 6.5842974681732187 0 0 0 0 40.437988068922095 3.3944365746274263 0 3.3944365746274263 -1.156247906183637 0 0 0 0 1.6420157141097595 3.6451757683280448 0 3.6451757683280448 0.4434510011303654 0 0 0 0 18.901557541015791 -2.1372852755737597 0 -2.1372852755737597 0.26367145886717935 0 0 0 0 1.2560903535615751 0.0777358701200761 0 0.0777358701200761 0.20144293845078232 0 0 0 0 1.2243981351455968 -0.0020713132703846782 0 -0.0020713132703846782 -0.2606010345736075 0 0 0 0 49.433476553893342 14.591265160513771 0 14.591265160513771 3.2687704608210879 0 0 0 0 48.253735800652066 12.894059749613646 0 12.894059749613646 1.6163789581499657 0 0 0 0 74.883988824865924 17.679359699348286 0 17.679359699348286 -15.936725705761205 0 0 0 0 57.221070780840819 22.023648256135743 0 22.023648256135743 -4.0602579157882843 0 0 0 0 46.914525523767225 2.4523395438161799 0 2.4523395438161799 -6.9156920315187449 0 0 0 0 56.059526507178816 -1.5148177633892317 0 -1.5148177633892317 -20.172077419361017 0 0 0 0 6.3103600814688434 -0.3299902061314306 0 -0.3299902061314306 -1.9979908156716419 0 0 0 0 76.225860430575267 -8.0573257116365085 0 -8.0573257116365085 -18.070640955492905 0 0 0 0 76.333804659537535 15.277367164458735 0 15.277367164458735 -25.785644584158149 0 0 0 0 48.762962489596248 18.745764501975316 0 18.745764501975316 -20.722495561256068 0 0 0 0 64.315621999674477 6.118061290741835 0 6.118061290741835 -14.108416294072185 0 0 0 0 46.486116235826557 13.384204324477608 0 13.384204324477608 -22.856843588802008 0 0 0 0 22.167279044988391 39.312392871031108 0 39.312392871031108 -49.296476026323433 0 0 0 0 36.884487603492744 -19.338860431748543 0 -19.338860431748543 -54.84547152450898 0 0 0 0 41.604763262763299 -7.1825819757127931 0 -7.1825819757127931 -33.223731103677778 0 0 0 0 41.60841117597738 -6.619532371480318 0 -6.619532371480318 9.2780661891101204 0 0 0 0 30.041209514474758 -8.6008661709696383 0 -8.6008661709696383 1.0826459259221508 0 0 0 0 20.664484028973675 -11.322612570319393 0 -11.322612570319393 2.401961446911514 0 0 0 0 22.791010071827259 -20.563167689691547 0 -20.563167689691547 1.7192367270955629 0 0 0 0 68.450506728127948 -17.465424173087357 0 -17.465424173087357 -10.757069825483228 0 0 0 0 83.804777059314802 19.545096213111393 0 19.545096213111393 -1.3150091066971754 0 0 0 0 51.542640905365261 -8.1161741773773883 0 -8.1161741773773883 -7.1860918731649974 0 0 0 0 27.76348753055845 -14.104742219036247 0 -14.104742219036247 -6.2770753453841337 0 0 0 0 39.763977665148559 5.8915194652047944 0 5.8915194652047944 2.7764742491048615 0 0 0 0 928.93872513412862 321.44438147882278 0 321.44438147882278 -91.175782529939653 0 0 0 0 887.87857101138616 233.42927319273088 0 233.42927319273088 -107.66077281817735 0 0 0 0 720.68296072182602 261.97655502052476 0 261.97655502052476 -85.139491868673815 0 0 0 0 947.35888670743589 166.55844456543204 0 166.55844456543204 -144.26477748931939 0 0 0 0 975.46663336514757 232.73783260651606 0 232.73783260651606 -183.55543358877617 0 0 0 0 1227.3936436455151 164.58727690551257 0 164.58727690551257 -318.43877700427907 0 0 0 0 1499.8466286878611 238.61308527540834 0 238.61308527540834 -305.56209647758624 0 0 0 0 1204.9834929829995 262.35760293415581 0 262.35760293415581 -191.22266408873776 0 0 0 0 1203.4941241829438 298.46506711374036 0 298.46506711374036 -241.24631380151351 0 0 0 0 1499.8118464662512 381.44904514205666 0 381.44904514205666 -218.19232437645292 0 0 0 0 1164.3296728502355 435.71968631311847 0 435.71968631311847 -37.730965111691631 0 0 0 0 832.6033021895455 388.40812790176614 0 388.40812790176614 126.19248601363057 0 0 0 0 1105.4575353993614 331.20922105492093 0 331.20922105492093 -91.964057541692824 0 0 0 0 816.26981925695873 330.12761376371355 0 330.12761376371355 -7.928643806082988 0 0 0 0 513.51280253474397 322.93366380497662 0 322.93366380497662 14.772226135620713 0 0 0 0 342.96118480418227 292.25822531216801 0 292.25822531216801 123.55201163341648 0 0 0 0 426.03982389464727 370.51788708051942 0 370.51788708051942 154.90624874507483 0 0 0 0 434.66921605567404 336.50356479512351 0 336.50356479512351 145.21613348130188 0 0 0 0 265.82417631881253 329.32357760383451 0 329.32357760383451 287.07200137746486 0 0 0 0 137.58045292807947 197.57464002001888 0 197.57464002001888 184.00297160173358 0 0 0 0 167.27980558551644 182.07025117944471 0 182.07025117944471 138.15212181103186 0 0 0 0 155.47039672678511 229.04682045107216 0 229.04682045107216 272.47134109461962 0 0 0 0 -43.733935887372354 246.35829122211879 0 246.35829122211879 171.64464093929345 0 0 0 0 665.98288880383188 148.53934285971954 0 148.53934285971954 -13.663835528954394 0 0 0 0 0.4843669070674359 0.50540596508821523 0 0.50540596508821523 0.39202670419380603 0 0 0 0 -0.090904135062800151 0.068968476490795183 0 0.068968476490795183 -0.48933909387198171 0 0 0 0 -21.16854800467263 27.362383773146888 0 27.362383773146888 137.93260366948238 0 0 0 0 73.365731638685247 -11.626452932704467 0 -11.626452932704467 -35.144022953596519 0 0 0 0 -15.245343963888445 94.111802496921797 0 94.111802496921797 144.35431697666726 0 0 0 0 -0.42033257461132223 -0.21609019404841945 0 -0.21609019404841945 0.86719664538254859 0 0 0 0 263.96294231649881 130.20396476161125 0 130.20396476161125 10.896150392019031 0 0 0 0 350.35878913462875 318.20705260718506 0 318.20705260718506 183.38588981283272 0 0 0 0 128.08741022280083 94.727576575269765 0 94.727576575269765 157.91054616158431 0 0 0 0 351.1695496002846 181.25894478536478 0 181.25894478536478 108.3780508543804 0 0 0 0 158.10042495922971 5.1401086614914107 0 5.1401086614914107 104.93976207576718 0 0 0 0 0.26151445220310165 0.2815826213267556 0 0.2815826213267556 0.78581122278358939 0 0 0 0 58.700125383998056 123.95263857882779 0 123.95263857882779 151.86510722169095 0 0 0 0 334.63582637828586 95.568288307825753 0 95.568288307825753 15.044724040177073 0 0 0 0 198.30714804906165 -13.711322205496714 0 -13.711322205496714 78.424627577708975 0 0 0 0 -6.9429020483548811 162.41298436381402 0 162.41298436381402 162.42606483252081 0 0 0 0 372.40827052518398 43.598219443050795 0 43.598219443050795 -69.669377737643799 0 0 0 0 121.22801012674336 44.50567882901386 0 44.50567882901386 24.608246117658439 0 0 0 0 444.66189801647397 96.802412131682217 0 96.802412131682217 -64.125098661053471 0 0 0 0 506.38488363567376 220.69406107041397 0 220.69406107041397 -53.146423789208775 0 0 0 0 328.19930466104779 115.46011816386709 0 115.46011816386709 24.784303267910786 0 0 0 0 0.47540892890473607 1.8777868377893725 0 1.8777868377893725 0.83843972917635767 0 0 0 0 629.66330455502612 119.23051323332439 0 119.23051323332439 -71.25201877262964 0 0 0 0 627.89445751270978 178.68868861118642 0 178.68868861118642 -38.049076514550904 0 0 0 0 584.51625982114092 62.685201161889751 0 62.685201161889751 -31.425144540975907 0 0 0 0 0.58308450683111257 1.7755710283685247 0 1.7755710283685247 1.0871266873160064 0 0 0 0 536.57503097386871 68.728841924177374 0 68.728841924177374 13.963039258854963 0 0 0 0 0.41999285500124905 0.93823038251036195 0 0.93823038251036195 1.2679150609214016 0 0 0 0 147.94129294111917 50.409464677377755 0 50.409464677377755 -3.4535018466135767 0 0 0 0 128.09679641809453 40.296467108137207 0 40.296467108137207 -7.2354533387944002 0 0 0 0 159.65387611894403 66.798322625631016 0 66.798322625631016 38.776187291041651 0 0 0 0 370.13390965100029 79.960299818714816 0 79.960299818714816 -35.702117903471333 0 0 0 0 291.25170447960591 62.117889910837121 0 62.117889910837121 -4.0424185030814783 0 0 0 0 0.3408583998946737 0.47308410864467731 0 0.47308410864467731 0.50160752213100346 0 0 0 0 27.383170266597517 41.542312930965295 0 41.542312930965295 19.321354927692482 0 0 0 0 135.13827156278239 84.799719932837817 0 84.799719932837817 29.06205962567654 0 0 0 0 115.93024722758491 47.847972377225631 0 47.847972377225631 75.330765769569183 0 0 0 0 171.67633467435007 92.311581078024986 0 92.311581078024986 95.748113633650689 0 0 0 0 180.03811176772069 71.850520938338548 0 71.850520938338548 26.232318014174922 0 0 0 0 657.53109611639775 28.477082927150008 0 28.477082927150008 27.746646529323584 0 0 0 0 629.33264882273579 71.896219758453924 0 71.896219758453924 -18.69830684640948 0 0 0 0 595.26590142751684 68.246314036747918 0 68.246314036747918 46.44138632169529 0 0 0 0 0.50720071395122623 0.69736411456097613 0 0.69736411456097613 0.68288816727917045 0 0 0 0 573.74072269062344 62.425299579883273 0 62.425299579883273 86.125696034893394 0 0 0 0 538.23551238386062 16.372561883413994 0 16.372561883413994 26.629487190538541 0 0 0 0 623.50763991130225 -108.04856759119184 0 -108.04856759119184 -3.0351205046225118 0 0 0 0 812.96514571170701 -48.311874988249286 0 -48.311874988249286 -29.337435521763155 0 0 0 0 1035.4921792158493 -196.36258097592423 0 -196.36258097592423 -146.40338579171262 0 0 0 0 807.06603449343675 -121.5204538276426 0 -121.5204538276426 -99.159210858981396 0 0 0 0 1053.6285246701573 -64.186997869779987 0 -64.186997869779987 -163.69891806128581 0 0 0 0 890.43349118523906 -15.523312881947184 0 -15.523312881947184 -176.6164963959136 0 0 0 0 649.97800819390795 4.4821654470340917 0 4.4821654470340917 -40.750909044921514 0 0 0 0 886.07371507724383 79.564648843475709 0 79.564648843475709 -76.854270529804808 0 0 0 0 973.49924658829332 91.968841798976854 0 91.968841798976854 -197.17451076560951 0 0 0 0 902.56076136354568 192.82809500445245 0 192.82809500445245 -138.12229572889362 0 0 0 0 753.84574150813205 71.18315645929161 0 71.18315645929161 -77.288347077026856 0 0 0 0 1499.8328231130763 100.12747126162398 0 100.12747126162398 -335.70450913163916 0 0 0 0 1225.8384010521295 159.40351471788549 0 159.40351471788549 -221.32910319489505 0 0 0 0 1194.3284237112312 46.328901550910132 0 46.328901550910132 -194.64635149909017 0 0 0 0 1187.301886058216 -5.2313851114423642 0 -5.2313851114423642 -337.8866373658189 0 0 0 0 1499.7927371632177 -62.284108586531787 0 -62.284108586531787 -339.08732729486866 0 0 0 0 1217.3347773908954 -153.87639893515933 0 -153.87639893515933 -229.01308496892329 0 0 0 0 1211.389616824099 -194.21533075655282 0 -194.21533075655282 -322.39570012019476 0 0 0 0 1499.7617656682723 -281.76459476750551 0 -281.76459476750551 -313.24361894831918 0 0 0 0 1007.252975734662 -235.58907216776274 0 -235.58907216776274 -151.47798109794775 0 0 0 0 1161.2084155207385 -412.39828653493538 0 -412.39828653493538 -243.34646046361885 0 0 0 0 1500.2840480321283 -473.72093604170243 0 -473.72093604170243 -232.62762849813001 0 0 0 0 664.17224948310832 -101.34471229259891 0 -101.34471229259891 -4.2752706286140096 0 0 0 0 789.61888188808007 -327.86068167910844 0 -327.86068167910844 -44.157019489476852 0 0 0 0 622.82147151060417 -288.36753490299532 0 -288.36753490299532 -21.29963970894925 0 0 0 0 319.3386228785721 -94.788458955863618 0 -94.788458955863618 -8.0517002295848528 0 0 0 0 603.68258475680977 -309.93584704435892 0 -309.93584704435892 64.177174001504042 0 0 0 0 912.70784940134399 -385.37130699896267 0 -385.37130699896267 -15.677208566357088 0 0 0 0 428.0909005289468 -379.60852133223449 0 -379.60852133223449 238.64365517560418 0 0 0 0 348.89760449600544 -141.9094343732516 0 -141.9094343732516 26.978706428381031 0 0 0 0 248.31523868609293 -125.08149494152755 0 -125.08149494152755 32.065891754908655 0 0 0 0 1336.2778662632591 -548.40444673899049 0 -548.40444673899049 -25.856027141215158 0 0 0 0 1000.657413552362 -581.74934111692903 0 -581.74934111692903 -28.230556639266478 0 0 0 0 1497.5973590012727 -788.06221990628546 0 -788.06221990628546 322.74086000798457 0 0 0 0 2735.1097151558206 -57.689178894741531 0 -57.689178894741531 692.49032852900518 0 0 0 0 1499.2823545239221 892.52606198633748 0 892.52606198633748 466.97888381158589 0 0 0 0 1921.1750847578442 -903.20692559742167 0 -903.20692559742167 1580.2444378508119 0 0 0 0 4.3675780757573008 0.58645150823209846 0 0.58645150823209846 -1.2977591713466361 0 0 0 0 115.64268577964913 317.24675497509776 0 317.24675497509776 261.78101052851287 0 0 0 0 377.76709310354272 648.83029662922809 0 648.83029662922809 676.85432298052467 0 0 0 0 13.916079358190444 -0.4304125677931715 0 -0.4304125677931715 1.0712539123691218 0 0 0 0 300.02343179410309 -681.93540600053268 0 -681.93540600053268 747.75566103738811 0 0 0 0 1102.9670233067009 -1145.8754067094615 0 -1145.8754067094615 1006.3676058286508 0 0 0 0 35.15624534557984 0.46019396777049892 0 0.46019396777049892 0.36306655432652118 0 0 0 0 245.36743070091325 -211.49629100902962 0 -211.49629100902962 -1.3623607750450901 0 0 0 0 76.314489946725189 65.855474182133648 0 65.855474182133648 -46.550816058966234 0 0 0 0 129.53815400625535 121.1633315009185 0 121.1633315009185 -69.142348807678374 0 0 0 0 83.856949011471897 -119.13056538346288 0 -119.13056538346288 -36.906801963979319 0 0 0 0 392.94129392096693 32.290510609241011 0 32.290510609241011 -54.988798588610138 0 0 0 0 94.239826741879369 36.332022178061493 0 36.332022178061493 119.83467499162936 0 0 0 0 229.74136823172739 -61.482813386755652 0 -61.482813386755652 145.60265853710018 0 0 0 0 614.17356850901888 207.0087310429509 0 207.0087310429509 -6.589114700184723 0 0 0 0 444.30866723796953 281.36716505410982 0 281.36716505410982 436.86144770798364 0 0 0 0 848.44322639036909 506.1006081861467 0 506.1006081861467 119.40314850277028 0 0 0 0 1046.1801707422419 499.08360692560404 0 499.08360692560404 119.05697678879078 0 0 0 0 1499.8092749479456 582.28661006162918 0 582.28661006162918 -88.018084872550702 0 0 0 0 1054.4015173576427 574.55457401386684 0 574.55457401386684 254.06167733172427 0 0 0 0 5.463499781678486 0.10335231265546163 0 0.10335231265546163 -3.5267680055645534 0 0 0 0 743.31710696083428 495.58051518323737 0 495.58051518323737 163.26902177310558 0 0 0 0 251.42948305603568 184.37562729170168 0 184.37562729170168 -110.94719665380376 0 0 0 0 185.51087550474404 -22.653678777540563 0 -22.653678777540563 -66.710569870368886 0 0 0 0 148.67315586058703 -34.308767112974863 0 -34.308767112974863 -67.053789234921624 0 0 0 0 485.43118700463674 -145.76725179545548 0 -145.76725179545548 -16.840962905438573 0 0 0 0 52.07340649348771 -61.947019759468674 0 -61.947019759468674 -152.12951058151384 0 0 0 0 228.53963749381364 172.72478193495186 0 172.72478193495186 -86.216675560961505 0 0 0 0 751.24838030443061 364.35549795631232 0 364.35549795631232 574.02343510227001 0 0 0 0 254.54429315795642 -182.36282019241253 0 -182.36282019241253 32.473784779612288 0 0 0 0 -2.0006662568221572 0.030131214665374273 0 0.030131214665374273 1.0885529664753628 0 0 0 0 467.89007706093071 -178.43782796945356 0 -178.43782796945356 -86.874257793603647 0 0 0 0 261.55255258792749 14.133830245355512 0 14.133830245355512 -128.0436427568211 0 0 0 0 -52.172333107624581 179.42731692138705 0 179.42731692138705 -72.510389182039034 0 0 0 0 -5.6733054716532934 -27.387186989950351 0 -27.387186989950351 -47.484891682186571 0 0 0 0 80.564252170839609 -84.432120352203015 0 -84.432120352203015 -40.84363679845444 0 0 0 0 106.6700855899544 -73.163056672308585 0 -73.163056672308585 -42.045487640474221 0 0 0 0 82.775110858709013 -45.395229389380404 0 -45.395229389380404 -68.255686943913133 0 0 0 0 108.37932999049008 -3.0968998689352247 0 -3.0968998689352247 -88.237436404557457 0 0 0 0 -9.0240107044183802 -25.626803538149673 0 -25.626803538149673 -2.9283027910425257 0 0 0 0 -25.768270404114446 -25.002624198739454 0 -25.002624198739454 36.115027836286288 0 0 0 0 71.046846826669935 -70.715191793572274 0 -70.715191793572274 -23.618638139555969 0 0 0 0 -4.2682257967859378 -1.5083178343125567 0 -1.5083178343125567 -1.4869252888178486 0 0 0 0 140.18524532254742 -39.374660006634358 0 -39.374660006634358 -5.6671709271657846 0 0 0 0 172.6800298494818 -133.32688358314476 0 -133.32688358314476 -15.638617484602264 0 0 0 0 -12.919450943263316 -25.140602762658755 0 -25.140602762658755 -3.8807792045836367 0 0 0 0 14.66441099358417 1.2053564510887469 0 1.2053564510887469 103.02350754417989 0 0 0 0 81.199227211271136 -118.72914018267178 0 -118.72914018267178 275.93118486426073 0 0 0 0 28.965062990318074 -42.185776562957614 0 -42.185776562957614 -38.716305710033339 0 0 0 0 27.360249055807799 -53.033905134015811 0 -53.033905134015811 31.585354877776581 0 0 0 0 75.107759686293321 -68.781796872816756 0 -68.781796872816756 -106.98557083644437 0 0 0 0 101.57768060731905 43.302720001577256 0 43.302720001577256 -141.75274435645591 0 0 0 0 47.427750861123251 -0.76963757316020232 0 -0.76963757316020232 -2.4575112657306915 0 0 0 0 11.233975030560167 -1.4884568494208423 0 -1.4884568494208423 -3.9453468362944437 0 0 0 0 199.12269304319852 47.594533563700992 0 47.594533563700992 -28.670889114925458 0 0 0 0 -45.181235399802972 89.539343322035961 0 89.539343322035961 -62.851666794091273 0 0 0 0 457.63882058516174 50.977228224450869 0 50.977228224450869 -57.232712387153043 0 0 0 0 412.15801590083493 -159.13020651818834 0 -159.13020651818834 43.062065528679113 0 0 0 0 133.01936846407625 -174.45648212106323 0 -174.45648212106323 164.51813552805703 0 0 0 0 393.0880897509096 190.95286094858142 0 190.95286094858142 -110.16664889097137 0 0 0 0 4.3038624885005845 -0.54255333779276604 0 -0.54255333779276604 0.054875713029167439 0 0 0 0 177.4669299094021 -54.602067043959352 0 -54.602067043959352 0.18738484111182174 0 0 0 0 181.71615786593156 -32.103355499298836 0 -32.103355499298836 108.3853355293119 0 0 0 0 216.74064880579954 37.375913828510782 0 37.375913828510782 16.244587304435697 0 0 0 0 241.56648048567513 10.799693480921292 0 10.799693480921292 -11.548877996165089 0 0 0 0 421.01994664660742 -16.868342086154783 0 -16.868342086154783 -54.602057677081433 0 0 0 0 325.1970840760514 -15.606140353136595 0 -15.606140353136595 -3.2763055329620272 0 0 0 0 323.27888389834959 9.5167039112072409 0 9.5167039112072409 -27.457814609534068 0 0 0 0 236.26998892729534 140.16265089968138 0 140.16265089968138 -91.082328189575094 0 0 0 0 339.3571622753243 51.934862522796628 0 51.934862522796628 -105.24415465132088 0 0 0 0 203.13182752168723 76.800615921279643 0 76.800615921279643 -2.5155631006318515 0 0 0 0 129.18901448210272 71.112682693230084 0 71.112682693230084 -84.124135288735104 0 0 0 0 -230.8561262469193 222.8456800322316 0 222.8456800322316 -66.411026557209055 0 0 0 0 68.749657224976545 19.096255682434645 0 19.096255682434645 -78.728996210087502 0 0 0 0 0.30745619773876953 0.29073695453496384 0 0.29073695453496384 -1.3377377163670165 0 0 0 0 224.35537642048803 88.809232688684247 0 88.809232688684247 -149.02286654152891 0 0 0 0 229.29684954998811 -133.99768021960466 0 -133.99768021960466 38.636059020571835 0 0 0 0 366.93200362746938 -82.08487877652972 0 -82.08487877652972 4.0216593941879637 0 0 0 0 133.44845081215135 62.849085695557534 0 62.849085695557534 29.236841072356498 0 0 0 0 321.43645968875535 41.895048610515587 0 41.895048610515587 86.14240914734944 0 0 0 0 334.08304716256498 31.086983913350139 0 31.086983913350139 18.971976732981602 0 0 0 0 487.17638306794106 -165.32135831308076 0 -165.32135831308076 31.2420610618165 0 0 0 0 207.24452057567396 100.47971347994205 0 100.47971347994205 7.1912578238431912 0 0 0 0 240.87495001666139 110.39585554961317 0 110.39585554961317 7.3201356822079902 0 0 0 0 246.90748872650329 148.06879485522413 0 148.06879485522413 55.03648989656989 0 0 0 0 183.70422457240056 105.49597433614498 0 105.49597433614498 55.471115354992605 0 0 0 0 164.66696820527341 72.599037123774735 0 72.599037123774735 19.949874768829403 0 0 0 0 181.01659081028447 95.019671343901024 0 95.019671343901024 18.019767080641717 0 0 0 0 157.8709951013825 81.788486841352778 0 81.788486841352778 9.8825105433999383 0 0 0 0 125.64494095726877 55.978340506020217 0 55.978340506020217 -3.15158620335135 0 0 0 0 129.50431233071595 50.438676486758055 0 50.438676486758055 4.4525188526062038 0 0 0 0 92.133609776606136 18.346060086389521 0 18.346060086389521 -6.7845946371195396 0 0 0 0 113.9297812246914 36.972516669957571 0 36.972516669957571 2.9050184919834692 0 0 0 0 168.13916876249641 78.899013242151497 0 78.899013242151497 6.4265716618267081 0 0 0 0 161.80008479688968 77.984468481401365 0 77.984468481401365 12.837513143688227 0 0 0 0 131.54484779767517 21.069166041967989 0 21.069166041967989 -6.7368929822582686 0 0 0 0 165.24639652495898 33.809438290352247 0 33.809438290352247 -17.34793949608563 0 0 0 0 231.62986093651853 28.257339858182782 0 28.257339858182782 -37.610338160134475 0 0 0 0 158.54194038590867 41.867668616931944 0 41.867668616931944 -3.4455578957558508 0 0 0 0 262.59136713948101 153.78045954046385 0 153.78045954046385 38.644177610049567 0 0 0 0 172.24537114442137 94.115807436196718 0 94.115807436196718 -0.67792540146265878 0 0 0 0 173.33850422890828 107.25612274656159 0 107.25612274656159 39.848190815460782 0 0 0 0 106.03755306813764 98.648790594574336 0 98.648790594574336 81.619460704980099 0 0 0 0 110.02776146167162 23.681829015189017 0 23.681829015189017 65.241785759806589 0 0 0 0 163.54170890031128 79.953053781441426 0 79.953053781441426 26.101968417031344 0 0 0 0 45.158831373972248 12.539314520057321 0 12.539314520057321 -14.957163893401457 0 0 0 0 25.558081439779926 17.208178324089985 0 17.208178324089985 -9.8500359328054401 0 0 0 0 54.997150948656781 15.403681146115616 0 15.403681146115616 -17.424244535814054 0 0 0 0 44.770396142620029 17.982327852545811 0 17.982327852545811 -3.8137065801554968 0 0 0 0 44.095565163537685 22.20518332395649 0 22.20518332395649 -8.9745245766451092 0 0 0 0 69.043234549622866 16.021029596212713 0 16.021029596212713 -6.141523161445221 0 0 0 0 47.228098447885714 9.5237153216252892 0 9.5237153216252892 0.0064603268884582121 0 0 0 0 57.347786323460241 8.3520704255590097 0 8.3520704255590097 -1.6658922175121802 0 0 0 0 71.189916178551357 9.0824931704266589 0 9.0824931704266589 -9.0068372060740458 0 0 0 0 77.818685858073877 28.042034009814955 0 28.042034009814955 -7.0772043854226325 0 0 0 0 76.39568737067566 2.7566346429786392 0 2.7566346429786392 -3.3346756676435234 0 0 0 0 60.763025128821027 -5.0842264065561267 0 -5.0842264065561267 -0.29782068235944337 0 0 0 0 131.03290374601193 22.809183258620806 0 22.809183258620806 -5.3749618863990349 0 0 0 0 162.02270729740701 -3.4517377639774756 0 -3.4517377639774756 -10.623782803886684 0 0 0 0 31.658736036413757 -13.025594560232307 0 -13.025594560232307 44.110015813491202 0 0 0 0 26.755396538501373 29.376393659051892 0 29.376393659051892 -7.6288669345696842 0 0 0 0 -53.020652171511756 17.507708220781041 0 17.507708220781041 20.768786997309633 0 0 0 0 54.508656289297505 29.411076698249055 0 29.411076698249055 -13.973910567245412 0 0 0 0 63.292721715148218 36.543383454932624 0 36.543383454932624 1.6477059798779123 0 0 0 0 65.590507382952637 9.5860569669407383 0 9.5860569669407383 3.2522314871313824 0 0 0 0 -0.31995419260626967 -0.12014919267281243 0 -0.12014919267281243 -0.066965939640910688 0 0 0 0 133.36041050478821 17.547459863953222 0 17.547459863953222 -15.005260348431648 0 0 0 0 16.189772562816785 22.525210643867084 0 22.525210643867084 0.80919044316932975 0 0 0 0 47.333189833647339 29.940555497750665 0 29.940555497750665 4.8241429302383345 0 0 0 0 57.920479671272915 7.1253176580079618 0 7.1253176580079618 -7.6536611914130503 0 0 0 0 33.656501426599789 20.382789837888652 0 20.382789837888652 -5.7728810102578336 0 0 0 0 6.5779875284896567 1.217105142563117 0 1.217105142563117 -1.632042902710138 0 0 0 0 38.488602394296777 -45.862757101006025 0 -45.862757101006025 187.93280236948203 0 0 0 0 62.096338724006273 19.608155179014659 0 19.608155179014659 3.8105180063635089 0 0 0 0 11.329575419854546 1.7734269083364325 0 1.7734269083364325 -0.57728750678055685 0 0 0 0 43.808718244254507 12.634833778876017 0 12.634833778876017 0.78543234177612287 0 0 0 0 70.83736633735316 17.071984804776903 0 17.071984804776903 -6.1813523914275947 0 0 0 0 54.179140241893037 7.5598548826067145 0 7.5598548826067145 -12.541785570347884 0 0 0 0 12.807037181713211 5.1080023160081875 0 5.1080023160081875 2.4854115213788734 0 0 0 0 9.9828750201513685 38.535125247405631 0 38.535125247405631 23.735843782717893 0 0 0 0 122.66230487139001 -49.091614358307652 0 -49.091614358307652 32.366901976139616 0 0 0 0 615.37702189901847 738.45509797291379 0 738.45509797291379 -229.81316866195561 0 0 0 0 -355.03584972928729 69.79998051174573 0 69.79998051174573 224.98273750287177 0 0 0 0 596.81638381737866 881.80825760405298 0 881.80825760405298 1879.7987849186302 0 0 0 0 29.563755767949061 10.675914811842084 0 10.675914811842084 2.6903774022791187 0 0 0 0 21.525133153290881 44.096305602687394 0 44.096305602687394 -30.631873624967611 0 0 0 0 -5.548843567150243 31.715860483562132 0 31.715860483562132 5.0911625861279681 0 0 0 0 109.03384632620327 -121.09128629573198 0 -121.09128629573198 78.061479959418364 0 0 0 0 3.3403147465978691 39.287678770423412 0 39.287678770423412 18.98906207468373 0 0 0 0 -86.713727314916468 -91.787780949112701 0 -91.787780949112701 157.89197294791234 0 0 0 0 -427.8616139026235 -173.49891470725294 0 -173.49891470725294 234.71434818406891 0 0 0 0 355.37564475099953 -133.04170115213606 0 -133.04170115213606 -453.97783829540185 0 0 0 0 -99.985862321585955 747.93525136064909 0 747.93525136064909 54.703788164595608 0 0 0 0 12.68457584059356 12.40722134752972 0 12.40722134752972 12.761076581349187 0 0 0 0 0.20784537855197982 2.8221632249684947 0 2.8221632249684947 5.1335757114108977 0 0 0 0 0.15339932391280353 3.9493925283938367 0 3.9493925283938367 7.9083878536662917 0 0 0 0 587.50514188781654 -50.113497121297144 0 -50.113497121297144 162.41984468919429 0 0 0 0 404.49116774702634 140.29613701716141 0 140.29613701716141 94.783714714336384 0 0 0 0 578.10217875240414 142.07745543159399 0 142.07745543159399 29.944357423845759 0 0 0 0 590.13241699725154 51.749738279663177 0 51.749738279663177 -7.4271560927645623 0 0 0 0 511.81247376777719 -50.572040164357418 0 -50.572040164357418 428.60600010403243 0 0 0 0 1077.8090039174094 -1027.2482804063225 0 -1027.2482804063225 -1093.2316470230812 0 0 0 0 -508.95181838032659 111.99620817495236 0 111.99620817495236 278.09871769991264 0 0 0 0 2.7500128142101445 3.7159524516861087 0 3.7159524516861087 6.2590962762525653 0 0 0 0 296.38233586560091 -31.81706306493561 0 -31.81706306493561 -87.205514148185102 0 0 0 0 76.623031233477377 54.500272112141147 0 54.500272112141147 -65.846953049485819 0 0 0 0 151.74774037291445 75.655926514537668 0 75.655926514537668 -4.5923833091792403 0 0 0 0 69.305267917401579 -50.280096084634806 0 -50.280096084634806 -39.461268024584342 0 0 0 0 638.85630339000545 88.617171461280122 0 88.617171461280122 -99.988001421516856 0 0 0 0 -165.67203606425301 115.32027570328199 0 115.32027570328199 85.65979566506212 0 0 0 0 44.439799482992385 -218.44555534559049 0 -218.44555534559049 -59.960096294299206 0 0 0 0 197.96434620413129 247.66690230006725 0 247.66690230006725 -155.17129003101945 0 0 0 0 282.41861823057798 -80.23954013865864 0 -80.23954013865864 21.924212207952223 0 0 0 0 522.94230158631308 -308.94706454128345 0 -308.94706454128345 68.484419040586545 0 0 0 0 602.88059642660301 -467.78263734504208 0 -467.78263734504208 349.53381786999762 0 0 0 0 237.68073607748124 -197.06083587393223 0 -197.06083587393223 90.235241676512487 0 0 0 0 -99.206360085452616 66.91180860085683 0 66.91180860085683 179.78559282698836 0 0 0 0 14.87042176326031 155.74004547168727 0 155.74004547168727 174.48078623142166 0 0 0 0 10.234521359580413 -2.2637168886237165 0 -2.2637168886237165 0.21775375902743055 0 0 0 0 -18.797232486223947 3.7730139186007179 0 3.7730139186007179 121.27489605667418 0 0 0 0 17.739500489200509 -17.259561303361451 0 -17.259561303361451 -25.937199166638948 0 0 0 0 125.14973758504857 133.06788385912947 0 133.06788385912947 123.56292316925703 0 0 0 0 119.60720017948552 158.24516174246389 0 158.24516174246389 69.371881016868343 0 0 0 0 377.29193565602691 346.41308828845081 0 346.41308828845081 195.24234270913217 0 0 0 0 343.7621939037308 70.249202739987055 0 70.249202739987055 -24.477082224569415 0 0 0 0 368.13846399536851 69.303538433160469 0 69.303538433160469 -39.973337134482534 0 0 0 0 10.57014333606584 4.8471079942773692 0 4.8471079942773692 2.1435837096251218 0 0 0 0 500.51033238728633 -108.9997781063291 0 -108.9997781063291 -33.292256822168383 0 0 0 0 184.18893933439631 426.20968617965963 0 426.20968617965963 538.33376481431628 0 0 0 0 896.80337842260633 285.2440635572338 0 285.2440635572338 36.54781278286498 0 0 0 0 -20.357826213941735 172.91712765246751 0 172.91712765246751 209.0105897213665 0 0 0 0 -431.72599505734252 -261.61522272882911 0 -261.61522272882911 1073.9068840684297 0 0 0 0 462.79466305910501 709.0125891305521 0 709.0125891305521 751.24242100894355 0 0 0 0 12.849946530781509 -2.4929075596395256 0 -2.4929075596395256 -0.010420106144940711 0 0 0 0 -10.196272475764999 -80.012710366114334 0 -80.012710366114334 -135.23132703907413 0 0 0 0 -18.505958304283922 -405.69402801120145 0 -405.69402801120145 -272.60877766819078 0 0 0 0 5.177062444636249 -96.042152847032412 0 -96.042152847032412 -190.89419257243117 0 0 0 0 965.73939553216405 552.13719361447511 0 552.13719361447511 -291.99753456035705 0 0 0 0 7.4561119572470602 0.44409539882286264 0 0.44409539882286264 -0.60421600723289504 0 0 0 0 -21.66708392405053 -27.938831373037146 0 -27.938831373037146 34.947862106893695 0 0 0 0 163.38701314128411 -216.82307410818601 0 -216.82307410818601 -140.37838325490566 0 0 0 0 309.84247046262681 -14.075782654277191 0 -14.075782654277191 -591.9755066955745 0 0 0 0 24.807425820565825 8.7545394048894636 0 8.7545394048894636 2.835098984341303 0 0 0 0 -88.728437385288998 46.275528372021881 0 46.275528372021881 -254.56117595300111 0 0 0 0 9.7447087653781637 -99.087216545887031 0 -99.087216545887031 -294.4331043732368 0 0 0 0 6.6677372615231434 -35.021515575096146 0 -35.021515575096146 -202.57424536203399 0 0 0 0 35.81029558750015 -61.738218436217494 0 -61.738218436217494 -229.2876906292222 0 0 0 0 -1.0919863234194054 -35.822240976151534 0 -35.822240976151534 -154.97542414261488 0 0 0 0 4.4486886647464416 -16.190853027568664 0 -16.190853027568664 -129.80214472518128 0 0 0 0 4.3539478103667619 4.4985720352019074 0 4.4985720352019074 -2.1988752469271517 0 0 0 0 17.152860439535289 -11.808570269272423 0 -11.808570269272423 -136.47089163407509 0 0 0 0 5.5633562259458813 -24.921958500166369 0 -24.921958500166369 -147.03545243412009 0 0 0 0 -0.063705031476274598 -37.787154899695452 0 -37.787154899695452 -126.60979230357771 0 0 0 0 -4.2870489187189378 -56.152726107538456 0 -56.152726107538456 -174.50540298007445 0 0 0 0 -19.87059751738343 -66.153994020724213 0 -66.153994020724213 -125.28259469666125 0 0 0 0 -25.981532790781785 -56.076543005058284 0 -56.076543005058284 -138.90155910466706 0 0 0 0 81.055205135151482 -85.645990196456182 0 -85.645990196456182 -219.44336278030039 0 0 0 0 -15.879771990138579 -34.926913024653004 0 -34.926913024653004 -110.72802598403678 0 0 0 0 6.3680723532379488 -16.834584346576094 0 -16.834584346576094 -129.58416174121862 0 0 0 0 22.498279036666645 -105.21904149000397 0 -105.21904149000397 44.29135237267019 0 0 0 0 5.0917982821219994 -19.050876850678065 0 -19.050876850678065 -133.39099177102162 0 0 0 0 29.312322290759766 89.075704706564352 0 89.075704706564352 60.277455939190986 0 0 0 0 44.958254354364115 9.8828368870481729 0 9.8828368870481729 2.1229953119289484 0 0 0 0 97.410122188276546 -46.442459780705121 0 -46.442459780705121 36.541840300590138 0 0 0 0 34.469111716451152 -43.694950386688674 0 -43.694950386688674 36.768287008869187 0 0 0 0 74.16518342204995 -95.613435620165262 0 -95.613435620165262 41.143254300089211 0 0 0 0 54.734791308026956 -93.515334278339935 0 -93.515334278339935 41.469461904131094 0 0 0 0 372.93904514419137 -267.32924729432693 0 -267.32924729432693 -499.1011442769086 0 0 0 0 -6.9441122109747084 -581.46938972109228 0 -581.46938972109228 566.31903578028937 0 0 0 0 -26.291165661352352 -183.64299878748579 0 -183.64299878748579 405.53029514029095 0 0 0 0 0.28884264139924198 166.8471470611193 0 166.8471470611193 -146.64343610772221 0 0 0 0 21.531006714519592 4.0321985135472413 0 4.0321985135472413 0.71305767820973753 0 0 0 0 -612.58682959848375 135.21623906765808 0 135.21623906765808 566.14873771192697 0 0 0 0 14.618128296484315 3.476335050401973 0 3.476335050401973 1.6190307085332369 0 0 0 0 27.657667631749064 17.468363671217958 0 17.468363671217958 -122.95311932332788 0 0 0 0 20.433192485370085 4.4228958685429225 0 4.4228958685429225 0.42194413894279686 0 0 0 0 12.119207095624006 14.389592416722508 0 14.389592416722508 13.532041516064893 0 0 0 0 12.872024750460433 0.61151217538067426 0 0.61151217538067426 2.6766044978440817 0 0 0 0 1042.8748712959195 -593.56889676780179 0 -593.56889676780179 -80.333753006389998 0 0 0 0 54.72675535574308 8.0870990770215485 0 8.0870990770215485 -15.561873678461794 0 0 0 0 28.688371972202731 -6.7938246111848457 0 -6.7938246111848457 24.934047296856079 0 0 0 0 34.341963916882378 -28.709838778903304 0 -28.709838778903304 -14.373343517812827 0 0 0 0 7.9676231212905044 -2.1306666895345057 0 -2.1306666895345057 -3.9144769883199144 0 0 0 0 31.813548284489347 2.7830432262455771 0 2.7830432262455771 7.0252656076330027 0 0 0 0 50.667053723372192 -31.035166579613133 0 -31.035166579613133 2.8717923177196099 0 0 0 0 91.303097743419698 39.020011577141759 0 39.020011577141759 -74.238227939350963 0 0 0 0 -17.484040045418169 132.8981269426356 0 132.8981269426356 -136.46874400474326 0 0 0 0 9.4427982323215307 -1.4774802374686347 0 -1.4774802374686347 -2.8333894090372991 0 0 0 0 25.819635747521463 15.225757079723072 0 15.225757079723072 8.9500759676062263 0 0 0 0 10.581951970212685 1110.9860521088467 0 1110.9860521088467 -139.43639608899383 0 0 0 0 470.27579885033265 -677.72164168669087 0 -677.72164168669087 -102.75490602602986 0 0 0 0 27.781750490200221 18.244394055310849 0 18.244394055310849 7.6189367379961634 0 0 0 0 -22.143366073085019 134.23280995265037 0 134.23280995265037 -40.769034818177261 0 0 0 0 -0.08231189785647075 64.227465947367818 0 64.227465947367818 -81.073030466184719 0 0 0 0 -4.3776840095865737 43.66617728432152 0 43.66617728432152 -24.66980415123453 0 0 0 0 109.47806825606187 83.138354398263346 0 83.138354398263346 -166.84315571949787 0 0 0 0 -4.5581047797835481 96.14827639328746 0 96.14827639328746 35.785862274684405 0 0 0 0 90.515419887722658 66.637838588178965 0 66.637838588178965 18.903908768692872 0 0 0 0 71.012497929909273 38.96405819537074 0 38.96405819537074 173.7157778389228 0 0 0 0 109.77705502596964 -44.484792460302742 0 -44.484792460302742 205.52656758065859 0 0 0 0 117.92697252711122 -14.031568564048484 0 -14.031568564048484 51.944547562750813 0 0 0 0 203.69090998764409 -34.291236904565267 0 -34.291236904565267 110.83446490120605 0 0 0 0 20.416025528635373 11.114881791882908 0 11.114881791882908 132.3488609658898 0 0 0 0 1.173672272566364 66.838944665246345 0 66.838944665246345 36.07059718014898 0 0 0 0 -2.6516194783662286 41.459462795905893 0 41.459462795905893 24.109634243660366 0 0 0 0 -1.4055703904382426 5.7176114479289026 0 5.7176114479289026 95.370001442587636 0 0 0 0 -48.674649058993509 68.908087413195517 0 68.908087413195517 -7.9285966809184174 0 0 0 0 -57.601898433858423 64.464413523513485 0 64.464413523513485 17.244651363686444 0 0 0 0 -52.40557613205101 42.272854864224428 0 42.272854864224428 39.11582664288062 0 0 0 0 24.822235651657792 15.690310066955377 0 15.690310066955377 7.7164989929625207 0 0 0 0 -53.18845050730306 32.359749382783775 0 32.359749382783775 30.198885519309442 0 0 0 0 -54.80280915782896 38.470321624015014 0 38.470321624015014 7.3856289760697109 0 0 0 0 5.3802691969112857 38.96001229786399 0 38.96001229786399 -28.393307338686327 0 0 0 0 -53.404375255084233 37.192557402901002 0 37.192557402901002 -3.9524390671831497 0 0 0 0 -21.323797850200208 35.351225390029867 0 35.351225390029867 -11.951552686859941 0 0 0 0 -20.106284325833258 22.094066035106152 0 22.094066035106152 -11.505906864837016 0 0 0 0 20.575502993637201 34.500175866554855 0 34.500175866554855 -18.723795403737313 0 0 0 0 16.821038745490753 14.21264141056089 0 14.21264141056089 16.457716161802747 0 0 0 0 5.0829808370874616 1.104401048977973 0 1.104401048977973 -1.1865234045663815 0 0 0 0 43.927812581067656 12.062096075961236 0 12.062096075961236 -96.574910877591378 0 0 0 0 -5.1047929228291196 -10.856282255406768 0 -10.856282255406768 -0.59772629616190898 0 0 0 0 20.234205742135373 -40.813429969212308 0 -40.813429969212308 -9.2511923103029403 0 0 0 0 3.6718720520026586 1.2150458270352917 0 1.2150458270352917 5.843738325773292 0 0 0 0 581.88813093289764 -25.943254179596707 0 -25.943254179596707 -45.126291028864216 0 0 0 0 73.856806050678642 -70.760521224966553 0 -70.760521224966553 -35.049892016521767 0 0 0 0 29.563498395078568 239.90629134047606 0 239.90629134047606 -443.74144766081855 0 0 0 0 614.04877288948774 -288.77660014254434 0 -288.77660014254434 197.29068998150569 0 0 0 0 639.36506870654705 -90.344431558398327 0 -90.344431558398327 107.32445819808709 0 0 0 0 455.23192473541349 -241.97382273917333 0 -241.97382273917333 255.88801541846169 0 0 0 0 625.33952881998812 -31.635145239421945 0 -31.635145239421945 447.81030508371987 0 0 0 0 199.74891403693891 -332.04153639419837 0 -332.04153639419837 425.85388937885836 0 0 0 0 162.16169426278248 60.007470447749029 0 60.007470447749029 576.51407313066102 0 0 0 0 170.62827055075786 -115.6678057459383 0 -115.6678057459383 103.22518296061662 0 0 0 0 2.823937974377186 2.7162742676189016 0 2.7162742676189016 5.0453361986177789 0 0 0 0 909.87366239788025 -269.49846753170141 0 -269.49846753170141 122.51827515277273 0 0 0 0 1865.4011148880181 -577.79352281346814 0 -577.79352281346814 -1287.8715953090286 0 0 0 0 149.52556726839248 -422.52439212583295 0 -422.52439212583295 247.85144227073761 0 0 0 0 1166.8240041893487 182.25153251721497 0 182.25153251721497 24.375584244406127 0 0 0 0 7.099646355665918 -3.8314569835765777 0 -3.8314569835765777 2.021035277932953 0 0 0 0 118.90606705321625 339.34165765117541 0 339.34165765117541 308.89512171159959 0 0 0 0 0.82418812980166267 1.4959361260665851 0 1.4959361260665851 3.7015420206988505 0 0 0 0 1020.059349027907 68.315257692718887 0 68.315257692718887 -75.956839110358942 0 0 0 0 839.86653782382928 385.61635016300545 0 385.61635016300545 -60.489691272357049 0 0 0 0 -114.71674214671293 -181.85300315651966 0 -181.85300315651966 500.06208434296423 0 0 0 0 397.0475341345682 -77.039357755912533 0 -77.039357755912533 -58.395825144509104 0 0 0 0 -55.475144838630513 -127.00298352612026 0 -127.00298352612026 92.75709209187653 0 0 0 0 -63.006430747958802 61.954241998976158 0 61.954241998976158 192.12542971461517 0 0 0 0 20.643638057492353 20.143826176732546 0 20.143826176732546 25.336581509871394 0 0 0 0 10.514578717593277 2.5443748467476208 0 2.5443748467476208 9.6553915106267496 0 0 0 0 -56.397329758710839 42.488476177225266 0 42.488476177225266 16.684002612228142 0 0 0 0 -22.553987519268048 -111.86030720871713 0 -111.86030720871713 -45.453762799832248 0 0 0 0 42.352858311872069 -20.803965535515445 0 -20.803965535515445 -239.02772308453632 0 0 0 0 18.557615514248578 -7.7178609689237501 0 -7.7178609689237501 5.0987441591093008 0 0 0 0 -49.985519140072938 -12.963247364345534 0 -12.963247364345534 2.4886338295518726 0 0 0 0 125.0096582166243 69.894063593682404 0 69.894063593682404 -193.90350854568942 0 0 0 0 67.951718473328356 61.228294957223397 0 61.228294957223397 22.249877241841205 0 0 0 0 221.46331585352709 -18.6131940571413 0 -18.6131940571413 -139.76056848489861 0 0 0 0 63.36374823435699 -119.36206882484248 0 -119.36206882484248 88.976332689288938 0 0 0 0 566.22518438950192 -209.450952038992 0 -209.450952038992 46.863140508293782 0 0 0 0 210.74598074857204 -44.97586380790608 0 -44.97586380790608 64.020100500311855 0 0 0 0 255.79598025621453 36.694505913735156 0 36.694505913735156 8.0837652298132525 0 0 0 0 234.96224283243419 53.102936155858288 0 53.102936155858288 343.38056874390986 0 0 0 0 210.99683843609841 -97.244713943587158 0 -97.244713943587158 264.10553359091455 0 0 0 0 763.95351822704379 78.183098022342165 0 78.183098022342165 88.673239716173157 0 0 0 0 748.6529133467111 -376.04614229158642 0 -376.04614229158642 63.231161260047884 0 0 0 0 989.07354667490381 -6.5099984694825253 0 -6.5099984694825253 410.44813662231809 0 0 0 0 6.3314033787873925 5.1348366291279097 0 5.1348366291279097 3.0605433264747504 0 0 0 0 859.56806284573861 -425.96647161281788 0 -425.96647161281788 -44.938768864481062 0 0 0 0 520.67057901275734 -554.8966567584738 0 -554.8966567584738 70.451998699899377 0 0 0 0 381.03872573630088 -411.56559057782943 0 -411.56559057782943 -13.611493918858287 0 0 0 0 725.51433871109839 -361.78898931199592 0 -361.78898931199592 124.94732076753826 0 0 0 0 1088.8877736942868 403.13783003742856 0 403.13783003742856 762.35484071172232 0 0 0 0 6.1277469171331456 6.1824782486699448 0 6.1824782486699448 7.3579157420157077 0 0 0 0 642.97353225868756 -217.48614236785602 0 -217.48614236785602 132.43140774324002 0 0 0 0 553.69413464918671 -302.94088593743254 0 -302.94088593743254 216.13626592439414 0 0 0 0 464.76132618290296 -287.06297520996884 0 -287.06297520996884 120.38249882390483 0 0 0 0 660.72803227685745 -216.62033150653679 0 -216.62033150653679 121.26114275396321 0 0 0 0 539.14061360425626 -196.58763424629819 0 -196.58763424629819 86.494599618466964 0 0 0 0 234.01931330790376 -61.224912261235204 0 -61.224912261235204 98.021431257275253 0 0 0 0 458.97755566299656 -155.86990467423948 0 -155.86990467423948 33.721888201155707 0 0 0 0 414.0144602386581 -238.36224859478989 0 -238.36224859478989 110.07462105276591 0 0 0 0 479.21189257365199 -154.89676619828461 0 -154.89676619828461 84.197198763756205 0 0 0 0 356.8560782341192 -179.42598087597935 0 -179.42598087597935 167.96993538583683 0 0 0 0 478.59283500342099 -268.15093531332968 0 -268.15093531332968 164.42801261756176 0 0 0 0 77.319870980509904 -93.06440683996982 0 -93.06440683996982 109.30933154468403 0 0 0 0 362.0506317375748 -254.82192454689812 0 -254.82192454689812 86.401504957686484 0 0 0 0 517.77613157072756 -188.47937911374447 0 -188.47937911374447 32.944817288516788 0 0 0 0 344.21278417357735 -80.467369555076402 0 -80.467369555076402 0.34937510376948921 0 0 0 0 29.944488864006932 9.4900774470809228 0 9.4900774470809228 0.0062583227905470551 0 0 0 0 722.77917118341816 -310.04912251553196 0 -310.04912251553196 85.399584470660557 0 0 0 0 344.82759978437207 -289.14688638650023 0 -289.14688638650023 252.51181543344228 0 0 0 0 555.51727326832406 -332.78139444376302 0 -332.78139444376302 157.01484989770324 0 0 0 0 288.43658168950424 -138.37095282473638 0 -138.37095282473638 129.28109620695068 0 0 0 0 1076.4024851534964 -484.28583408253473 0 -484.28583408253473 143.32866214425485 0 0 0 0 4.6574622998480582 4.1851482429088129 0 4.1851482429088129 2.0819007242515291 0 0 0 0 751.02476890091418 297.36858252580828 0 297.36858252580828 389.02319783051644 0 0 0 0 4.5009087408588861 2.700616136617719 0 2.700616136617719 -0.5120872961419991 0 0 0 0 1084.0689798682026 -686.82895041102893 0 -686.82895041102893 -196.09517846287599 0 0 0 0 700.65447825934098 -158.03905411188885 0 -158.03905411188885 40.08535272928566 0 0 0 0 1316.8144513445313 -96.8471279945079 0 -96.8471279945079 0.59651356721769844 0 0 0 0 987.90724628135786 170.31527856046068 0 170.31527856046068 -124.49664526479683 0 0 0 0 1726.0125577902063 -63.533756200813514 0 -63.533756200813514 -336.98239721110804 0 0 0 0 258.23549590878292 -441.9468276126554 0 -441.9468276126554 523.45805515362554 0 0 0 0 1355.22523523054 -258.64978609534319 0 -258.64978609534319 -195.07170718935959 0 0 0 0 1027.8744483778237 383.11906077645472 0 383.11906077645472 -508.14882579461027 0 0 0 0 183.21644321493932 627.06298840430736 0 627.06298840430736 -557.77214721352652 0 0 0 0 12.575924999939311 3.0717494435703401 0 3.0717494435703401 -0.51349025708292473 0 0 0 0 1370.2088844051784 -860.04058309406469 0 -860.04058309406469 375.62801144326841 0 0 0 0 774.2387321061176 -541.75159823452213 0 -541.75159823452213 389.36444112902427 0 0 0 0 -167.82748824600162 203.67588963249091 0 203.67588963249091 -173.15163842808033 0 0 0 0 77.955259434234222 -90.732376262487833 0 -90.732376262487833 -289.79893041522519 0 0 0 0 56.06474961947788 -138.02280361761132 0 -138.02280361761132 -107.12325925341975 0 0 0 0 0.33023901422575364 -52.607656256433984 0 -52.607656256433984 -51.033821104070739 0 0 0 0 -33.009605563773675 199.85300287695736 0 199.85300287695736 -477.07444655106974 0 0 0 0 -47.057668693558441 -0.42266156938728727 0 -0.42266156938728727 -90.49792330022683 0 0 0 0 -40.502070679529425 19.145675065970863 0 19.145675065970863 -56.958927084753668 0 0 0 0 -81.853788055782388 42.371856377440963 0 42.371856377440963 12.597725560208346 0 0 0 0 -31.675894261099529 39.222941597565296 0 39.222941597565296 26.430280825644331 0 0 0 0 -36.554422329179943 -0.43486208745162003 0 -0.43486208745162003 39.621891172237156 0 0 0 0 -12.038373436625989 -36.595294564602227 0 -36.595294564602227 -24.353775010315076 0 0 0 0 -13.754905234635771 -27.477916723111775 0 -27.477916723111775 -59.970486718732332 0 0 0 0 63.721020816324199 -103.84373609014892 0 -103.84373609014892 -10.127752641375082 0 0 0 0 216.09938546168672 93.695965846392426 0 93.695965846392426 -28.502526705007995 0 0 0 0 90.459950444509559 -13.051813940523346 0 -13.051813940523346 -4.4595788936437657 0 0 0 0 -17.564898096755268 41.847929419111267 0 41.847929419111267 179.03425554984051 0 0 0 0 24.691046574553184 60.897038553900074 0 60.897038553900074 28.663866507249622 0 0 0 0 1.9369391422782192 3.8752114513432283 0 3.8752114513432283 3.2938442428062871 0 0 0 0 -96.856149966181874 1.5705273733719878 0 1.5705273733719878 33.47185475007791 0 0 0 0 0.28416888866443524 6.2190521669721317 0 6.2190521669721317 19.675948959424879 0 0 0 0 -13.060324299935473 -29.735894005277657 0 -29.735894005277657 -89.784970505446381 0 0 0 0 30.489937330059888 74.207878571409594 0 74.207878571409594 138.35900796813553 0 0 0 0 -63.235890608117188 0.72411466719495365 0 0.72411466719495365 -6.6497080908793578 0 0 0 0 -98.363271048909382 16.941887880042486 0 16.941887880042486 42.642031145700457 0 0 0 0 -62.129656036711822 16.920053050566821 0 16.920053050566821 24.024203008160839 0 0 0 0 -62.570635739298382 19.085204073948034 0 19.085204073948034 44.237478478407866 0 0 0 0 -68.160018089734876 16.000599787679676 0 16.000599787679676 30.265726410840216 0 0 0 0 -60.887348481646768 10.53814281666746 0 10.53814281666746 42.748859926436126 0 0 0 0 8.5065345896721283 4.0952109466384172 0 4.0952109466384172 30.665790262211885 0 0 0 0 -39.752993504071128 25.842210090568187 0 25.842210090568187 34.512082032520993 0 0 0 0 -37.876908668162287 35.544774200048778 0 35.544774200048778 24.303013987404483 0 0 0 0 -36.796478087953744 10.124072105892537 0 10.124072105892537 59.716049324953929 0 0 0 0 -37.302213220901081 40.044267178080645 0 40.044267178080645 57.987342708907818 0 0 0 0 58.989634978965825 18.680883438662022 0 18.680883438662022 70.540222876130429 0 0 0 0 83.318119563156245 -43.749779275722631 0 -43.749779275722631 82.909276256564226 0 0 0 0 15.828967677519017 17.952240750009423 0 17.952240750009423 51.389121313426585 0 0 0 0 214.84133952535856 -59.680065660915318 0 -59.680065660915318 83.966737958808153 0 0 0 0 175.13765642623559 -37.033409913855394 0 -37.033409913855394 38.197636140632312 0 0 0 0 248.37317864727248 -70.494777919574062 0 -70.494777919574062 47.281209399547151 0 0 0 0 167.49706224901456 -98.685722824783625 0 -98.685722824783625 84.204861669594251 0 0 0 0 6.4928418764888054 8.1873303036949512 0 8.1873303036949512 8.4261856575474567 0 0 0 0 204.65928357331131 -96.808678865652837 0 -96.808678865652837 47.557240433475897 0 0 0 0 306.76662742292189 -94.831758094669567 0 -94.831758094669567 3.3845962873047029 0 0 0 0 223.02411473814192 -28.29688999255859 0 -28.29688999255859 19.731953813752625 0 0 0 0 110.98367154816833 -31.440607847658612 0 -31.440607847658612 11.731774090177169 0 0 0 0 102.45904887629649 -46.329881290436788 0 -46.329881290436788 50.930645378268309 0 0 0 0 3.0990788866497496 1.9579136250247302 0 1.9579136250247302 39.682750924373977 0 0 0 0 155.34061468545451 -92.71988116391276 0 -92.71988116391276 80.18006786208025 0 0 0 0 121.61424517203886 -22.442171751652495 0 -22.442171751652495 8.7554299244375215 0 0 0 0 117.76096254639106 -57.87542617341569 0 -57.87542617341569 37.346947262761205 0 0 0 0 230.46652777696289 -6.0379677386899857 0 -6.0379677386899857 41.766017062893297 0 0 0 0 4.6052003798575374 6.7756443764635677 0 6.7756443764635677 9.2645014643652317 0 0 0 0 -15.810059828271278 102.42109771401601 0 102.42109771401601 141.63213288634688 0 0 0 0 397.81215696567301 -100.66535978655975 0 -100.66535978655975 -12.747866093193807 0 0 0 0 198.30270753270759 24.30156576945933 0 24.30156576945933 -8.0485018076906272 0 0 0 0 190.13951800974701 -32.061505922926699 0 -32.061505922926699 -16.48200383180847 0 0 0 0 6.3250521098044601 -32.056547182049371 0 -32.056547182049371 10.984930588158022 0 0 0 0 25.004054959622408 35.982104696263377 0 35.982104696263377 47.371547672018096 0 0 0 0 116.75552571986464 107.8811692408508 0 107.8811692408508 -8.4071828182204627 0 0 0 0 -75.403133012468516 20.092907756788009 0 20.092907756788009 59.157253775376375 0 0 0 0 -113.5940026745061 -70.051015045230088 0 -70.051015045230088 49.643471739767847 0 0 0 0 -1.3941448507617444 1.1969258936617364 0 1.1969258936617364 1.1794303450293633 0 0 0 0 -13.534718328540293 163.05966043176159 0 163.05966043176159 56.573441032202027 0 0 0 0 116.64101095504782 24.804656774122847 0 24.804656774122847 12.687092995159674 0 0 0 0 -0.34960950132866941 6.3096043660819721 0 6.3096043660819721 32.063386165737597 0 0 0 0 -96.292551609830753 55.949424021448067 0 55.949424021448067 84.116543729571276 0 0 0 0 175.0618248423574 -17.448713167441895 0 -17.448713167441895 9.199564356524661 0 0 0 0 78.456859266161928 -35.846002604432435 0 -35.846002604432435 49.875679963668318 0 0 0 0 -261.71630871505249 37.65659539250737 0 37.65659539250737 104.11897376408706 0 0 0 0 -0.40344944590230125 4.7621180924393567 0 4.7621180924393567 41.263453909329712 0 0 0 0 194.20529106146523 -33.082338011727416 0 -33.082338011727416 15.928589405792422 0 0 0 0 196.33221021120073 -33.714375720076589 0 -33.714375720076589 -10.828488049712746 0 0 0 0 195.33905841410234 -40.666617263933347 0 -40.666617263933347 17.125948599678878 0 0 0 0 292.71904021773526 82.310219650859906 0 82.310219650859906 54.582236982532862 0 0 0 0 166.15845862764039 22.658772235627456 0 22.658772235627456 42.121741595679637 0 0 0 0 268.84695531814276 -25.210350761538493 0 -25.210350761538493 -0.095637444216535528 0 0 0 0 -81.097819840148091 -98.411207135391805 0 -98.411207135391805 86.378060789059646 0 0 0 0 224.1396943301103 -18.467375243361118 0 -18.467375243361118 -13.241748167804644 0 0 0 0 308.32413400327908 -48.974109215675185 0 -48.974109215675185 -67.992372224037581 0 0 0 0 243.30644903597374 -45.237209840140508 0 -45.237209840140508 -8.1566308276001109 0 0 0 0 211.66953584661928 4.7758967173341489 0 4.7758967173341489 -47.974794572206747 0 0 0 0 293.93385862185539 -11.267575847080479 0 -11.267575847080479 -148.55027169111759 0 0 0 0 286.63659252828518 -3.0852786497391662 0 -3.0852786497391662 -50.945985593341277 0 0 0 0 645.16290536449503 72.461378498094859 0 72.461378498094859 -130.22469767106054 0 0 0 0 260.27189330710195 -210.74080982166146 0 -210.74080982166146 -114.25617038645987 0 0 0 0 0.55431482310527347 -0.54612289018766047 0 -0.54612289018766047 -0.71214881744444858 0 0 0 0 529.23711187421645 -182.75371498622417 0 -182.75371498622417 -174.53110205403414 0 0 0 0 -137.28854903608584 -153.03363589199441 0 -153.03363589199441 88.620451586344416 0 0 0 0 46.177894782663245 205.41055125120613 0 205.41055125120613 374.12851502246122 0 0 0 0 -1.2050459817478649 1.0715022651878277 0 1.0715022651878277 -4.03876905792497 0 0 0 0 536.09732326697758 -195.25008027123783 0 -195.25008027123783 75.829789818164386 0 0 0 0 604.21905984932278 -12.39722626101829 0 -12.39722626101829 -60.801223148811118 0 0 0 0 3.7650987024462137 2.0624646266658671 0 2.0624646266658671 4.3172747682020933 0 0 0 0 266.53482043110591 218.66929620027429 0 218.66929620027429 174.40376137116255 0 0 0 0 109.74278554338619 9.0152309140697753 0 9.0152309140697753 -58.604593360804529 0 0 0 0 9.9458625682656248 -56.478617921023897 0 -56.478617921023897 3.6789419516835693 0 0 0 0 65.974205047653925 85.192235159201772 0 85.192235159201772 -4.041306821873377 0 0 0 0 -80.327129332277764 66.037399681100609 0 66.037399681100609 199.20688657044781 0 0 0 0 161.35441943127589 324.83292459552933 0 324.83292459552933 316.29099929466793 0 0 0 0 731.94466639591769 403.15023074371265 0 403.15023074371265 101.02676347568251 0 0 0 0 167.0548264528685 12.673897291568039 0 12.673897291568039 34.357326807630784 0 0 0 0 301.68039658315485 201.3958587932857 0 201.3958587932857 119.93470335807908 0 0 0 0 285.51706603624802 232.44627627770203 0 232.44627627770203 61.298708711346436 0 0 0 0 530.31215031035265 292.08117539214084 0 292.08117539214084 37.828769229641154 0 0 0 0 600.13690327583743 133.65600297325125 0 133.65600297325125 -27.454211528513994 0 0 0 0 681.96147489717623 194.71657511029599 0 194.71657511029599 9.5160333484883211 0 0 0 0 1031.2544442914168 -39.318298857843899 0 -39.318298857843899 152.64614755009131 0 0 0 0 764.55979944108412 -317.59078979002356 0 -317.59078979002356 111.82808854917073 0 0 0 0 1496.311363393585 -545.58881109263223 0 -545.58881109263223 -47.008938404031724 0 0 0 0 852.76801847304966 -261.07518474705915 0 -261.07518474705915 138.75467045053236 0 0 0 0 317.91192082397743 1.335560513558363 0 1.335560513558363 25.436312827251633 0 0 0 0 1095.6550044145138 -198.4075675807378 0 -198.4075675807378 100.89914149427062 0 0 0 0 1500.3260507968314 -63.869007929771954 0 -63.869007929771954 40.301092784309382 0 0 0 0 1184.064745134935 73.73768881894587 0 73.73768881894587 -14.925526304728859 0 0 0 0 837.29515520552604 75.373688196598522 0 75.373688196598522 434.90600525175012 0 0 0 0 1247.3582096487376 254.27029104778012 0 254.27029104778012 230.72340841698008 0 0 0 0 1183.2077106303013 85.385525518221328 0 85.385525518221328 7.6065940537752823 0 0 0 0 1438.9985852842399 -152.67479773149742 0 -152.67479773149742 -23.24493634943326 0 0 0 0 4.0257192232288546 3.8163710350380584 0 3.8163710350380584 4.732916520359872 0 0 0 0 654.94345010948928 -222.21743879466513 0 -222.21743879466513 -12.485492168299519 0 0 0 0 1081.2940460963346 -62.079504240313611 0 -62.079504240313611 -99.179082737743897 0 0 0 0 1104.1923734908094 145.224341007118 0 145.224341007118 -35.596805882538462 0 0 0 0 979.56664385831755 99.412379586718458 0 99.412379586718458 -50.214571559894395 0 0 0 0 940.94191648783544 131.54713321538435 0 131.54713321538435 -46.610787309192915 0 0 0 0 884.49564621574427 47.154751791256416 0 47.154751791256416 158.24578491885907 0 0 0 0 855.12704295130243 213.41051088776942 0 213.41051088776942 -15.485978663627293 0 0 0 0 824.09752558419757 -43.911121824711074 0 -43.911121824711074 -115.04954534874969 0 0 0 0 733.02493923555232 148.78154479290913 0 148.78154479290913 -53.483607525710624 0 0 0 0 763.6225971440208 -105.44900420485564 0 -105.44900420485564 8.3021998539612696 0 0 0 0 1499.6412558361608 115.96679386346692 0 115.96679386346692 -159.07420185843597 0 0 0 0 1199.2025066831532 223.5448535583389 0 223.5448535583389 -164.66893199497665 0 0 0 0 1196.7228513247646 233.86933857388672 0 233.86933857388672 -204.94412310997649 0 0 0 0 1215.7010096998529 403.96316658894278 0 403.96316658894278 -260.51227949075587 0 0 0 0 1499.8785994740128 275.76160806483523 0 275.76160806483523 -286.32161124729896 0 0 0 0 981.10166075870757 187.98555859996063 0 187.98555859996063 -159.49642142373372 0 0 0 0 1208.4316608020499 342.34245269513349 0 342.34245269513349 -257.12785699769404 0 0 0 0 753.99911412118308 90.815848434644863 0 90.815848434644863 -63.221246324703543 0 0 0 0 844.23466298082803 81.338279666490038 0 81.338279666490038 -129.3513921327351 0 0 0 0 980.22776807026457 239.18706354399049 0 239.18706354399049 -310.68867331526837 0 0 0 0 883.16611934984167 198.29220148682674 0 198.29220148682674 -77.817207020997671 0 0 0 0 766.22052952688682 150.17088039456155 0 150.17088039456155 -95.811659312169809 0 0 0 0 2.8955851754074047 0.30153088684194351 0 0.30153088684194351 -2.0596094946448074 0 0 0 0 1040.0497822851248 719.60736081330435 0 719.60736081330435 229.05344471562924 0 0 0 0 512.59660813554478 -43.103203057076755 0 -43.103203057076755 -222.56014959425312 0 0 0 0 940.17184685969801 187.5103440116593 0 187.5103440116593 -20.657930762145725 0 0 0 0 781.98590492203903 119.42250618604945 0 119.42250618604945 -37.720328764378564 0 0 0 0 5.8707731838030348 0.32009683179031612 0 0.32009683179031612 -2.1595491608973876 0 0 0 0 82.770427351773833 -43.170554347912002 0 -43.170554347912002 5.2090146530699712 0 0 0 0 91.626332605876087 -9.7859692005744137 0 -9.7859692005744137 -17.096960097290321 0 0 0 0 11.851839208935443 -24.578256018129082 0 -24.578256018129082 -4.2292019054029542 0 0 0 0 16.360056980935497 25.365980222853409 0 25.365980222853409 -37.843800106282742 0 0 0 0 26.906897100297694 -17.599156552908827 0 -17.599156552908827 -7.5197446207007168 0 0 0 0 -15.100043795475358 -89.966422048824668 0 -89.966422048824668 94.059403468498658 0 0 0 0 120.70289661453353 48.560503585523747 0 48.560503585523747 -73.017196951613641 0 0 0 0 44.561494070680055 25.39159450713484 0 25.39159450713484 -37.01085846437627 0 0 0 0 48.102579441881971 5.8919998213882536 0 5.8919998213882536 5.4895195197977955 0 0 0 0 90.881983263381699 18.289233676681306 0 18.289233676681306 -9.8969428680056808 0 0 0 0 44.801411466127696 4.127326735637773 0 4.127326735637773 -10.043258054879782 0 0 0 0 78.504739993204566 -8.6451190089896954 0 -8.6451190089896954 -2.1949742633905771 0 0 0 0 68.387656174731092 20.467100971838136 0 20.467100971838136 -3.414704605343104 0 0 0 0 68.511939810496187 -19.652633360631285 0 -19.652633360631285 -79.871724974015706 0 0 0 0 81.830556420471112 -20.097438466056701 0 -20.097438466056701 -21.467033132107531 0 0 0 0 69.76047050887064 -11.173522869364888 0 -11.173522869364888 -25.989005846589862 0 0 0 0 771.81186076247104 -450.50027695543349 0 -450.50027695543349 -457.50606100935511 0 0 0 0 -118.20175367782213 -337.02635078866842 0 -337.02635078866842 -128.43739642283163 0 0 0 0 7.3769805142966192 2.8245443353998922 0 2.8245443353998922 0.48961244187377922 0 0 0 0 220.56716726825471 470.62766860726379 0 470.62766860726379 606.3113212364234 0 0 0 0 961.36056674372321 486.66233129351025 0 486.66233129351025 -70.839175794020775 0 0 0 0 368.00896602269859 358.53201804717219 0 358.53201804717219 -192.93157680768081 0 0 0 0 568.68769054215227 -43.455974144050742 0 -43.455974144050742 -178.39302203602051 0 0 0 0 47.03297428613223 124.05404913593884 0 124.05404913593884 -146.75669037029775 0 0 0 0 -266.75868927174679 -14.482094719588872 0 -14.482094719588872 140.29912644870001 0 0 0 0 -44.611273743510537 -285.5686701901227 0 -285.5686701901227 151.29525771765998 0 0 0 0 9.4795092986930172 -4.3691514359572423 0 -4.3691514359572423 -5.1631437622755847 0 0 0 0 -10.615107646946853 -153.96885086288876 0 -153.96885086288876 -222.73294683694212 0 0 0 0 -149.74202009640067 -149.44277186810314 0 -149.44277186810314 -134.70545503875292 0 0 0 0 39.170107383391517 164.22755111613651 0 164.22755111613651 -186.86488755656342 0 0 0 0 68.099127913609976 18.839420798988602 0 18.839420798988602 2.6576555569747815 0 0 0 0 255.70283812490197 -225.8717064400239 0 -225.8717064400239 -225.65372221142934 0 0 0 0 24.989989369668535 95.755264498193867 0 95.755264498193867 -74.860550247311949 0 0 0 0 4.2700190750767888 58.414785454510024 0 58.414785454510024 4.5647870575578509 0 0 0 0 -63.758055671444254 210.13407336528962 0 210.13407336528962 -56.047093122013393 0 0 0 0 111.74203408095457 91.996360338404401 0 91.996360338404401 -5.8293447678269672 0 0 0 0 563.53394296712759 -181.41111010293372 0 -181.41111010293372 -90.009281176932745 0 0 0 0 211.92963346738043 -362.94954631360201 0 -362.94954631360201 59.295143805605221 0 0 0 0 185.33651940545951 -12.86195187965177 0 -12.86195187965177 -1.5493546082009289 0 0 0 0 183.79244835715235 -81.843866482740538 0 -81.843866482740538 46.676097438385284 0 0 0 0 299.19270889670076 9.6106316907055316 0 9.6106316907055316 -3.2036602082677632 0 0 0 0 420.13406974069721 -82.384919756810802 0 -82.384919756810802 4.42975227503333 0 0 0 0 255.23922079148053 50.818827026460525 0 50.818827026460525 33.377302374570263 0 0 0 0 425.79485806957518 -50.001546689814575 0 -50.001546689814575 107.6330273298708 0 0 0 0 -24.160678589842291 143.75978647969583 0 143.75978647969583 56.754495836709339 0 0 0 0 70.242202963995553 22.905805368199537 0 22.905805368199537 42.88490286539168 0 0 0 0 243.10637486657015 24.574222995499014 0 24.574222995499014 -17.946286715212239 0 0 0 0 125.88057583989485 144.96168192330504 0 144.96168192330504 -10.420506491924357 0 0 0 0 4.8917070505665574 7.063927280846884 0 7.063927280846884 -11.442601634671055 0 0 0 0 21.074719692323242 45.103567723165952 0 45.103567723165952 -47.507712126385002 0 0 0 0 -94.812774847151672 41.495063531682945 0 41.495063531682945 24.032473580987244 0 0 0 0 267.70213800609099 49.988937002276572 0 49.988937002276572 147.71966187157665 0 0 0 0 9.6750757952774951 10.714398993621094 0 10.714398993621094 10.350656976847402 0 0 0 0 282.35384780588402 100.11993647988547 0 100.11993647988547 39.396368434353576 0 0 0 0 5.1604199875615393 -3.3272039751894749 0 -3.3272039751894749 -0.67365107258293777 0 0 0 0 217.05701460628188 -178.87698426214064 0 -178.87698426214064 127.88850327634606 0 0 0 0 295.55289481253203 101.09937003175452 0 101.09937003175452 -10.267416085988259 0 0 0 0 -220.29193663985097 -106.53967743237305 0 -106.53967743237305 11.711756983934379 0 0 0 0 32.743770098681125 0.20705383499955587 0 0.20705383499955587 -12.697177450476545 0 0 0 0 44.054017283112344 14.116269718305375 0 14.116269718305375 -8.0345293774326851 0 0 0 0 28.444497731684748 5.5012096697070838 0 5.5012096697070838 0.93413821153363363 0 0 0 0 33.726243483409007 45.570201755266226 0 45.570201755266226 -104.70942202165679 0 0 0 0 18.30341439113613 41.444590623153317 0 41.444590623153317 -40.904411010373906 0 0 0 0 5.380402155754382 84.63141891112366 0 84.63141891112366 -11.464824235644755 0 0 0 0 324.7274765933289 -193.35626837781911 0 -193.35626837781911 239.99680165979271 0 0 0 0 342.96761384653655 66.725772634587884 0 66.725772634587884 -83.150469434795923 0 0 0 0 401.98442778003664 -53.399138476788266 0 -53.399138476788266 -36.544465170174817 0 0 0 0 130.09121170126309 -46.852386631997433 0 -46.852386631997433 133.1256569906086 0 0 0 0 713.50185598646203 -23.7356137529855 0 -23.7356137529855 -64.339450054769031 0 0 0 0 575.14957972387128 150.97018064726399 0 150.97018064726399 -98.162796226887622 0 0 0 0 590.31190266823251 154.92757394199771 0 154.92757394199771 -116.65371794112662 0 0 0 0 340.01578468944172 400.09735513574401 0 400.09735513574401 -25.944048452877269 0 0 0 0 440.46315001016046 226.56428892658846 0 226.56428892658846 -140.70957207470951 0 0 0 0 483.88862869088189 129.15183850456174 0 129.15183850456174 -106.00940044689332 0 0 0 0 360.443257113242 160.47481572608399 0 160.47481572608399 -119.85849181495678 0 0 0 0 180.34461538200412 31.10282922284182 0 31.10282922284182 -100.34549694449839 0 0 0 0 281.53338626395271 158.51282099783498 0 158.51282099783498 -57.494607389830435 0 0 0 0 136.51968296689665 -43.356519542852084 0 -43.356519542852084 -123.22977728381284 0 0 0 0 110.28651365950645 -41.171969174067272 0 -41.171969174067272 -15.7060293128186 0 0 0 0 18.859484266860818 35.216601846987032 0 35.216601846987032 -100.3604874075063 0 0 0 0 8.7660529272968901 -2.4473019188042784 0 -2.4473019188042784 -1.3920532118387481 0 0 0 0 24.508895081748051 -49.921011272421765 0 -49.921011272421765 2.7100274841459395 0 0 0 0 39.329827452867903 -45.89355896463735 0 -45.89355896463735 -69.879102071659418 0 0 0 0 90.675762348755597 -100.03617037536696 0 -100.03617037536696 -13.057655055099531 0 0 0 0 6.1324435656196812 -3.0003768733465037 0 -3.0003768733465037 -1.0761732971179514 0 0 0 0 -5.9457857207053166 -29.29280412519438 0 -29.29280412519438 2.5692067785494146 0 0 0 0 28.014179846428306 -40.775595005404512 0 -40.775595005404512 -7.6274472364184476 0 0 0 0 37.569546971663087 -5.2854466929518953 0 -5.2854466929518953 -10.099322703636032 0 0 0 0 19.974215176767757 8.1173377298314335 0 8.1173377298314335 -1.6450703911514211 0 0 0 0 71.602152376661252 -19.228590957151482 0 -19.228590957151482 -38.75044862413597 0 0 0 0 35.762105930243848 -8.0200271948467687 0 -8.0200271948467687 0.30223933195890318 0 0 0 0 18.87774409886697 -28.990475486717514 0 -28.990475486717514 -3.4365601569115825 0 0 0 0 28.814418806304431 1.1849527737304406 0 1.1849527737304406 -2.7749658319137529 0 0 0 0 83.251183899741591 44.27605627683306 0 44.27605627683306 76.065203047035538 0 0 0 0 113.56763057541684 -134.7204841423204 0 -134.7204841423204 -232.52140379530024 0 0 0 0 15.701971924952105 7.3947151832923872 0 7.3947151832923872 2.5271655756255589 0 0 0 0 -16.938981271789089 -47.07766029585855 0 -47.07766029585855 5.2955795146001492 0 0 0 0 -115.28713518180302 -159.54063560459235 0 -159.54063560459235 -35.671021108176319 0 0 0 0 -8.5905345360661158 -91.45845171525707 0 -91.45845171525707 50.594576961792882 0 0 0 0 139.89438219864678 -69.263052028964694 0 -69.263052028964694 -37.358038942099483 0 0 0 0 598.09449487217717 -202.73297048266932 0 -202.73297048266932 -532.122452636037 0 0 0 0 220.58715833660244 254.17082384481046 0 254.17082384481046 -760.37211261946072 0 0 0 0 -411.75029033104875 474.63454715294415 0 474.63454715294415 187.99426306326995 0 0 0 0 264.30945973195412 -169.53721360856673 0 -169.53721360856673 -243.30789368141814 0 0 0 0 113.67375187745711 -82.55953921699529 0 -82.55953921699529 -19.524938320212186 0 0 0 0 -19.309299155820554 -102.25247110298403 0 -102.25247110298403 -179.37223861838538 0 0 0 0 262.19074799180453 183.82669616994394 0 183.82669616994394 693.57372274750924 0 0 0 0 958.25721453181905 -360.28771870157107 0 -360.28771870157107 67.927384602518259 0 0 0 0 1020.2857185137095 743.91304555448414 0 743.91304555448414 24.743097193709673 0 0 0 0 110.23246703218319 -283.29007188655078 0 -283.29007188655078 -106.56945758810843 0 0 0 0 187.95972884699586 1086.8317026813259 0 1086.8317026813259 520.96371405595528 0 0 0 0 -80.469911910282462 -40.497086514017838 0 -40.497086514017838 -31.634212321620907 0 0 0 0 11.554525608007538 -2.8399164823307181 0 -2.8399164823307181 0.68672218595218126 0 0 0 0 6.7160897905956034 3.138165636605617 0 3.138165636605617 1.627926937105137 0 0 0 0 720.22063060889923 -365.94540181087359 0 -365.94540181087359 251.69953761927829 0 0 0 0 -164.36540637805956 741.63301683890836 0 741.63301683890836 445.50353211167385 0 0 0 0 -1132.3892780081223 741.04801005990521 0 741.04801005990521 452.79946665089778 0 0 0 0 720.82697632076633 349.78848764588281 0 349.78848764588281 -67.126104075206968 0 0 0 0 1291.2367600273719 -511.47309244186317 0 -511.47309244186317 613.50971300619312 0 0 0 0 26.512429515118953 -8.5888873318738987 0 -8.5888873318738987 1.8301317109389146 0 0 0 0 49.94068538571446 -89.655337540855953 0 -89.655337540855953 -269.06476643086899 0 0 0 0 1032.9623074167976 -15.205233561920522 0 -15.205233561920522 -52.296080302724135 0 0 0 0 7.8197102702069969 -9.8282539385122618 0 -9.8282539385122618 -31.807699882046109 0 0 0 0 -34.433357584406622 35.464270937703077 0 35.464270937703077 -164.20881009749291 0 0 0 0 45.085535468970193 -42.611168112142877 0 -42.611168112142877 -101.14558991636477 0 0 0 0 70.270181059211609 -44.64125495464441 0 -44.64125495464441 -152.71358775277577 0 0 0 0 54.01744670037624 12.943571154567167 0 12.943571154567167 -92.063414611940061 0 0 0 0 46.557973720508016 -32.207899328849635 0 -32.207899328849635 -119.93367100801242 0 0 0 0 12.622035572778259 -28.688485375731943 0 -28.688485375731943 -95.955095784392086 0 0 0 0 -3.7555597151367692 -83.370319452292279 0 -83.370319452292279 -130.58954585100582 0 0 0 0 24.013936277922767 8.9495986046129019 0 8.9495986046129019 -63.510392288427511 0 0 0 0 31.757589694250782 4.741484240754744 0 4.741484240754744 -63.896786372978141 0 0 0 0 41.022749884130462 -6.6266040536781929 0 -6.6266040536781929 -51.21973256311594 0 0 0 0 39.408081286885135 0.68692637756339536 0 0.68692637756339536 -47.867544681407026 0 0 0 0 30.362236089184535 -8.1738672690867702 0 -8.1738672690867702 -53.36722079455285 0 0 0 0 29.714359328840146 -14.224336141655272 0 -14.224336141655272 -25.984661439914817 0 0 0 0 32.946637432445769 -12.374997862309591 0 -12.374997862309591 3.5835477349771132 0 0 0 0 29.173325108767131 -10.043855204613692 0 -10.043855204613692 -51.243720762989142 0 0 0 0 -19.894680922837779 -133.70485592155421 0 -133.70485592155421 96.407305195439676 0 0 0 0 -15.725476398292813 -101.36653668607278 0 -101.36653668607278 -61.733973038731165 0 0 0 0 76.117916073173546 236.9271592889711 0 236.9271592889711 15.637550379722597 0 0 0 0 129.07690814859234 -129.28495940996174 0 -129.28495940996174 -151.96156713370169 0 0 0 0 31.734839081417633 -11.475042736527655 0 -11.475042736527655 2.8786773287638434 0 0 0 0 24.843476147014371 -0.89404070559135107 0 -0.89404070559135107 41.089897834882322 0 0 0 0 609.40992702843869 141.45031672419782 0 141.45031672419782 -121.67176546289241 0 0 0 0 339.60696083709081 -38.818167360201528 0 -38.818167360201528 81.561416881064815 0 0 0 0 1217.8053066916691 -340.11504177202505 0 -340.11504177202505 165.44030107222716 0 0 0 0 402.47975645092083 -231.97740467815527 0 -231.97740467815527 162.10645207258949 0 0 0 0 -119.11953805121084 22.70259361876515 0 22.70259361876515 437.02030682059399 0 0 0 0 -64.355342156699407 64.173728309971011 0 64.173728309971011 13.841777753285896 0 0 0 0 -126.01298242021949 507.93558127733149 0 507.93558127733149 -115.82710050319577 0 0 0 0 187.83687654425012 41.622658849430536 0 41.622658849430536 57.451224004686992 0 0 0 0 -216.56447374421987 427.01875052392552 0 427.01875052392552 403.46350672661538 0 0 0 0 -102.90500176684509 318.13398210317109 0 318.13398210317109 -744.28757254188167 0 0 0 0 263.77846336833136 -254.69427407626438 0 -254.69427407626438 -335.07920174316587 0 0 0 0 1124.6641249197619 161.49520503602639 0 161.49520503602639 -134.89276822075999 0 0 0 0 172.43251310335017 -144.14678610282766 0 -144.14678610282766 1237.2194536482211 0 0 0 0 -12.758383020909605 -16.828294175547967 0 -16.828294175547967 91.586485687992081 0 0 0 0 -83.50442347016542 40.245758071923092 0 40.245758071923092 48.34152006692193 0 0 0 0 -87.77363834346761 18.850358863361407 0 18.850358863361407 172.21588442255279 0 0 0 0 5.0060819129559491 -4.245804203721832 0 -4.245804203721832 -4.1467015775783649 0 0 0 0 2.8970931524672778 32.814323520698736 0 32.814323520698736 -0.24694680306060945 0 0 0 0 34.673233432661618 19.376265283706061 0 19.376265283706061 5.0819049654282935 0 0 0 0 39.698431084791082 -0.49313215884649253 0 -0.49313215884649253 -2.1774804083136416 0 0 0 0 41.424280333099887 7.2234417786658014 0 7.2234417786658014 -2.3350605473733594 0 0 0 0 35.514860535459157 1.9199825391576404 0 1.9199825391576404 -6.5264833615119713 0 0 0 0 70.711825046600097 -20.526415273642669 0 -20.526415273642669 -22.037865637287268 0 0 0 0 37.410984472488053 2.4291330725127409 0 2.4291330725127409 0.87875108024491055 0 0 0 0 37.147097833091721 3.9397690677246828 0 3.9397690677246828 5.9156588617079251 0 0 0 0 36.828400966387562 5.8864635058680506 0 5.8864635058680506 -0.81250534001264896 0 0 0 0 37.293003501303986 0.29371932270755963 0 0.29371932270755963 -7.7551855466767634 0 0 0 0 50.656016927660403 30.06183464086098 0 30.06183464086098 -49.993892630440314 0 0 0 0 491.1684739453849 5.2011355579084011 0 5.2011355579084011 -490.13189439225107 0 0 0 0 26.47214203762282 10.915707430007382 0 10.915707430007382 3.4262949554105795 0 0 0 0 43.198198652193241 3.0646057255917185 0 3.0646057255917185 -20.751991483022721 0 0 0 0 25.805017209415382 2.624944081558624 0 2.624944081558624 -6.1840608935017372 0 0 0 0 35.821403179961329 14.911589688763687 0 14.911589688763687 0.81356883986301298 0 0 0 0 37.71800910350521 5.5734086673473939 0 5.5734086673473939 -6.8804129009131429 0 0 0 0 43.894967578682554 -5.4984155593892865 0 -5.4984155593892865 -5.3757822383104212 0 0 0 0 37.181418193582431 -3.10601897388824 0 -3.10601897388824 7.8703533437301303 0 0 0 0 38.245509423610201 0.69656048906381329 0 0.69656048906381329 5.7467583492380072 0 0 0 0 37.127335881277759 -10.704187693391759 0 -10.704187693391759 9.2078383798234427 0 0 0 0 41.393478959907952 26.112501098999019 0 26.112501098999019 69.899326231949999 0 0 0 0 30.099824101429476 -41.964945920115497 0 -41.964945920115497 -16.171603015505752 0 0 0 0 594.37361945564589 -587.38521732295794 0 -587.38521732295794 235.73197532757104 0 0 0 0 10.493029388496574 2.8011622692304052 0 2.8011622692304052 0.87508427144839196 0 0 0 0 28.092842498102982 115.61276800633368 0 115.61276800633368 211.4063422539466 0 0 0 0 165.88648899167674 -226.26909596921587 0 -226.26909596921587 76.281269025723304 0 0 0 0 203.24411806368062 -228.71400311724813 0 -228.71400311724813 -1.0435055424536586 0 0 0 0 80.944186038925181 -177.29253689631889 0 -177.29253689631889 -13.07536300274603 0 0 0 0 398.5686211278562 -565.12785334357113 0 -565.12785334357113 405.16734258786823 0 0 0 0 182.08604691048367 -100.33866673303174 0 -100.33866673303174 -91.954730979646683 0 0 0 0 23.474444478533371 -7.8821534217214539 0 -7.8821534217214539 0.44565403912183843 0 0 0 0 120.10623884275265 39.081743170048981 0 39.081743170048981 26.291102813785756 0 0 0 0 256.17655297494639 246.03725159476039 0 246.03725159476039 163.37387699618102 0 0 0 0 799.31522942281026 445.86646219820403 0 445.86646219820403 233.4228080924986 0 0 0 0 8.1179801415162416 -3.3313931017760119 0 -3.3313931017760119 1.7154636084350763 0 0 0 0 29.442175547097577 -7.5617695702198944 0 -7.5617695702198944 10.292714659590274 0 0 0 0 2.7022932204931607 -0.38745071981201029 0 -0.38745071981201029 -1.3761505985132008 0 0 0 0 88.192947861899256 20.438279407417639 0 20.438279407417639 -18.386951139478697 0 0 0 0 83.371484922827904 -6.7237316291316915 0 -6.7237316291316915 -34.115099167319386 0 0 0 0 29.705287578014577 -14.972662116590982 0 -14.972662116590982 -7.7969281051614416 0 0 0 0 43.66585935067269 -11.752648451514915 0 -11.752648451514915 -36.589408185373941 0 0 0 0 27.251460095607371 -5.2806928220782989 0 -5.2806928220782989 -0.024657625131728533 0 0 0 0 43.060968078744281 85.28314098960584 0 85.28314098960584 -178.46738776638858 0 0 0 0 11.202068211788895 -0.21520838642258333 0 -0.21520838642258333 -10.8795778874759 0 0 0 0 45.177889126908667 -13.853578062142333 0 -13.853578062142333 -7.0669852165710836 0 0 0 0 45.927215845734281 -23.048078952897868 0 -23.048078952897868 -9.1257820003593224 0 0 0 0 1.817410523237335 0.41090585457927009 0 0.41090585457927009 -11.665861954770087 0 0 0 0 534.65884331708003 -74.058869415001936 0 -74.058869415001936 -181.79324642079524 0 0 0 0 -305.22052788791007 279.11799508126728 0 279.11799508126728 6.0098398284048926 0 0 0 0 657.34470758752263 314.16047065708426 0 314.16047065708426 -77.758336960663655 0 0 0 0 -107.04919984096523 -279.18910545064409 0 -279.18910545064409 471.73778542404443 0 0 0 0 21.679316931842095 -13.563661425189821 0 -13.563661425189821 -2.367657552824312 0 0 0 0 11.693914615774824 -7.5858428503505264 0 -7.5858428503505264 -17.458614237108549 0 0 0 0 55.384646515764871 -22.148827845896449 0 -22.148827845896449 -9.0749385659946711 0 0 0 0 42.348097151226284 -13.950105435418664 0 -13.950105435418664 -10.071320784078125 0 0 0 0 18.240616650177685 -18.911942414086298 0 -18.911942414086298 -9.3533926307100046 0 0 0 0 12.362653047805907 -7.2102732222469967 0 -7.2102732222469967 -8.1051088330289076 0 0 0 0 18.432564361968616 7.4047947895514881 0 7.4047947895514881 4.4412790984006278 0 0 0 0 8.0875234845689512 -3.8806385357694886 0 -3.8806385357694886 -5.3740738703163871 0 0 0 0 18.591427458816725 9.0290017672477916 0 9.0290017672477916 -13.037186221429693 0 0 0 0 3.9155546213155503 -4.6691380483298417 0 -4.6691380483298417 4.9624734522094514 0 0 0 0 -2.5980884739365138 22.293648859703353 0 22.293648859703353 47.24362931451833 0 0 0 0 7.0077707432796199 4.4710984848293531 0 4.4710984848293531 0.17116371469878544 0 0 0 0 0.91099153949401002 0.62255785981625067 0 0.62255785981625067 -2.2292875207489899 0 0 0 0 -164.8094791510473 137.09685508091206 0 137.09685508091206 190.99172298413396 0 0 0 0 351.97198635436143 -112.99444052036961 0 -112.99444052036961 0.80368626816562028 0 0 0 0 322.10216896047859 -220.18458397582253 0 -220.18458397582253 39.596858399068878 0 0 0 0 1.6317527846570279 1.0604312217001528 0 1.0604312217001528 0.69720782478425747 0 0 0 0 219.58679444081122 -7.5143683266596781 0 -7.5143683266596781 -143.34393099224235 0 0 0 0 -9.0357457288564547 -243.76127757104587 0 -243.76127757104587 102.33992509748532 0 0 0 0 1.7954961758460439 0.94460330800700198 0 0.94460330800700198 -7.9371331083728194 0 0 0 0 349.66965232875032 -171.40564820369445 0 -171.40564820369445 3.5978688647628587 0 0 0 0 -146.2720488190098 73.628920189298697 0 73.628920189298697 94.78805518833542 0 0 0 0 -0.22091289713171136 90.168353911554732 0 90.168353911554732 -29.098184465359736 0 0 0 0 81.90345069200032 -121.76591384273797 0 -121.76591384273797 150.11436148794201 0 0 0 0 311.39648547415948 -47.232431637745321 0 -47.232431637745321 30.175185196213533 0 0 0 0 215.85970896801791 -139.83694076810207 0 -139.83694076810207 4.4587930940651859 0 0 0 0 112.5936082864294 -121.23357467282585 0 -121.23357467282585 107.7660046563833 0 0 0 0 93.915274849505749 51.23482002775927 0 51.23482002775927 114.24497324539533 0 0 0 0 0.14143928867215211 -0.48914905835897393 0 -0.48914905835897393 0.021663794883821197 0 0 0 0 179.1132164338444 -62.380096035648876 0 -62.380096035648876 -51.589537188723625 0 0 0 0 6.6111611600549622 -79.472677865043806 0 -79.472677865043806 -78.785810578989185 0 0 0 0 85.576238150256131 55.761097066061211 0 55.761097066061211 -93.698674824121554 0 0 0 0 48.824337176396853 -10.290233303709101 0 -10.290233303709101 -33.199928791178991 0 0 0 0 73.716069356046091 -19.774109841191603 0 -19.774109841191603 -57.537067283081342 0 0 0 0 162.5992793017017 -166.15554858181349 0 -166.15554858181349 89.349900890414574 0 0 0 0 118.59479167317431 -18.8678304818377 0 -18.8678304818377 60.409139222665544 0 0 0 0 -12.218548704363542 -209.46047641168434 0 -209.46047641168434 -195.69552835560535 0 0 0 0 399.2093858567174 -145.37783665000006 0 -145.37783665000006 -96.869349567306926 0 0 0 0 148.67210976320121 40.459266033692984 0 40.459266033692984 185.81813676873207 0 0 0 0 3.4017809681563915 -1.0908894183421394 0 -1.0908894183421394 -13.931896049832236 0 0 0 0 -37.47272817291821 55.424181924178811 0 55.424181924178811 -33.129432429677763 0 0 0 0 417.57753719582809 -91.15020223249121 0 -91.15020223249121 6.4751083986993763 0 0 0 0 3.6206968436569014 -22.916049782954815 0 -22.916049782954815 -17.651343364024797 0 0 0 0 2.0193788106416095 -0.70586682223535391 0 -0.70586682223535391 -2.8633041273898314 0 0 0 0 34.269629817404393 3.5058034643557221 0 3.5058034643557221 -52.427948979329813 0 0 0 0 80.178567702932924 -31.75347173935279 0 -31.75347173935279 -24.398305787425215 0 0 0 0 22.983357336624977 -27.111128798090249 0 -27.111128798090249 -14.640337045190336 0 0 0 0 1.6674584551929712 -7.6771404418528064 0 -7.6771404418528064 -11.97610620740436 0 0 0 0 73.131448061151332 -57.03461537604835 0 -57.03461537604835 -9.4441856868252216 0 0 0 0 16.910873599244724 -16.706495004419139 0 -16.706495004419139 -0.85932843651744406 0 0 0 0 52.066734306499711 -33.900491782832432 0 -33.900491782832432 10.716017827689029 0 0 0 0 16.204388094332899 -20.119876132765512 0 -20.119876132765512 -4.1986134757303262 0 0 0 0 39.596588016483338 -22.269376214819431 0 -22.269376214819431 -9.9119304579271557 0 0 0 0 -0.35564715015250936 -5.3587979045786946 0 -5.3587979045786946 -10.784694704741788 0 0 0 0 86.908192851095038 -87.530424998365049 0 -87.530424998365049 19.689590148234856 0 0 0 0 50.318606972747375 -51.662982822548884 0 -51.662982822548884 44.384070277816136 0 0 0 0 48.054312403620315 -21.822544304778603 0 -21.822544304778603 -212.27228596882014 0 0 0 0 46.94045401882866 -74.764623592769553 0 -74.764623592769553 -108.94698501709718 0 0 0 0 26.378861144176881 -118.27586932057693 0 -118.27586932057693 16.675080120736311 0 0 0 0 45.996427424422109 -111.65163764144199 0 -111.65163764144199 -75.679738696135701 0 0 0 0 69.575737359170489 -51.043002889713534 0 -51.043002889713534 -84.380308861364938 0 0 0 0 71.228529416040601 -56.154406264856334 0 -56.154406264856334 -54.98913275997802 0 0 0 0 45.531484226159591 -88.182920519325307 0 -88.182920519325307 32.382772946168188 0 0 0 0 134.2354570313255 1.3583942935983941 0 1.3583942935983941 -95.702529079108444 0 0 0 0 72.924923249694075 -63.656579918206262 0 -63.656579918206262 -69.433994379134674 0 0 0 0 110.90142257755815 -52.435981757653281 0 -52.435981757653281 -219.46693927476554 0 0 0 0 98.93189462697228 41.134278356051254 0 41.134278356051254 -123.46408340889684 0 0 0 0 72.254277383057342 14.499394067486719 0 14.499394067486719 -16.112279332061007 0 0 0 0 71.598843503956914 50.734190087898696 0 50.734190087898696 -79.025640578380262 0 0 0 0 53.467372676274863 -12.987522858536977 0 -12.987522858536977 10.068763870731345 0 0 0 0 87.336494895244982 -44.542738640949665 0 -44.542738640949665 50.678279257201211 0 0 0 0 97.111450419053654 -13.364603474972682 0 -13.364603474972682 -44.928190748089037 0 0 0 0 71.109859528661786 -54.845969173883645 0 -54.845969173883645 30.060353818298609 0 0 0 0 87.080355133412922 -57.925527295736174 0 -57.925527295736174 14.294438691715186 0 0 0 0 123.26053604130902 -73.974778402205629 0 -73.974778402205629 43.933087365732717 0 0 0 0 89.190845935185735 -47.964577810346782 0 -47.964577810346782 58.009447032232856 0 0 0 0 163.28465655550735 -44.021936285409538 0 -44.021936285409538 43.983383479823715 0 0 0 0 232.52254568621083 -126.83742101583994 0 -126.83742101583994 86.447064026879161 0 0 0 0 163.59209534076126 -45.739628545390588 0 -45.739628545390588 21.027872361252776 0 0 0 0 156.37180378660969 -30.075900706658103 0 -30.075900706658103 62.399870217544958 0 0 0 0 197.96492668739393 -82.122417631606368 0 -82.122417631606368 62.039845358076491 0 0 0 0 225.98137562570128 -40.547938734502168 0 -40.547938734502168 46.782840917680915 0 0 0 0 127.6427321344604 -1.4802983502286224 0 -1.4802983502286224 -10.10835720295654 0 0 0 0 121.03314732427361 -91.050895322701763 0 -91.050895322701763 50.707021458008967 0 0 0 0 159.78325982626177 -24.681683938711444 0 -24.681683938711444 -7.9520910932587867 0 0 0 0 13.607312645706315 -67.409056205308843 0 -67.409056205308843 8.7787418609896122 0 0 0 0 9.6814107371366163 67.374768158546459 0 67.374768158546459 -42.515783479946549 0 0 0 0 144.84292594616818 -23.322222335086735 0 -23.322222335086735 -138.18937871287562 0 0 0 0 29.741792620732667 152.10989291461783 0 152.10989291461783 -357.32579627872656 0 0 0 0 -102.06106114009935 140.34555506167089 0 140.34555506167089 -18.333852401274726 0 0 0 0 16.561477195079679 3.1001965871745423 0 3.1001965871745423 -1.3028193762319198 0 0 0 0 -202.00603807888501 103.59478082285659 0 103.59478082285659 -71.971461009636187 0 0 0 0 -4.4822582098635166 237.88715021746157 0 237.88715021746157 -45.392505924620053 0 0 0 0 28.907275055550599 253.42408205724223 0 253.42408205724223 -245.62002980939906 0 0 0 0 5.7629692093490172 0.58874986471536417 0 0.58874986471536417 -0.90529600627325379 0 0 0 0 42.48261155371074 63.198430461730823 0 63.198430461730823 -95.26323528688863 0 0 0 0 -11.211748085698673 70.089899924636484 0 70.089899924636484 -53.312532689022191 0 0 0 0 35.282534270591441 161.98556336549746 0 161.98556336549746 -160.08215032170119 0 0 0 0 -223.09708424429664 150.5974420298262 0 150.5974420298262 429.08347429631976 0 0 0 0 115.41846162430193 98.618196690287732 0 98.618196690287732 -119.19878624162016 0 0 0 0 219.84174564184286 111.65313695674013 0 111.65313695674013 -213.77388099428208 0 0 0 0 244.78865225428945 -3.9336991471554938 0 -3.9336991471554938 -221.26856098935184 0 0 0 0 152.2181056103027 153.34201357899656 0 153.34201357899656 -233.53541692460203 0 0 0 0 40.01598635092499 13.221162977147717 0 13.221162977147717 0.66523431577926218 0 0 0 0 377.61377459702817 -514.99528205293063 0 -514.99528205293063 -71.14976795356597 0 0 0 0 38.663037923466092 13.676949743825395 0 13.676949743825395 1.4376355358711983 0 0 0 0 144.11175764403333 99.28794811623959 0 99.28794811623959 -137.73373225035084 0 0 0 0 74.236215206541601 -80.119370740737395 0 -80.119370740737395 15.209159230080331 0 0 0 0 -20.429715470097563 227.15739790211956 0 227.15739790211956 -376.77602423083408 0 0 0 0 247.80355430131931 -83.270980204575608 0 -83.270980204575608 -4.365575718047694 0 0 0 0 165.99012708234022 88.287861779204604 0 88.287861779204604 53.591608494576576 0 0 0 0 -7.0888922747826655 176.90687140905834 0 176.90687140905834 -68.209341556182153 0 0 0 0 -82.521704704823605 65.329782149463426 0 65.329782149463426 71.291993891351012 0 0 0 0 -11.844387947960058 37.748792802976823 0 37.748792802976823 189.5655578194428 0 0 0 0 191.6979581097894 -72.423263521697208 0 -72.423263521697208 -55.982234094283967 0 0 0 0 0.80693040472909416 -0.66656204961136201 0 -0.66656204961136201 -0.38473369574255312 0 0 0 0 3.3328945755674795 43.197845488799885 0 43.197845488799885 -54.374090401914145 0 0 0 0 -45.281263031983144 39.388330038574395 0 39.388330038574395 42.035471083866469 0 0 0 0 1.5719034677757762 -1.6517762211520113 0 -1.6517762211520113 0.37307782094945541 0 0 0 0 28.26123765212833 -17.210077346447633 0 -17.210077346447633 -27.078755617407296 0 0 0 0 147.67891615655395 -260.01370633295755 0 -260.01370633295755 53.537956907298394 0 0 0 0 64.791628057483649 103.41314133039168 0 103.41314133039168 -32.95421628428403 0 0 0 0 32.787904620821735 8.7378160959478244 0 8.7378160959478244 -2.3107672329453912 0 0 0 0 44.721833336452619 -0.39681886901053076 0 -0.39681886901053076 -25.71934260049602 0 0 0 0 -23.130902010620048 -0.68119643178670231 0 -0.68119643178670231 48.652643141250792 0 0 0 0 0.84986839381417667 51.673972148801568 0 51.673972148801568 -28.548643196167177 0 0 0 0 22.982239055474565 -2.3546206502388713 0 -2.3546206502388713 -2.3038303081211779 0 0 0 0 3.3656020427811217 -6.1203642401772171 0 -6.1203642401772171 2.1975483485134433 0 0 0 0 -95.322611061297721 6.4905359795145614 0 6.4905359795145614 33.719011451450569 0 0 0 0 -89.432219419304602 -91.939789155348308 0 -91.939789155348308 69.25971004216467 0 0 0 0 7.0999535655046202 62.474119330483518 0 62.474119330483518 1.7279202143176917 0 0 0 0 -31.037451399033671 45.226445968429971 0 45.226445968429971 59.442137712367185 0 0 0 0 105.94854182252311 -78.924900751017617 0 -78.924900751017617 60.321331940715027 0 0 0 0 339.03773959309001 -222.33982741158047 0 -222.33982741158047 84.481853969602525 0 0 0 0 190.67325941606123 -27.759256034712962 0 -27.759256034712962 45.017089641303755 0 0 0 0 410.34842719519384 -120.65965537609418 0 -120.65965537609418 167.53050030518204 0 0 0 0 245.36523882717938 20.756601276064202 0 20.756601276064202 104.45617725383545 0 0 0 0 249.2444907714962 -209.66372603019886 0 -209.66372603019886 153.04416419120207 0 0 0 0 35.973312711309951 0.34877986158505969 0 0.34877986158505969 -5.0674166287601192 0 0 0 0 49.871504512062529 -50.297865293676296 0 -50.297865293676296 22.429733819727517 0 0 0 0 204.57157300792085 3.8289436486411432 0 3.8289436486411432 -402.64535886765225 0 0 0 0 9.9942921773490525 54.936083762258932 0 54.936083762258932 -153.17828656600068 0 0 0 0 49.810464000849606 -42.142896505432418 0 -42.142896505432418 24.378501796405544 0 0 0 0 51.339135030949365 -48.751175967872143 0 -48.751175967872143 5.7033197234868567 0 0 0 0 43.310208158385649 -131.74285827899075 0 -131.74285827899075 81.995937108370526 0 0 0 0 11.149369429679965 -9.6803091836974176 0 -9.6803091836974176 -4.8039723200557454 0 0 0 0 98.029509818959923 9.1087048456438424 0 9.1087048456438424 -221.40358229623646 0 0 0 0 104.36445638713485 -156.02347408522223 0 -156.02347408522223 -103.88683089855817 0 0 0 0 49.334680659922014 34.679899904493141 0 34.679899904493141 -54.234873172650509 0 0 0 0 47.125435848807683 -4.5472381697331912 0 -4.5472381697331912 -18.523216385026672 0 0 0 0 -18.165330520920179 14.072918626896353 0 14.072918626896353 -25.593987203848883 0 0 0 0 42.762891582968358 -22.448013315111076 0 -22.448013315111076 -12.913234552599818 0 0 0 0 66.141479289713971 -13.377753726810624 0 -13.377753726810624 -14.388083130081213 0 0 0 0 18.057958021512604 -36.419745524106929 0 -36.419745524106929 15.246870783575559 0 0 0 0 37.700181239519459 -20.452814056151283 0 -20.452814056151283 -4.3661313090865264 0 0 0 0 66.419510828898638 -9.5594562060978205 0 -9.5594562060978205 -7.9212861586784129 0 0 0 0 23.132018535187818 -9.6406367003251621 0 -9.6406367003251621 -5.6537267190828882 0 0 0 0 62.198566441416915 -18.894752066154979 0 -18.894752066154979 -4.915463735704634 0 0 0 0 46.642882270465634 -21.843811547786572 0 -21.843811547786572 1.9802633166236774 0 0 0 0 16.086203713119176 -5.7459714265178263 0 -5.7459714265178263 -9.5275422616468859 0 0 0 0 25.227481974505377 -5.0894162848576165 0 -5.0894162848576165 -4.1763185135255476 0 0 0 0 58.816995052810057 -36.362336799937111 0 -36.362336799937111 -8.6346146791765932 0 0 0 0 64.568002002684807 -21.169905633170856 0 -21.169905633170856 -19.572187325069535 0 0 0 0 5.5070028004729465 -102.50798076243336 0 -102.50798076243336 11.453918209610947 0 0 0 0 23.057126971448966 -16.590508603484828 0 -16.590508603484828 -15.847887506242396 0 0 0 0 58.969379225905342 -38.093917773288382 0 -38.093917773288382 -28.597853158662474 0 0 0 0 64.24172257198029 -19.618938087004153 0 -19.618938087004153 -28.618632072500986 0 0 0 0 64.252280673761106 -113.66614206459235 0 -113.66614206459235 129.33865636773044 0 0 0 0 53.433773906947408 -182.55560715282263 0 -182.55560715282263 -146.25544729571266 0 0 0 0 63.450743934177808 -81.454009551160198 0 -81.454009551160198 -117.73145517022749 0 0 0 0 0.62663490982706371 -0.087302846158006986 0 -0.087302846158006986 3.7731601552506788 0 0 0 0 5.6238147483049792 -9.3102531540433464 0 -9.3102531540433464 -12.782574756747518 0 0 0 0 -46.726405665637685 26.973513165195982 0 26.973513165195982 272.44972499738287 0 0 0 0 28.218489897464679 -27.102048515072966 0 -27.102048515072966 51.930080567606637 0 0 0 0 338.51057166712781 -196.44400699899779 0 -196.44400699899779 107.5311719046822 0 0 0 0 461.96815224430884 -178.83832749297017 0 -178.83832749297017 -204.85426988360268 0 0 0 0 -418.63311641528577 151.03349429880609 0 151.03349429880609 566.51363280244914 0 0 0 0 393.92505063383169 -576.25274272715978 0 -576.25274272715978 -255.64496171300198 0 0 0 0 372.80253343225195 -300.51760870656653 0 -300.51760870656653 -499.36175202042432 0 0 0 0 92.29863418547211 -383.76398241870447 0 -383.76398241870447 393.22075294223032 0 0 0 0 38.603086669143522 -113.21319761151062 0 -113.21319761151062 121.75913112037688 0 0 0 0 245.42879671660739 311.24295820282168 0 311.24295820282168 -318.56919202626887 0 0 0 0 68.746074976644479 -138.66223606677613 0 -138.66223606677613 2.9796779261669144 0 0 0 0 24.860035881385873 6.8448307015002108 0 6.8448307015002108 -0.28368460341371815 0 0 0 0 14.183772217482328 10.875493830921187 0 10.875493830921187 -23.187753975000305 0 0 0 0 24.129346405296687 -0.043226795543355845 0 -0.043226795543355845 -5.3319804111033875 0 0 0 0 112.20281082166912 -31.903095699042751 0 -31.903095699042751 -67.88511523014995 0 0 0 0 5.5118837474528846 10.973778232105815 0 10.973778232105815 -7.460641283764744 0 0 0 0 16.642240502242231 -0.83166549678949142 0 -0.83166549678949142 -1.2787548241230819 0 0 0 0 72.170782547911585 36.425374996840219 0 36.425374996840219 -45.88545207770278 0 0 0 0 105.67562840927349 -25.731375663282051 0 -25.731375663282051 8.9513588053650892 0 0 0 0 68.666339258459629 26.182333867582201 0 26.182333867582201 48.239061457324624 0 0 0 0 6.728486077299749 -31.058231438064468 0 -31.058231438064468 10.363777181965816 0 0 0 0 21.480919040142908 -26.68150539155431 0 -26.68150539155431 9.0330005288677739 0 0 0 0 49.784249613039719 -34.01742904796572 0 -34.01742904796572 -2.3526727614844276 0 0 0 0 54.378984976316133 -31.326698244670524 0 -31.326698244670524 -35.710950537450344 0 0 0 0 29.096033510915731 -2.7749617104618665 0 -2.7749617104618665 -12.536595583655981 0 0 0 0 18.56742525919617 -46.772719607000454 0 -46.772719607000454 -5.6508506325026246 0 0 0 0 39.977365036882546 -7.5193665528334446 0 -7.5193665528334446 -13.465076239650687 0 0 0 0 15.144180775775645 4.0862281768973832 0 4.0862281768973832 -2.0253301879787902 0 0 0 0 17.551580699848273 -3.3374630982766575 0 -3.3374630982766575 -5.2542624125917428 0 0 0 0 19.680772921681637 -3.6676317502656275 0 -3.6676317502656275 3.9069962528683391 0 0 0 0 19.32320236900523 -1.027899490823529 0 -1.027899490823529 -3.1202761030363035 0 0 0 0 14.307412682061113 -7.8651389877300062 0 -7.8651389877300062 -3.0206534556914946 0 0 0 0 17.730990689613463 -2.4582878183909997 0 -2.4582878183909997 0.82677146641026411 0 0 0 0 17.701117607433687 -5.3354183816285534 0 -5.3354183816285534 -2.6308307135055742 0 0 0 0 -38.780486654843571 -108.19177137645562 0 -108.19177137645562 -101.27627045429881 0 0 0 0 3.8872244821432744 -0.0097429168696976376 0 -0.0097429168696976376 -0.0075788090826929277 0 0 0 0 19.064770972623592 -12.364749625596687 0 -12.364749625596687 -13.994202003505961 0 0 0 0 49.456364471971028 9.7729763058623575 0 9.7729763058623575 -24.296220880514738 0 0 0 0 -35.347006841584516 -96.208702397961588 0 -96.208702397961588 -204.53406310884657 0 0 0 0 -2.6464196458473452 -50.694319780558999 0 -50.694319780558999 -240.91975343492686 0 0 0 0 -48.582306200798484 -125.16196684336614 0 -125.16196684336614 -55.144654051820908 0 0 0 0 3.8460691434807472 -5.4383522629919803 0 -5.4383522629919803 -1.5972195904814681 0 0 0 0 13.054836309602251 -14.504390017275 0 -14.504390017275 -18.606776759213972 0 0 0 0 14.940395420388086 33.363145993605031 0 33.363145993605031 12.384228797734977 0 0 0 0 109.16672982436285 -49.930279694159253 0 -49.930279694159253 6.0363863619404583 0 0 0 0 22.917770788464402 -8.6335434013070653 0 -8.6335434013070653 -10.686454504006164 0 0 0 0 -19.189702609633969 -88.575971310107207 0 -88.575971310107207 25.673095271480634 0 0 0 0 35.295333941223753 -17.434977409650518 0 -17.434977409650518 -0.97739250877066652 0 0 0 0 58.302774788378883 -25.799371366660353 0 -25.799371366660353 6.6999009069925251 0 0 0 0 -5.992454841081269 -6.3303508456755111 0 -6.3303508456755111 0.91991155569642302 0 0 0 0 57.786328850288555 -22.539447768539503 0 -22.539447768539503 -13.483997652986659 0 0 0 0 78.92284191109502 75.722922097045739 0 75.722922097045739 -157.39740529466781 0 0 0 0 -113.69435078544484 -119.45629744094595 0 -119.45629744094595 -0.078967975824923542 0 0 0 0 101.74493084810092 -316.83228261263184 0 -316.83228261263184 -88.414265259076274 0 0 0 0 -53.386597921708017 -207.1061712338751 0 -207.1061712338751 -144.01450366813671 0 0 0 0 -112.06570169690895 -107.81360808680483 0 -107.81360808680483 48.015877921522588 0 0 0 0 85.463703127468762 77.474737611997853 0 77.474737611997853 -6.6984240819728029 0 0 0 0 -28.804053713130997 -325.66192566344444 0 -325.66192566344444 -40.751714101713787 0 0 0 0 -49.554366808959458 -173.09347666656822 0 -173.09347666656822 -228.3090927045983 0 0 0 0 -75.621292240233743 2.9779309121195183 0 2.9779309121195183 123.45555515410319 0 0 0 0 168.75300637675537 74.167217733215921 0 74.167217733215921 17.758682328784289 0 0 0 0 31.867571523674997 8.14487874323288 0 8.14487874323288 18.557134148850992 0 0 0 0 51.760999207846908 -34.169486485193602 0 -34.169486485193602 -29.070640492387611 0 0 0 0 -36.124457277386682 -112.59740070290695 0 -112.59740070290695 -43.338678413491834 0 0 0 0 -65.403287744658883 -67.227189762182206 0 -67.227189762182206 -2.5981180918197424 0 0 0 0 5.4338257899398741 -72.99002612154311 0 -72.99002612154311 -37.005739078571423 0 0 0 0 -39.053906973349513 -95.121733343139113 0 -95.121733343139113 -110.04899657463307 0 0 0 0 -68.656514440161118 -49.473849484676521 0 -49.473849484676521 -80.506693032232988 0 0 0 0 -21.770251405625459 5.9966109333843178 0 5.9966109333843178 51.120886657165101 0 0 0 0 -154.40678994020982 -177.7997012880424 0 -177.7997012880424 -29.745334797665691 0 0 0 0 119.61443930671521 43.962180072199089 0 43.962180072199089 -2.3508450602079165 0 0 0 0 -0.52272294107269346 -0.40220702032926425 0 -0.40220702032926425 0.46456233926730306 0 0 0 0 -170.92370678235193 -80.170777875585003 0 -80.170777875585003 -0.22597006347677961 0 0 0 0 -34.767846475719125 -93.945490132442956 0 -93.945490132442956 -38.585361191881475 0 0 0 0 -48.596316023812506 -69.615702998539632 0 -69.615702998539632 15.539403435175245 0 0 0 0 -89.395461979573156 -99.102229448924504 0 -99.102229448924504 32.468461318088657 0 0 0 0 -91.186540995626274 -67.840805851407481 0 -67.840805851407481 13.978068401031578 0 0 0 0 -5.4574020471118274 -42.003828953883726 0 -42.003828953883726 -5.1012298089367505 0 0 0 0 -51.971414059917151 -104.7152516393794 0 -104.7152516393794 -73.9598751962194 0 0 0 0 -72.140957143434207 -49.392558227061159 0 -49.392558227061159 24.067096742586841 0 0 0 0 -35.974470728568122 -127.41448177651461 0 -127.41448177651461 29.375730261280296 0 0 0 0 -16.454737353771634 -70.988317524799982 0 -70.988317524799982 11.565890583594694 0 0 0 0 291.06740186958268 -35.729721490177951 0 -35.729721490177951 -35.705050345843063 0 0 0 0 165.22037818765966 -46.461156626455022 0 -46.461156626455022 4.2344117644858557 0 0 0 0 273.89079647546987 76.299578600777011 0 76.299578600777011 29.920240009026998 0 0 0 0 317.87433987460827 49.80388249957241 0 49.80388249957241 -18.884177806812886 0 0 0 0 215.07666447186057 27.082917798514472 0 27.082917798514472 -26.911178186167945 0 0 0 0 204.47642240565801 46.019566751337436 0 46.019566751337436 -8.8159448927995072 0 0 0 0 94.404168765342547 -45.530891468087702 0 -45.530891468087702 -14.816702098467204 0 0 0 0 87.079322286339448 -36.546656022737125 0 -36.546656022737125 4.7560113397912573 0 0 0 0 356.46387642340051 -229.42886298532255 0 -229.42886298532255 47.639989541816249 0 0 0 0 352.30010416788264 -295.273556766664 0 -295.273556766664 365.94823515736425 0 0 0 0 423.87345384568653 -373.37246670046011 0 -373.37246670046011 206.12744169545101 0 0 0 0 336.23235038231542 -243.39016909555983 0 -243.39016909555983 25.573488423709023 0 0 0 0 593.65086351717764 -404.34918205357076 0 -404.34918205357076 96.200070710474279 0 0 0 0 121.8161030385254 -226.46902886974931 0 -226.46902886974931 327.99222261072987 0 0 0 0 506.71972843113531 -51.03085182327311 0 -51.03085182327311 -64.591426920831964 0 0 0 0 -0.93803613160422827 -5.8065587882472016 0 -5.8065587882472016 2.4353579951643924 0 0 0 0 -122.11807431494162 -35.293059476668532 0 -35.293059476668532 277.38208566331014 0 0 0 0 8.4262447246986412 -15.655781134698707 0 -15.655781134698707 -5.2316029486980575 0 0 0 0 118.43713611291832 59.42619586702574 0 59.42619586702574 -1.4022505150755933 0 0 0 0 53.938494156553134 -50.977453335409791 0 -50.977453335409791 -24.735731814230803 0 0 0 0 18.429007215770298 -9.1653155624861604 0 -9.1653155624861604 -1.1476498377593627 0 0 0 0 15.680429139261832 -10.474883929320185 0 -10.474883929320185 -5.3958548518613725 0 0 0 0 6.6626677685190021 -6.7964843732796645 0 -6.7964843732796645 0.010086005240848905 0 0 0 0 126.18336995119421 -62.025035682704598 0 -62.025035682704598 -16.874341460621508 0 0 0 0 -29.204713301967786 -40.635572171677609 0 -40.635572171677609 26.418602503196325 0 0 0 0 27.846598187752534 4.3119731508047607 0 4.3119731508047607 -32.877959662658782 0 0 0 0 -10.582666549482383 -56.863123488952624 0 -56.863123488952624 26.643341237089317 0 0 0 0 -12.273653726882749 -14.340509113784403 0 -14.340509113784403 -5.879789172449712 0 0 0 0 -51.680418847951387 -4.038165334737414 0 -4.038165334737414 -8.7795401594521536 0 0 0 0 -34.688648562507296 -28.834822407407501 0 -28.834822407407501 13.680627732129324 0 0 0 0 -10.571441848422989 -29.403271958713674 0 -29.403271958713674 -13.557236801509134 0 0 0 0 -15.785598513812147 -10.536516281425179 0 -10.536516281425179 -20.611477554687553 0 0 0 0 578.36673645563496 -484.03768022864949 0 -484.03768022864949 273.12318067344188 0 0 0 0 -57.519141709595715 -43.901473259192016 0 -43.901473259192016 -4.9322964587366016 0 0 0 0 62.632836721288186 -236.26708623220202 0 -236.26708623220202 540.96414568687146 0 0 0 0 417.41258521875352 -253.94206268969958 0 -253.94206268969958 508.53410552025957 0 0 0 0 685.57481028981965 -271.0484720306323 0 -271.0484720306323 154.9621409760133 0 0 0 0 750.75731633967735 -656.1541399669469 0 -656.1541399669469 335.54096245812525 0 0 0 0 1032.9351246204315 -476.09893791789432 0 -476.09893791789432 -73.293493287145793 0 0 0 0 -6.7163637712889841 -1.6983200412975918 0 -1.6983200412975918 3.0963850823545283 0 0 0 0 548.14968165735627 -125.41434700227819 0 -125.41434700227819 -218.11632962274598 0 0 0 0 678.03895346366335 -516.56261964152327 0 -516.56261964152327 165.61897578184085 0 0 0 0 722.21950435386498 -513.25528193170305 0 -513.25528193170305 114.39076889564467 0 0 0 0 669.42636396805619 -209.46915231609694 0 -209.46915231609694 129.23024538491791 0 0 0 0 211.18739864169675 -154.81152293794287 0 -154.81152293794287 269.35156134071076 0 0 0 0 458.07506762518096 -282.49464346048649 0 -282.49464346048649 65.243549491425711 0 0 0 0 278.24468069224167 -91.965944176334915 0 -91.965944176334915 29.59213779061497 0 0 0 0 -2.1228443883622461 1.5276223037306915 0 1.5276223037306915 1.2031584317013977 0 0 0 0 10.922718282976142 20.751992843275076 0 20.751992843275076 -10.127773777419288 0 0 0 0 177.14136309636888 43.701732882142778 0 43.701732882142778 -17.965841492713139 0 0 0 0 -26.516980092963422 57.746226525039219 0 57.746226525039219 49.970943628314899 0 0 0 0 150.88418512949829 -96.515268762651147 0 -96.515268762651147 42.974671633661501 0 0 0 0 -30.753400075387617 19.990607391416063 0 19.990607391416063 29.8750669330243 0 0 0 0 418.60518799190686 -156.96013273316572 0 -156.96013273316572 88.596966685800908 0 0 0 0 213.71297717454399 -12.001822632775088 0 -12.001822632775088 116.34590539522326 0 0 0 0 161.45905671620153 -63.62267257176299 0 -63.62267257176299 143.72980979161389 0 0 0 0 193.04789621194504 -135.37933748212936 0 -135.37933748212936 260.00147421950732 0 0 0 0 293.98008351806857 -64.731795298546103 0 -64.731795298546103 39.088827002090056 0 0 0 0 467.47261019719554 -366.31014627945603 0 -366.31014627945603 272.75594137966164 0 0 0 0 343.21255394394393 -220.87422232267275 0 -220.87422232267275 188.38176160121247 0 0 0 0 467.60401923899371 -539.17488974693856 0 -539.17488974693856 448.17146122609267 0 0 0 0 430.60999338939655 -405.48714437713591 0 -405.48714437713591 232.42614111222616 0 0 0 0 344.65675021023526 -305.05705473090336 0 -305.05705473090336 267.3488117482384 0 0 0 0 184.19300585424571 -127.01776466095953 0 -127.01776466095953 -61.529858774179729 0 0 0 0 73.994351501836718 -38.474682950747365 0 -38.474682950747365 223.9115129257234 0 0 0 0 -73.128619014896685 -57.740080735403353 0 -57.740080735403353 -79.935623051805123 0 0 0 0 8.3576708376058377 36.868099034853003 0 36.868099034853003 -105.60275749153334 0 0 0 0 106.93408616423403 -12.883184762957171 0 -12.883184762957171 -81.344583135191897 0 0 0 0 121.59227336461299 -10.952583827252965 0 -10.952583827252965 82.117596180466307 0 0 0 0 132.45585011433445 63.110836869978698 0 63.110836869978698 -43.629994290358809 0 0 0 0 146.2562610295297 52.02868229125113 0 52.02868229125113 -53.571055684182284 0 0 0 0 112.98678390952045 60.614297243879264 0 60.614297243879264 -67.594723559992417 0 0 0 0 10.28834241416793 18.019621019891552 0 18.019621019891552 -22.73236225566076 0 0 0 0 33.459130071656546 3.4321269671740566 0 3.4321269671740566 -6.7176341561938102 0 0 0 0 110.68824897126433 53.516193840110191 0 53.516193840110191 -46.404176488322264 0 0 0 0 423.53452177500367 333.26472568220663 0 333.26472568220663 728.72582576328853 0 0 0 0 1104.1535864179314 54.513008218085815 0 54.513008218085815 8.580032600371851 0 0 0 0 359.66724357932981 94.73596195622892 0 94.73596195622892 241.01994223518966 0 0 0 0 342.77404900314286 70.050147235499367 0 70.050147235499367 28.614101200590653 0 0 0 0 368.20803482666815 168.70211451772678 0 168.70211451772678 205.2665381932961 0 0 0 0 207.70682947882597 -220.95867179676321 0 -220.95867179676321 27.14428541861713 0 0 0 0 515.86915609962307 -0.82468469242806464 0 -0.82468469242806464 -58.588750074391442 0 0 0 0 -171.98983523899733 -163.06436253301683 0 -163.06436253301683 30.541949523660595 0 0 0 0 144.42261830202824 -180.95359990519108 0 -180.95359990519108 9.5766383761985026 0 0 0 0 -23.107748219794303 -102.58070108252591 0 -102.58070108252591 -123.25810839902175 0 0 0 0 -13.269273665318906 -56.637661160874387 0 -56.637661160874387 22.958498075642179 0 0 0 0 -9.8808655130933332 -8.2922634995094242 0 -8.2922634995094242 -2.265412589228855 0 0 0 0 -272.49215299342904 14.103785738015487 0 14.103785738015487 19.800504240282731 0 0 0 0 384.48952448380078 -220.55580309410516 0 -220.55580309410516 421.10013424417741 0 0 0 0 712.56098107445905 -935.95751544333007 0 -935.95751544333007 684.40524170528079 0 0 0 0 -1.9943813421257346 -2.525290855784192 0 -2.525290855784192 -1.7130318463437302 0 0 0 0 -1063.3604819509455 461.09480432937835 0 461.09480432937835 224.66871106502316 0 0 0 0 -665.61358038726667 -982.15768730620493 0 -982.15768730620493 1051.7781493132575 0 0 0 0 -414.02968688037072 -76.475746881034866 0 -76.475746881034866 505.26429225678658 0 0 0 0 902.12804558857897 175.31813595130939 0 175.31813595130939 -17.546512999429865 0 0 0 0 8.308080417301781 -7.9949337887257244 0 -7.9949337887257244 8.1389302807463899 0 0 0 0 -319.29262364684837 -178.67915283397178 0 -178.67915283397178 594.58857665353571 0 0 0 0 -220.75533876132977 -432.95527243370634 0 -432.95527243370634 811.41118885081187 0 0 0 0 321.31301835647537 -222.80205401453168 0 -222.80205401453168 -73.85123547353578 0 0 0 0 206.23503092292231 -416.13578455475817 0 -416.13578455475817 401.72953856199092 0 0 0 0 -166.84062699671631 34.66521162897061 0 34.66521162897061 49.582227277493985 0 0 0 0 252.61556933027896 -3.1481711592914507 0 -3.1481711592914507 -316.92203535217413 0 0 0 0 20.444510908375378 -369.79865454344326 0 -369.79865454344326 -320.02893653960746 0 0 0 0 163.95389603324656 -349.99056466412935 0 -349.99056466412935 262.41731563816165 0 0 0 0 22.478436324006474 -19.491432376166173 0 -19.491432376166173 16.27757460932564 0 0 0 0 287.05691113587818 -99.092558272385304 0 -99.092558272385304 278.4353283972485 0 0 0 0 -429.80895144663737 109.69504836021747 0 109.69504836021747 361.31643138428376 0 0 0 0 565.32664476512582 321.98498514984294 0 321.98498514984294 -78.019733274887813 0 0 0 0 516.67107386483258 162.88076945455106 0 162.88076945455106 -85.891495150210631 0 0 0 0 979.76802844018675 95.300559851220214 0 95.300559851220214 -110.18928225872037 0 0 0 0 316.6133697225232 417.73177592335799 0 417.73177592335799 -61.019490050647335 0 0 0 0 653.63622975729959 81.159665355343805 0 81.159665355343805 -37.270103926962065 0 0 0 0 680.78325270573259 -74.337475243189715 0 -74.337475243189715 -97.5100003328713 0 0 0 0 709.93985391987735 -6.2052932164969548 0 -6.2052932164969548 -44.396907916500822 0 0 0 0 544.64185323497077 -308.50521208752991 0 -308.50521208752991 825.93491514394009 0 0 0 0 1214.9180048059716 -311.32353092361473 0 -311.32353092361473 134.85748286803073 0 0 0 0 763.69817484964551 -107.76842089490515 0 -107.76842089490515 88.650914261808339 0 0 0 0 320.26076482995995 47.497446267111911 0 47.497446267111911 286.17603585035283 0 0 0 0 314.45140879103201 15.939822796706437 0 15.939822796706437 -8.8433574470767553 0 0 0 0 597.0299444475404 -198.71728089317591 0 -198.71728089317591 152.70445450765897 0 0 0 0 286.67340640565453 -111.3447771927265 0 -111.3447771927265 -62.399645644836824 0 0 0 0 61.491666077901755 -100.64629909993982 0 -100.64629909993982 108.49550414072758 0 0 0 0 -50.885888171666011 -0.33211775785866848 0 -0.33211775785866848 19.757936008614251 0 0 0 0 -77.219644442637218 -331.49972221203427 0 -331.49972221203427 -287.30656823643255 0 0 0 0 257.36201504751443 -205.80091365722799 0 -205.80091365722799 109.11823937784546 0 0 0 0 117.82943797234839 88.53733134285234 0 88.53733134285234 330.24084415235103 0 0 0 0 213.68188604083116 -5.3380005478938131 0 -5.3380005478938131 377.28072824942495 0 0 0 0 220.70609982691894 57.133332561169794 0 57.133332561169794 99.56099355639121 0 0 0 0 3.7141685580940589 -2.6573832390256769 0 -2.6573832390256769 1.7184725847229247 0 0 0 0 554.59385742131781 157.89155265114363 0 157.89155265114363 -91.72075129510786 0 0 0 0 -133.47587575100988 -38.054459056823589 0 -38.054459056823589 39.389198665035792 0 0 0 0 -192.06970086730917 -372.2380303257799 0 -372.2380303257799 174.92982380456328 0 0 0 0 3.225805098652927 -302.13124937941342 0 -302.13124937941342 197.91622213351835 0 0 0 0 -55.151978708086972 -256.78141099188497 0 -256.78141099188497 297.58624364599416 0 0 0 0 2.4873904335006216 -1.6790169054730626 0 -1.6790169054730626 1.0299465210115351 0 0 0 0 42.661344489926705 47.18712113210637 0 47.18712113210637 72.710269661397774 0 0 0 0 303.29823006013976 103.5909156249071 0 103.5909156249071 13.547052118069246 0 0 0 0 6.3846384461582488 -3.0388398719712342 0 -3.0388398719712342 1.2208880620203351 0 0 0 0 64.399218668736921 -15.793407220260903 0 -15.793407220260903 -19.013806953967446 0 0 0 0 264.35515992468936 155.10781334634464 0 155.10781334634464 358.67246467589484 0 0 0 0 199.65869633723196 60.733180126615565 0 60.733180126615565 221.18268225229605 0 0 0 0 222.57396143889491 1.606359167273979 0 1.606359167273979 370.24316700383292 0 0 0 0 329.79769937031233 70.596977951383792 0 70.596977951383792 19.983721378424093 0 0 0 0 347.2197117155074 -46.342004773808313 0 -46.342004773808313 161.17024975443428 0 0 0 0 296.2611172494253 79.463941716093871 0 79.463941716093871 216.61506852370974 0 0 0 0 337.3702674683509 80.649899416847092 0 80.649899416847092 -36.907297509198997 0 0 0 0 301.77396037549261 115.52825515084635 0 115.52825515084635 -9.9756150203397738 0 0 0 0 337.1415291698795 68.71390178500269 0 68.71390178500269 -37.60504460019699 0 0 0 0 277.08352604120591 69.226069613224126 0 69.226069613224126 23.394767839305985 0 0 0 0 274.96137384911617 64.256091222494788 0 64.256091222494788 18.698067899456987 0 0 0 0 108.45830100987587 -20.486588546335554 0 -20.486588546335554 67.581239804984762 0 0 0 0 349.34183052839217 -4.1123771397765267 0 -4.1123771397765267 2.1031574322556708 0 0 0 0 133.0556306628132 25.368572900521144 0 25.368572900521144 13.114627084293375 0 0 0 0 146.45333038813806 -59.715060570352819 0 -59.715060570352819 20.324024142256349 0 0 0 0 149.16720697688106 -49.282725548877522 0 -49.282725548877522 43.687115069958509 0 0 0 0 63.171641429886222 -14.142654072414189 0 -14.142654072414189 71.070816893956817 0 0 0 0 20.052434997720411 -48.722538318259467 0 -48.722538318259467 46.006624711855693 0 0 0 0 -61.59410751847463 -79.025566952964709 0 -79.025566952964709 17.379226822358305 0 0 0 0 146.95419915311868 -124.90807362999658 0 -124.90807362999658 17.866809848663252 0 0 0 0 224.99256516406058 -48.219145924600184 0 -48.219145924600184 12.132908231461442 0 0 0 0 601.20291003254169 -226.73560038505548 0 -226.73560038505548 -131.97620286158588 0 0 0 0 765.68599061133864 252.38530311766976 0 252.38530311766976 25.79833264384979 0 0 0 0 169.40318876936362 -48.698435837104398 0 -48.698435837104398 135.57517075811256 0 0 0 0 334.83250265163588 265.85991923444726 0 265.85991923444726 142.79589857712199 0 0 0 0 175.27448314756657 68.702721016311273 0 68.702721016311273 -5.2028224732475792 0 0 0 0 342.8304592403656 55.908112282387719 0 55.908112282387719 -65.608374271873572 0 0 0 0 460.86897465192487 62.260788526812689 0 62.260788526812689 -86.999256013718878 0 0 0 0 12.885244563236483 -52.115576972622989 0 -52.115576972622989 41.86408914284948 0 0 0 0 81.097146422245714 -72.899376930003086 0 -72.899376930003086 -26.956822874261263 0 0 0 0 16.720494047496913 41.618154789065777 0 41.618154789065777 9.1205011924853352 0 0 0 0 22.050724011369766 -7.8888207993028843 0 -7.8888207993028843 -66.047496504583705 0 0 0 0 71.197494009462389 51.524129800839887 0 51.524129800839887 -25.296677300116926 0 0 0 0 0.6986682086989191 -0.65807434695164346 0 -0.65807434695164346 0.19310789574529696 0 0 0 0 109.36940345231415 -27.83877450789646 0 -27.83877450789646 -63.082296866543857 0 0 0 0 59.695261610009766 -37.279699146955409 0 -37.279699146955409 -22.339526479813685 0 0 0 0 31.749106004055648 -20.599521310875048 0 -20.599521310875048 62.824224222995781 0 0 0 0 68.90463946761156 -6.6271172764996891 0 -6.6271172764996891 60.483039166573832 0 0 0 0 83.038210458473031 -47.164737676106931 0 -47.164737676106931 38.090988752738212 0 0 0 0 83.812753445277053 -23.593191974761854 0 -23.593191974761854 78.389808557215019 0 0 0 0 81.762608041422936 -75.236825384500207 0 -75.236825384500207 74.392558171790142 0 0 0 0 10.916455663616944 -26.358145140936585 0 -26.358145140936585 79.836657991966092 0 0 0 0 -18.853151781775523 4.0818990848661656 0 4.0818990848661656 63.837087929721207 0 0 0 0 58.360969118213688 10.914750921752841 0 10.914750921752841 63.573683735450686 0 0 0 0 -31.301808066498779 30.865151798642273 0 30.865151798642273 72.030329532049336 0 0 0 0 33.076456866212538 -38.864855171433362 0 -38.864855171433362 -1.3521294020499113 0 0 0 0 35.789739779462252 -72.053476984393399 0 -72.053476984393399 124.24749266530353 0 0 0 0 1.7702263781216505 0.23809469129928118 0 0.23809469129928118 0.32862952259056044 0 0 0 0 98.435333645771607 -129.05165282724465 0 -129.05165282724465 180.82932054797368 0 0 0 0 1.1519242624916046 0.31386813662114932 0 0.31386813662114932 0.21602958375253989 0 0 0 0 191.82116815457266 -124.12261607181063 0 -124.12261607181063 140.37641077863577 0 0 0 0 128.12016472636606 -40.063843151747619 0 -40.063843151747619 41.692331261200252 0 0 0 0 79.630993562884214 -53.872764122887986 0 -53.872764122887986 102.41771362023837 0 0 0 0 81.185342082196257 22.105206977803846 0 22.105206977803846 70.827232316011759 0 0 0 0 61.335722695792356 -17.185706877024586 0 -17.185706877024586 109.97300207582475 0 0 0 0 180.12929742013421 10.290732834051902 0 10.290732834051902 107.86432770713554 0 0 0 0 97.238540084137639 -28.236404505293763 0 -28.236404505293763 170.94297766549209 0 0 0 0 96.271606268077676 -8.1492197252856897 0 -8.1492197252856897 82.120444135832258 0 0 0 0 185.59462466996774 -62.822995681803036 0 -62.822995681803036 82.806015465701648 0 0 0 0 129.75936415292381 -5.9705180383597849 0 -5.9705180383597849 25.11726142977659 0 0 0 0 87.469832844264602 -25.990625604765285 0 -25.990625604765285 97.784240119527112 0 0 0 0 112.73449598935258 19.436030533083624 0 19.436030533083624 31.456078169365014 0 0 0 0 0.61884983806186344 3.3984453146637961 0 3.3984453146637961 0.61448776805181549 0 0 0 0 216.97447008250674 48.297509830550666 0 48.297509830550666 -18.626274611871281 0 0 0 0 139.08398244320779 16.59755365631122 0 16.59755365631122 2.6462243679337689 0 0 0 0 131.11363689880818 0.35073660400314566 0 0.35073660400314566 28.668095688420408 0 0 0 0 95.337838398387248 21.409360365484048 0 21.409360365484048 22.683184846102733 0 0 0 0 -26.618242709280594 44.910271887314295 0 44.910271887314295 -51.676363215296988 0 0 0 0 7.5078198818131199 -2.8256525114595199 0 -2.8256525114595199 1.0995731469770096 0 0 0 0 82.02020939567592 117.96618106729863 0 117.96618106729863 -11.924590480898758 0 0 0 0 345.68254831788363 43.137840920206045 0 43.137840920206045 -73.138074779506894 0 0 0 0 45.935265196469118 -100.60044614022502 0 -100.60044614022502 -142.02488691333559 0 0 0 0 25.065620262997982 58.431337293319345 0 58.431337293319345 322.54383795216074 0 0 0 0 -204.93568796595355 19.282436616051882 0 19.282436616051882 169.73990774915433 0 0 0 0 11.719439767861331 -12.212860027948892 0 -12.212860027948892 -24.81553746224526 0 0 0 0 168.75213179011917 -78.545791623000696 0 -78.545791623000696 -126.26598881622732 0 0 0 0 518.85424497393979 -282.86723031668646 0 -282.86723031668646 82.690022296450792 0 0 0 0 175.69579452704465 -24.488676705821458 0 -24.488676705821458 -81.553479093448715 0 0 0 0 131.11859596494105 38.845150416642454 0 38.845150416642454 13.624549886662294 0 0 0 0 184.21249525437952 51.621874454002224 0 51.621874454002224 6.5901893742047832 0 0 0 0 -0.26231091707794896 2.598114452806854 0 2.598114452806854 2.2194892840523583 0 0 0 0 141.70142219614354 19.953929468485512 0 19.953929468485512 3.2812105401986855 0 0 0 0 98.380143562029843 44.259256425860272 0 44.259256425860272 64.104066055378809 0 0 0 0 74.852981325133442 63.373711397179775 0 63.373711397179775 26.795057248733016 0 0 0 0 0.04631910947183826 0.090577188364861172 0 0.090577188364861172 0.2500288202009886 0 0 0 0 97.787410394098288 3.8169649522683882 0 3.8169649522683882 20.799038780613046 0 0 0 0 55.336392150828033 2.6103116139658376 0 2.6103116139658376 -7.7190505071306426 0 0 0 0 401.41988850447888 103.0594395104176 0 103.0594395104176 -29.182719710404172 0 0 0 0 55.199240891234695 35.626145872332287 0 35.626145872332287 11.240866954562492 0 0 0 0 -0.40901465385098845 0.45147218451283777 0 0.45147218451283777 0.11881472672484986 0 0 0 0 235.12217637393042 96.453551115978428 0 96.453551115978428 220.61476809664148 0 0 0 0 63.964050420045169 12.713674404216903 0 12.713674404216903 -8.0790992512389295 0 0 0 0 22.802010738181707 12.731494572176651 0 12.731494572176651 20.760500493244663 0 0 0 0 40.552701865010022 1.978882538536844 0 1.978882538536844 -0.84928446153249126 0 0 0 0 44.721649093342421 1.4791082037765122 0 1.4791082037765122 -17.520332052083376 0 0 0 0 46.762438136742276 15.665959509773664 0 15.665959509773664 1.2906948895488455 0 0 0 0 33.794388029426045 -2.885316167717896 0 -2.885316167717896 -9.549953299656039 0 0 0 0 17.546032949514483 -14.668774856795473 0 -14.668774856795473 -8.8901294530313351 0 0 0 0 31.889724805208971 13.095267796738511 0 13.095267796738511 6.6599308208666343 0 0 0 0 32.091630958151654 -3.0051131059086629 0 -3.0051131059086629 -7.8358045521724122 0 0 0 0 13.50201733961876 2.5571398760601625 0 2.5571398760601625 -6.1671920496450241 0 0 0 0 30.555119718897913 5.4504731193001845 0 5.4504731193001845 -7.1431029980740277 0 0 0 0 17.117903918455028 -0.6070887546073287 0 -0.6070887546073287 -0.49788427703567639 0 0 0 0 27.746115978226953 -2.883090158613399 0 -2.883090158613399 -25.099905982215347 0 0 0 0 39.0384230100899 29.689425887511959 0 29.689425887511959 -61.540481326783357 0 0 0 0 17.139309533478809 -4.0711963848265782 0 -4.0711963848265782 -9.5797915409231962 0 0 0 0 714.03443810770477 93.133385310588281 0 93.133385310588281 12.980507922712718 0 0 0 0 2.8299580999578922 -0.75876308605184306 0 -0.75876308605184306 1.3256698368496505 0 0 0 0 257.6550875807734 352.55156937468354 0 352.55156937468354 389.99746053204626 0 0 0 0 1.2949318239062393 0.29566413930356994 0 0.29566413930356994 0.19260349074418565 0 0 0 0 14.056371092724973 -1.1756391911220314 0 -1.1756391911220314 -0.4066537891104689 0 0 0 0 19.696858129129396 15.556839131270578 0 15.556839131270578 -9.1584020473190648 0 0 0 0 86.269001489024959 8.0148710003906558 0 8.0148710003906558 -80.337854758542179 0 0 0 0 -0.16412860678420316 2.0055405011911631 0 2.0055405011911631 -1.0807954530942037 0 0 0 0 23.881729971049936 11.679858008702737 0 11.679858008702737 -6.1953470399957027 0 0 0 0 155.7862253893054 116.58785790064464 0 116.58785790064464 85.23783938453083 0 0 0 0 22.142700336960843 5.250359903367638 0 5.250359903367638 9.9336728444197462 0 0 0 0 191.16923450415197 171.39063004751804 0 171.39063004751804 8.5045563157805439 0 0 0 0 210.86514826535858 135.05612360581802 0 135.05612360581802 21.986954992854919 0 0 0 0 318.54768076407345 196.2443717563211 0 196.2443717563211 56.436930635970896 0 0 0 0 128.02079343933656 163.57143696532117 0 163.57143696532117 219.53612101039198 0 0 0 0 612.62880776977545 262.62402029669477 0 262.62402029669477 68.570125296215295 0 0 0 0 339.20599986504385 141.1307779021723 0 141.1307779021723 14.871321493408743 0 0 0 0 428.74368957164552 154.6158804987673 0 154.6158804987673 -34.814902925363015 0 0 0 0 303.74336968618536 78.587364554051646 0 78.587364554051646 -81.052831020338402 0 0 0 0 192.30746319021273 89.420503714944445 0 89.420503714944445 -41.290298828431361 0 0 0 0 300.82112547847305 139.5257772523305 0 139.5257772523305 -21.954538016665214 0 0 0 0 227.86471750275086 77.398702914576688 0 77.398702914576688 -37.471741768832047 0 0 0 0 265.09234844752791 11.957350120656031 0 11.957350120656031 -130.67392182625014 0 0 0 0 367.4993191868125 78.924216748067323 0 78.924216748067323 -90.316123619953856 0 0 0 0 108.47558190728159 274.20976068070303 0 274.20976068070303 133.85420665588276 0 0 0 0 81.829253277486714 200.37213062967177 0 200.37213062967177 13.15876970413429 0 0 0 0 168.71690740923805 148.77722067617361 0 148.77722067617361 43.535709146946886 0 0 0 0 -45.246848756170948 77.204125398464157 0 77.204125398464157 58.83091671246126 0 0 0 0 34.592662337410729 108.48498850799643 0 108.48498850799643 52.175916258341857 0 0 0 0 -63.813119997030299 143.29760105847231 0 143.29760105847231 104.86118604062534 0 0 0 0 -11.115556856559124 187.29805016364858 0 187.29805016364858 139.67257018399647 0 0 0 0 0.13496314963788247 0.76728255334401751 0 0.76728255334401751 1.1898843273290638 0 0 0 0 -62.472841354177945 -120.86078925433048 0 -120.86078925433048 -56.01935397597282 0 0 0 0 -167.99713119642274 7.6606863713705131 0 7.6606863713705131 91.478598782280642 0 0 0 0 127.21162753032695 7.7427337145339692 0 7.7427337145339692 -25.285128852946087 0 0 0 0 116.22784835759376 9.1984693293157846 0 9.1984693293157846 -25.344094321227857 0 0 0 0 220.87880521476472 -87.495805835175048 0 -87.495805835175048 -86.826004715666556 0 0 0 0 381.82339429532431 -18.740212997047202 0 -18.740212997047202 -123.05493460173227 0 0 0 0 380.88373452825795 8.9578694451735483 0 8.9578694451735483 -181.62284539432312 0 0 0 0 195.47473018578603 69.591770959552321 0 69.591770959552321 -111.99587910642661 0 0 0 0 140.8471996995595 -126.96100575621604 0 -126.96100575621604 -264.15729142975738 0 0 0 0 9.7106987980180151 -6.4437513723398823 0 -6.4437513723398823 3.0347124414453828 0 0 0 0 67.911367461616464 -3.3032579287169312 0 -3.3032579287169312 -162.04614308087912 0 0 0 0 275.02452801205436 -39.689499860505919 0 -39.689499860505919 -90.305874723125598 0 0 0 0 278.29973252700074 -18.556252782739875 0 -18.556252782739875 -188.39738412840165 0 0 0 0 333.22433232756157 87.128600826885588 0 87.128600826885588 -105.53733496735524 0 0 0 0 379.97931574419636 52.916996321182836 0 52.916996321182836 -186.05540874749678 0 0 0 0 10.833598503184831 -7.0755680779004138 0 -7.0755680779004138 3.0475745380341488 0 0 0 0 126.68277417892023 -14.320145375387597 0 -14.320145375387597 -87.389117714048098 0 0 0 0 125.84102570114192 28.898235743548526 0 28.898235743548526 -184.51408003526376 0 0 0 0 66.855321350529266 -264.86179492119635 0 -264.86179492119635 -338.36773474631764 0 0 0 0 -109.92823185043108 -318.0414323700594 0 -318.0414323700594 -323.59047063341336 0 0 0 0 93.743321175068559 -5.2625523175554818 0 -5.2625523175554818 -290.04812477317728 0 0 0 0 181.50254431280337 -255.55054120840487 0 -255.55054120840487 102.87822536011817 0 0 0 0 -238.02532672241978 -69.686852070356551 0 -69.686852070356551 31.907288605467954 0 0 0 0 106.93943280728945 7.9594598658745106 0 7.9594598658745106 90.959133093053509 0 0 0 0 88.990268979847315 -144.59224908414959 0 -144.59224908414959 -15.379882469420767 0 0 0 0 251.67504855848529 -88.527410186531526 0 -88.527410186531526 152.30053837457055 0 0 0 0 267.16511498210093 -42.984532767761436 0 -42.984532767761436 222.73163531299929 0 0 0 0 305.6971965401026 -21.047831581566129 0 -21.047831581566129 190.59065353533225 0 0 0 0 415.37038199656672 -262.12830059016682 0 -262.12830059016682 158.00825186176348 0 0 0 0 147.99886557258287 -252.88276111664396 0 -252.88276111664396 157.70639933344614 0 0 0 0 324.36199120201491 -224.07615075904482 0 -224.07615075904482 160.9591742873281 0 0 0 0 457.64843840581307 -266.10219416834479 0 -266.10219416834479 107.89957187623872 0 0 0 0 381.1594236785968 113.43594888805097 0 113.43594888805097 30.026548680004552 0 0 0 0 562.3840174023353 -14.688632667738361 0 -14.688632667738361 119.5734461733622 0 0 0 0 399.22561669273364 27.752560529807933 0 27.752560529807933 -55.131864780767174 0 0 0 0 370.93223803377418 -43.50307022840304 0 -43.50307022840304 57.56081592179013 0 0 0 0 215.86488142479357 65.777603873994181 0 65.777603873994181 -93.669651146944716 0 0 0 0 212.70391150515934 48.037620768593129 0 48.037620768593129 5.1244713216368254 0 0 0 0 305.43835482370196 65.753753715129903 0 65.753753715129903 114.31049314820119 0 0 0 0 174.66272634968482 -2.5970136105739812 0 -2.5970136105739812 243.90639895765543 0 0 0 0 305.49807752887864 1.0187127087703516 0 1.0187127087703516 234.9629467340406 0 0 0 0 294.09782635387819 49.525403858314974 0 49.525403858314974 274.54523606882424 0 0 0 0 714.63314378298674 81.191844914130797 0 81.191844914130797 161.82712231980503 0 0 0 0 425.11281810231594 -42.966320591531982 0 -42.966320591531982 213.07760661355306 0 0 0 0 465.62787150376971 100.92953248721176 0 100.92953248721176 228.11838112606154 0 0 0 0 309.99839912493917 0.74325011742678271 0 0.74325011742678271 298.56677537187511 0 0 0 0 483.69701158725002 -55.848008620996524 0 -55.848008620996524 296.87420860305662 0 0 0 0 266.50546549614228 11.512158359715954 0 11.512158359715954 301.55310186704639 0 0 0 0 286.77449177275412 22.459095260792196 0 22.459095260792196 299.37269127031368 0 0 0 0 315.69963179420847 9.2232405635390933 0 9.2232405635390933 297.29973467705827 0 0 0 0 244.30118528758612 -47.715341912922554 0 -47.715341912922554 300.03206697549217 0 0 0 0 323.1645458353305 -80.609133607450303 0 -80.609133607450303 190.83015629211536 0 0 0 0 428.89312279700243 8.9845677739177745 0 8.9845677739177745 209.33428727210867 0 0 0 0 328.31118883622548 -75.665862110478884 0 -75.665862110478884 194.15999938599506 0 0 0 0 477.68712369391324 -81.408114376358952 0 -81.408114376358952 110.59522317646179 0 0 0 0 379.93570640426879 -168.36877900202364 0 -168.36877900202364 82.178360470663392 0 0 0 0 679.59372289283056 -38.245954129697338 0 -38.245954129697338 167.11087950875844 0 0 0 0 591.49637959655229 -196.79726469049797 0 -196.79726469049797 117.33247908093199 0 0 0 0 650.20273601859753 -219.42258239217094 0 -219.42258239217094 117.02508210105816 0 0 0 0 482.09361567879205 -140.95866923272305 0 -140.95866923272305 155.13415112574648 0 0 0 0 507.65437220170861 -258.43263133847245 0 -258.43263133847245 73.173933072901036 0 0 0 0 465.14632762714245 -4.0760358052668835 0 -4.0760358052668835 236.7415691218248 0 0 0 0 518.22456656010763 -1.458167001171887 0 -1.458167001171887 235.09806133475979 0 0 0 0 509.31479266412498 -121.44262451239865 0 -121.44262451239865 139.24871694729632 0 0 0 0 328.81845003733542 27.823423398862332 0 27.823423398862332 291.74463438091516 0 0 0 0 367.86982572483976 -61.286152063391 0 -61.286152063391 216.07334522136966 0 0 0 0 278.74659381151287 -30.730634999228982 0 -30.730634999228982 223.2714874295873 0 0 0 0 287.53850801380031 14.653825722636157 0 14.653825722636157 313.09105286367242 0 0 0 0 221.07916930868669 -83.529389532842515 0 -83.529389532842515 256.63107807334495 0 0 0 0 235.7638174179956 35.116590766653871 0 35.116590766653871 434.78761269180836 0 0 0 0 375.56881528515078 76.84256361755763 0 76.84256361755763 342.68336625805705 0 0 0 0 362.13896739214397 48.143978081943942 0 48.143978081943942 339.36470936219871 0 0 0 0 794.96470822816627 56.260319506017822 0 56.260319506017822 223.78962492727624 0 0 0 0 528.70457415443525 4.2767584066508562 0 4.2767584066508562 213.8141425642184 0 0 0 0 454.49418811182841 170.0700255098858 0 170.0700255098858 392.26681571135123 0 0 0 0 718.51782520163397 233.61127033807543 0 233.61127033807543 406.69467574948067 0 0 0 0 729.51217663045099 247.93009165149374 0 247.93009165149374 321.44675771130096 0 0 0 0 1148.3799388710831 -157.74781419414194 0 -157.74781419414194 142.66463799016856 0 0 0 0 1154.189875093929 60.364294712824631 0 60.364294712824631 215.1806008467056 0 0 0 0 1519.4008429730893 -118.37528723504556 0 -118.37528723504556 220.30844158448349 0 0 0 0 1375.8563399103732 369.58561978100352 0 369.58561978100352 327.55455076822136 0 0 0 0 1046.2332948053518 -46.054415388298821 0 -46.054415388298821 209.57882444564189 0 0 0 0 752.73202669159218 -163.58853918969317 0 -163.58853918969317 146.23920996376455 0 0 0 0 936.43600498675733 -212.21208701338196 0 -212.21208701338196 153.74268272798781 0 0 0 0 781.4828319347871 43.122867553195192 0 43.122867553195192 218.89473831215685 0 0 0 0 -110.23575814210199 96.572170327947106 0 96.572170327947106 462.59651736200578 0 0 0 0 1483.1181436798724 -463.30580641810366 0 -463.30580641810366 74.467047235647897 0 0 0 0 4.5769490063251368 2.2171404887862209 0 2.2171404887862209 0.58641540922578539 0 0 0 0 577.24914093435655 556.34184666895294 0 556.34184666895294 -334.69404010021572 0 0 0 0 631.19455070195545 407.44594267451657 0 407.44594267451657 576.35721970502254 0 0 0 0 154.31343234908127 152.82221248675796 0 152.82221248675796 573.98944026019876 0 0 0 0 25.381780069423257 -292.17217722917076 0 -292.17217722917076 91.729256849247577 0 0 0 0 199.08979776506021 -65.185416387779981 0 -65.185416387779981 340.82903629480552 0 0 0 0 140.02006706877728 -80.919736622881373 0 -80.919736622881373 361.07799761650836 0 0 0 0 194.09208307535664 -205.13472534461744 0 -205.13472534461744 114.39910555421011 0 0 0 0 231.971659709714 -177.26888644947053 0 -177.26888644947053 -138.48346311579053 0 0 0 0 9.4960263198750283 5.4769368144599184 0 5.4769368144599184 1.1088408721597922 0 0 0 0 9.1911080956051592 48.958509830694993 0 48.958509830694993 -68.361322008005004 0 0 0 0 491.03545342841244 45.68628385924012 0 45.68628385924012 219.50243171374677 0 0 0 0 268.0017536881187 -207.74409797712224 0 -207.74409797712224 0.23857575151032506 0 0 0 0 230.46809906988165 -129.03811249470414 0 -129.03811249470414 162.81860226765957 0 0 0 0 683.73682689511043 -66.780838038596357 0 -66.780838038596357 101.21886514487278 0 0 0 0 938.90682591026416 -358.58360121982923 0 -358.58360121982923 237.06241629133251 0 0 0 0 315.46862563624245 -166.73086282096165 0 -166.73086282096165 85.317828544855956 0 0 0 0 318.60785818547811 -142.7715176423452 0 -142.7715176423452 96.61477612391127 0 0 0 0 246.46378876685048 -162.49692568042269 0 -162.49692568042269 154.770391516617 0 0 0 0 256.1599325465213 -96.724213169696441 0 -96.724213169696441 260.83567900017255 0 0 0 0 292.34256258298956 -160.35953990972666 0 -160.35953990972666 85.020779336991836 0 0 0 0 178.26496149384184 -112.80109523561055 0 -112.80109523561055 110.28847156346006 0 0 0 0 282.51266279726042 -181.39867172241031 0 -181.39867172241031 63.64060307549471 0 0 0 0 319.5952440514302 -164.93180335349371 0 -164.93180335349371 70.937287156440561 0 0 0 0 0.38711794585559289 -0.056470671799637273 0 -0.056470671799637273 0.25770207579828597 0 0 0 0 301.17534624833206 -150.27075941744965 0 -150.27075941744965 74.326249031828183 0 0 0 0 305.8283350621823 -167.45346338875333 0 -167.45346338875333 74.018850231052966 0 0 0 0 313.39656071620266 -159.66654760683969 0 -159.66654760683969 81.961662087819946 0 0 0 0 283.05650788064486 -138.72074501103145 0 -138.72074501103145 88.082457875693763 0 0 0 0 279.58816399578063 -155.94698047262762 0 -155.94698047262762 112.12515075773013 0 0 0 0 163.87117862384184 -71.33918006250417 0 -71.33918006250417 44.012003772619892 0 0 0 0 266.74943111897301 -180.47023447852018 0 -180.47023447852018 101.15131105694161 0 0 0 0 269.12990479521977 -159.3146309103297 0 -159.3146309103297 86.016303435038139 0 0 0 0 308.77183139325643 -92.060393387745421 0 -92.060393387745421 156.03214727803106 0 0 0 0 0.7365863859754711 -1.0467937052987395 0 -1.0467937052987395 0.84083509919225596 0 0 0 0 181.52677168271475 -4.9980610141117268 0 -4.9980610141117268 -17.808897202445678 0 0 0 0 -8.3262605624695425 -31.821053617766324 0 -31.821053617766324 219.69392809515386 0 0 0 0 -37.130368208527216 -8.6153142173180868 0 -8.6153142173180868 79.145140096227806 0 0 0 0 12.428585090383422 39.469715374650491 0 39.469715374650491 46.444814556549034 0 0 0 0 149.28735227756624 -68.784339706853672 0 -68.784339706853672 76.22712650702374 0 0 0 0 19.697110512373911 -11.879613429063539 0 -11.879613429063539 81.118347773433129 0 0 0 0 40.987607217037294 -1.5662513867182 0 -1.5662513867182 25.08134248759265 0 0 0 0 5.2045703629482887 -0.9487226811771734 0 -0.9487226811771734 79.447931942161858 0 0 0 0 1.0381260638969252 4.3141678911045069 0 4.3141678911045069 27.198669255525289 0 0 0 0 -12.520938942247085 -0.4801920901033796 0 -0.4801920901033796 61.548284072487874 0 0 0 0 111.45347123948886 -52.598070208895535 0 -52.598070208895535 54.799250673428709 0 0 0 0 -28.773220457194839 -77.972356863601902 0 -77.972356863601902 152.12696301295151 0 0 0 0 303.14322179203009 -229.39092081431761 0 -229.39092081431761 138.36808938102115 0 0 0 0 77.961826635208126 -76.179057738357074 0 -76.179057738357074 125.25769690685661 0 0 0 0 28.574876139637972 -11.485084367412195 0 -11.485084367412195 -0.92485552025269802 0 0 0 0 44.43333608728426 -23.435750532931593 0 -23.435750532931593 7.1048641089264617 0 0 0 0 45.810580964534893 2.8346278100402742 0 2.8346278100402742 -0.61981427400388611 0 0 0 0 88.030367351624591 -29.274960726915651 0 -29.274960726915651 11.996931660470352 0 0 0 0 15.586763253348124 1.8034426184823609 0 1.8034426184823609 -3.4260423427349544 0 0 0 0 30.419219056471775 -3.4672852452938514 0 -3.4672852452938514 -3.5716166422485003 0 0 0 0 34.883199946329114 -4.242699861060828 0 -4.242699861060828 -4.244178703574562 0 0 0 0 42.022893806315551 25.560071164733046 0 25.560071164733046 -2.8279947687116653 0 0 0 0 30.697567586366858 3.4232535420680961 0 3.4232535420680961 -8.9843684957986625 0 0 0 0 17.647475673984516 7.8437760419722196 0 7.8437760419722196 -7.1343487054206687 0 0 0 0 -2.4124918715338026 3.6326292772933932 0 3.6326292772933932 0.29101975011070069 0 0 0 0 24.023040535637847 2.7504045491784836 0 2.7504045491784836 -8.3958882545366578 0 0 0 0 6.3424139053659836 -1.2851241551081642 0 -1.2851241551081642 0.23661973346250242 0 0 0 0 30.65080395906989 -6.774769272266667 0 -6.774769272266667 -2.8565639209150504 0 0 0 0 41.964433941363836 -10.6888229281493 0 -10.6888229281493 -2.2345991161109851 0 0 0 0 18.99407674836165 -5.8786418242929486 0 -5.8786418242929486 -1.8767498315741502 0 0 0 0 42.162031041210867 -17.26489674967047 0 -17.26489674967047 1.4482839211541432 0 0 0 0 11.584721698622161 -6.8722667749894981 0 -6.8722667749894981 -18.84225505256336 0 0 0 0 18.362732718009411 -0.80346684796758439 0 -0.80346684796758439 -9.0984516380951632 0 0 0 0 16.712118443167128 -2.2160383808131883 0 -2.2160383808131883 -8.4473274105748715 0 0 0 0 14.859014496650055 -5.7786906829605655 0 -5.7786906829605655 -11.609290127590565 0 0 0 0 29.44349862013776 -7.3300492070646648 0 -7.3300492070646648 -12.973193718344291 0 0 0 0 20.528822777007008 -15.35702535569763 0 -15.35702535569763 -3.9975898991311283 0 0 0 0 22.075542461755504 50.774212395253564 0 50.774212395253564 -1.9266011883878491 0 0 0 0 63.833324870445495 13.741324195680619 0 13.741324195680619 -38.544736188293655 0 0 0 0 14.667118355046114 -17.049455712941239 0 -17.049455712941239 -4.1985772484131871 0 0 0 0 17.213447622074455 -21.701705338485681 0 -21.701705338485681 -26.272091881328379 0 0 0 0 6.5146373912354214 -0.9866975598319101 0 -0.9866975598319101 -1.3349029894497528 0 0 0 0 9.8568381327222596 -5.2828439018754239 0 -5.2828439018754239 -16.675005008758035 0 0 0 0 -13.629474478415432 15.378491278854057 0 15.378491278854057 -7.498766566566303 0 0 0 0 65.730569011018815 -15.530718692587044 0 -15.530718692587044 -133.32542309286214 0 0 0 0 129.46976862474366 -70.942297700369636 0 -70.942297700369636 -78.028670002826402 0 0 0 0 94.440695787927353 -65.375378405855514 0 -65.375378405855514 -181.07408879170907 0 0 0 0 93.963607051300642 -34.047836517242104 0 -34.047836517242104 -24.212610364541433 0 0 0 0 14.73858391306883 11.983392118268039 0 11.983392118268039 -33.638959872731462 0 0 0 0 72.951944176043071 -23.14017007227676 0 -23.14017007227676 -8.1369711860425014 0 0 0 0 40.282444300552015 -42.644570656783344 0 -42.644570656783344 15.753161041230669 0 0 0 0 -0.92229305654393556 3.7591960137035763 0 3.7591960137035763 -6.7143323231351646 0 0 0 0 23.204833244451343 3.2125807857771811 0 3.2125807857771811 -24.808776873464407 0 0 0 0 24.227223628637084 -18.548826366430752 0 -18.548826366430752 10.588558671502089 0 0 0 0 24.790325977439352 -32.722926544844086 0 -32.722926544844086 20.462341059532264 0 0 0 0 -62.031764042512805 -114.45255076505237 0 -114.45255076505237 -65.156086019213035 0 0 0 0 74.370592971777114 -66.547969218072012 0 -66.547969218072012 -199.58199185845115 0 0 0 0 51.522484459470434 -71.44728972575092 0 -71.44728972575092 -198.94440485057021 0 0 0 0 9.9034153475473214 -2.9142235431606416 0 -2.9142235431606416 -1.3982558380134762 0 0 0 0 -51.258661150641274 -36.821347749741108 0 -36.821347749741108 27.064648851725906 0 0 0 0 27.925635892752524 -25.746468401745627 0 -25.746468401745627 21.430392717296314 0 0 0 0 -66.511722543645192 1.3293533074580068 0 1.3293533074580068 31.774267884876281 0 0 0 0 -27.154151794974041 2.8940827496501242 0 2.8940827496501242 31.836452723026923 0 0 0 0 -23.351631279569119 -38.617879990062193 0 -38.617879990062193 26.921745961823376 0 0 0 0 -9.2896650075381331 -2.6894949338108063 0 -2.6894949338108063 9.3702933662239047 0 0 0 0 2.6872725149096368 -26.987759974833466 0 -26.987759974833466 19.951600410642641 0 0 0 0 25.116049907130218 -10.64554352901564 0 -10.64554352901564 -0.52832448901017415 0 0 0 0 12.904757847926062 -13.608970837862479 0 -13.608970837862479 7.8584177483360556 0 0 0 0 37.641361703579605 -23.643108090715259 0 -23.643108090715259 8.8789798367233743 0 0 0 0 24.324072496154258 -17.250107489635184 0 -17.250107489635184 9.7235136030431022 0 0 0 0 7.8900363888670828 -5.3132619956305689 0 -5.3132619956305689 0.77353575835594679 0 0 0 0 7.8375433043215423 -1.8707171469333446 0 -1.8707171469333446 -4.8362274421578642 0 0 0 0 18.87508409453585 -23.982801973957976 0 -23.982801973957976 10.88096513731233 0 0 0 0 17.405726245819096 -8.9361722914934205 0 -8.9361722914934205 2.692363077794198 0 0 0 0 14.067499006618164 -5.0514013531601449 0 -5.0514013531601449 0.84534993620718524 0 0 0 0 27.391208884200751 -5.5677397834829208 0 -5.5677397834829208 -1.748287437162162 0 0 0 0 15.797058468758223 -13.436148856959562 0 -13.436148856959562 6.8452415174156158 0 0 0 0 4.6594806882239936 -15.194056842978853 0 -15.194056842978853 15.140696493588621 0 0 0 0 6.8575130173686176 -1.3702042717334351 0 -1.3702042717334351 -2.289347878006172 0 0 0 0 2.6261927722378573 -1.8182447190632374 0 -1.8182447190632374 11.343808315317181 0 0 0 0 -9.3885199825308518 2.7552268730867127 0 2.7552268730867127 21.477609574304552 0 0 0 0 -4.475552811894886 17.37767501305359 0 17.37767501305359 34.620481910900367 0 0 0 0 24.07992752926657 14.421043638902688 0 14.421043638902688 6.625793504917965 0 0 0 0 95.332085774738516 61.282227407388746 0 61.282227407388746 -34.341518164730239 0 0 0 0 127.79907434268534 -99.986306201396246 0 -99.986306201396246 57.022172061043648 0 0 0 0 148.08861683916621 -120.95400095298606 0 -120.95400095298606 -44.351851104637149 0 0 0 0 195.08317643284681 -33.439209289729121 0 -33.439209289729121 114.78880838783073 0 0 0 0 197.52765878541322 -169.00113971332098 0 -169.00113971332098 131.79806326320659 0 0 0 0 361.5923046323951 -122.64917989508473 0 -122.64917989508473 54.533568154542422 0 0 0 0 126.0558830679438 -3.1482372814372468 0 -3.1482372814372468 70.99781561981024 0 0 0 0 -0.031923705943473379 -1.2935858779486651 0 -1.2935858779486651 8.1595607411806697 0 0 0 0 69.02646405150881 -8.3232862582738107 0 -8.3232862582738107 -65.635820083136309 0 0 0 0 -0.11007221416441126 0.23524343478312915 0 0.23524343478312915 0.06473032340969187 0 0 0 0 -21.802976743867475 -66.011039928675274 0 -66.011039928675274 136.9989411750559 0 0 0 0 -14.447734690082143 1.595686321459425 0 1.595686321459425 27.496849543831104 0 0 0 0 -7.4344811498303898 -21.622393777569101 0 -21.622393777569101 154.77097075351253 0 0 0 0 70.101865483007714 34.859909831148627 0 34.859909831148627 -6.0669133002525086 0 0 0 0 298.65562529731505 -128.76234542312756 0 -128.76234542312756 103.08459260887548 0 0 0 0 5.1824160845790175 -8.0188119250030923 0 -8.0188119250030923 -107.48612970156546 0 0 0 0 0.32218419606615001 -0.639656392160461 0 -0.639656392160461 3.041250859822926 0 0 0 0 341.81850085967017 -139.65780752741432 0 -139.65780752741432 11.79292028551572 0 0 0 0 326.27297889507827 19.633267503172931 0 19.633267503172931 -32.576624565497013 0 0 0 0 333.2121125469057 -59.863562108596511 0 -59.863562108596511 116.34521925350214 0 0 0 0 353.77662594331923 -137.61432788593152 0 -137.61432788593152 -15.140890199787862 0 0 0 0 536.87349643540074 -71.959123852023993 0 -71.959123852023993 -8.6709919376686457 0 0 0 0 521.66659827796684 -197.25770681189863 0 -197.25770681189863 -24.350512410774058 0 0 0 0 351.55293826018169 -78.297010970478539 0 -78.297010970478539 -80.482031930598225 0 0 0 0 278.7205651123586 -73.180362168121121 0 -73.180362168121121 27.587481214019078 0 0 0 0 252.81249082050999 -129.1942422723975 0 -129.1942422723975 96.269550558228161 0 0 0 0 519.33912223674724 -209.46787253439214 0 -209.46787253439214 -83.229164988244975 0 0 0 0 854.90604047800662 -417.19135568545545 0 -417.19135568545545 39.952679755073163 0 0 0 0 655.84375351095878 -58.315923570282848 0 -58.315923570282848 -105.58425490839409 0 0 0 0 688.40143370639635 -192.57838462802624 0 -192.57838462802624 -94.884983284016869 0 0 0 0 548.23105332754494 -115.69856166750088 0 -115.69856166750088 -132.32969526363217 0 0 0 0 584.8362251249855 -77.776865842538882 0 -77.776865842538882 -141.17575100179795 0 0 0 0 643.0368199615441 -18.946457584203984 0 -18.946457584203984 -205.78017787432032 0 0 0 0 777.08058385719778 -108.84978480796764 0 -108.84978480796764 -235.38963970281404 0 0 0 0 530.19225622095837 110.82061548622602 0 110.82061548622602 -212.8263191470736 0 0 0 0 4.9272396018298821 -3.2709458057281751 0 -3.2709458057281751 1.6263778079428359 0 0 0 0 1014.1896482940501 31.15962593458611 0 31.15962593458611 -228.10638720266678 0 0 0 0 470.27645970397134 -606.83165092023023 0 -606.83165092023023 56.485130227046298 0 0 0 0 -112.05240325522755 -572.90573810406897 0 -572.90573810406897 81.648882963451371 0 0 0 0 446.86971112099127 -24.852585168492567 0 -24.852585168492567 209.44373775700956 0 0 0 0 387.73571725423244 -258.05733676399018 0 -258.05733676399018 335.40742036936189 0 0 0 0 767.90238749194395 -143.79709235500917 0 -143.79709235500917 14.028453535487415 0 0 0 0 323.78219585794068 -169.56572264212997 0 -169.56572264212997 68.63825666381706 0 0 0 0 388.66856043057487 -164.44470300559146 0 -164.44470300559146 27.978504697314747 0 0 0 0 235.66515761174378 -39.99458754177158 0 -39.99458754177158 41.877901022705231 0 0 0 0 389.31684830124505 -166.18196056110773 0 -166.18196056110773 15.464290133695158 0 0 0 0 532.14394145250844 -375.33619256785846 0 -375.33619256785846 -21.085984616800232 0 0 0 0 802.90267075836528 -383.84619363163284 0 -383.84619363163284 -21.075098356546164 0 0 0 0 587.21938270496321 -272.93265762449516 0 -272.93265762449516 12.882331570411907 0 0 0 0 465.66898704725645 -363.60822296564862 0 -363.60822296564862 34.938064561064266 0 0 0 0 338.56684069053154 -256.89761398333758 0 -256.89761398333758 103.80452702528737 0 0 0 0 521.78154979153987 -394.07739901046671 0 -394.07739901046671 187.60947061333536 0 0 0 0 557.84207537908514 -282.26845039690534 0 -282.26845039690534 135.5395817705155 0 0 0 0 580.95587311084819 -337.4143503534234 0 -337.4143503534234 92.644476932085354 0 0 0 0 497.08782624475134 -291.54529503055539 0 -291.54529503055539 77.882845045134445 0 0 0 0 482.63043648027815 -343.98453460136545 0 -343.98453460136545 86.522485517517907 0 0 0 0 344.21408529909968 -186.21282625335346 0 -186.21282625335346 44.425615039701597 0 0 0 0 325.31631538983493 -232.89949676220135 0 -232.89949676220135 33.278614268298327 0 0 0 0 191.29367022856604 -108.76976895827056 0 -108.76976895827056 39.093039240995722 0 0 0 0 114.87975553625438 -78.243821364858832 0 -78.243821364858832 127.69501067276451 0 0 0 0 112.57487728039996 -141.77537949654038 0 -141.77537949654038 136.95482172623088 0 0 0 0 168.55505448339682 -63.954179050998732 0 -63.954179050998732 27.526054084774387 0 0 0 0 -36.326168507366674 17.96594214681636 0 17.96594214681636 67.4682806839146 0 0 0 0 64.330785556172486 -106.83788134501765 0 -106.83788134501765 115.71673823800893 0 0 0 0 198.20582204073798 -338.5269750109735 0 -338.5269750109735 228.83264747333214 0 0 0 0 43.226359456341015 -292.76246946499487 0 -292.76246946499487 430.24717640196013 0 0 0 0 217.82513527441552 34.465271523817023 0 34.465271523817023 0.15629425287579579 0 0 0 0 145.83460644018487 -251.23980035132081 0 -251.23980035132081 224.42397282041838 0 0 0 0 320.47045663109748 -387.48011292066894 0 -387.48011292066894 327.03936209494668 0 0 0 0 -88.352051331137773 -230.83262462779339 0 -230.83262462779339 402.57096202895264 0 0 0 0 -270.27244060210069 97.543817441900046 0 97.543817441900046 194.14331307730481 0 0 0 0 -182.53817310240265 -243.43189500942162 0 -243.43189500942162 -149.40820899324035 0 0 0 0 -95.434507610450964 -137.51527926444805 0 -137.51527926444805 -58.55477998474862 0 0 0 0 -187.38438447691442 232.79526093891218 0 232.79526093891218 77.737669330577774 0 0 0 0 -487.08721283001069 -197.12295748559563 0 -197.12295748559563 71.480541390738836 0 0 0 0 -178.00849255459616 -89.392551401911078 0 -89.392551401911078 68.953724149894398 0 0 0 0 -474.39219667126463 77.489392314893934 0 77.489392314893934 124.29285567000261 0 0 0 0 -152.90805138723226 77.313834061071248 0 77.313834061071248 112.4893101526859 0 0 0 0 -233.1150573893392 -143.16803682828322 0 -143.16803682828322 417.38018633602951 0 0 0 0 2.1554265785794087 -1.67551201506312 0 -1.67551201506312 -0.44929481401452342 0 0 0 0 7.2093493655276859 1.3414334559470724 0 1.3414334559470724 0.2968523752682648 0 0 0 0 -20.352260745657986 300.15162915503583 0 300.15162915503583 99.977005596401796 0 0 0 0 586.28108894877369 324.51906954554579 0 324.51906954554579 -79.599096805688532 0 0 0 0 966.51488024881837 -413.19835478324603 0 -413.19835478324603 216.82350213940163 0 0 0 0 521.88844670989783 -458.01583025687069 0 -458.01583025687069 433.91699001863662 0 0 0 0 218.49493919612723 -377.44631509967166 0 -377.44631509967166 451.87175083491707 0 0 0 0 600.23129286617041 -437.79679305699028 0 -437.79679305699028 299.48725816328533 0 0 0 0 362.66875891163363 -321.99107883257102 0 -321.99107883257102 245.67086975511211 0 0 0 0 717.53040363393666 -374.41759185410342 0 -374.41759185410342 185.44372197978009 0 0 0 0 597.79470523515954 -335.05190637597718 0 -335.05190637597718 240.35539754736146 0 0 0 0 947.59320364419546 -435.90113123866968 0 -435.90113123866968 267.55084768440383 0 0 0 0 674.03163630375639 434.62309140931711 0 434.62309140931711 238.42073405774227 0 0 0 0 1519.5776330949157 139.7978330379301 0 139.7978330379301 -199.61860875396678 0 0 0 0 1367.1691002099833 569.39199368578284 0 569.39199368578284 136.54246121683127 0 0 0 0 262.28727718474693 323.0514942148875 0 323.0514942148875 89.680351175080091 0 0 0 0 418.75666245324101 166.54850064994116 0 166.54850064994116 192.86622766213623 0 0 0 0 474.04191735715722 363.55772971038641 0 363.55772971038641 205.3484868598515 0 0 0 0 262.05611438277629 297.39839296732089 0 297.39839296732089 254.92427508535002 0 0 0 0 745.42175820766715 297.617972326158 0 297.617972326158 96.027591535364991 0 0 0 0 519.86439843080007 216.11073360512091 0 216.11073360512091 139.51258686991605 0 0 0 0 774.72466176532907 369.26258277096758 0 369.26258277096758 153.02839794157023 0 0 0 0 825.3458044477884 82.494261531149732 0 82.494261531149732 89.959616208419448 0 0 0 0 1753.2468118320176 269.18750128993008 0 269.18750128993008 -128.82449415133669 0 0 0 0 1457.886055386014 143.6794594617445 0 143.6794594617445 34.183668389764534 0 0 0 0 749.7689600988524 325.22459161056076 0 325.22459161056076 194.50845589555138 0 0 0 0 757.675162814543 144.11923538659175 0 144.11923538659175 1.5686790179920536 0 0 0 0 856.16690909681529 181.86209943161282 0 181.86209943161282 5.8464640175798195 0 0 0 0 437.8074501970259 123.82981824894887 0 123.82981824894887 39.547705013938867 0 0 0 0 484.24295481391891 101.89259945046342 0 101.89259945046342 -29.695911266753683 0 0 0 0 647.10429546811793 274.73838892117556 0 274.73838892117556 64.939659458420124 0 0 0 0 783.98344066431309 182.35336710627143 0 182.35336710627143 -144.00106788401172 0 0 0 0 588.45239020869485 213.51940518493529 0 213.51940518493529 -15.899530739235274 0 0 0 0 -160.14610495731904 3.3458113176998268 0 3.3458113176998268 123.2937222420228 0 0 0 0 398.52493139631406 110.80977717629412 0 110.80977717629412 -13.839468836620199 0 0 0 0 197.82122125152455 -102.28566111369901 0 -102.28566111369901 -92.809766679276436 0 0 0 0 105.56776796753547 89.166806904991972 0 89.166806904991972 158.51294343202107 0 0 0 0 112.17897190466465 25.088221842203893 0 25.088221842203893 79.319762220948405 0 0 0 0 -139.06409585529036 45.789754577203666 0 45.789754577203666 203.01792287466469 0 0 0 0 378.79946127892254 270.18334772748773 0 270.18334772748773 186.40169905515904 0 0 0 0 234.45991637729549 118.10599718862895 0 118.10599718862895 153.75629254142495 0 0 0 0 6.7167742567617097 92.874368204500797 0 92.874368204500797 159.7996580104973 0 0 0 0 -40.878220725571737 168.01013765929247 0 168.01013765929247 259.91134966536811 0 0 0 0 -274.59632211289136 -41.958078027648753 0 -41.958078027648753 134.91276709046178 0 0 0 0 3.4671756641764659 73.108158162046038 0 73.108158162046038 167.33805451091212 0 0 0 0 -100.55755171412602 148.06861518773076 0 148.06861518773076 158.12996706354897 0 0 0 0 -100.634555147637 -66.820585246717428 0 -66.820585246717428 75.591431023295627 0 0 0 0 -224.45846327215258 -108.49370043060708 0 -108.49370043060708 123.30491363593592 0 0 0 0 -10.421858433448506 -27.16645884264517 0 -27.16645884264517 -38.556934491945412 0 0 0 0 1.3519074347138478 0.0041904195494240071 0 0.0041904195494240071 0.20025871464974365 0 0 0 0 -154.33400496441027 -67.659671705273439 0 -67.659671705273439 65.877158569600851 0 0 0 0 -97.932989551292849 5.9703700121535803 0 5.9703700121535803 110.07145152698831 0 0 0 0 -63.589797326800181 88.695181791455752 0 88.695181791455752 -43.677379513067081 0 0 0 0 11.773059834960662 4.9955311120361863 0 4.9955311120361863 1.8559171205882441 0 0 0 0 158.41626842460391 136.02275317988642 0 136.02275317988642 30.453599748253509 0 0 0 0 -27.06041792389442 25.598025580901549 0 25.598025580901549 -7.511182977763383 0 0 0 0 -153.48548871667299 82.613516454476212 0 82.613516454476212 47.086422384053321 0 0 0 0 13.246780538687744 -2.8257639726252819 0 -2.8257639726252819 7.7077850486889474 0 0 0 0 2.5861042228939652 0.053139185111898968 0 0.053139185111898968 -0.52503972317639436 0 0 0 0 -59.777531042564078 -74.843400693527656 0 -74.843400693527656 14.480756012798793 0 0 0 0 17.089858327592239 4.8338405306098267 0 4.8338405306098267 0.92321454249792101 0 0 0 0 6.0884135631495155 -11.429984603186199 0 -11.429984603186199 -1.2165883466091145 0 0 0 0 13.520979391531 -1.5196279118058555 0 -1.5196279118058555 1.8823818598866637 0 0 0 0 17.693900178666809 -0.90127140073582268 0 -0.90127140073582268 -1.8968377461078489 0 0 0 0 18.226341192068503 -2.441760933008652 0 -2.441760933008652 1.263269680484882 0 0 0 0 20.602790623974215 1.4238549567621703 0 1.4238549567621703 2.9083396930700474 0 0 0 0 6.8090688932852572 1.0053619825564084 0 1.0053619825564084 1.3832141834700451 0 0 0 0 8.1326613694841257 1.1676301854954616 0 1.1676301854954616 -0.14046810171274515 0 0 0 0 21.072603543085279 0.41057853392680954 0 0.41057853392680954 0.30550081972984344 0 0 0 0 18.017320412222034 -3.3302464087474277 0 -3.3302464087474277 -0.61277292427712382 0 0 0 0 55.145193146556267 99.887708889287183 0 99.887708889287183 -72.679993597150769 0 0 0 0 1.5975307408927932 0.041252206794712976 0 0.041252206794712976 -0.93195977238863059 0 0 0 0 17.042650766474253 2.7316383714138723 0 2.7316383714138723 -0.34600479255643668 0 0 0 0 -43.368257256523066 -79.901317827453568 0 -79.901317827453568 -170.20804893862558 0 0 0 0 -4.2402353641809896 -0.16783745449447451 0 -0.16783745449447451 -2.1674763887394874 0 0 0 0 -95.040325946753001 -139.40705781415568 0 -139.40705781415568 -75.019440581696472 0 0 0 0 1.1667184073745887 -1.0573901285166016 0 -1.0573901285166016 -0.48569424185934729 0 0 0 0 76.103922325200983 85.63892149938647 0 85.63892149938647 21.934187245750991 0 0 0 0 10.536885711689106 -2.7493498769603661 0 -2.7493498769603661 -0.79012106693717232 0 0 0 0 65.806560997756606 -45.006339758734839 0 -45.006339758734839 -62.032956136235271 0 0 0 0 -105.16987860994413 6.5632048432900802 0 6.5632048432900802 57.26553391808261 0 0 0 0 97.741966778674396 28.935239980899951 0 28.935239980899951 -87.166786460157482 0 0 0 0 25.267124673635429 3.4760736784918578 0 3.4760736784918578 0.026235657719066552 0 0 0 0 58.118983490625396 -24.856618583709178 0 -24.856618583709178 52.7138962199449 0 0 0 0 225.93940570604173 -69.174778074161907 0 -69.174778074161907 1.9525522929084218 0 0 0 0 29.233394139599113 7.547606177390719 0 7.547606177390719 -2.7005174090259061 0 0 0 0 2.2294070932282324 0.74598665240471007 0 0.74598665240471007 -0.86858237322690979 0 0 0 0 6.4953201734315371 8.0294350433898671 0 8.0294350433898671 -7.1889490923140329 0 0 0 0 10.506956496028579 2.034871611563517 0 2.034871611563517 0.28633828976467157 0 0 0 0 8.679887521514388 -1.1760178077292167 0 -1.1760178077292167 7.4675448758400709 0 0 0 0 3.9066221875837073 2.8487155579587125 0 2.8487155579587125 -2.5005603406343653 0 0 0 0 19.919336351373204 -6.4841665934758907 0 -6.4841665934758907 4.1251950809200935 0 0 0 0 12.178078503911763 -0.28763740123704551 0 -0.28763740123704551 -1.015938090683993 0 0 0 0 3.9079661478172056 2.3507009091954387 0 2.3507009091954387 -10.128539779721905 0 0 0 0 3.3358510731674471 2.3218085842932377 0 2.3218085842932377 0.62269964491912111 0 0 0 0 10.094932542676901 -4.4772749075674056 0 -4.4772749075674056 -1.1308154833682567 0 0 0 0 22.062899026706873 2.2733897257674016 0 2.2733897257674016 -3.2767884116237838 0 0 0 0 6.7167709183669615 2.3686474980193175 0 2.3686474980193175 1.8195546889818315 0 0 0 0 4.1068762082221042 1.2606385189676885 0 1.2606385189676885 1.3906205980796362 0 0 0 0 3.4461913550303507 2.7293354537170842 0 2.7293354537170842 -2.531054459461302 0 0 0 0 15.155240689840866 -0.17300747074295941 0 -0.17300747074295941 -0.97082564116738013 0 0 0 0 9.6270205310089096 -1.4961128131639789 0 -1.4961128131639789 -1.2379786463921274 0 0 0 0 11.574479568575043 -8.8815220886426687 0 -8.8815220886426687 9.8892960467019293 0 0 0 0 16.763663819458404 -3.0039028837708415 0 -3.0039028837708415 2.4862602955028015 0 0 0 0 4.7825818043784238 -0.87041374369619007 0 -0.87041374369619007 -0.55995089932798692 0 0 0 0 13.651361753887613 -8.8308862134622359 0 -8.8308862134622359 7.2828827063258359 0 0 0 0 18.349390756207868 -5.2654486334506601 0 -5.2654486334506601 -0.57856931644084852 0 0 0 0 15.366702420397928 -3.9461553066323667 0 -3.9461553066323667 -0.36152167989916961 0 0 0 0 12.503632560898595 -2.0358909919456956 0 -2.0358909919456956 -2.7653888851742305 0 0 0 0 4.7694444976456705 -2.2470757770257066 0 -2.2470757770257066 -0.30716028670609408 0 0 0 0 17.27253298151345 -3.2010655838777495 0 -3.2010655838777495 -0.58141256058502222 0 0 0 0 27.303842046374484 -0.05660759898012202 0 -0.05660759898012202 -1.0011998833933831 0 0 0 0 16.955771919863764 -2.0193640082477486 0 -2.0193640082477486 0.92561028168438497 0 0 0 0 18.965343809231854 -1.7568742056753308 0 -1.7568742056753308 -0.86946233346634472 0 0 0 0 4.4867242870859272 -2.6762759474439051 0 -2.6762759474439051 -0.331426274339778 0 0 0 0 19.648407406049955 -5.0160416018475189 0 -5.0160416018475189 -1.6144175805494569 0 0 0 0 23.573456064972561 -0.81698625980095585 0 -0.81698625980095585 -0.50016586450556133 0 0 0 0 4.6780245147444077 -2.1652694614792622 0 -2.1652694614792622 0.66563677645135044 0 0 0 0 24.267019337788952 1.8948502343380369 0 1.8948502343380369 0.50910247220735982 0 0 0 0 28.67695202746836 8.1530088390404671 0 8.1530088390404671 -13.218409111048459 0 0 0 0 13.854086598019293 -1.4976409013854877 0 -1.4976409013854877 -2.4726982411883469 0 0 0 0 13.404967913561933 -2.6399965603309425 0 -2.6399965603309425 -4.9611793819964269 0 0 0 0 10.606560102387249 -3.6221374122672998 0 -3.6221374122672998 -4.9184501388282182 0 0 0 0 13.426421272855805 -3.0954316923053398 0 -3.0954316923053398 -2.968254348440496 0 0 0 0 28.402919430768122 -1.9126262093692024 0 -1.9126262093692024 -2.4941379616046406 0 0 0 0 38.703783559003568 -5.7453419313596896 0 -5.7453419313596896 -17.427250219352345 0 0 0 0 13.954782667453401 -3.2830592739271651 0 -3.2830592739271651 -2.9800432967922461 0 0 0 0 21.116812486841809 -15.56972883603612 0 -15.56972883603612 7.4742458205728326 0 0 0 0 6.2276838608889591 -4.9336218878494762 0 -4.9336218878494762 -0.39159798231406029 0 0 0 0 20.894742082276935 -6.1658659108015854 0 -6.1658659108015854 2.1019987828245803 0 0 0 0 2.8080645789442258 0.99160347014844064 0 0.99160347014844064 -1.7381677461162477 0 0 0 0 16.395033562377648 -2.3530510758024548 0 -2.3530510758024548 1.2425097516504593 0 0 0 0 14.635617779735185 -14.781837963757425 0 -14.781837963757425 14.4561378819335 0 0 0 0 0.34772449174749909 -0.58773507355445886 0 -0.58773507355445886 -0.052636016031439858 0 0 0 0 48.870908980010427 -16.351166105853508 0 -16.351166105853508 10.893943682370832 0 0 0 0 24.061154993360105 1.7666116536308891 0 1.7666116536308891 5.3332314162062175 0 0 0 0 51.514418499682506 -15.033666971451794 0 -15.033666971451794 -11.643176310640683 0 0 0 0 32.706070751413989 -1.2716492372881127 0 -1.2716492372881127 -0.90500677606443869 0 0 0 0 35.556466585527232 1.0854282345535182 0 1.0854282345535182 -26.663168639953241 0 0 0 0 37.592714309466828 10.119488218944753 0 10.119488218944753 -20.077811786597465 0 0 0 0 35.01722772289213 -0.81260105855631082 0 -0.81260105855631082 -8.9224605377157786 0 0 0 0 32.133662855078001 2.4283142428266729 0 2.4283142428266729 -0.39606822389464469 0 0 0 0 35.986585677663243 -1.9083031053643253 0 -1.9083031053643253 -4.0830526162283149 0 0 0 0 43.300618793044123 -12.202360569192138 0 -12.202360569192138 4.7143486321038495 0 0 0 0 77.796558393441956 -11.95385970695736 0 -11.95385970695736 -1.6174023851883703 0 0 0 0 1.1347551228380777 0.24756285492416197 0 0.24756285492416197 0.20838986467797227 0 0 0 0 50.713937161071954 -6.166667522380294 0 -6.166667522380294 3.1358815441905108 0 0 0 0 57.135449651828822 -14.01130456053545 0 -14.01130456053545 -1.7405704528086972 0 0 0 0 12.301741647730523 0.13837513802172907 0 0.13837513802172907 -1.857349607014612 0 0 0 0 4.7070558265546154 2.6427855870142878 0 2.6427855870142878 -2.1032618458610779 0 0 0 0 50.64043885342835 -6.527874321495915 0 -6.527874321495915 -1.698740133992942 0 0 0 0 23.830967402732426 -1.1172449603467758 0 -1.1172449603467758 3.268155019960659 0 0 0 0 50.539032072396367 -6.9537617907726599 0 -6.9537617907726599 -3.4678188186470607 0 0 0 0 40.312757549269008 17.487259735569552 0 17.487259735569552 10.189856908863177 0 0 0 0 36.640299423030228 9.159308503888397 0 9.159308503888397 6.0498304536729002 0 0 0 0 65.393687624657105 17.102525741646275 0 17.102525741646275 0.16933224249930845 0 0 0 0 29.111888630741305 18.495722472434256 0 18.495722472434256 12.119620665473505 0 0 0 0 1.6600173429549159 -0.79251795967095973 0 -0.79251795967095973 0.32939768807497583 0 0 0 0 24.398450287913874 11.465278347837042 0 11.465278347837042 1.1925267778975694 0 0 0 0 26.808018293559144 6.9561398978170814 0 6.9561398978170814 -2.1068570419887465 0 0 0 0 10.497909920464735 7.668765158398287 0 7.668765158398287 8.5459268444443524 0 0 0 0 39.110141876379203 15.667247744420592 0 15.667247744420592 2.384715083955939 0 0 0 0 40.95054786514811 7.6346625951444764 0 7.6346625951444764 -1.4194673238427526 0 0 0 0 54.260614640921631 7.8960628768974459 0 7.8960628768974459 -7.9128588206565382 0 0 0 0 35.67988881648489 3.0959750280871106 0 3.0959750280871106 -8.7337555983929462 0 0 0 0 29.31111213018994 7.6868434516688069 0 7.6868434516688069 -12.737987629819543 0 0 0 0 27.50571073676474 4.570805063075511 0 4.570805063075511 -12.554382944239478 0 0 0 0 35.062576697840996 11.358056896232421 0 11.358056896232421 -6.8974752441865235 0 0 0 0 19.718975261186642 2.5416120446690655 0 2.5416120446690655 -11.070122548735696 0 0 0 0 23.091651283153624 8.2726265496793303 0 8.2726265496793303 -4.1877689794111248 0 0 0 0 10.808465386682656 1.8506798535067475 0 1.8506798535067475 -1.7339047371193317 0 0 0 0 21.788814689210994 3.1865175084146529 0 3.1865175084146529 -10.932881994055435 0 0 0 0 26.712950682413066 3.5750809838140754 0 3.5750809838140754 -19.171767417027098 0 0 0 0 14.080436410273251 -6.9547649311034547 0 -6.9547649311034547 -3.2242761595025513 0 0 0 0 7.8146147958125098 -0.11366410012765016 0 -0.11366410012765016 -6.7499322676104656 0 0 0 0 3.8344988114481815 -5.2018575629708863 0 -5.2018575629708863 -4.4602111547744467 0 0 0 0 2.5086540279862675 -3.5193376903041553 0 -3.5193376903041553 -13.247946162708104 0 0 0 0 -0.14965788585686823 -9.3558702570649075 0 -9.3558702570649075 -7.5288203099348721 0 0 0 0 0.54226161654878524 -3.0861359359842027 0 -3.0861359359842027 -1.9824303211780716 0 0 0 0 1.2992264610731823 -1.3124527076551402 0 -1.3124527076551402 -3.5042120609983654 0 0 0 0 4.6847659224004019 -1.3136799421465923 0 -1.3136799421465923 -2.7679039002464378 0 0 0 0 0.49814633524194818 -1.6524500333763967 0 -1.6524500333763967 -3.6004600272679559 0 0 0 0 7.279982990155986 -2.9078108766251951 0 -2.9078108766251951 -4.134986534168732 0 0 0 0 2.9601909160619613 -2.5237878447935529 0 -2.5237878447935529 -1.3215175465392095 0 0 0 0 12.537705384325818 2.141995591577512 0 2.141995591577512 0.68835109527128679 0 0 0 0 15.029772257788863 6.2157146317264846 0 6.2157146317264846 1.8859448367953746 0 0 0 0 17.311679031212407 4.6058892940782243 0 4.6058892940782243 -3.6128284412651084 0 0 0 0 2.0077957830726518 1.6565693507330224 0 1.6565693507330224 -2.3737696649046214 0 0 0 0 2.1048349949729328 -1.3467525494694215 0 -1.3467525494694215 0.50120035886652503 0 0 0 0 4.2240312894136878 -2.5686941732785087 0 -2.5686941732785087 -4.3171108388055757 0 0 0 0 0.65450847522965816 -0.16987831008231069 0 -0.16987831008231069 -0.46837707841260928 0 0 0 0 2.5540118719436578 -2.9498653081422033 0 -2.9498653081422033 6.5873283322096503 0 0 0 0 10.610508217409006 -11.548152117798988 0 -11.548152117798988 -1.9794571775888059 0 0 0 0 2.4908399241030565 -3.9122264805726052 0 -3.9122264805726052 -5.8254474716701088 0 0 0 0 -5.2533080783123296 -8.1386524569165246 0 -8.1386524569165246 2.703384184597283 0 0 0 0 307.30905540982349 -79.573787865014168 0 -79.573787865014168 -65.237849516807671 0 0 0 0 349.31241670376403 131.11530777477441 0 131.11530777477441 -31.470673477828512 0 0 0 0 277.71974796640279 84.619756513245306 0 84.619756513245306 -47.120836054347365 0 0 0 0 1.4574265135024191 0.059850792320361279 0 0.059850792320361279 -4.2600681691685951 0 0 0 0 74.01244270015377 25.583024170275223 0 25.583024170275223 14.216181724830903 0 0 0 0 1.6459766699190368 -4.6480871311723604 0 -4.6480871311723604 -1.6542308608886742 0 0 0 0 1.2976770142082614 0.26457978397832704 0 0.26457978397832704 -1.9526653356036539 0 0 0 0 141.24797817195213 11.41468052703317 0 11.41468052703317 -3.1324382407980238 0 0 0 0 20.992247410060372 -7.6322204560842692 0 -7.6322204560842692 -1.3710185110185193 0 0 0 0 -1.853403506952418 -1.9916273187539559 0 -1.9916273187539559 6.2663074236897955 0 0 0 0 13.691780570938135 -14.987685324834729 0 -14.987685324834729 -45.956228985232883 0 0 0 0 61.375677496907883 48.508002839538221 0 48.508002839538221 41.314153903892276 0 0 0 0 -0.63713388839096297 -46.484722854872871 0 -46.484722854872871 -12.874434435402236 0 0 0 0 0.23286098813164813 1.5295119754083011 0 1.5295119754083011 0.69963937325062675 0 0 0 0 99.185968464051257 129.37923052263955 0 129.37923052263955 164.78749532316624 0 0 0 0 -217.4966468331113 -188.87163771068117 0 -188.87163771068117 84.931373021287982 0 0 0 0 -39.821005311321642 -24.518043698137262 0 -24.518043698137262 39.238231269442622 0 0 0 0 -20.909655797675441 40.571470866929246 0 40.571470866929246 99.956632674678076 0 0 0 0 25.241634779711603 99.72464345528806 0 99.72464345528806 106.20699040703471 0 0 0 0 161.79402068559966 106.54129815262937 0 106.54129815262937 -13.995512588683596 0 0 0 0 195.0058130820762 130.3035070426165 0 130.3035070426165 0.9127314582199233 0 0 0 0 251.43616287643454 218.2363566437748 0 218.2363566437748 81.189876047318648 0 0 0 0 326.94476939692686 146.57576554356706 0 146.57576554356706 -121.91468195853713 0 0 0 0 212.17575581507117 102.57183143767622 0 102.57183143767622 -83.583293451627981 0 0 0 0 511.04448597324517 325.21201722168189 0 325.21201722168189 17.40525178047028 0 0 0 0 4.7849097953407238 1.8843677602887006 0 1.8843677602887006 0.76663119142262115 0 0 0 0 496.45473832567222 32.740203437367654 0 32.740203437367654 -160.47134446023506 0 0 0 0 247.18192152546544 209.95060596562598 0 209.95060596562598 74.353498866473728 0 0 0 0 425.15121669678774 314.77891393253958 0 314.77891393253958 453.31854232909427 0 0 0 0 255.50308693986517 186.51072095098903 0 186.51072095098903 136.7995183510784 0 0 0 0 821.22360924888198 407.81637572133877 0 407.81637572133877 146.17477629199675 0 0 0 0 282.22041232335323 69.628452822848885 0 69.628452822848885 522.06638776778618 0 0 0 0 368.76744550485455 389.00318481219756 0 389.00318481219756 462.4952438119949 0 0 0 0 949.62375764770695 184.4847815285666 0 184.4847815285666 -42.463895061145195 0 0 0 0 141.8281579765835 -207.44346674344609 0 -207.44346674344609 -306.18052028740067 0 0 0 0 376.77588745029061 106.97628357277472 0 106.97628357277472 -307.98256833520827 0 0 0 0 320.77186321924091 11.228339809250429 0 11.228339809250429 -62.769992953560575 0 0 0 0 8.3216957505226077 -5.2978286907322953 0 -5.2978286907322953 0.22259383162876301 0 0 0 0 285.4719495646641 145.76698908639025 0 145.76698908639025 -59.917138387921568 0 0 0 0 286.9220918555975 106.37988538479027 0 106.37988538479027 123.56546143209346 0 0 0 0 290.4599309382611 112.34959493258197 0 112.34959493258197 -51.327225833731035 0 0 0 0 7.506272984340967 -4.151798813026069 0 -4.151798813026069 -0.67454932450700689 0 0 0 0 61.371282307329238 -95.850425129461968 0 -95.850425129461968 -203.37911329011405 0 0 0 0 79.810443371517067 50.34464800938057 0 50.34464800938057 -39.778891218335048 0 0 0 0 -132.05944557737621 -385.21537000907261 0 -385.21537000907261 -186.61426484614645 0 0 0 0 -37.180475793633377 -3.8352177341394906 0 -3.8352177341394906 -82.86737052772466 0 0 0 0 304.40423547782484 -238.06389480086318 0 -238.06389480086318 -217.58933090298166 0 0 0 0 95.104084902381146 -54.372785199885897 0 -54.372785199885897 -8.825042420861223 0 0 0 0 245.69695951712492 -24.984440326436129 0 -24.984440326436129 -143.15064354577638 0 0 0 0 187.54792426879067 75.774804670013069 0 75.774804670013069 -30.068792557820586 0 0 0 0 398.86970494041816 98.387775145439022 0 98.387775145439022 -31.986202613667103 0 0 0 0 280.11833971188753 28.87700396594375 0 28.87700396594375 68.49744979337396 0 0 0 0 584.83928976616562 39.735378558332073 0 39.735378558332073 44.213706821001765 0 0 0 0 504.36202116032655 -119.92490306061322 0 -119.92490306061322 57.012942658537405 0 0 0 0 441.4629604514339 -57.215393890306068 0 -57.215393890306068 1.0170142172117871 0 0 0 0 362.15068928521941 -56.589871651433512 0 -56.589871651433512 -8.8216845154559795 0 0 0 0 273.11538499636299 -130.65695501168742 0 -130.65695501168742 76.222339534104435 0 0 0 0 8.4640976472164766 -0.23118325046037735 0 -0.23118325046037735 0.0035275611282996164 0 0 0 0 0.91954449507114333 0.35438004339600582 0 0.35438004339600582 -0.35273189236765273 0 0 0 0 8.6580485265694733 -0.49278591209410416 0 -0.49278591209410416 0.34475586239996969 0 0 0 0 7.9875924834414036 4.7162480765558179 0 4.7162480765558179 -1.2052979644975033 0 0 0 0 13.51897131727128 0.67581524902809553 0 0.67581524902809553 0.59685495214620576 0 0 0 0 442.52378569239227 -109.77716300046013 0 -109.77716300046013 -99.437700134142972 0 0 0 0 1.6678243527956269 1.4626205702598725 0 1.4626205702598725 -0.57264182309145628 0 0 0 0 445.32737357328733 -24.945602772700752 0 -24.945602772700752 6.7643654855533555 0 0 0 0 757.02554487025191 344.92072577860893 0 344.92072577860893 52.424813253114166 0 0 0 0 3.3344350675762513 -1.5684471959970239 0 -1.5684471959970239 -0.5835996592350472 0 0 0 0 631.21318027003872 -309.9158690196 0 -309.9158690196 -85.889272781804436 0 0 0 0 269.77147577085634 75.418282998348218 0 75.418282998348218 90.02292846192131 0 0 0 0 22.361280205725052 -5.780672608518735 0 -5.780672608518735 -9.2215678134698678 0 0 0 0 8.0637733007024508 -2.1067152963666054 0 -2.1067152963666054 0.91069008423783004 0 0 0 0 1.6217890415950862 1.6182801609433284 0 1.6182801609433284 -1.4699511650950077 0 0 0 0 -17.011889432869793 -11.297284483673186 0 -11.297284483673186 -4.4281847718370155 0 0 0 0 7.9103281880670693 -0.35857592157730456 0 -0.35857592157730456 -18.939101213915848 0 0 0 0 -0.0025357896285846948 0.045259870164684912 0 0.045259870164684912 -0.12235709343581198 0 0 0 0 5.2003139889229715 4.2234350768297508 0 4.2234350768297508 -8.9495214649612365 0 0 0 0 -0.69820776501455839 -11.257200351909743 0 -11.257200351909743 -13.164044507355042 0 0 0 0 6.5499514992516197 -0.90043858320930248 0 -0.90043858320930248 1.5530007080185069 0 0 0 0 4.8905986947575002 0.045679233080680892 0 0.045679233080680892 2.6268451595075071 0 0 0 0 -3.4446363552751791 7.1350776780136647 0 7.1350776780136647 -2.1884170394016778 0 0 0 0 5.9991613193706144 0.88357729212909719 0 0.88357729212909719 3.1940037904751288 0 0 0 0 12.728620885536657 -3.3401806807775514 0 -3.3401806807775514 0.0015778494098471285 0 0 0 0 8.1194888003265078 -1.9848668140305208 0 -1.9848668140305208 5.7785433543088081 0 0 0 0 22.112493165370324 -13.74465531757517 0 -13.74465531757517 5.3432842398513003 0 0 0 0 3.7885097589219185 -10.337045130959883 0 -10.337045130959883 11.812397416971024 0 0 0 0 30.007880051462053 -5.9201063223684507 0 -5.9201063223684507 0.01877681146071087 0 0 0 0 56.502968603152112 -26.636346810476383 0 -26.636346810476383 2.5526534353566444 0 0 0 0 25.407157088659005 -12.008971732876859 0 -12.008971732876859 2.7980647068310169 0 0 0 0 74.12105431078453 -52.328854810396621 0 -52.328854810396621 10.793965149191969 0 0 0 0 13.362186490099702 -17.792544370790342 0 -17.792544370790342 13.543641142716414 0 0 0 0 2.2674791444806033 4.0333399402975196 0 4.0333399402975196 -12.165440527401074 0 0 0 0 3.6355857940370697 -5.9237537755302689 0 -5.9237537755302689 -18.038734384165153 0 0 0 0 0.66835698388749165 -0.2754261118392094 0 -0.2754261118392094 0.12133130294334957 0 0 0 0 4.734008203871781 -35.86476078214865 0 -35.86476078214865 20.132062186055727 0 0 0 0 116.19032734444068 49.37829299909761 0 49.37829299909761 22.65640061491375 0 0 0 0 605.12183350101259 -12.624212094730183 0 -12.624212094730183 77.924589056944797 0 0 0 0 348.95201843576797 44.242507264777032 0 44.242507264777032 158.77212058295845 0 0 0 0 448.04858071843773 -242.45669084557005 0 -242.45669084557005 160.89506182268542 0 0 0 0 -77.751684396549535 67.938551511551395 0 67.938551511551395 103.50057434910923 0 0 0 0 881.3272228384385 -306.8803748166892 0 -306.8803748166892 137.06355662213809 0 0 0 0 48.847897238352743 240.49060475433089 0 240.49060475433089 93.40272244466405 0 0 0 0 4.063530351873041 2.9291847732167966 0 2.9291847732167966 2.5842437280285981 0 0 0 0 210.97151247473812 117.92057576849493 0 117.92057576849493 59.814940867041514 0 0 0 0 188.17649913626519 124.24637619567375 0 124.24637619567375 114.95807200226955 0 0 0 0 339.87764781533042 341.60869063165819 0 341.60869063165819 128.52478315424059 0 0 0 0 840.39725306800528 110.5388853566018 0 110.5388853566018 135.26482234922332 0 0 0 0 273.17738936147362 95.49680129990702 0 95.49680129990702 441.11839879689433 0 0 0 0 294.41467701175134 -49.850650890881525 0 -49.850650890881525 121.07032420255177 0 0 0 0 60.309853580823983 81.57994809327397 0 81.57994809327397 253.24653490942308 0 0 0 0 -59.166472720193269 29.429822947699677 0 29.429822947699677 127.96045204257354 0 0 0 0 49.284606280768458 -42.66217329742144 0 -42.66217329742144 159.9386252043214 0 0 0 0 345.79684163583443 22.45995536241071 0 22.45995536241071 154.66810645322039 0 0 0 0 99.63205493841815 13.961485792376379 0 13.961485792376379 164.44585033886273 0 0 0 0 336.39405901449936 -29.082090326861589 0 -29.082090326861589 119.15887102403633 0 0 0 0 89.516971017277683 40.543991916249951 0 40.543991916249951 179.61917894821818 0 0 0 0 108.44346604475868 -99.362929893720434 0 -99.362929893720434 192.96381116494331 0 0 0 0 277.15775542548727 -48.859472277174405 0 -48.859472277174405 113.7465516303871 0 0 0 0 333.99574105852116 -40.09263507047001 0 -40.09263507047001 77.285867505706392 0 0 0 0 286.96383901285299 -147.6970034815472 0 -147.6970034815472 124.26699654564572 0 0 0 0 344.63161888916875 -170.91872819840592 0 -170.91872819840592 105.03915533850204 0 0 0 0 431.1727555180114 -105.56759541676649 0 -105.56759541676649 85.393248294523346 0 0 0 0 333.07069197940291 -120.30857092569909 0 -120.30857092569909 92.46749061587974 0 0 0 0 325.72946727289082 -167.87424022974793 0 -167.87424022974793 68.515246207777182 0 0 0 0 70.300067095296981 -103.88576038202382 0 -103.88576038202382 48.677260123176893 0 0 0 0 10.159841962393969 4.8666303751070004 0 4.8666303751070004 -0.73680138079925239 0 0 0 0 307.28442106886359 -150.7159289863846 0 -150.7159289863846 63.116046887773791 0 0 0 0 34.295415616914397 17.81339607966288 0 17.81339607966288 -6.7073504377021891 0 0 0 0 62.244139891528903 -38.927212786416476 0 -38.927212786416476 -23.710296633417784 0 0 0 0 215.04736322953249 -113.13110904106043 0 -113.13110904106043 73.103150741671982 0 0 0 0 5.2129217848882305 0.2321879338467312 0 0.2321879338467312 0.11414140923030835 0 0 0 0 -7.1796419398669968 42.060651103542796 0 42.060651103542796 -20.386414792672269 0 0 0 0 290.93462966533843 -130.95270412643799 0 -130.95270412643799 97.488382806604932 0 0 0 0 281.50385594680483 -163.47020856691518 0 -163.47020856691518 88.025415127373435 0 0 0 0 11.328207075937343 8.2063964875451063 0 8.2063964875451063 5.2048136349978265 0 0 0 0 293.34200531399983 -145.86940573182346 0 -145.86940573182346 102.28904557617534 0 0 0 0 3.8122659309322557 -2.6390148607184543 0 -2.6390148607184543 0.66936869147998479 0 0 0 0 -300.55266111554374 -594.82198938032775 0 -594.82198938032775 3.0144242870480866 0 0 0 0 344.1148953084703 -166.39830246734817 0 -166.39830246734817 60.424030781654437 0 0 0 0 -337.41932303103385 -1.6531855647751854 0 -1.6531855647751854 159.01552944880905 0 0 0 0 -57.821672109639621 -140.1312274751549 0 -140.1312274751549 208.75163846275336 0 0 0 0 289.19338760620303 -365.69973127044 0 -365.69973127044 -138.45581310131638 0 0 0 0 1015.017991784689 188.3828500945566 0 188.3828500945566 -157.12086753078438 0 0 0 0 691.42734167198068 -682.52502255742684 0 -682.52502255742684 -98.244256324661364 0 0 0 0 467.67485172937677 210.42112920886058 0 210.42112920886058 2.0204015929184607 0 0 0 0 0.41969470482104043 -0.13772845311342508 0 -0.13772845311342508 -0.90265756618799387 0 0 0 0 407.9202889019507 -134.88953801576008 0 -134.88953801576008 -48.87156241437151 0 0 0 0 294.97656065207411 97.637639586029536 0 97.637639586029536 46.578394249080986 0 0 0 0 247.7950141904148 43.500037600356109 0 43.500037600356109 -77.326263643427126 0 0 0 0 138.13486087445199 -68.818761121584657 0 -68.818761121584657 1.8522107642231731 0 0 0 0 583.61425909786703 -61.966628438978148 0 -61.966628438978148 -30.700010089829448 0 0 0 0 261.8173132692591 -27.493374806853524 0 -27.493374806853524 19.646611741168499 0 0 0 0 281.48854618440237 42.767508892479782 0 42.767508892479782 -57.358648309620094 0 0 0 0 342.9428499611422 -35.311354869968454 0 -35.311354869968454 -28.844090968314958 0 0 0 0 235.96721640841497 35.428381675518779 0 35.428381675518779 -26.572298288922866 0 0 0 0 85.449254174229281 17.567303380133353 0 17.567303380133353 -119.65216164275262 0 0 0 0 0.1316673706035516 -5.7733683375531797 0 -5.7733683375531797 -8.6042306245870765 0 0 0 0 58.884922310602633 -15.201088663091298 0 -15.201088663091298 -19.245082566916153 0 0 0 0 24.415212111198343 -1.4892163432973575 0 -1.4892163432973575 -7.1835936569232217 0 0 0 0 0.65146566878352985 0.35134533465188156 0 0.35134533465188156 -2.6979124029935875 0 0 0 0 10.514152009644022 6.7093838450847443 0 6.7093838450847443 -6.3570258654396525 0 0 0 0 -2.2085780977268783 -4.9489287357866516 0 -4.9489287357866516 -5.5196438036225679 0 0 0 0 92.883082332373306 -24.924351231598848 0 -24.924351231598848 65.168248536474493 0 0 0 0 25.842679451472577 -6.0369263606714014 0 -6.0369263606714014 -7.5304879272721337 0 0 0 0 -74.290275127306813 -121.11818283117145 0 -121.11818283117145 44.214364616302646 0 0 0 0 90.073169790703105 -6.8791870832635595 0 -6.8791870832635595 57.403238393435458 0 0 0 0 330.65038253643434 -169.45511694578181 0 -169.45511694578181 -207.7354428927174 0 0 0 0 17.096973824576708 -5.4912583474650773 0 -5.4912583474650773 -5.512669640282752 0 0 0 0 39.829026983985386 66.189280516252381 0 66.189280516252381 127.28592780154713 0 0 0 0 611.09042343738838 172.02001949655278 0 172.02001949655278 44.99203422044593 0 0 0 0 -0.22511661163414942 -0.47228605747163499 0 -0.47228605747163499 -0.54695748413021938 0 0 0 0 1.6029702552874312 0.7804127500817799 0 0.7804127500817799 -0.23267710011517906 0 0 0 0 786.38219622500765 186.33968545355992 0 186.33968545355992 37.166326904476591 0 0 0 0 8.4009656915873734 -2.4022876838255129 0 -2.4022876838255129 -4.5984099781328238 0 0 0 0 3.2063749847506315 0.3765815687237648 0 0.3765815687237648 -4.0370529183935053 0 0 0 0 150.17271537875968 32.093522045483496 0 32.093522045483496 0.32305899057882925 0 0 0 0 14.8632290743044 -0.49358492304804713 0 -0.49358492304804713 -5.7079525150624022 0 0 0 0 153.82684272844926 42.235779663842116 0 42.235779663842116 8.2701171295151674 0 0 0 0 6.9066991172054202 -3.0966057115209082 0 -3.0966057115209082 -1.151903814614367 0 0 0 0 292.82201425940002 80.254182126453657 0 80.254182126453657 -6.934125946369079 0 0 0 0 2.7290238663579274 -1.598664716401089 0 -1.598664716401089 -6.0204403264141106 0 0 0 0 376.43344803863147 111.69746563513922 0 111.69746563513922 4.8612063637958727 0 0 0 0 259.22321544741135 96.235802380381472 0 96.235802380381472 -103.14754901598187 0 0 0 0 236.67688982830805 11.56879552554426 0 11.56879552554426 -129.42490725798928 0 0 0 0 234.54957301538525 52.401414767385177 0 52.401414767385177 -59.719349947213004 0 0 0 0 194.36139158349397 8.4985087115031206 0 8.4985087115031206 -28.660717788091446 0 0 0 0 248.75971947046492 114.20007815200114 0 114.20007815200114 -38.709100938220502 0 0 0 0 151.71992472314741 92.045881952177936 0 92.045881952177936 35.374240523558022 0 0 0 0 233.45183496007303 152.05666486445585 0 152.05666486445585 113.54644933866156 0 0 0 0 238.9634151774444 163.62156295926877 0 163.62156295926877 74.090989337643208 0 0 0 0 3.373017850816268 -8.820013243154941 0 -8.820013243154941 -4.2792506916930808 0 0 0 0 4.4414532548563415 -1.5231945965261104 0 -1.5231945965261104 0.011260977118245037 0 0 0 0 3.7957341478977469 -7.1066097801512296 0 -7.1066097801512296 0.0052187027075849416 0 0 0 0 -0.34986854848102666 -3.3596363463403787 0 -3.3596363463403787 -3.3453065848381893 0 0 0 0 -1.5916113164712442 -4.9291261026659674 0 -4.9291261026659674 -0.0091769701363951552 0 0 0 0 2.2051096306394129 -0.19389794841756469 0 -0.19389794841756469 -0.18001140653512743 0 0 0 0 550.28388894928867 342.26502168315517 0 342.26502168315517 212.99689063058958 0 0 0 0 389.56866103273933 10.222096202433931 0 10.222096202433931 -124.8807789425191 0 0 0 0 611.79779162588966 -89.260508714367802 0 -89.260508714367802 -80.611385424847413 0 0 0 0 15.027942918008193 -9.071798415749365 0 -9.071798415749365 -4.8878018945630863 0 0 0 0 3.6904140418730549 -4.0210216889102703 0 -4.0210216889102703 -0.6755383327835851 0 0 0 0 10.811995870157261 -2.4158231394500547 0 -2.4158231394500547 -2.9243004918890265 0 0 0 0 0.02220243484533313 -0.68405714700423914 0 -0.68405714700423914 -1.7647401790699593 0 0 0 0 397.31073605717393 -122.69783420089196 0 -122.69783420089196 -5.8297588706585737 0 0 0 0 18.393219912744826 -9.001292096291694 0 -9.001292096291694 -0.0084901556827792421 0 0 0 0 732.66910279208969 -520.95526426198603 0 -520.95526426198603 1.7136441391974988 0 0 0 0 1018.2949275835963 -72.000423524091985 0 -72.000423524091985 -180.94356361167615 0 0 0 0 5.0804986264437133 -1.6171949277232613 0 -1.6171949277232613 0.37792360712416095 0 0 0 0 762.19503814728523 268.78137010883916 0 268.78137010883916 -66.722491145545746 0 0 0 0 -9.0657756696164142 -15.310441178263616 0 -15.310441178263616 -0.038023683884450259 0 0 0 0 251.27580379863502 232.16853459107955 0 232.16853459107955 -68.933341097857465 0 0 0 0 -20.591332832631451 -36.60432145744528 0 -36.60432145744528 -52.7921751751378 0 0 0 0 554.51962440431817 13.032345934172554 0 13.032345934172554 -178.2278226482324 0 0 0 0 594.18941443214135 74.01767529343374 0 74.01767529343374 -171.11029838988543 0 0 0 0 519.20696358053829 104.83412540996824 0 104.83412540996824 -66.901786230879225 0 0 0 0 524.32987978504252 75.365751779451671 0 75.365751779451671 -157.88443276283033 0 0 0 0 376.49012343970753 113.86262399097632 0 113.86262399097632 -15.817459801676705 0 0 0 0 623.88424945125007 187.49502084180995 0 187.49502084180995 -110.75699612353287 0 0 0 0 364.44239634803671 149.48946407962967 0 149.48946407962967 -170.71526656199961 0 0 0 0 264.80138792999787 104.58174538589935 0 104.58174538589935 -92.091431593560173 0 0 0 0 389.08818231410032 -53.221132892879183 0 -53.221132892879183 -203.45344705013304 0 0 0 0 867.87638846448317 -76.951569534516352 0 -76.951569534516352 35.763698580492473 0 0 0 0 345.63160000159769 7.4947374330415641 0 7.4947374330415641 23.299546850865681 0 0 0 0 475.48283256758077 289.64841849663719 0 289.64841849663719 72.816281402809182 0 0 0 0 621.09930748131592 373.76858169448724 0 373.76858169448724 38.802745148511804 0 0 0 0 264.57803859843989 161.29588693453115 0 161.29588693453115 92.063196741705724 0 0 0 0 598.49096639928757 293.91624796029555 0 293.91624796029555 70.610025168411084 0 0 0 0 502.16006609005854 227.9838149340394 0 227.9838149340394 46.504566280314066 0 0 0 0 492.98131965061475 247.04897112228809 0 247.04897112228809 130.48449372014784 0 0 0 0 693.87017292840756 288.63875885322523 0 288.63875885322523 61.838731716569782 0 0 0 0 487.00971242313517 200.36456239375593 0 200.36456239375593 40.149944617338406 0 0 0 0 -21.41893078951307 -156.21645146427323 0 -156.21645146427323 65.832691664522372 0 0 0 0 225.17110581360612 -197.16127765170336 0 -197.16127765170336 -31.660316841023587 0 0 0 0 8.15622718021541 57.859627153552353 0 57.859627153552353 118.49672553153914 0 0 0 0 -158.90388171933591 -8.4430569018420556 0 -8.4430569018420556 -102.00712457151258 0 0 0 0 10.479573769833763 -7.6295131460980201 0 -7.6295131460980201 4.6892458648386892 0 0 0 0 -50.554896266059586 -328.32008279565105 0 -328.32008279565105 -248.50733908745178 0 0 0 0 -32.942731685347098 -60.141540796522328 0 -60.141540796522328 -46.748174017735202 0 0 0 0 -22.853232746007052 -34.983032874083833 0 -34.983032874083833 -20.721889053967445 0 0 0 0 -21.67820441632648 -37.116229499066222 0 -37.116229499066222 -24.390443291647582 0 0 0 0 142.00636264806235 -241.07898666750805 0 -241.07898666750805 -349.65896365284516 0 0 0 0 9.8403997657622 -5.6861557881730391 0 -5.6861557881730391 2.6086991302913578 0 0 0 0 -13.346018165293572 -25.437774796208963 0 -25.437774796208963 -21.050247595674492 0 0 0 0 -28.376133194098657 -30.161171187298738 0 -30.161171187298738 -0.0058597355805201853 0 0 0 0 -35.010396123823739 -41.634173489339467 0 -41.634173489339467 -15.393294953004002 0 0 0 0 -37.828429057663016 -42.186185621113552 0 -42.186185621113552 -0.019279020645493458 0 0 0 0 -30.531622051117665 -46.692531527629654 0 -46.692531527629654 -18.038336924058243 0 0 0 0 -36.795301194277272 -49.756804720686873 0 -49.756804720686873 -15.587390140796742 0 0 0 0 9.9596261575561158 -33.072432824815074 0 -33.072432824815074 9.4423935963882286 0 0 0 0 10.026148863307753 -42.143076869400481 0 -42.143076869400481 -25.2678395681328 0 0 0 0 -29.612709372402151 -51.641006962584932 0 -51.641006962584932 0.02889045958107973 0 0 0 0 -44.012466506330384 -53.986609561555454 0 -53.986609561555454 -13.037325961446186 0 0 0 0 42.520842854020884 -64.645244359635328 0 -64.645244359635328 -29.175099977229991 0 0 0 0 8.9776207736449578 -29.315482974470726 0 -29.315482974470726 -50.920447804921963 0 0 0 0 -36.673561393490672 -74.26264931625397 0 -74.26264931625397 -71.134668094266431 0 0 0 0 8.7959282136194474 -7.4013380692135442 0 -7.4013380692135442 5.3663425064790955 0 0 0 0 -120.26980700901913 -212.16913602884188 0 -212.16913602884188 -84.558979687847341 0 0 0 0 -119.78742436022003 -25.957078049177198 0 -25.957078049177198 -82.181078049069697 0 0 0 0 -98.44238319256965 -94.364454105226656 0 -94.364454105226656 149.77975065386772 0 0 0 0 -73.177128291390545 -24.136928464821608 0 -24.136928464821608 8.5066706656648421 0 0 0 0 6.0539405174529151 -5.5364723316712343 0 -5.5364723316712343 4.4186965320533513 0 0 0 0 -85.214757730117981 -89.24854445149461 0 -89.24854445149461 73.214387594375694 0 0 0 0 -24.835080162156373 -108.65864787982514 0 -108.65864787982514 -83.10187369574777 0 0 0 0 -43.31623113130172 -40.292227002598779 0 -40.292227002598779 424.14145242224185 0 0 0 0 -34.152583050425164 -17.817511748981701 0 -17.817511748981701 115.90849959479146 0 0 0 0 -92.020571813933202 -51.616859555330166 0 -51.616859555330166 212.9801431104604 0 0 0 0 23.024609870732093 -76.211793629923761 0 -76.211793629923761 85.967657196065602 0 0 0 0 -30.27604113115558 -16.584441055594056 0 -16.584441055594056 86.175517879927838 0 0 0 0 20.651411309263494 -95.809210805116606 0 -95.809210805116606 165.71351945148569 0 0 0 0 -0.24921503704717907 8.4688302360620469 0 8.4688302360620469 191.68685707802138 0 0 0 0 -41.376363931256492 -38.706592736157916 0 -38.706592736157916 206.31407048288258 0 0 0 0 -37.85004299935099 -25.537613787550754 0 -25.537613787550754 166.99681392196169 0 0 0 0 -69.055000815715175 -7.8431759512416193 0 -7.8431759512416193 175.1199751886125 0 0 0 0 0.12029842501033627 0.02639199229227529 0 0.02639199229227529 -0.27295768278931298 0 0 0 0 -49.44950055767913 -24.299903935434656 0 -24.299903935434656 168.10262809173855 0 0 0 0 97.008518242111677 -2.658116816049187 0 -2.658116816049187 122.77793520397813 0 0 0 0 125.2844611261371 20.557201257888579 0 20.557201257888579 31.261851749981588 0 0 0 0 118.0965812800423 -19.321042328231783 0 -19.321042328231783 -23.009157043761434 0 0 0 0 58.143203534458735 54.019704526521082 0 54.019704526521082 40.228479695111844 0 0 0 0 114.30810844230291 -95.789707387328917 0 -95.789707387328917 9.2925316997628897 0 0 0 0 176.03637963084839 -222.96400276198699 0 -222.96400276198699 220.81469867870612 0 0 0 0 250.40457711706767 -13.957742179797037 0 -13.957742179797037 55.137797992199125 0 0 0 0 77.286131624918198 56.77607032237205 0 56.77607032237205 214.77961875539359 0 0 0 0 126.56577873262722 -199.57137374252437 0 -199.57137374252437 272.93280240203796 0 0 0 0 2.2361126705992547 -2.1028777182813911 0 -2.1028777182813911 1.9173597276787344 0 0 0 0 36.225288411937072 -22.981057224505719 0 -22.981057224505719 -41.239549455237977 0 0 0 0 241.54039926758924 -120.17777161543833 0 -120.17777161543833 -107.93335941714332 0 0 0 0 92.100818472987157 -103.38322737538073 0 -103.38322737538073 55.447512692801325 0 0 0 0 109.79129593687321 -66.452911775651415 0 -66.452911775651415 99.36103182753493 0 0 0 0 110.09454967458441 -38.343079706401113 0 -38.343079706401113 134.29380883595476 0 0 0 0 147.11452525985078 -52.217882314208651 0 -52.217882314208651 45.865372237586939 0 0 0 0 188.94853751763003 -58.371765844932213 0 -58.371765844932213 11.044451972480402 0 0 0 0 144.56590140460366 -65.38079809684497 0 -65.38079809684497 34.811007302967084 0 0 0 0 146.6092568441527 -82.368767900091882 0 -82.368767900091882 50.531624078734296 0 0 0 0 164.16694630351412 -56.28389266154862 0 -56.28389266154862 -16.732989253679214 0 0 0 0 166.522670119135 -66.630626803367633 0 -66.630626803367633 8.2865606216602146 0 0 0 0 161.6075569668792 -43.097582764741105 0 -43.097582764741105 -60.596374678826265 0 0 0 0 162.08422224567767 -99.458689231482964 0 -99.458689231482964 7.4723292780356303 0 0 0 0 66.460668245421402 -21.970443066897431 0 -21.970443066897431 -5.3128567424137429 0 0 0 0 125.03711614980784 -54.820613707127379 0 -54.820613707127379 5.5206134171412202 0 0 0 0 125.73803885279267 -55.3477292280011 0 -55.3477292280011 -27.062892031388984 0 0 0 0 121.16191887004607 -59.332879425310956 0 -59.332879425310956 0.016622265309416497 0 0 0 0 67.762587472116138 -58.963413888354793 0 -58.963413888354793 -0.033889497108261835 0 0 0 0 80.946843376026663 -31.968035262063108 0 -31.968035262063108 -0.73234664043572562 0 0 0 0 202.85574183682184 -61.063381682935059 0 -61.063381682935059 -5.9989273748303589 0 0 0 0 162.08694638545785 -49.037849493774992 0 -49.037849493774992 -21.477195117121859 0 0 0 0 162.07461221491394 -47.370000961177837 0 -47.370000961177837 10.777570529510333 0 0 0 0 207.48205117400357 -64.542338413027935 0 -64.542338413027935 -0.01118359662842696 0 0 0 0 235.71277643601934 -36.157040729417616 0 -36.157040729417616 21.070125802816634 0 0 0 0 233.55107271217275 -30.604985838819431 0 -30.604985838819431 6.8979333774201166 0 0 0 0 199.83509487674746 -53.079598123649134 0 -53.079598123649134 10.441678350066098 0 0 0 0 227.18794439676276 -53.063145431814661 0 -53.063145431814661 1.910400324315944 0 0 0 0 235.80453445974126 -35.314412128589808 0 -35.314412128589808 12.973734831453157 0 0 0 0 265.18080543927499 -11.741918560479121 0 -11.741918560479121 -1.5478377090475988 0 0 0 0 246.56086163666623 -5.522263307520916 0 -5.522263307520916 9.9883573928669307 0 0 0 0 269.31697098424775 -24.862368188535186 0 -24.862368188535186 1.2041194034331966 0 0 0 0 237.86673468217487 -49.226157271789589 0 -49.226157271789589 4.8990752483875042 0 0 0 0 247.36862588526856 -19.763005108543126 0 -19.763005108543126 2.5228783907486445 0 0 0 0 276.04853952287522 -48.034008870596296 0 -48.034008870596296 12.241441496093515 0 0 0 0 304.11368042470713 26.592270674612116 0 26.592270674612116 23.372396006648216 0 0 0 0 320.62718432331167 -4.0848362960916091 0 -4.0848362960916091 9.0834434407908233 0 0 0 0 285.7144108042994 17.839176944852056 0 17.839176944852056 23.680104561108692 0 0 0 0 392.64537727777497 22.069229589039324 0 22.069229589039324 -17.338239285412584 0 0 0 0 322.77576914108067 -50.666131029784907 0 -50.666131029784907 0.040656817707616782 0 0 0 0 1.4495269394932393 0.16324368145811974 0 0.16324368145811974 -0.026409737438755798 0 0 0 0 0.68848780080870853 -0.44160556973405107 0 -0.44160556973405107 0.20925754373664782 0 0 0 0 2.1656698114966275 -0.043482399212886449 0 -0.043482399212886449 0.00060908610040060049 0 0 0 0 2.2244090293315821 -0.38334011012049168 0 -0.38334011012049168 0.21045831077745636 0 0 0 0 2.5395889575156616 -0.11457967447053863 0 -0.11457967447053863 -0.085419235636478283 0 0 0 0 0.63560571125231036 -0.042775745899653828 0 -0.042775745899653828 -0.033455777396858476 0 0 0 0 1.1334262194613984 0.11627374750229726 0 0.11627374750229726 -0.00019513581322722103 0 0 0 0 1.242009452151251 -0.22645628809371235 0 -0.22645628809371235 0.20273989448805951 0 0 0 0 82.983472313759989 -52.605417609642821 0 -52.605417609642821 -4.8182502261843378 0 0 0 0 235.75618339356879 13.377760047052874 0 13.377760047052874 2.9550085534283426 0 0 0 0 83.768699443251535 -28.579183189603128 0 -28.579183189603128 9.2319020796534943 0 0 0 0 0.71137654162983921 -0.31790880025423007 0 -0.31790880025423007 1.0141066888458086 0 0 0 0 55.289085341801183 -15.13020128585611 0 -15.13020128585611 4.0158827878397503 0 0 0 0 358.59670156048378 3.9614605624099113 0 3.9614605624099113 19.516192464334381 0 0 0 0 0.17374779186292244 -0.098141826552023304 0 -0.098141826552023304 -0.028347273745888579 0 0 0 0 305.96121326326102 89.720892037693261 0 89.720892037693261 -16.655558589361419 0 0 0 0 236.69124329521583 15.448880928427883 0 15.448880928427883 -3.500066358858362 0 0 0 0 159.41303087570122 11.279688851101525 0 11.279688851101525 -1.3300217866199091 0 0 0 0 119.7667438044009 -79.510945565094943 0 -79.510945565094943 51.15677652254692 0 0 0 0 145.7182351396259 -1.2446631905938688 0 -1.2446631905938688 -18.907072679623639 0 0 0 0 1.602421526415327 0.75890352493434676 0 0.75890352493434676 0.36712796836055017 0 0 0 0 269.23488981380069 -173.23863215805449 0 -173.23863215805449 40.423788367676657 0 0 0 0 156.11444707170449 -36.989299530726797 0 -36.989299530726797 32.216205025969828 0 0 0 0 147.43213271693821 -7.2889853101151516 0 -7.2889853101151516 1.6783402240814667 0 0 0 0 422.65395666183031 71.185651791612642 0 71.185651791612642 -318.49909951405198 0 0 0 0 0.47195656758835725 -0.72742606952320443 0 -0.72742606952320443 2.1192717666745096 0 0 0 0 166.29496392968576 11.70525670671941 0 11.70525670671941 -53.137132641117205 0 0 0 0 170.75366085459245 -8.914148094965185 0 -8.914148094965185 -36.296506661262356 0 0 0 0 170.95934666670837 -10.680350607608275 0 -10.680350607608275 -21.166992201462108 0 0 0 0 178.1705129967886 1.7123793900070723 0 1.7123793900070723 -1.9497479414470433 0 0 0 0 205.80665295082144 -11.091892838289652 0 -11.091892838289652 -7.2948545937970692 0 0 0 0 194.77699147273961 -21.911210482412599 0 -21.911210482412599 -3.892224591154104 0 0 0 0 187.12387206938729 -9.8897854591724297 0 -9.8897854591724297 12.321883405906874 0 0 0 0 185.00542897161358 -42.760155008894479 0 -42.760155008894479 8.2513935537152747 0 0 0 0 198.49674200545996 -31.851499732703303 0 -31.851499732703303 11.685094436819242 0 0 0 0 181.57253307613428 -17.282607325876313 0 -17.282607325876313 20.445712942119656 0 0 0 0 224.8823253862065 -42.19210088050383 0 -42.19210088050383 2.2774904077414249 0 0 0 0 206.64385441519698 -45.755768825154718 0 -45.755768825154718 1.5840334491871602 0 0 0 0 217.92639906510158 -19.403508187980719 0 -19.403508187980719 -2.4352575386410251 0 0 0 0 230.31994292303352 -25.802804626710213 0 -25.802804626710213 -6.0243301093129276 0 0 0 0 316.22967660854738 3.3427150869504647 0 3.3427150869504647 53.566653150508458 0 0 0 0 132.38823139521264 -44.889997926176612 0 -44.889997926176612 52.515632921187752 0 0 0 0 281.35367700258757 -52.105787396765649 0 -52.105787396765649 -0.12605419870830878 0 0 0 0 180.41047800934757 -20.091009902332168 0 -20.091009902332168 101.17131182542808 0 0 0 0 196.53549360410034 33.315981490253648 0 33.315981490253648 -51.610781346328864 0 0 0 0 2.1207183040193343 0.60010243885701442 0 0.60010243885701442 -0.11075240197131644 0 0 0 0 393.36592320975797 -184.48739529653878 0 -184.48739529653878 -6.6968615508302491 0 0 0 0 304.79317375374376 -269.82659396673051 0 -269.82659396673051 40.592851491348469 0 0 0 0 18.597357384547649 90.989380267205661 0 90.989380267205661 -55.875115791484198 0 0 0 0 23.893933105333417 -42.262885804669132 0 -42.262885804669132 -0.49688580548535288 0 0 0 0 71.46635430925744 -13.386130635374753 0 -13.386130635374753 0.28899415279763818 0 0 0 0 141.79230313986773 -31.021619239699803 0 -31.021619239699803 -19.39310116636209 0 0 0 0 134.0450424577939 -122.93874696114771 0 -122.93874696114771 72.59527524557484 0 0 0 0 3.6412497989689001 1.4967009448230328 0 1.4967009448230328 0.042140881348707471 0 0 0 0 92.911634864509324 -18.056455536923341 0 -18.056455536923341 -43.209702987922753 0 0 0 0 86.805335118751827 -41.026983135325779 0 -41.026983135325779 6.4148585184969704 0 0 0 0 161.05895119484194 -159.02275205312176 0 -159.02275205312176 -2.4377918597334487 0 0 0 0 428.42162676900625 -239.66307926120908 0 -239.66307926120908 135.77751487530583 0 0 0 0 252.58894270819656 -52.726758163647759 0 -52.726758163647759 36.812039923302635 0 0 0 0 347.14092034078203 117.27314415167916 0 117.27314415167916 228.62420175386387 0 0 0 0 133.00798625346943 111.85178089933383 0 111.85178089933383 -40.393016387119509 0 0 0 0 90.294522531212351 -81.062220644111349 0 -81.062220644111349 91.350582703826717 0 0 0 0 294.77046904036251 -196.31990758046734 0 -196.31990758046734 40.115500227244901 0 0 0 0 237.03583652661655 -290.44300104801925 0 -290.44300104801925 -112.85523689042975 0 0 0 0 196.34027351473924 -173.53499114656702 0 -173.53499114656702 0.84824350087092881 0 0 0 0 551.64241241749551 -164.06549621036993 0 -164.06549621036993 -176.49983763809647 0 0 0 0 1.218974296840841 -1.950873431486805 0 -1.950873431486805 2.1248980084257711 0 0 0 0 560.71512013504253 48.445505766068855 0 48.445505766068855 -20.536422643484599 0 0 0 0 247.00962936606084 -199.58018554731649 0 -199.58018554731649 139.59823714807192 0 0 0 0 0.82386543868859263 0.20648838089886112 0 0.20648838089886112 -1.9107820742450632 0 0 0 0 -195.77528228610754 -148.3247345564742 0 -148.3247345564742 23.091193229353905 0 0 0 0 6.5711429520015372 -76.259494634907924 0 -76.259494634907924 33.795716843520125 0 0 0 0 102.60290697393066 -181.72869521534238 0 -181.72869521534238 -30.714953951999291 0 0 0 0 154.6268597929411 -37.959894396413532 0 -37.959894396413532 40.633110973794942 0 0 0 0 226.20201759156771 -164.59837956108504 0 -164.59837956108504 -28.854648317888376 0 0 0 0 3.9371475763400667 0.15763815564542938 0 0.15763815564542938 0.23680387921297408 0 0 0 0 -96.307022639561183 -41.960390912901886 0 -41.960390912901886 104.74986979977132 0 0 0 0 2.0068933216533651 -1.5450892016638846 0 -1.5450892016638846 0.46149524343869497 0 0 0 0 3.8305787286226405 -2.9029696835238497 0 -2.9029696835238497 0.26396722768114333 0 0 0 0 -71.983341462833778 -92.566688486781786 0 -92.566688486781786 -63.231234151266534 0 0 0 0 -29.06372038356858 -16.248162083481866 0 -16.248162083481866 -65.862168876225269 0 0 0 0 2.5288108479494724 -2.1905813980340412 0 -2.1905813980340412 0.96075324821550079 0 0 0 0 1.9205646776686507 -2.1807812606467252 0 -2.1807812606467252 -0.39472550846803722 0 0 0 0 311.7734998564265 35.679394946920524 0 35.679394946920524 1.5729732518578032 0 0 0 0 92.656947315159414 -27.13367209225185 0 -27.13367209225185 0.60730569892544395 0 0 0 0 277.24177340955066 -25.257645323708289 0 -25.257645323708289 -58.9277907023382 0 0 0 0 280.0573236571654 -32.267160228813395 0 -32.267160228813395 -45.488213708749981 0 0 0 0 65.102063540674862 23.292778583781683 0 23.292778583781683 -23.213839520062947 0 0 0 0 314.07464414570131 -75.360108820939672 0 -75.360108820939672 6.4635292118892949 0 0 0 0 300.60678481707873 -40.814828986517341 0 -40.814828986517341 -13.204590215536314 0 0 0 0 412.05937440165144 -47.774895931158994 0 -47.774895931158994 -57.890416329564971 0 0 0 0 349.08164020924596 69.904692546621959 0 69.904692546621959 -9.1745361141324508 0 0 0 0 122.73203862132505 47.969148234116005 0 47.969148234116005 99.280078685980129 0 0 0 0 265.63481120978827 15.443729608521256 0 15.443729608521256 69.077001261971304 0 0 0 0 266.24545730950194 25.92161197544506 0 25.92161197544506 -25.318585296811619 0 0 0 0 317.85430632744828 2.5032142610265282 0 2.5032142610265282 -35.980535907762658 0 0 0 0 387.23947546280397 -36.816299278123083 0 -36.816299278123083 -44.922950954514107 0 0 0 0 283.73946423959933 -108.53822433582044 0 -108.53822433582044 29.768448469257862 0 0 0 0 151.66638528682961 -31.904201227376873 0 -31.904201227376873 49.629810587645892 0 0 0 0 146.20003112491941 -40.452463185898637 0 -40.452463185898637 91.522519004185341 0 0 0 0 -26.645045816399943 -63.649517619529377 0 -63.649517619529377 103.06220731670567 0 0 0 0 65.258484617348586 -33.631305217111461 0 -33.631305217111461 118.71872378215036 0 0 0 0 116.36225140748866 2.0938536581483049 0 2.0938536581483049 141.53978491782789 0 0 0 0 53.612351241757551 26.616988284216426 0 26.616988284216426 140.94230451925296 0 0 0 0 38.229272326847422 7.7601832512511919 0 7.7601832512511919 129.09414588430843 0 0 0 0 67.558744177236804 93.638002797165029 0 93.638002797165029 139.74128085575944 0 0 0 0 41.784775285057549 28.025090859058935 0 28.025090859058935 79.853919247755016 0 0 0 0 -45.770908421316562 21.327043304779863 0 21.327043304779863 116.26711748235994 0 0 0 0 3.6907159553411475 -48.911264479819209 0 -48.911264479819209 22.1730672022004 0 0 0 0 38.86382009510271 14.603357975173878 0 14.603357975173878 -90.710735325792143 0 0 0 0 78.935097602956375 178.92113830340358 0 178.92113830340358 76.788303310388869 0 0 0 0 3.9414111773622125 1.7820670887807708 0 1.7820670887807708 0.91003113345680586 0 0 0 0 416.12304135624436 -202.68789459554398 0 -202.68789459554398 82.774015213113387 0 0 0 0 318.66801923133607 129.26589447878359 0 129.26589447878359 86.201365735186755 0 0 0 0 176.25641479915794 63.247625905459586 0 63.247625905459586 103.52322162702558 0 0 0 0 237.98528820863248 228.61840379077915 0 228.61840379077915 145.84903800035647 0 0 0 0 535.1810946262558 100.02142957064029 0 100.02142957064029 -26.858488093788253 0 0 0 0 592.24119957330549 -38.741740975211869 0 -38.741740975211869 1.4037809859700587 0 0 0 0 184.75220007755706 -96.694801590098962 0 -96.694801590098962 82.308964652946997 0 0 0 0 1.4043665710427433 -0.15710985250661924 0 -0.15710985250661924 0.090944770039271108 0 0 0 0 498.76193625986525 -80.465231055748973 0 -80.465231055748973 -15.683867358933298 0 0 0 0 591.66305794888831 15.989948950879374 0 15.989948950879374 -47.895214465758414 0 0 0 0 441.38613915496171 248.52300481850617 0 248.52300481850617 55.830208234219299 0 0 0 0 -186.54769849584409 -22.507829561097594 0 -22.507829561097594 150.87333109543115 0 0 0 0 114.65264881174517 125.39790102726909 0 125.39790102726909 57.246118573920576 0 0 0 0 126.59321660548449 101.73132218629759 0 101.73132218629759 61.055445030333772 0 0 0 0 -24.639886239536281 64.946318759281866 0 64.946318759281866 83.138200735561156 0 0 0 0 36.806107210904884 192.8851222078228 0 192.8851222078228 224.60176820379104 0 0 0 0 15.358110722612764 -1.8573428342571106 0 -1.8573428342571106 -2.6736109536552704 0 0 0 0 0.93298834137936382 0.036733956750325092 0 0.036733956750325092 -0.47253009652255717 0 0 0 0 -12.448137982719345 -62.413308112535447 0 -62.413308112535447 82.039197035744991 0 0 0 0 3.5349982092939172 -2.5023654779929068 0 -2.5023654779929068 0.52912049328585908 0 0 0 0 3.8439378169165366 -1.8738235985004954 0 -1.8738235985004954 0.45361792810645618 0 0 0 0 152.91967386365286 -11.990989391135031 0 -11.990989391135031 74.419663820419487 0 0 0 0 141.80948990282195 -4.9529114038134594 0 -4.9529114038134594 120.69866163702386 0 0 0 0 174.32964313332195 -55.376400387107878 0 -55.376400387107878 113.92532062494062 0 0 0 0 108.50286526777654 -29.139842758598149 0 -29.139842758598149 88.697410970928786 0 0 0 0 152.96517625328124 -32.880976825588732 0 -32.880976825588732 85.955467899723715 0 0 0 0 140.68926097929943 -25.604140655651122 0 -25.604140655651122 72.111050961826095 0 0 0 0 143.93925659733941 -15.523489748532597 0 -15.523489748532597 91.773096054673317 0 0 0 0 158.43098184092014 -25.027657703412558 0 -25.027657703412558 32.869563829939921 0 0 0 0 158.39101051729813 -33.230984644692228 0 -33.230984644692228 67.980346059137673 0 0 0 0 161.02968232314379 -8.7865121213641828 0 -8.7865121213641828 74.961730077759057 0 0 0 0 165.0706111876425 17.372892133397386 0 17.372892133397386 28.839091377915679 0 0 0 0 167.02784969791537 5.2390467156715204 0 5.2390467156715204 3.8884516838684249 0 0 0 0 105.09125410023989 36.476279497942699 0 36.476279497942699 92.611250867355466 0 0 0 0 158.40408784685133 45.515848078043064 0 45.515848078043064 -31.342861014010793 0 0 0 0 158.79086514118535 42.145534705051318 0 42.145534705051318 -2.0082492931647948 0 0 0 0 0.43724140608700779 -0.58485758566683899 0 -0.58485758566683899 1.2133066749832018 0 0 0 0 284.67967775266879 -52.286949945066624 0 -52.286949945066624 254.64866917492338 0 0 0 0 163.54138859950399 15.058151985728571 0 15.058151985728571 50.495857705419894 0 0 0 0 121.24003544670086 -1.34443848787447 0 -1.34443848787447 168.06610017969888 0 0 0 0 131.3539020143362 38.507280023773092 0 38.507280023773092 81.993143399798782 0 0 0 0 239.18128085067292 -44.760397068524256 0 -44.760397068524256 52.054328904831721 0 0 0 0 286.15544119715196 -88.091073539747356 0 -88.091073539747356 82.317159870526552 0 0 0 0 39.013051298745268 111.03286279407416 0 111.03286279407416 -35.860454569702441 0 0 0 0 116.88967780153325 6.9014104676650163 0 6.9014104676650163 103.99525462984201 0 0 0 0 59.705843752275541 -20.959806584314052 0 -20.959806584314052 169.10800925315732 0 0 0 0 127.28961581506883 -0.90649061987201662 0 -0.90649061987201662 208.17162250744752 0 0 0 0 192.71530290500959 -81.780338260421274 0 -81.780338260421274 196.09702624628028 0 0 0 0 125.72929254262999 -14.443902202599702 0 -14.443902202599702 146.88355826665594 0 0 0 0 58.621881803023371 -23.081003378704338 0 -23.081003378704338 150.64257932198916 0 0 0 0 125.67842264674255 -44.074529142697997 0 -44.074529142697997 206.4450592028976 0 0 0 0 152.40636119720875 -16.057703992629399 0 -16.057703992629399 125.47548414470327 0 0 0 0 223.20724818558665 -109.05194532386429 0 -109.05194532386429 170.43586080424581 0 0 0 0 278.16332754842006 -42.707634739783146 0 -42.707634739783146 138.03302984881941 0 0 0 0 169.46496737446432 -57.912067896933877 0 -57.912067896933877 128.28993921890697 0 0 0 0 208.83257856816635 -96.582359155962195 0 -96.582359155962195 110.17889838327255 0 0 0 0 232.66688437142875 -92.120183123859874 0 -92.120183123859874 108.06573515480756 0 0 0 0 233.7747386578485 -91.611817490423391 0 -91.611817490423391 53.408120637667025 0 0 0 0 40.699993249063482 2.7373406961831108 0 2.7373406961831108 19.665427982248389 0 0 0 0 -0.19348880956196268 -0.50509919712926887 0 -0.50509919712926887 0.45688466297429642 0 0 0 0 20.533367549964169 1.9407318465971457 0 1.9407318465971457 134.81573457077207 0 0 0 0 18.543524544362299 -14.840455916369308 0 -14.840455916369308 9.2845306425107879 0 0 0 0 230.78215863135847 -77.990218881821079 0 -77.990218881821079 26.233170383455217 0 0 0 0 240.42736530194816 -72.135695906600517 0 -72.135695906600517 24.176575569839031 0 0 0 0 229.7796154491225 -46.982076850938483 0 -46.982076850938483 11.261649372210968 0 0 0 0 216.29128372034756 -49.552461433872168 0 -49.552461433872168 34.736153694719363 0 0 0 0 195.67619527066563 -70.257005744985122 0 -70.257005744985122 65.071686463483502 0 0 0 0 170.74760923895155 -23.317242516062436 0 -23.317242516062436 34.416388418371753 0 0 0 0 199.11757960769864 -59.16515916751726 0 -59.16515916751726 79.712381390630071 0 0 0 0 153.84512822740362 -31.612524098915458 0 -31.612524098915458 87.049820817397631 0 0 0 0 159.00201382469095 -22.850636879640206 0 -22.850636879640206 85.33706458563671 0 0 0 0 139.51265743668046 -21.217260941772224 0 -21.217260941772224 85.361380558503015 0 0 0 0 177.16833496391337 -18.351626501828605 0 -18.351626501828605 25.68878427819061 0 0 0 0 186.50352350615867 -13.73186892838288 0 -13.73186892838288 0.20560416805915338 0 0 0 0 240.00054276756055 -41.741239371043719 0 -41.741239371043719 1.1168363745073293 0 0 0 0 339.31861681076884 64.589720417925449 0 64.589720417925449 -18.277318560495132 0 0 0 0 353.24903815848666 -100.27431003096603 0 -100.27431003096603 -41.88058318485264 0 0 0 0 253.42278435730259 -87.512710256040691 0 -87.512710256040691 -29.891129582404119 0 0 0 0 249.9139848028808 -90.787090569338773 0 -90.787090569338773 35.536016219994963 0 0 0 0 314.90764981455868 -77.173596496611935 0 -77.173596496611935 27.63346364870813 0 0 0 0 234.59096737582149 -48.202971705361733 0 -48.202971705361733 -4.6876008970127714 0 0 0 0 250.23274200620654 -56.382476904953933 0 -56.382476904953933 22.292862854323175 0 0 0 0 246.02279732305396 -63.12725418231355 0 -63.12725418231355 11.693192538247786 0 0 0 0 -0.1428667623361477 -1.1868766557639674 0 -1.1868766557639674 0.90873777932092192 0 0 0 0 265.66030778173445 -71.416356537710158 0 -71.416356537710158 10.194518271890502 0 0 0 0 30.20741529134466 -16.354864749007788 0 -16.354864749007788 -23.89606890531627 0 0 0 0 1.1503973381022661 18.922601585298736 0 18.922601585298736 11.088051351753506 0 0 0 0 12.941788711028892 7.1705635466394781 0 7.1705635466394781 3.6653309868654813 0 0 0 0 13.173288199238414 44.415932999146406 0 44.415932999146406 -18.253830072669643 0 0 0 0 16.32917065921356 14.607556163644176 0 14.607556163644176 -3.4520001143437185 0 0 0 0 4.7263508111069683 0.053171695240450845 0 0.053171695240450845 -0.58850381735116919 0 0 0 0 -0.70064781448309077 15.132117749083932 0 15.132117749083932 -3.9040906275716338 0 0 0 0 -29.873509761349851 32.056282170250711 0 32.056282170250711 10.100418947801472 0 0 0 0 -8.3762757572840201 13.525911090636441 0 13.525911090636441 1.326723921945586 0 0 0 0 7.5750153773115017 10.946934020393883 0 10.946934020393883 32.424343827644634 0 0 0 0 25.587457405363239 37.423494950326017 0 37.423494950326017 13.963543648680343 0 0 0 0 62.031640944500396 -2.4189230377853903 0 -2.4189230377853903 7.039680025753114 0 0 0 0 47.31487398806712 53.512477534216941 0 53.512477534216941 69.111636840858864 0 0 0 0 33.750262674431724 14.071155467203539 0 14.071155467203539 25.441535873223529 0 0 0 0 2.9469571787631139 16.786698536421909 0 16.786698536421909 48.546298519766424 0 0 0 0 -24.37232579913325 4.8379831448759205 0 4.8379831448759205 23.700406821195656 0 0 0 0 -3.4616571431324701 24.861108614480486 0 24.861108614480486 27.454069888781305 0 0 0 0 -7.8350744862254942 1.6220448221456536 0 1.6220448221456536 29.960776756936156 0 0 0 0 -14.305389192468283 11.003592767637656 0 11.003592767637656 21.183309366543654 0 0 0 0 312.41778529771545 267.26394704718371 0 267.26394704718371 436.76393038331628 0 0 0 0 -32.44181343909986 19.153107406614708 0 19.153107406614708 22.571008546430448 0 0 0 0 4.854983664933421 8.7275701885458474 0 8.7275701885458474 11.361162932571645 0 0 0 0 6.8423540491796189 0.026133230522939144 0 0.026133230522939144 0.3082563434373522 0 0 0 0 508.53823076129629 -305.67190789904555 0 -305.67190789904555 -14.793803336907104 0 0 0 0 249.61685107757876 -315.32271901608647 0 -315.32271901608647 261.59880588900387 0 0 0 0 350.12453568215642 204.44121211871419 0 204.44121211871419 49.690681596352306 0 0 0 0 260.48923874992033 -197.43360484325422 0 -197.43360484325422 -140.87827951571194 0 0 0 0 212.83438067342649 -150.57824486296408 0 -150.57824486296408 19.292606503075035 0 0 0 0 6.3784144374625953 8.2722442500547189 0 8.2722442500547189 10.485518338152886 0 0 0 0 809.26637498653872 -197.54835065167276 0 -197.54835065167276 -193.02451306774128 0 0 0 0 50.39430571567209 35.845996159674051 0 35.845996159674051 47.914368256735372 0 0 0 0 124.93822650860238 0.76441170855932228 0 0.76441170855932228 -17.180924238759644 0 0 0 0 110.35889189016416 66.907680283922829 0 66.907680283922829 63.991701382962546 0 0 0 0 113.04362697584293 52.53111364746556 0 52.53111364746556 7.792282473277595 0 0 0 0 285.3223043915059 116.26460840129845 0 116.26460840129845 17.859789743798423 0 0 0 0 276.56693056157246 -15.42619631999667 0 -15.42619631999667 -17.395072005372867 0 0 0 0 208.68965830790216 -29.876641243828047 0 -29.876641243828047 -41.706912919232764 0 0 0 0 203.49868172068818 44.216936985357336 0 44.216936985357336 -2.9296619447941907 0 0 0 0 181.48839616730402 -30.186423279447638 0 -30.186423279447638 -35.159824567501175 0 0 0 0 177.7225221537592 -19.847671057295145 0 -19.847671057295145 -33.910548600020093 0 0 0 0 287.81965235905955 -6.925679113810375 0 -6.925679113810375 -35.990455084965447 0 0 0 0 145.6476844980607 -116.46633942731816 0 -116.46633942731816 55.820674011091626 0 0 0 0 9.8271818495496603 4.8645183799657943 0 4.8645183799657943 2.1660973722585917 0 0 0 0 67.323818455683067 1.0746738676299117 0 1.0746738676299117 -15.235070076201566 0 0 0 0 89.99359786403511 -32.922142083574215 0 -32.922142083574215 -4.3353611826259169 0 0 0 0 167.71502182562108 -18.807895403073474 0 -18.807895403073474 -33.323997439168579 0 0 0 0 114.42223855610064 37.505401284484606 0 37.505401284484606 8.9257873232249949 0 0 0 0 230.25656533133588 120.1182736838893 0 120.1182736838893 50.978963312271162 0 0 0 0 110.42953298040811 23.099393492834679 0 23.099393492834679 14.476927669265137 0 0 0 0 237.16579357863156 -132.98819361952076 0 -132.98819361952076 64.035029747428098 0 0 0 0 367.01053935303935 -21.338926705635004 0 -21.338926705635004 -37.574659535247179 0 0 0 0 191.93357775159529 -5.995907555602912 0 -5.995907555602912 -33.067244193294243 0 0 0 0 213.63059748868181 -55.921581861397783 0 -55.921581861397783 -25.380436685465611 0 0 0 0 155.08265513918377 -35.339565260609959 0 -35.339565260609959 -30.737427584093894 0 0 0 0 91.446146142938233 -2.6278410150412128 0 -2.6278410150412128 72.269672142683703 0 0 0 0 81.028567453868163 -27.065109471966252 0 -27.065109471966252 17.669073360043626 0 0 0 0 61.873859618277493 51.817140630747417 0 51.817140630747417 -25.878500402687223 0 0 0 0 71.219184066576418 -34.06438074407049 0 -34.06438074407049 -22.272623736198057 0 0 0 0 140.76996155347297 3.8042930366959808 0 3.8042930366959808 -18.151012227274009 0 0 0 0 60.734627908586845 68.564662057036458 0 68.564662057036458 -117.21914390099619 0 0 0 0 38.806845789029381 7.5662513180261302 0 7.5662513180261302 0.82355971628537983 0 0 0 0 28.570542108911468 43.577514945504163 0 43.577514945504163 -68.544786454131554 0 0 0 0 111.05657884855464 180.09289080276324 0 180.09289080276324 -279.34148459423864 0 0 0 0 -86.842075720531284 87.597461281313144 0 87.597461281313144 44.637219148936879 0 0 0 0 -3.3250454311928479 -69.1871461254172 0 -69.1871461254172 112.81769301115901 0 0 0 0 25.291358871036209 71.381680523835939 0 71.381680523835939 48.51533225329689 0 0 0 0 26.729565714622012 4.8753233845345711 0 4.8753233845345711 0.47647602297231417 0 0 0 0 331.28570440632757 184.73259010033939 0 184.73259010033939 -402.85193533939218 0 0 0 0 185.18767432502091 -276.00115682719036 0 -276.00115682719036 -205.46111197981872 0 0 0 0 68.289115373219829 73.184138775358861 0 73.184138775358861 121.12446099514682 0 0 0 0 5.3087020792211064 0.91185734945883823 0 0.91185734945883823 -0.00093371825318167012 0 0 0 0 9.7194531975566889 1.4756534829010861 0 1.4756534829010861 0.50055146776471848 0 0 0 0 93.807898149654648 213.50615927883837 0 213.50615927883837 457.49631530441229 0 0 0 0 -59.568220410394133 -431.60429481582332 0 -431.60429481582332 -16.539380321162753 0 0 0 0 249.08791759684755 139.78419817737858 0 139.78419817737858 34.698346479789961 0 0 0 0 33.236922948068241 118.2840807135965 0 118.2840807135965 340.80592124867326 0 0 0 0 213.51281598186324 99.869389440087843 0 99.869389440087843 -30.673748797339613 0 0 0 0 113.57537446889182 114.94459480812907 0 114.94459480812907 35.77426581742975 0 0 0 0 88.393839851793018 38.043236025819169 0 38.043236025819169 -53.580041418423662 0 0 0 0 105.96967415820836 88.254706798244797 0 88.254706798244797 -37.560574405823445 0 0 0 0 136.47891825707848 130.61003355084188 0 130.61003355084188 17.36600649545062 0 0 0 0 46.511815852943982 100.32879265159409 0 100.32879265159409 15.179380204378404 0 0 0 0 66.032526680042793 119.60838426765224 0 119.60838426765224 4.6709309590528392 0 0 0 0 13.691930644650711 130.84100602351793 0 130.84100602351793 66.55112648051886 0 0 0 0 21.112537931909173 116.87349983924719 0 116.87349983924719 60.361207767427004 0 0 0 0 19.676011817757171 59.657240297378621 0 59.657240297378621 89.131968109283207 0 0 0 0 32.115385394685291 148.11697459544007 0 148.11697459544007 140.78001955572608 0 0 0 0 15.996741210321488 64.310188320807583 0 64.310188320807583 46.450972846319473 0 0 0 0 21.940127605785165 119.12669954604542 0 119.12669954604542 41.170521417032433 0 0 0 0 18.957995205633779 136.78533789966161 0 136.78533789966161 44.241529728376463 0 0 0 0 32.247038840447203 126.53484784500324 0 126.53484784500324 48.431661174369992 0 0 0 0 25.33875921532308 125.07881226603286 0 125.07881226603286 49.252717932712471 0 0 0 0 23.404711161500018 112.17937880977206 0 112.17937880977206 39.077101690125346 0 0 0 0 59.990191476106702 117.92179661527837 0 117.92179661527837 39.929160125412466 0 0 0 0 36.0315191308473 136.61691742915957 0 136.61691742915957 41.001655582244894 0 0 0 0 60.162104577710124 123.29102926814977 0 123.29102926814977 86.371636017463516 0 0 0 0 61.021141350956896 105.63731925884872 0 105.63731925884872 -0.1913317090579767 0 0 0 0 23.235100598401914 66.067388961968391 0 66.067388961968391 -5.9241707605456213 0 0 0 0 -8.3251529217286588 4.9442299755079375 0 4.9442299755079375 16.0854909675611 0 0 0 0 3.1193819329077144 3.6229874173411378 0 3.6229874173411378 3.4545844592937818 0 0 0 0 -122.06489393406082 52.024419183318059 0 52.024419183318059 38.245214715333077 0 0 0 0 371.74995877863876 -124.71988397499359 0 -124.71988397499359 -0.32924263614563642 0 0 0 0 5.1016540931399916 7.3786411119420521 0 7.3786411119420521 8.1432654168346019 0 0 0 0 407.65200269522029 -200.09055396758174 0 -200.09055396758174 156.76883820347302 0 0 0 0 570.75196604629673 -100.85744872394459 0 -100.85744872394459 71.608501959745155 0 0 0 0 607.40956117073074 -325.25852090820115 0 -325.25852090820115 233.41536661641396 0 0 0 0 456.88377575535196 -38.823089203808628 0 -38.823089203808628 64.205321646631802 0 0 0 0 388.428365257736 -175.53571544684223 0 -175.53571544684223 -103.32346260862204 0 0 0 0 413.05599865000841 -128.28867581878922 0 -128.28867581878922 -71.036160209930131 0 0 0 0 -10.133912594545109 12.839689154822054 0 12.839689154822054 3.8685742029738321 0 0 0 0 6.6936199982519611 1.5565920216290579 0 1.5565920216290579 7.4754605560459595 0 0 0 0 5.1552588722479413 -8.6496530224646335 0 -8.6496530224646335 9.7685236503536998 0 0 0 0 -2.8800989522278542 -5.9925590615303008 0 -5.9925590615303008 28.767392171428128 0 0 0 0 6.5915015571081312 -8.0325695181793435 0 -8.0325695181793435 9.4897651874177882 0 0 0 0 6.2196243557264097 -22.432981499356515 0 -22.432981499356515 31.728243055424457 0 0 0 0 -4.9625626599226962 -6.0095830457510147 0 -6.0095830457510147 80.098925941146717 0 0 0 0 494.420596030046 683.06503776747127 0 683.06503776747127 -191.09344320712171 0 0 0 0 8.4477078816316151 3.5391046610050392 0 3.5391046610050392 0.81032470760254949 0 0 0 0 215.1478963795962 -257.18167181345643 0 -257.18167181345643 185.22100804107004 0 0 0 0 -176.4974630441211 -90.0650420239906 0 -90.0650420239906 168.30315142658401 0 0 0 0 -242.50178761269854 -6.2437014151688572 0 -6.2437014151688572 133.85740195036306 0 0 0 0 -123.59057726095489 -76.681276510452562 0 -76.681276510452562 126.92859635269087 0 0 0 0 366.83192417555256 302.19317629111674 0 302.19317629111674 241.14555548064527 0 0 0 0 449.68578811832413 -77.842670927076597 0 -77.842670927076597 27.359574545465421 0 0 0 0 49.595208436323446 -38.286105165655499 0 -38.286105165655499 25.706022297969525 0 0 0 0 515.38626747414673 -47.589622449063882 0 -47.589622449063882 -83.165856541475478 0 0 0 0 41.236479486637108 -31.099121398528723 0 -31.099121398528723 -58.186945431238314 0 0 0 0 221.21771567455221 -58.532708077366237 0 -58.532708077366237 -60.869144192921794 0 0 0 0 38.363385562966869 -80.161909256862145 0 -80.161909256862145 -152.50090154902887 0 0 0 0 -78.6823888148283 35.169326024701149 0 35.169326024701149 -65.825322014681888 0 0 0 0 56.45145909277926 -50.356109975285563 0 -50.356109975285563 -14.67822897078031 0 0 0 0 -202.11798149169772 -11.535686141267661 0 -11.535686141267661 72.982584656876497 0 0 0 0 -192.04894388680714 -80.891709888750569 0 -80.891709888750569 26.00491058050784 0 0 0 0 -16.726133732307062 -33.883428511230477 0 -33.883428511230477 -136.21382080779244 0 0 0 0 -207.0270949773294 31.994968981545753 0 31.994968981545753 80.080533535983704 0 0 0 0 -76.694972359589883 -16.574777095465151 0 -16.574777095465151 58.343409055750726 0 0 0 0 2.3105481661877008 4.1153516032233526 0 4.1153516032233526 6.8351323281405154 0 0 0 0 100.994784404249 -82.512652335633561 0 -82.512652335633561 -29.673094111483806 0 0 0 0 486.88330080821106 -77.8313360424454 0 -77.8313360424454 24.158292263828287 0 0 0 0 -1.7095584470318244 2.4407231196639501 0 2.4407231196639501 3.3998225037856251 0 0 0 0 27.177421231172048 47.066688838866639 0 47.066688838866639 23.40704223380726 0 0 0 0 -16.07421424526035 -53.778626702286203 0 -53.778626702286203 75.640673912568673 0 0 0 0 352.14424457370478 -179.22215917084338 0 -179.22215917084338 80.720136001721016 0 0 0 0 378.18050907490397 -71.017986222895104 0 -71.017986222895104 54.83923351935816 0 0 0 0 177.3303865278649 -77.477231188446012 0 -77.477231188446012 68.057195959149567 0 0 0 0 267.35661827093281 -41.120901653105136 0 -41.120901653105136 -8.0478390525263421 0 0 0 0 111.59152545572579 -69.253471445141756 0 -69.253471445141756 67.253989290784546 0 0 0 0 235.14553955991141 -71.184455006630401 0 -71.184455006630401 -16.962562162788927 0 0 0 0 459.25128512046649 -155.6883465009596 0 -155.6883465009596 23.864749256823188 0 0 0 0 302.88358526584125 -143.9106455232706 0 -143.9106455232706 42.367213604027711 0 0 0 0 253.31753911091801 -35.498286040720537 0 -35.498286040720537 46.617663807349366 0 0 0 0 348.59959364376846 -80.446971343770485 0 -80.446971343770485 152.13868060082569 0 0 0 0 217.85089109748151 -106.13974865950385 0 -106.13974865950385 13.053664221562371 0 0 0 0 338.60679627773789 -26.847025627295352 0 -26.847025627295352 29.557290478736235 0 0 0 0 332.50269025615853 -116.61550837783318 0 -116.61550837783318 21.489150564789384 0 0 0 0 320.0797034370371 -130.64271736151264 0 -130.64271736151264 77.554004114719447 0 0 0 0 128.58605865182471 -2.6520410253415321 0 -2.6520410253415321 73.004548120723314 0 0 0 0 134.98026712677165 -14.65056421878343 0 -14.65056421878343 -56.441936451159449 0 0 0 0 207.95229020917031 -64.651235519396437 0 -64.651235519396437 -6.2032558740029344 0 0 0 0 23.959272495150799 -21.703906538045658 0 -21.703906538045658 93.771994819521524 0 0 0 0 341.51227728471713 -213.43390888959402 0 -213.43390888959402 42.496986970071703 0 0 0 0 24.01435683595264 -1.2028937754860749 0 -1.2028937754860749 -1.0716329602883263 0 0 0 0 4.3270379835912358 -0.7336646490223302 0 -0.7336646490223302 -1.5438235567204925 0 0 0 0 33.193405842112043 -4.6740726651982456 0 -4.6740726651982456 -6.5989157727157135 0 0 0 0 -27.761427139503212 17.893324135749253 0 17.893324135749253 40.974565759280154 0 0 0 0 28.44053971788162 -7.6075560091343277 0 -7.6075560091343277 1.2186461135140121 0 0 0 0 32.589001255884796 -7.9270310186922632 0 -7.9270310186922632 -1.8363802109781275 0 0 0 0 -0.71534914755244472 -0.07680817277220342 0 -0.07680817277220342 2.2187299201224171 0 0 0 0 -64.2885444593594 -17.503780321447209 0 -17.503780321447209 75.926959390199102 0 0 0 0 111.85088988074529 35.970200993377887 0 35.970200993377887 -8.6412458727591002 0 0 0 0 182.87294029804616 -73.861980094751743 0 -73.861980094751743 -51.880403902689181 0 0 0 0 28.352586827102641 -8.4720865149425251 0 -8.4720865149425251 4.8340036505666291 0 0 0 0 28.889457544479228 -10.99062379144074 0 -10.99062379144074 -7.0883432341144683 0 0 0 0 35.604348628861771 -7.3107423459353953 0 -7.3107423459353953 -10.298244290634671 0 0 0 0 27.810263651081186 -10.565496891966013 0 -10.565496891966013 -2.0736089953924193 0 0 0 0 6.5028036274852639 35.169606224764891 0 35.169606224764891 -15.56667047667036 0 0 0 0 34.192308263562154 -0.027670255485958251 0 -0.027670255485958251 -40.88255609853239 0 0 0 0 26.775445568368013 -35.474796810892713 0 -35.474796810892713 -19.550380180963231 0 0 0 0 26.594647887061001 10.083810668769132 0 10.083810668769132 -13.374051095335687 0 0 0 0 -25.382618340256158 -21.810903258102663 0 -21.810903258102663 -0.76833732456928772 0 0 0 0 23.819801887017093 -36.211747960885397 0 -36.211747960885397 -33.14130154736543 0 0 0 0 -0.5055338620640244 0.350234032800671 0 0.350234032800671 -0.60388533285539459 0 0 0 0 18.363224286655168 -7.8047746107356062 0 -7.8047746107356062 -6.8932656784898256 0 0 0 0 13.339596381829324 -6.9108117469811425 0 -6.9108117469811425 -6.6832688850445265 0 0 0 0 23.720186387290596 2.1622963448226642 0 2.1622963448226642 0.9830536183451386 0 0 0 0 28.404631882272952 -1.0891044672523549 0 -1.0891044672523549 -4.7402537687387962 0 0 0 0 24.348164971917868 2.0077598952191806 0 2.0077598952191806 -7.0776342633211016 0 0 0 0 21.417124467496507 -2.2678681042779205 0 -2.2678681042779205 -0.92169568818397551 0 0 0 0 4.7177560497333717 -0.12514231660618691 0 -0.12514231660618691 -1.9177970259410504 0 0 0 0 20.311626504797459 -7.2063270363347129 0 -7.2063270363347129 -8.4180270603557119 0 0 0 0 19.344897223340482 -0.23779811549664753 0 -0.23779811549664753 -0.59464675900786057 0 0 0 0 24.220367693589651 -3.2833105242323768 0 -3.2833105242323768 -1.8669344757486019 0 0 0 0 25.528107218804507 -1.4372122648187542 0 -1.4372122648187542 -3.8404103478627576 0 0 0 0 23.752967120013636 2.0175712315822238 0 2.0175712315822238 -9.2258770396720351 0 0 0 0 20.742116304005322 -1.1311996133727007 0 -1.1311996133727007 -3.8366070805820955 0 0 0 0 25.98094278964345 -0.93172598130388451 0 -0.93172598130388451 -10.243663503887092 0 0 0 0 87.758186733215553 -2.7828944403401294 0 -2.7828944403401294 -63.320878101113863 0 0 0 0 22.916003507122326 -1.8543339179252678 0 -1.8543339179252678 -0.71759910570525209 0 0 0 0 32.936287730068216 -64.675979376395617 0 -64.675979376395617 33.80843043756218 0 0 0 0 -5.9760444575586007 -28.51826470382349 0 -28.51826470382349 118.89225896406634 0 0 0 0 16.995821040130977 26.431178277471723 0 26.431178277471723 26.463057330460799 0 0 0 0 5.7642258729939213 -0.061044463253381309 0 -0.061044463253381309 1.476236263830585 0 0 0 0 3.5724067915434716 8.4547289602100477 0 8.4547289602100477 12.154410349215595 0 0 0 0 16.520775018536369 22.083450485472753 0 22.083450485472753 -19.84742692353413 0 0 0 0 -2.5331655224067617 -19.62549646312214 0 -19.62549646312214 1.7793913304089415 0 0 0 0 31.528448618832044 -22.880958815681169 0 -22.880958815681169 -39.540310753685162 0 0 0 0 -33.188800259762502 17.843764026286976 0 17.843764026286976 132.76345729057232 0 0 0 0 -8.7168991714861477 32.532036530097855 0 32.532036530097855 78.866177770061768 0 0 0 0 -5.8734143997207866 -10.566374953600473 0 -10.566374953600473 -3.3514384686887979 0 0 0 0 -0.11679727551855912 0.74150430510283627 0 0.74150430510283627 0.69479269580647274 0 0 0 0 28.229240688480786 -40.267035459239423 0 -40.267035459239423 55.690623956735521 0 0 0 0 8.3999647925738827 -4.3145228707015804 0 -4.3145228707015804 5.7487609951407137 0 0 0 0 -27.91250469964325 -29.761557672367161 0 -29.761557672367161 89.793125218493742 0 0 0 0 1.5584346111572245 -1.7342383118620148 0 -1.7342383118620148 1.1321829765999423 0 0 0 0 62.47068581655185 -30.728588471372859 0 -30.728588471372859 3.3041571364344691 0 0 0 0 -34.565369904768886 29.039666484847544 0 29.039666484847544 98.103439206089888 0 0 0 0 -27.771427738378407 -17.320233805423641 0 -17.320233805423641 92.98409254461194 0 0 0 0 -26.09521228081212 -23.885872628418298 0 -23.885872628418298 95.441790730885032 0 0 0 0 20.034257069397427 50.649616226334118 0 50.649616226334118 74.956694934443021 0 0 0 0 3.6407768453573226 -31.765815455749021 0 -31.765815455749021 12.244948706614423 0 0 0 0 66.298143406459872 -49.909715335750462 0 -49.909715335750462 14.401153007100106 0 0 0 0 26.373891680086672 -6.7706194828245998 0 -6.7706194828245998 -44.02042508349524 0 0 0 0 0.49629828049503999 -1.010794565367199 0 -1.010794565367199 0.77446093975928987 0 0 0 0 66.573289669941005 -65.808357393319227 0 -65.808357393319227 42.028039852869483 0 0 0 0 96.869886716456676 -93.003952752175792 0 -93.003952752175792 50.749481923480801 0 0 0 0 40.482653191280406 -38.184695070269967 0 -38.184695070269967 49.288158605028258 0 0 0 0 34.013021577513427 10.905503296260534 0 10.905503296260534 -14.839912664229232 0 0 0 0 -19.176578929280367 -3.0569439265345579 0 -3.0569439265345579 14.13616282566403 0 0 0 0 86.420879002631409 6.2563300341660124 0 6.2563300341660124 -29.044783561816899 0 0 0 0 -0.64751055067089425 -0.024126075675852121 0 -0.024126075675852121 -2.6250986869805661 0 0 0 0 -8.307270246972621 1.909682401310917 0 1.909682401310917 24.893421704878165 0 0 0 0 209.59851809042812 7.0790771022237209 0 7.0790771022237209 -23.042864103203101 0 0 0 0 125.57646761090655 15.564471676811763 0 15.564471676811763 16.24761425236079 0 0 0 0 113.81478146603331 4.3198888590377464 0 4.3198888590377464 -2.1404894348534071 0 0 0 0 109.31347835659108 20.238336079023611 0 20.238336079023611 -10.745843757319562 0 0 0 0 18.500268364692602 -14.501487692887167 0 -14.501487692887167 -24.290719971535509 0 0 0 0 32.977760478159325 -37.104452552171892 0 -37.104452552171892 9.1662749132640329 0 0 0 0 56.277115762743051 73.202580221777566 0 73.202580221777566 22.382523836878818 0 0 0 0 92.137255393790838 -155.43035038512244 0 -155.43035038512244 114.1043099855417 0 0 0 0 84.501019065832224 16.463036578745744 0 16.463036578745744 -58.786916666296975 0 0 0 0 18.08680284180484 0.85261038302993164 0 0.85261038302993164 -1.5611531046852529 0 0 0 0 28.824248397439078 21.0938333792907 0 21.0938333792907 -47.626317847500474 0 0 0 0 23.665170650473542 -1.6190172772005518 0 -1.6190172772005518 -2.3617045192273096 0 0 0 0 -6.5176201902859248 15.881420117224621 0 15.881420117224621 7.4663083882355465 0 0 0 0 4.5391864651931293 -1.1903859552893721 0 -1.1903859552893721 -7.3245515570780393 0 0 0 0 1.8268371213026029 -1.0957547919904655 0 -1.0957547919904655 -2.035186269345139 0 0 0 0 235.05038799676367 22.50609690708103 0 22.50609690708103 -17.221767690928118 0 0 0 0 90.109662495997327 552.87982720659193 0 552.87982720659193 -341.99852952300938 0 0 0 0 1252.0110644498927 -408.04862927813213 0 -408.04862927813213 -115.73690912354604 0 0 0 0 1165.1002915043769 435.75021217703045 0 435.75021217703045 -520.43104196332092 0 0 0 0 1022.3537369866535 -45.295360902870243 0 -45.295360902870243 -377.38169081651392 0 0 0 0 -10.596307357540354 -545.54458464894674 0 -545.54458464894674 -416.32869210975025 0 0 0 0 1278.925541124765 -517.35914503179026 0 -517.35914503179026 -547.80084632103353 0 0 0 0 1360.4624521770893 -313.93808680234957 0 -313.93808680234957 -146.45145797619188 0 0 0 0 1499.9744412630082 -408.00471681740004 0 -408.00471681740004 -268.66588510776057 0 0 0 0 1499.7851819513853 -236.20787664287101 0 -236.20787664287101 116.01275809367061 0 0 0 0 1381.5682301974084 -404.93349617079161 0 -404.93349617079161 -80.532177960287797 0 0 0 0 1271.6655207344411 -133.10295539467009 0 -133.10295539467009 364.72795685781688 0 0 0 0 1892.6083012027011 -805.50927144412822 0 -805.50927144412822 314.19026474726707 0 0 0 0 1755.7009036314303 -69.49929634223048 0 -69.49929634223048 89.337392194116248 0 0 0 0 -52.369039459445048 548.8843957278433 0 548.8843957278433 -324.04678279532004 0 0 0 0 -179.24342743229499 481.27109681606703 0 481.27109681606703 -344.70116862921526 0 0 0 0 4.8531245382908139 2.7145411956677776 0 2.7145411956677776 1.8171209222571258 0 0 0 0 -127.27320023604261 407.70595237644568 0 407.70595237644568 -541.51553005121809 0 0 0 0 -400.84663196696783 399.09883154936324 0 399.09883154936324 -253.55884821761819 0 0 0 0 -151.76679737096129 245.71805738831335 0 245.71805738831335 -163.5527870128289 0 0 0 0 -91.483880426676478 11.177262526314564 0 11.177262526314564 -418.95532109202031 0 0 0 0 -73.740994548141316 343.85156718152632 0 343.85156718152632 -591.25266714994814 0 0 0 0 6.3564769886288559 164.1630509579943 0 164.1630509579943 -195.12823186287335 0 0 0 0 131.43079680643859 47.046704113918508 0 47.046704113918508 -149.25640671186477 0 0 0 0 -81.857397660314746 138.49061914946856 0 138.49061914946856 39.842379222578302 0 0 0 0 71.557531177728379 128.85691783879156 0 128.85691783879156 35.575890922563417 0 0 0 0 343.54354862360196 182.78964144466738 0 182.78964144466738 -67.824867319199029 0 0 0 0 27.228965462381893 293.95510667257372 0 293.95510667257372 -150.55762384960855 0 0 0 0 194.98373573408026 163.8358878046547 0 163.8358878046547 -50.560594859328603 0 0 0 0 85.946374927410943 12.890775427046947 0 12.890775427046947 -10.469219753992093 0 0 0 0 24.789566239553096 156.05314924970378 0 156.05314924970378 74.927285617457756 0 0 0 0 48.204564725727323 76.84517618936934 0 76.84517618936934 121.73218597514324 0 0 0 0 414.78722725416446 262.40713106528187 0 262.40713106528187 126.31241669681651 0 0 0 0 78.439835349056011 154.51233076869903 0 154.51233076869903 117.82422770746052 0 0 0 0 50.480642106860614 5.7007854196281187 0 5.7007854196281187 30.191785355565798 0 0 0 0 48.624985212445608 39.362156587222216 0 39.362156587222216 -22.891842166273364 0 0 0 0 -21.945018659960624 126.47063633219381 0 126.47063633219381 245.75250971133346 0 0 0 0 64.871631957659702 10.034695431219916 0 10.034695431219916 -25.316708843665765 0 0 0 0 22.302867755919578 0.87295322345657667 0 0.87295322345657667 -45.272918583079644 0 0 0 0 91.904593932638818 -53.760476135322349 0 -53.760476135322349 -24.640915864794128 0 0 0 0 8.7835016278555855 -4.0456690089772493 0 -4.0456690089772493 -9.5629803658522547 0 0 0 0 19.392599473383598 -11.349623787183077 0 -11.349623787183077 24.076269515209788 0 0 0 0 9.3714369743883594 4.7454129511006826 0 4.7454129511006826 -0.60010808162673213 0 0 0 0 3.9199467092574309 -0.23737112319637532 0 -0.23737112319637532 -1.9385800322140536 0 0 0 0 1126.1908429000032 -441.39973158182909 0 -441.39973158182909 -14.673209460369009 0 0 0 0 1112.9006312168822 -274.033650621204 0 -274.033650621204 47.675957539464022 0 0 0 0 1233.7600443599003 -157.74120804876486 0 -157.74120804876486 -104.00999126231778 0 0 0 0 1499.1741272016479 -787.87702833759818 0 -787.87702833759818 293.52817613718253 0 0 0 0 3.9328364850843656 1.2117709439200937 0 1.2117709439200937 0.26116177748067526 0 0 0 0 731.18420268509362 124.89904693092419 0 124.89904693092419 -16.008484250141102 0 0 0 0 -38.366058341034659 140.40779743706668 0 140.40779743706668 -15.211444839190019 0 0 0 0 -60.167493792556343 -69.042389058302405 0 -69.042389058302405 193.21147057064837 0 0 0 0 1489.7696296520735 -18.488740477339324 0 -18.488740477339324 -233.66194857831331 0 0 0 0 -33.918119871937961 -13.900249757184595 0 -13.900249757184595 61.700486070616087 0 0 0 0 -97.821478772944829 47.361416043793966 0 47.361416043793966 16.646227581166173 0 0 0 0 9.4772339634453715 1.028645245684217 0 1.028645245684217 0.12667585856231009 0 0 0 0 -10.735403316735756 36.781437812366299 0 36.781437812366299 -52.529817228144793 0 0 0 0 81.217863493206096 194.93357564723806 0 194.93357564723806 426.5934638032943 0 0 0 0 160.78786715815568 24.994852401733105 0 24.994852401733105 3.9108483888312549 0 0 0 0 4.5737251611586203 0.39338251510973343 0 0.39338251510973343 0.15050501346766904 0 0 0 0 609.54521694000141 -230.36497974140391 0 -230.36497974140391 -49.99293237278745 0 0 0 0 778.74325786898407 684.7889535729654 0 684.7889535729654 395.31280543186 0 0 0 0 1493.424969197607 370.53281140496307 0 370.53281140496307 -34.084011071080837 0 0 0 0 3.0766784534800422 0.090551648608219182 0 0.090551648608219182 -0.16930183231917439 0 0 0 0 100.57544376689475 -119.23478651525056 0 -119.23478651525056 75.443000103567201 0 0 0 0 178.06309341893211 0.14913131577630195 0 0.14913131577630195 0.38007458302016389 0 0 0 0 764.12796660951426 97.768395893929949 0 97.768395893929949 63.842165404826162 0 0 0 0 1.5253442293961541 0.39181514392733874 0 0.39181514392733874 0.71860150051494864 0 0 0 0 15.506067405818612 223.28117159707165 0 223.28117159707165 183.83933100847963 0 0 0 0 257.75929695267405 360.37523375791375 0 360.37523375791375 247.56531653111909 0 0 0 0 229.80494918596742 376.77324366096377 0 376.77324366096377 237.94713300830855 0 0 0 0 1494.3017972273592 338.63044119402491 0 338.63044119402491 0.3872490557583495 0 0 0 0 592.79115686463774 -111.28231192442166 0 -111.28231192442166 0.70773520682228719 0 0 0 0 615.04486552868912 -120.3744881994879 0 -120.3744881994879 -8.5960634583351805 0 0 0 0 508.4141195914417 -120.43458727102453 0 -120.43458727102453 44.65205746661875 0 0 0 0 622.97418273206858 -160.09957635392595 0 -160.09957635392595 17.106784220270953 0 0 0 0 740.09828879559063 -26.866149121736228 0 -26.866149121736228 48.666598722263188 0 0 0 0 3.0191237844004206 0.078329014151343301 0 0.078329014151343301 -0.030426222491290802 0 0 0 0 462.83111559344979 431.20636868808521 0 431.20636868808521 249.24189661772482 0 0 0 0 329.76661719636468 205.32689063143602 0 205.32689063143602 152.33334638684519 0 0 0 0 788.8712818955828 207.81568354615769 0 207.81568354615769 92.155467352173162 0 0 0 0 189.51027419212187 -91.639083441565532 0 -91.639083441565532 88.710609410069765 0 0 0 0 531.53105126428272 -88.027369291151544 0 -88.027369291151544 88.097475672289647 0 0 0 0 207.91747293059598 151.93028362086312 0 151.93028362086312 163.29472780602498 0 0 0 0 -63.136815093399491 -29.457437974030427 0 -29.457437974030427 38.635950076607173 0 0 0 0 168.63450154812017 153.21344385181959 0 153.21344385181959 182.60692084382174 0 0 0 0 92.619259051716654 18.080248037048932 0 18.080248037048932 -22.99981775806333 0 0 0 0 141.55092411274836 -128.68899780994573 0 -128.68899780994573 63.904765251911158 0 0 0 0 468.20573222168605 -241.33070975897795 0 -241.33070975897795 26.615664412729984 0 0 0 0 523.56085116051509 -212.42145991091471 0 -212.42145991091471 -10.15643428724519 0 0 0 0 727.12412679560657 -263.15013362992352 0 -263.15013362992352 0.61168071745180441 0 0 0 0 443.01064259708073 -286.3714566769699 0 -286.3714566769699 56.290320222563992 0 0 0 0 827.43152047757758 -420.59912789107773 0 -420.59912789107773 61.827225989762951 0 0 0 0 4.3852890960549189 2.7603494996336906 0 2.7603494996336906 0.31948468189353729 0 0 0 0 629.8586503783481 115.09509717593156 0 115.09509717593156 280.42762674680841 0 0 0 0 493.79655983743942 -159.13764404241189 0 -159.13764404241189 79.839971348850469 0 0 0 0 31.286393317946931 -95.253831902671038 0 -95.253831902671038 -120.32558149527767 0 0 0 0 14.066920094293891 -199.75533897568687 0 -199.75533897568687 97.626713404576606 0 0 0 0 80.638025329804805 -145.02348579657701 0 -145.02348579657701 -321.96985742706386 0 0 0 0 0.52062601778717976 2.355495689031061 0 2.355495689031061 0.068082752192893226 0 0 0 0 -45.548409394061309 3.2891016267321334 0 3.2891016267321334 3.8712356925266249 0 0 0 0 11.289576720830709 5.6484540815868982 0 5.6484540815868982 -1.2525026778339989 0 0 0 0 12.561687226771028 3.6843796363482895 0 3.6843796363482895 -6.8392640347201166 0 0 0 0 25.604990493506193 19.590210033544736 0 19.590210033544736 -24.615055574898179 0 0 0 0 9.5637503528929457 0.31176110272433988 0 0.31176110272433988 -12.296540801871693 0 0 0 0 -21.146501803963474 13.244709199606639 0 13.244709199606639 -9.3408107843003343 0 0 0 0 528.00503903634285 55.757220669843321 0 55.757220669843321 -14.185138466385183 0 0 0 0 12.306980750112075 11.527311922365378 0 11.527311922365378 7.8811068440657843 0 0 0 0 541.62666598301621 -176.07563866451451 0 -176.07563866451451 80.49883056910187 0 0 0 0 26.810333592045936 36.352206354154987 0 36.352206354154987 -23.046655507788273 0 0 0 0 766.69117117315909 -293.3151795816126 0 -293.3151795816126 42.960587357121312 0 0 0 0 829.78365688187478 -221.61916908417913 0 -221.61916908417913 34.172584562105499 0 0 0 0 4.3816710125435314 0.034101656509797351 0 0.034101656509797351 -4.0019660625261402 0 0 0 0 141.65871010240335 71.491697923846971 0 71.491697923846971 66.973949680141459 0 0 0 0 446.37739752011112 -135.44042329378397 0 -135.44042329378397 -64.372314532741711 0 0 0 0 2.8032156309431357 -1.4839295494739275 0 -1.4839295494739275 -6.585941192877093 0 0 0 0 368.95064016271317 -130.68117693947835 0 -130.68117693947835 -37.918593282468123 0 0 0 0 38.133130884882121 40.549987138290874 0 40.549987138290874 7.1428256645190231 0 0 0 0 1003.9028136587367 -89.148837768984208 0 -89.148837768984208 -52.268326850384824 0 0 0 0 948.62491718682577 -312.50928265484686 0 -312.50928265484686 10.886076623068462 0 0 0 0 5.9207108590522068 4.1103110864071155 0 4.1103110864071155 1.8177762790503296 0 0 0 0 438.10582340847759 54.804913286973871 0 54.804913286973871 35.417934503441373 0 0 0 0 1154.7020027784893 -229.12746976578393 0 -229.12746976578393 -102.40639286623707 0 0 0 0 0.07665055402904386 -0.48618408481195274 0 -0.48618408481195274 -1.428466999981397 0 0 0 0 700.93695395429313 -167.08774795415297 0 -167.08774795415297 -108.47603902950686 0 0 0 0 753.9621218269458 -118.01676376986617 0 -118.01676376986617 -70.345949504995588 0 0 0 0 625.64602410782936 157.89586881201444 0 157.89586881201444 -16.481909433335431 0 0 0 0 914.41594229229486 208.09978632513702 0 208.09978632513702 -50.028589851849006 0 0 0 0 296.50977946795683 40.842481158396545 0 40.842481158396545 146.56361214814905 0 0 0 0 453.53151797119062 -150.07598147167036 0 -150.07598147167036 -52.870932582420423 0 0 0 0 722.44384392171924 -33.577050228654386 0 -33.577050228654386 -20.806775965762171 0 0 0 0 445.94112788808343 126.56058505725912 0 126.56058505725912 151.88423341561347 0 0 0 0 632.59517927245906 -104.32857627657982 0 -104.32857627657982 -0.37185354560878026 0 0 0 0 403.18645795978955 -142.39408101989358 0 -142.39408101989358 35.044202415128424 0 0 0 0 494.58542817665875 -41.507753010162432 0 -41.507753010162432 -42.402896855082346 0 0 0 0 611.56318570613803 -100.96225739107248 0 -100.96225739107248 -68.179972769056491 0 0 0 0 596.70881873004328 -103.16494123316548 0 -103.16494123316548 -37.912470828537636 0 0 0 0 -22.155255481973654 -12.007774561976252 0 -12.007774561976252 0.12815327374744023 0 0 0 0 202.03847917549137 152.44574432654503 0 152.44574432654503 -110.53151423419004 0 0 0 0 560.65177386441974 -302.0639707233023 0 -302.0639707233023 -17.166163766014847 0 0 0 0 3.9333157111057346 0.74024687643771259 0 0.74024687643771259 -0.094253766718910309 0 0 0 0 377.6973148936595 -294.17601547965597 0 -294.17601547965597 -15.578302816369913 0 0 0 0 8.0753101532836808 2.6323718135530676 0 2.6323718135530676 0.3333401296208735 0 0 0 0 141.28409406976743 -6.6636057936504471 0 -6.6636057936504471 -33.3111175672434 0 0 0 0 179.50158655026826 -210.09230531061206 0 -210.09230531061206 28.468744743989532 0 0 0 0 302.15731516146479 -230.66978860614995 0 -230.66978860614995 110.90512066344979 0 0 0 0 361.32853191419781 -189.03019620459978 0 -189.03019620459978 -9.144375543916567 0 0 0 0 357.1148736507057 -177.54211297519299 0 -177.54211297519299 107.64246700441231 0 0 0 0 346.65378575128125 -227.35509344299317 0 -227.35509344299317 97.713580477676601 0 0 0 0 425.01696178279599 -139.65221331478219 0 -139.65221331478219 -49.242528636626389 0 0 0 0 655.38189878430421 120.82889632634115 0 120.82889632634115 223.26793858662074 0 0 0 0 387.01052206643362 -256.03211769820587 0 -256.03211769820587 216.65707552834942 0 0 0 0 2.7075470267007375 1.4381380004650879 0 1.4381380004650879 1.3335195701174545 0 0 0 0 954.65509093273977 -244.97750041597115 0 -244.97750041597115 201.37434580041543 0 0 0 0 89.533589574406506 112.06554288659345 0 112.06554288659345 71.007158499203399 0 0 0 0 37.94012611146627 -126.50835707562518 0 -126.50835707562518 157.38896761988963 0 0 0 0 194.62560650604428 -74.350817046718817 0 -74.350817046718817 142.05813301260673 0 0 0 0 45.893792465678416 -45.235315125908301 0 -45.235315125908301 -59.215041790442683 0 0 0 0 347.52644671219605 -185.19088081845985 0 -185.19088081845985 138.60299786797418 0 0 0 0 168.59933605198603 -11.117496420389102 0 -11.117496420389102 397.25514991835871 0 0 0 0 7.8605726278078976 4.9085932759191664 0 4.9085932759191664 0.95829656135134389 0 0 0 0 20.424045247826143 32.298653495549843 0 32.298653495549843 -18.472336725601053 0 0 0 0 0.029177009943321508 -0.63648259797801643 0 -0.63648259797801643 -0.42108529242496129 0 0 0 0 1222.2768136218147 -520.10443682937012 0 -520.10443682937012 32.37846923361581 0 0 0 0 4.4584587514384992 3.4501719954959142 0 3.4501719954959142 3.843612640875862 0 0 0 0 1080.576196895905 -6.8293867722670711 0 -6.8293867722670711 -45.812686902871178 0 0 0 0 898.49873021331223 -58.233041973898594 0 -58.233041973898594 -108.96294449018637 0 0 0 0 431.88733333979326 -432.60520575479916 0 -432.60520575479916 287.51486166152119 0 0 0 0 184.23538822495902 -195.79996745406021 0 -195.79996745406021 89.797515533333126 0 0 0 0 447.17138781159883 -166.21960707117114 0 -166.21960707117114 -104.19645521746645 0 0 0 0 330.62210187267192 -184.62508832008564 0 -184.62508832008564 87.814467826761089 0 0 0 0 298.95327514723613 -129.23976024102319 0 -129.23976024102319 14.460890194972535 0 0 0 0 302.09780272245553 -0.29615527224450489 0 -0.29615527224450489 -147.97004889129448 0 0 0 0 374.64837445774901 -102.39377246472054 0 -102.39377246472054 -76.533936908770158 0 0 0 0 264.79729967595995 -36.61518721549669 0 -36.61518721549669 -172.62622900417716 0 0 0 0 228.03481266699237 -64.380402811855703 0 -64.380402811855703 -203.35045486856745 0 0 0 0 130.55850566672598 140.23329578991468 0 140.23329578991468 -310.85987895625124 0 0 0 0 322.99285963948205 -15.620125027232746 0 -15.620125027232746 -175.34361443828729 0 0 0 0 386.77024581362639 -122.1140172402945 0 -122.1140172402945 -83.170784238819351 0 0 0 0 576.73393869368738 -28.495818680476987 0 -28.495818680476987 -61.887584806077029 0 0 0 0 392.67757243138476 -52.742777310060433 0 -52.742777310060433 28.579214013160822 0 0 0 0 405.37515083947073 -88.619188538101696 0 -88.619188538101696 -35.420544683862886 0 0 0 0 616.28774694603999 -107.784769884008 0 -107.784769884008 -36.386872580612476 0 0 0 0 709.95098037053685 126.88427026549243 0 126.88427026549243 44.988020571980428 0 0 0 0 708.40724756360964 -186.28861213370956 0 -186.28861213370956 82.233325998313376 0 0 0 0 378.72709767870401 -73.026481797856718 0 -73.026481797856718 22.296618810942391 0 0 0 0 369.43896659235907 -62.266687552433837 0 -62.266687552433837 77.667153533772535 0 0 0 0 -122.50506605148621 41.815956064668143 0 41.815956064668143 38.439499742925534 0 0 0 0 648.67933020378405 -110.32086820998302 0 -110.32086820998302 -6.2395440504990916 0 0 0 0 0.96549630010571263 3.0684655854824285 0 3.0684655854824285 4.9295589339997807 0 0 0 0 649.33109831854381 -58.987188943827732 0 -58.987188943827732 28.279584972431024 0 0 0 0 36.124136768361495 80.394372482566268 0 80.394372482566268 23.703421408486889 0 0 0 0 28.944341427602922 -29.31443525831952 0 -29.31443525831952 -1.3821215434290934 0 0 0 0 18.311826326222217 100.77878016628547 0 100.77878016628547 -29.310852684183715 0 0 0 0 135.7572798148758 72.852455783528228 0 72.852455783528228 -38.020097581972848 0 0 0 0 -201.92123155495938 125.87006755242001 0 125.87006755242001 83.029764471483134 0 0 0 0 199.40248326067376 72.080932772277691 0 72.080932772277691 -59.214761025701193 0 0 0 0 -0.12814737999919146 0.6155805668565506 0 0.6155805668565506 -1.4508293520743183 0 0 0 0 -2.6963946265968843 91.833841168823213 0 91.833841168823213 -22.007755573738589 0 0 0 0 -62.832467745174654 85.712068566356749 0 85.712068566356749 -2.7234231861154043 0 0 0 0 -72.258971678620583 75.974346223128649 0 75.974346223128649 58.085621766987174 0 0 0 0 207.12856812530663 -28.637424118983731 0 -28.637424118983731 -81.471532046696368 0 0 0 0 222.11217301139914 188.18052888679989 0 188.18052888679989 98.594070443127748 0 0 0 0 -108.93509517041093 81.916794757241945 0 81.916794757241945 202.74226649481335 0 0 0 0 4.6024348762739464 60.261171015570383 0 60.261171015570383 -27.432210511694109 0 0 0 0 -157.20190614796957 -12.077834466455272 0 -12.077834466455272 52.18766270790735 0 0 0 0 747.05709626350836 111.88926699130204 0 111.88926699130204 99.258715853342892 0 0 0 0 0.53059728584823418 0.98225608559769739 0 0.98225608559769739 2.3928361391860609 0 0 0 0 684.23146062145315 131.49501829330251 0 131.49501829330251 189.84026197000458 0 0 0 0 -88.255024473977755 271.32883021518666 0 271.32883021518666 -131.71778555796618 0 0 0 0 302.27414566878542 91.095946146262605 0 91.095946146262605 -91.35022438316048 0 0 0 0 96.22685080501833 -47.463720944390388 0 -47.463720944390388 180.69035481147048 0 0 0 0 -129.54638522839377 94.623910875156241 0 94.623910875156241 208.18378110919457 0 0 0 0 7.4073320636830147 3.2278713473928633 0 3.2278713473928633 0.9411776446473592 0 0 0 0 36.501929428541189 40.867999940855384 0 40.867999940855384 -83.292808983118022 0 0 0 0 269.02434721243117 15.279620519624729 0 15.279620519624729 -353.60337508212513 0 0 0 0 -11.617308398293972 10.800629434193334 0 10.800629434193334 -77.043125357327781 0 0 0 0 -17.459858908452588 5.0985361923030093 0 5.0985361923030093 -6.20318772988559 0 0 0 0 29.582412777857826 28.612048829535084 0 28.612048829535084 -0.057622960038019685 0 0 0 0 130.59714617323698 33.450956655778697 0 33.450956655778697 -0.0016210378243687699 0 0 0 0 54.882945455654408 -27.810283647490913 0 -27.810283647490913 -10.894921537641665 0 0 0 0 24.793324133504939 32.518106359430561 0 32.518106359430561 9.1205689971336099 0 0 0 0 201.45919397454782 -77.909742125666654 0 -77.909742125666654 -47.372309365641115 0 0 0 0 304.8299416272057 85.707394268245253 0 85.707394268245253 -34.51098075821244 0 0 0 0 -126.98757152222396 203.78600878721571 0 203.78600878721571 201.46327467950545 0 0 0 0 2.9909017175557437 1.5628085196616155 0 1.5628085196616155 0.78442953233801882 0 0 0 0 124.39471301515732 105.18421754372463 0 105.18421754372463 147.46604853139834 0 0 0 0 212.94158078323017 147.66086433635365 0 147.66086433635365 77.042480525003882 0 0 0 0 118.8457568537624 53.81704152298736 0 53.81704152298736 50.428765989393014 0 0 0 0 160.35386416824986 15.538379404645998 0 15.538379404645998 -31.540795518376438 0 0 0 0 158.48097602341477 82.194568551121108 0 82.194568551121108 20.597126169926341 0 0 0 0 174.23690429071939 54.504606066384227 0 54.504606066384227 23.417635031169681 0 0 0 0 190.0686013063314 51.02942988845566 0 51.02942988845566 -0.062406934155582516 0 0 0 0 184.89278387649028 1.778220393923247 0 1.778220393923247 54.099507485572026 0 0 0 0 163.21492667077837 37.382982413503136 0 37.382982413503136 0.14860229042555323 0 0 0 0 113.15883153425239 44.865254453778832 0 44.865254453778832 57.097732193849474 0 0 0 0 159.16037066371609 32.773286554491435 0 32.773286554491435 39.621099585483137 0 0 0 0 66.637175063078757 3.5764925635132698 0 3.5764925635132698 31.661892550699761 0 0 0 0 120.87066845565278 43.340514289289899 0 43.340514289289899 40.37760583495367 0 0 0 0 115.7995227602587 88.649894113258711 0 88.649894113258711 63.451346557451387 0 0 0 0 83.299886964072357 60.014558076205383 0 60.014558076205383 46.656169149724519 0 0 0 0 40.708367925675702 -11.431591346113976 0 -11.431591346113976 19.565696433492441 0 0 0 0 87.153763583221007 69.582409307890117 0 69.582409307890117 50.394325140063017 0 0 0 0 88.049702894213851 29.340303821195306 0 29.340303821195306 -1.8199787322275256 0 0 0 0 -15.0071000373282 -46.599659774244458 0 -46.599659774244458 -0.99715123013837115 0 0 0 0 72.944629400508347 14.239598703812874 0 14.239598703812874 -20.452154310836306 0 0 0 0 42.399873143604054 6.5097341856463871 0 6.5097341856463871 -30.994093515212711 0 0 0 0 -8.7042566973032081 -47.899026714284574 0 -47.899026714284574 -21.404464859311389 0 0 0 0 -26.641920605150517 -53.641757243721656 0 -53.641757243721656 -53.441097758196335 0 0 0 0 -10.929591089676251 -28.597369616108047 0 -28.597369616108047 -61.649231532438897 0 0 0 0 -15.078124261079211 -34.579058733430152 0 -34.579058733430152 -48.746813690571457 0 0 0 0 4.2779489763441347 -2.4557443824641894 0 -2.4557443824641894 0.3445216692161599 0 0 0 0 35.293013362997272 14.78350297741591 0 14.78350297741591 6.1422221560344354 0 0 0 0 41.822284694382688 -43.689864695069105 0 -43.689864695069105 -57.335784332602387 0 0 0 0 45.71586944063165 26.819348643106835 0 26.819348643106835 58.471968642194859 0 0 0 0 126.51041948129568 18.677149877970727 0 18.677149877970727 -6.8108210011047277 0 0 0 0 288.40524292448026 18.874355111831719 0 18.874355111831719 -48.222615432670807 0 0 0 0 127.49349745690415 -6.4966667165446381 0 -6.4966667165446381 119.69562035937868 0 0 0 0 142.48771945767294 90.516929292921134 0 90.516929292921134 -70.577938575774411 0 0 0 0 233.86975964743033 25.845181684610107 0 25.845181684610107 -48.005748999137275 0 0 0 0 -6.2980997969862074 -39.691375194502307 0 -39.691375194502307 -27.387240389708488 0 0 0 0 2.6958232737443097 -0.10094158053771118 0 -0.10094158053771118 -0.052179023849652784 0 0 0 0 49.633047800722125 -53.17268623905295 0 -53.17268623905295 45.465918282988888 0 0 0 0 165.98399787823382 -21.440015003311132 0 -21.440015003311132 -7.6255450858503586 0 0 0 0 19.914541614271002 -32.531948614405806 0 -32.531948614405806 46.845146089375689 0 0 0 0 4.5603226076200372 -4.535239651189972 0 -4.535239651189972 33.716548685118568 0 0 0 0 17.167241907543939 12.665273980059165 0 12.665273980059165 2.8772988522685807 0 0 0 0 -0.36191608754838001 0.014132358369778331 0 0.014132358369778331 0.91939151134213093 0 0 0 0 36.290830603822542 -16.726523287722813 0 -16.726523287722813 7.2309836195947828 0 0 0 0 15.051473958337738 27.697099151126196 0 27.697099151126196 40.686796585562242 0 0 0 0 2.7064717478133389 -9.457003139221797 0 -9.457003139221797 35.840417816907546 0 0 0 0 1.5525511067208697 -0.17179587792595896 0 -0.17179587792595896 0.98973158902769098 0 0 0 0 7.9165609893170767 3.123397650216333 0 3.123397650216333 -6.3252339213887865 0 0 0 0 6.7174169590980739 -0.84150314734909959 0 -0.84150314734909959 0.0569602729525652 0 0 0 0 36.645960763318726 -38.387304698320705 0 -38.387304698320705 -101.52883063221701 0 0 0 0 15.778215781618201 36.875627549724356 0 36.875627549724356 30.011676256371686 0 0 0 0 25.729325919193798 -12.744765723155183 0 -12.744765723155183 18.599629629853609 0 0 0 0 39.673760662437417 14.603778433020473 0 14.603778433020473 44.635961795102581 0 0 0 0 8.714771216695226 41.258615353263046 0 41.258615353263046 100.87980031399968 0 0 0 0 17.33420149050653 -4.1748643523762894 0 -4.1748643523762894 96.270394676104132 0 0 0 0 59.429656460422848 12.084930778215011 0 12.084930778215011 32.067907797811358 0 0 0 0 21.324325050562038 5.3627056878322605 0 5.3627056878322605 86.895012320791579 0 0 0 0 39.556040716743155 25.488822415961224 0 25.488822415961224 7.8412740235132219 0 0 0 0 70.280045689854887 19.427423117934069 0 19.427423117934069 -10.967847985006546 0 0 0 0 49.754129386015393 50.855559313869549 0 50.855559313869549 22.345659937942514 0 0 0 0 9.9513332000124706 5.274161938687933 0 5.274161938687933 -20.104059107347666 0 0 0 0 11.083708269026829 70.253731198984156 0 70.253731198984156 12.670068556537558 0 0 0 0 -33.490001299775031 34.458006326568579 0 34.458006326568579 -3.9308394039605901 0 0 0 0 1.5467824792315525 0.18678012227624663 0 0.18678012227624663 -0.17007923227471933 0 0 0 0 33.133225580881117 96.296179094568885 0 96.296179094568885 19.816147440540931 0 0 0 0 67.031676267688454 -40.682819075457246 0 -40.682819075457246 -79.51040968331472 0 0 0 0 18.634390776340297 40.666342474157318 0 40.666342474157318 -126.76982829189785 0 0 0 0 59.016902698698686 55.530162097467496 0 55.530162097467496 -136.95035607236611 0 0 0 0 2.7530774975616339 0.741641865336085 0 0.741641865336085 -0.098861320930920815 0 0 0 0 -16.01091491272382 61.427240288326175 0 61.427240288326175 -29.81166166813864 0 0 0 0 -16.477522295539373 -15.698583739112133 0 -15.698583739112133 -42.604955180810521 0 0 0 0 52.018589819868794 29.482726644340119 0 29.482726644340119 -12.894918214526115 0 0 0 0 1.4313544252271981 0.20463095598101333 0 0.20463095598101333 -0.17849666379752782 0 0 0 0 73.315554289387364 29.25658966973117 0 29.25658966973117 -143.11792129225125 0 0 0 0 -26.881975973126828 80.348447606778223 0 80.348447606778223 3.8287892101159287 0 0 0 0 -31.156053732896908 71.082416774802653 0 71.082416774802653 -16.073081986284251 0 0 0 0 47.553281366901757 8.6325024073372258 0 8.6325024073372258 1.1345183936164926 0 0 0 0 84.74195410458924 37.393292760619943 0 37.393292760619943 -182.37569371751351 0 0 0 0 48.40169218831943 38.72225421215353 0 38.72225421215353 -86.879793040966888 0 0 0 0 48.18245994191966 85.303137493593567 0 85.303137493593567 -76.066131032986505 0 0 0 0 28.869170921547266 34.090227923712803 0 34.090227923712803 -68.989383019376874 0 0 0 0 92.056797080498654 80.37594312686997 0 80.37594312686997 -50.714972878785261 0 0 0 0 68.398069200544342 44.207595153151146 0 44.207595153151146 -9.7559495917416825 0 0 0 0 114.90723927550061 30.995631767875466 0 30.995631767875466 -86.018873835198065 0 0 0 0 135.04055998252443 49.969639826912044 0 49.969639826912044 -12.226448082445586 0 0 0 0 106.7376978922257 48.707106361327419 0 48.707106361327419 47.628508816438625 0 0 0 0 100.36237440052719 69.030296511688675 0 69.030296511688675 33.904337698268137 0 0 0 0 88.061924340028781 95.288617279175583 0 95.288617279175583 51.044204734980895 0 0 0 0 97.127459670395183 107.76258123036132 0 107.76258123036132 23.079008887138201 0 0 0 0 55.514146688034089 107.6580103861611 0 107.6580103861611 23.368045212611378 0 0 0 0 122.40357902464893 96.456953186555324 0 96.456953186555324 7.1391802209591333 0 0 0 0 72.223777570769016 64.586493955086326 0 64.586493955086326 -9.4619426695744551 0 0 0 0 119.5663542346374 15.999398766107674 0 15.999398766107674 -18.158676714570447 0 0 0 0 177.15150003563758 48.191075887860734 0 48.191075887860734 -14.579091698270901 0 0 0 0 95.398950263450388 33.366500289772375 0 33.366500289772375 -3.1041455406189016 0 0 0 0 130.8654538256269 19.559882321224904 0 19.559882321224904 2.1656285459412175 0 0 0 0 76.483503683593881 -7.3163761457544751 0 -7.3163761457544751 -84.889619297411173 0 0 0 0 138.88791948973267 5.9827694655452888 0 5.9827694655452888 -90.65381688191701 0 0 0 0 53.71673891757564 -3.6473612433117069 0 -3.6473612433117069 -99.667382986338907 0 0 0 0 121.9530590585091 -42.713194678520267 0 -42.713194678520267 -98.209993209535241 0 0 0 0 96.892830247437814 1.6566770015201655 0 1.6566770015201655 -168.98501187058673 0 0 0 0 75.013943053387266 -24.790011143131778 0 -24.790011143131778 -121.10299960507518 0 0 0 0 55.705220009079014 8.9454152560133871 0 8.9454152560133871 1.3422918526272563 0 0 0 0 -18.547933336822098 15.540526183550071 0 15.540526183550071 25.461785483355698 0 0 0 0 64.289672049860286 9.6059847155472973 0 9.6059847155472973 0.14792818431632204 0 0 0 0 71.282673811423592 1.7399858512769697 0 1.7399858512769697 11.316189286151825 0 0 0 0 60.970795670193183 -22.968883780202304 0 -22.968883780202304 -54.552179555930593 0 0 0 0 68.155406182580066 5.2526232756521711 0 5.2526232756521711 -4.2275689263629115 0 0 0 0 116.36351541876502 6.7704056835402753 0 6.7704056835402753 -14.816030460445631 0 0 0 0 96.95199552676786 2.9024584380645138 0 2.9024584380645138 -4.5954280421578915 0 0 0 0 19.010520161954489 -0.76771913432750694 0 -0.76771913432750694 -5.9720667305472492 0 0 0 0 75.809449917885104 7.9166623123465456 0 7.9166623123465456 5.346285162321692 0 0 0 0 84.095539865766114 -3.6508425897822576 0 -3.6508425897822576 -39.107799223536858 0 0 0 0 88.294601315574255 1.9811385100817915 0 1.9811385100817915 -13.538843732679652 0 0 0 0 -9.2102206838026177 -92.436040190043741 0 -92.436040190043741 -33.263922515366104 0 0 0 0 174.70256595306273 -27.5978733895397 0 -27.5978733895397 -176.55384325281449 0 0 0 0 64.083404640114168 -103.59365472199659 0 -103.59365472199659 -148.8245649663977 0 0 0 0 -0.56278154410858861 -1.4016276998244379 0 -1.4016276998244379 -1.7390741495088271 0 0 0 0 13.33813418752834 42.75585033353218 0 42.75585033353218 -35.220446145273627 0 0 0 0 105.05164360192271 15.547998407034456 0 15.547998407034456 -176.91127797141689 0 0 0 0 123.72456177268759 -104.03327715486489 0 -104.03327715486489 -207.61003146107333 0 0 0 0 26.225533122496927 -215.62233722319934 0 -215.62233722319934 7.5550614918969359 0 0 0 0 144.52530331958042 57.429788403482462 0 57.429788403482462 -46.263419304079434 0 0 0 0 -23.324589319610823 -82.365482122220442 0 -82.365482122220442 3.6696966606950809 0 0 0 0 144.3612698237248 -97.941800040200349 0 -97.941800040200349 -132.91245126419329 0 0 0 0 247.60217067688063 73.30340562030662 0 73.30340562030662 -20.042218278931387 0 0 0 0 22.894513667506544 -67.02016265033285 0 -67.02016265033285 -23.202199028562291 0 0 0 0 163.10517556529521 -54.909547208847471 0 -54.909547208847471 -24.386256649489951 0 0 0 0 118.54235869263357 -16.290390827744886 0 -16.290390827744886 -24.356923809830732 0 0 0 0 6.8025438003100795 -23.700876384821328 0 -23.700876384821328 -7.8218163419643263 0 0 0 0 12.027372547705868 0.51227272529394696 0 0.51227272529394696 0.26909103348951646 0 0 0 0 185.78967743796966 0.75246966865597642 0 0.75246966865597642 -47.02352285401048 0 0 0 0 122.41056552183272 -105.19283490843361 0 -105.19283490843361 -84.386185452454811 0 0 0 0 105.32837811211562 22.700070246310986 0 22.700070246310986 -29.218399781947483 0 0 0 0 282.15654652378726 43.777030749140295 0 43.777030749140295 -113.34821910422164 0 0 0 0 -97.646574622733169 -112.84996957610616 0 -112.84996957610616 221.16273136293148 0 0 0 0 358.13053124096041 -17.773236177212084 0 -17.773236177212084 65.344410151425564 0 0 0 0 300.97302987731382 100.03148941013774 0 100.03148941013774 -143.71837375072596 0 0 0 0 112.7383806596481 14.579424079773844 0 14.579424079773844 -7.0900957203571124 0 0 0 0 89.247556029629777 9.1400870431696148 0 9.1400870431696148 15.052019453439698 0 0 0 0 -151.13216155570262 82.701016823922259 0 82.701016823922259 127.9899698184131 0 0 0 0 17.711222490353197 -13.484432566625543 0 -13.484432566625543 -5.2312364732409371 0 0 0 0 14.44134702954921 -4.4466114319097372 0 -4.4466114319097372 -0.57481256505586398 0 0 0 0 57.565105558891446 2.1662138550623524 0 2.1662138550623524 -1.3487594877587981 0 0 0 0 33.101987347690908 -2.5869195678091188 0 -2.5869195678091188 -3.2537386893076126 0 0 0 0 560.24680072372939 367.18637310483092 0 367.18637310483092 140.89060516471091 0 0 0 0 264.27304270983586 -43.289436714205749 0 -43.289436714205749 -133.65952612369165 0 0 0 0 492.47419768518739 282.16086490128555 0 282.16086490128555 145.56553203252312 0 0 0 0 0.63504903882464703 0.72345243941660531 0 0.72345243941660531 2.2802828054516313 0 0 0 0 664.98441826166891 162.23663394716266 0 162.23663394716266 -46.20201184950929 0 0 0 0 493.7458284513159 41.886606906927966 0 41.886606906927966 -43.799320601848649 0 0 0 0 583.73066321425722 123.88348868854564 0 123.88348868854564 -51.085877017200644 0 0 0 0 629.90624029763785 92.584398206779838 0 92.584398206779838 -101.80085074359431 0 0 0 0 634.195270330938 64.301971632920242 0 64.301971632920242 -103.5923571775968 0 0 0 0 609.3189341694615 9.8959083724236336 0 9.8959083724236336 -36.074016228394157 0 0 0 0 66.925177269826236 -19.018297299998608 0 -19.018297299998608 -5.9048213322230083 0 0 0 0 342.22287066698846 157.79363467509745 0 157.79363467509745 92.339869606456091 0 0 0 0 120.71939880746504 -0.1305998587108661 0 -0.1305998587108661 -4.728644490692659 0 0 0 0 82.069081844161701 6.5740705523626843 0 6.5740705523626843 -3.245258922228885 0 0 0 0 10.598694918906823 3.790929177071618 0 3.790929177071618 -6.3281184578818115 0 0 0 0 67.913169286196535 24.459439798512065 0 24.459439798512065 4.2019047851379128 0 0 0 0 5.3056622249313925 8.9509420797566506 0 8.9509420797566506 5.7883642926761549 0 0 0 0 108.11712117506249 3.5540225856342431 0 3.5540225856342431 -3.6978010600732887 0 0 0 0 17.714551183944977 1.2452399352690406 0 1.2452399352690406 -2.0095670392921754 0 0 0 0 64.818582570080252 36.480965799897717 0 36.480965799897717 -49.37338999490612 0 0 0 0 115.01330868860532 -8.2121855231525274 0 -8.2121855231525274 16.035239632449247 0 0 0 0 117.93306586773542 16.96451955201502 0 16.96451955201502 -126.85445395781778 0 0 0 0 125.12115615916264 53.32288173829545 0 53.32288173829545 -50.151536549934576 0 0 0 0 134.08891452656826 98.408027491285509 0 98.408027491285509 -34.962700301838254 0 0 0 0 214.68829623730562 5.4464862106386249 0 5.4464862106386249 -15.082110104647086 0 0 0 0 -0.87151389032962001 0.19510568435970299 0 0.19510568435970299 -0.41815381139417029 0 0 0 0 16.00752542585542 -11.052238678963647 0 -11.052238678963647 80.312972815846933 0 0 0 0 -60.061553985113278 91.273097106324897 0 91.273097106324897 -2.5017172510663386 0 0 0 0 141.60481930405513 93.123546662949252 0 93.123546662949252 -30.89970051778846 0 0 0 0 85.557970905254479 12.332087966157701 0 12.332087966157701 -34.379616550554374 0 0 0 0 33.060608463230892 54.725045465365383 0 54.725045465365383 -12.90283399525552 0 0 0 0 47.312982668852783 13.306090536340946 0 13.306090536340946 13.015230879542258 0 0 0 0 105.41310728509416 -10.373431138049114 0 -10.373431138049114 -8.6636998061489976 0 0 0 0 54.127561552484622 68.267309823558662 0 68.267309823558662 -19.369324430360734 0 0 0 0 68.066269317670958 64.202132474551263 0 64.202132474551263 -31.082311105562731 0 0 0 0 98.721810150080273 33.97663426090196 0 33.97663426090196 -10.265171489738805 0 0 0 0 53.888768154283753 68.893650608595394 0 68.893650608595394 -20.222325440925943 0 0 0 0 105.66079195578641 57.426454152124343 0 57.426454152124343 -25.499289732159639 0 0 0 0 -0.28745212629233663 1.9946372484359642 0 1.9946372484359642 -3.9923936174621639 0 0 0 0 154.2294552912881 55.115266781152343 0 55.115266781152343 -34.432974969634415 0 0 0 0 -41.54800332252853 50.542006236330629 0 50.542006236330629 17.29376005839714 0 0 0 0 66.86123637739729 -27.435567315699814 0 -27.435567315699814 -11.709887741700868 0 0 0 0 -70.44476256553753 30.705126853319484 0 30.705126853319484 49.241982181451249 0 0 0 0 1.4871098592852832 5.4272788354400063 0 5.4272788354400063 5.0306419551613963 0 0 0 0 784.82451071600372 -67.374274399018674 0 -67.374274399018674 -58.217280187619167 0 0 0 0 676.7329571921 -98.949087803728276 0 -98.949087803728276 -9.5923398369371853 0 0 0 0 637.29143727806149 33.248728986707448 0 33.248728986707448 16.574087480209869 0 0 0 0 730.46007652971821 12.031375485029514 0 12.031375485029514 -83.076023160643302 0 0 0 0 50.903757097694324 65.908979746432124 0 65.908979746432124 10.022331555654205 0 0 0 0 -1.7160160835231721 2.5450678497983006 0 2.5450678497983006 -5.5869221674456337 0 0 0 0 1.3502897989341065 7.8009470171130744 0 7.8009470171130744 5.3202877984196508 0 0 0 0 3.8050942721019965 32.117456561153773 0 32.117456561153773 25.309455644089667 0 0 0 0 106.36112498326838 40.282841544922377 0 40.282841544922377 -18.722599941603221 0 0 0 0 496.00827404956362 12.458710540289445 0 12.458710540289445 -146.04277795716311 0 0 0 0 362.35475298550591 -29.448220615847774 0 -29.448220615847774 -99.1407459820893 0 0 0 0 289.99557482740693 19.199333669530375 0 19.199333669530375 -98.834882724675651 0 0 0 0 622.03395337783695 -12.886909740836195 0 -12.886909740836195 -115.19972199473614 0 0 0 0 501.42027767824038 37.431523055358838 0 37.431523055358838 -72.208707777997603 0 0 0 0 551.59410611874046 -57.220713658503826 0 -57.220713658503826 -54.750305248280675 0 0 0 0 638.10771623333676 -12.983504965899229 0 -12.983504965899229 -54.79399522003132 0 0 0 0 505.21356955484953 11.471567136919049 0 11.471567136919049 -112.85441431193658 0 0 0 0 404.22013515708386 -65.973904311716211 0 -65.973904311716211 -50.544730066684338 0 0 0 0 305.75891135202255 -45.055637701991088 0 -45.055637701991088 -125.85523669630618 0 0 0 0 391.55695107483189 -10.279558190717438 0 -10.279558190717438 -128.95904030853242 0 0 0 0 282.16433438505192 67.737206449029031 0 67.737206449029031 -157.22790948018957 0 0 0 0 261.8476192936123 72.959941015666061 0 72.959941015666061 -249.74601728929997 0 0 0 0 53.389815209091466 122.96092127070773 0 122.96092127070773 -164.92476575623726 0 0 0 0 65.892983106750762 134.29809635626651 0 134.29809635626651 -195.48720693486547 0 0 0 0 -160.34699455737791 193.38810699780214 0 193.38810699780214 -120.95652386375545 0 0 0 0 25.398132915557653 67.145469830777941 0 67.145469830777941 -131.3061324260529 0 0 0 0 239.90765821911918 34.927047642620195 0 34.927047642620195 -164.32433701038943 0 0 0 0 84.533199322700966 120.96864736986444 0 120.96864736986444 -126.92931862660139 0 0 0 0 293.87134070110187 27.556219113272995 0 27.556219113272995 -133.50349474676824 0 0 0 0 218.85425795038464 -43.716654895564773 0 -43.716654895564773 -54.389145736968885 0 0 0 0 1.4617671458763652 75.214803224780155 0 75.214803224780155 -51.059346606778433 0 0 0 0 7.0359408786544009 175.89493225771466 0 175.89493225771466 -132.43630500864734 0 0 0 0 18.884781814474977 16.605998631782306 0 16.605998631782306 13.162594493802711 0 0 0 0 -10.938680037146696 179.10074738695084 0 179.10074738695084 -88.70561673580508 0 0 0 0 43.306858879472202 -8.7097905501477726 0 -8.7097905501477726 -102.36669807062208 0 0 0 0 335.80379704818188 38.099266968484699 0 38.099266968484699 -68.894251133901903 0 0 0 0 14.598933205397913 11.984541782849057 0 11.984541782849057 8.3255115431612428 0 0 0 0 370.18520226171677 -34.203267877935048 0 -34.203267877935048 7.933337755954085 0 0 0 0 461.97750535767045 55.440104522271753 0 55.440104522271753 -142.09123677890233 0 0 0 0 503.94768064863456 -5.0845142930243981 0 -5.0845142930243981 -104.55297405167084 0 0 0 0 622.58234892071778 73.62966203405341 0 73.62966203405341 -104.5778748257073 0 0 0 0 702.53250565523194 20.937403074446252 0 20.937403074446252 -119.43195754133717 0 0 0 0 650.58667984478598 115.37129715821942 0 115.37129715821942 -77.286141208476465 0 0 0 0 642.0297886168737 123.63844045011035 0 123.63844045011035 -83.618292003668785 0 0 0 0 755.63723505543294 -123.38693052120607 0 -123.38693052120607 7.8989361810688479 0 0 0 0 959.89325801314408 255.46946227846058 0 255.46946227846058 -29.654125336717584 0 0 0 0 5.5810095135645525 4.4149854303666416 0 4.4149854303666416 3.4849798805295324 0 0 0 0 -40.348206300510356 626.59730826104067 0 626.59730826104067 96.589821505931241 0 0 0 0 1538.3476365031238 -179.14628198689024 0 -179.14628198689024 -81.248340927341246 0 0 0 0 650.25629233591826 400.85060985213352 0 400.85060985213352 553.00143129611479 0 0 0 0 270.57188405372017 77.244541574599324 0 77.244541574599324 -11.119548903564919 0 0 0 0 798.36141233134549 -147.80525436661875 0 -147.80525436661875 55.335901819278206 0 0 0 0 348.58694546291736 393.95049983985825 0 393.95049983985825 -59.262935671860419 0 0 0 0 933.15546848159192 545.53348128808943 0 545.53348128808943 -78.75914197205293 0 0 0 0 344.92605455448893 376.71376514589451 0 376.71376514589451 14.911342951791653 0 0 0 0 328.15414413626422 302.89134007822372 0 302.89134007822372 3.8770852702269849 0 0 0 0 319.92316583645152 329.74610263066734 0 329.74610263066734 80.810113759217074 0 0 0 0 469.79077498529296 316.77645142722861 0 316.77645142722861 -10.694689944957304 0 0 0 0 383.18590896018577 24.904912648339064 0 24.904912648339064 -90.205671418864256 0 0 0 0 153.24822372080325 196.97016830092588 0 196.97016830092588 139.38859879545515 0 0 0 0 250.22121238807813 159.31575071732914 0 159.31575071732914 222.33016539930395 0 0 0 0 364.75477318037883 290.17446545656117 0 290.17446545656117 93.068295553340022 0 0 0 0 288.34396776116773 386.98539970663512 0 386.98539970663512 41.952016525478399 0 0 0 0 264.05621464631258 268.34345364760816 0 268.34345364760816 88.606654563187448 0 0 0 0 187.70182201721036 380.64791926494433 0 380.64791926494433 99.278525975091497 0 0 0 0 161.38781773987284 176.48136230531554 0 176.48136230531554 -120.05792172041197 0 0 0 0 227.30708466710348 338.54114660423852 0 338.54114660423852 7.4936810775890876 0 0 0 0 188.59376177760259 119.36860315139006 0 119.36860315139006 -573.83575856587754 0 0 0 0 164.24937940363452 172.21508712038553 0 172.21508712038553 -116.38644775703824 0 0 0 0 -126.23180904535093 180.70795835228108 0 180.70795835228108 -8.0040139593634194 0 0 0 0 103.20718294153266 79.8079604354499 0 79.8079604354499 -255.38890301979472 0 0 0 0 -75.838532022811705 161.88262640932044 0 161.88262640932044 -265.85665291634359 0 0 0 0 223.3829365525271 286.80547457656525 0 286.80547457656525 -227.53896265455273 0 0 0 0 235.73288599119041 -130.05567024989455 0 -130.05567024989455 -211.65895329914656 0 0 0 0 0.24260812588402381 -1.0656520723822993 0 -1.0656520723822993 -5.208279564643151 0 0 0 0 735.85395600417496 226.6108590650839 0 226.6108590650839 -648.1720951078064 0 0 0 0 734.46123168860413 225.61322044790444 0 225.61322044790444 -349.08359994185253 0 0 0 0 213.74391082731745 -83.311631598795429 0 -83.311631598795429 -323.1475352579414 0 0 0 0 237.21601369711425 185.26429786776811 0 185.26429786776811 -18.673868951222367 0 0 0 0 29.620704261862556 217.95193243851011 0 217.95193243851011 -23.705268106983681 0 0 0 0 556.37049777486391 163.239483304716 0 163.239483304716 -145.78581621217836 0 0 0 0 565.95718246638944 226.31389961441027 0 226.31389961441027 -124.91669111785899 0 0 0 0 249.16917872882186 191.68558994778857 0 191.68558994778857 155.4572661164878 0 0 0 0 332.64464546614727 311.44069677952729 0 311.44069677952729 319.41797661173575 0 0 0 0 196.64585127965438 178.10511643679411 0 178.10511643679411 303.58201436952174 0 0 0 0 214.63071058722562 181.52959062333204 0 181.52959062333204 153.13906888124035 0 0 0 0 249.92573782031832 200.53360429745669 0 200.53360429745669 139.46035507320613 0 0 0 0 734.39611829780551 624.20804821557965 0 624.20804821557965 2.0703136169071499 0 0 0 0 866.14067226712359 584.5447408336787 0 584.5447408336787 -0.88590428996644555 0 0 0 0 804.08646828446581 396.90582552407864 0 396.90582552407864 -4.3285141091204196 0 0 0 0 349.3244795370847 323.1780167228726 0 323.1780167228726 109.01771932028592 0 0 0 0 1500.5538349134204 525.15836466849407 0 525.15836466849407 -358.70419090616895 0 0 0 0 1499.5989316743289 277.06713198908494 0 277.06713198908494 -523.93134803425551 0 0 0 0 1068.3201592749174 342.05832016731108 0 342.05832016731108 -432.8416420570743 0 0 0 0 1069.4843477343893 301.77914145966201 0 301.77914145966201 -417.62605134278061 0 0 0 0 1090.0495760302838 213.30962216783334 0 213.30962216783334 -424.03009840680375 0 0 0 0 1101.5163984498358 189.70580320687819 0 189.70580320687819 -448.77319086848092 0 0 0 0 1499.8013143504213 -37.264545887608186 0 -37.264545887608186 -371.57349484775767 0 0 0 0 1308.0032396749521 118.56529829243546 0 118.56529829243546 -424.28392418900171 0 0 0 0 1219.8395569842432 -4.3708031573845147 0 -4.3708031573845147 -326.36878031508786 0 0 0 0 1251.7384557975711 -91.258847440438757 0 -91.258847440438757 -204.54863397907394 0 0 0 0 992.80573609420026 -27.329940173650954 0 -27.329940173650954 -220.26335453854534 0 0 0 0 677.71937122329837 -35.411738892770927 0 -35.411738892770927 -88.309937533159712 0 0 0 0 720.65021544587944 109.21143341288155 0 109.21143341288155 -222.2666576195241 0 0 0 0 735.97412848771 -2.4847079118675808 0 -2.4847079118675808 -73.35975014030987 0 0 0 0 967.63300989384152 -3.4111088666194291 0 -3.4111088666194291 -171.40190893390323 0 0 0 0 271.30011347703476 19.064057783115913 0 19.064057783115913 -112.10285980591971 0 0 0 0 51.297227848670445 30.671799523103232 0 30.671799523103232 51.73665439796514 0 0 0 0 -0.25853432715219782 -3.0504922447373275 0 -3.0504922447373275 -13.769304109101169 0 0 0 0 -13.859020394444087 -47.487049751689028 0 -47.487049751689028 25.560365740110683 0 0 0 0 877.59387537239672 -118.67796264004787 0 -118.67796264004787 -60.245004158352685 0 0 0 0 770.3257696459259 -111.02682776500191 0 -111.02682776500191 -60.717926265319306 0 0 0 0 6.3274947055576405 -2.9047942716552342 0 -2.9047942716552342 -20.386654112272165 0 0 0 0 591.62684299029934 -174.32446575816823 0 -174.32446575816823 58.044444441724593 0 0 0 0 850.31427673803046 -340.22743560360635 0 -340.22743560360635 90.033738903553456 0 0 0 0 -150.83062686779431 218.74272957913425 0 218.74272957913425 -142.17736313455254 0 0 0 0 107.33778998052003 83.811314486372339 0 83.811314486372339 -75.470664758770454 0 0 0 0 21.622781655999574 20.398586693071604 0 20.398586693071604 14.059244168629483 0 0 0 0 -578.41209852720931 426.03658097511618 0 426.03658097511618 -252.71346475252213 0 0 0 0 -82.861180482330383 288.62654379388374 0 288.62654379388374 -308.1308311660477 0 0 0 0 -227.37695361092483 194.62449708223596 0 194.62449708223596 -145.61593606592669 0 0 0 0 20.451779881172115 95.4456551792982 0 95.4456551792982 -284.63540822097133 0 0 0 0 8.5136426066506488 2.3708662072241609 0 2.3708662072241609 -4.5288054074821096 0 0 0 0 44.823545501058106 -29.527219710634142 0 -29.527219710634142 -289.56197926937989 0 0 0 0 815.95312219490734 -241.93332503464163 0 -241.93332503464163 86.239616609088714 0 0 0 0 14.504319442062126 10.082715108118308 0 10.082715108118308 1.0933424215199568 0 0 0 0 1338.7126645130011 -370.97419386174056 0 -370.97419386174056 -32.789167381905969 0 0 0 0 857.15321182131993 -411.82041561199134 0 -411.82041561199134 166.36417960156814 0 0 0 0 1537.9995090107514 -238.27116146356497 0 -238.27116146356497 17.708770807495359 0 0 0 0 1336.7122530190172 -104.26127237605662 0 -104.26127237605662 -49.803865895531473 0 0 0 0 1499.908650819596 -180.79179889571282 0 -180.79179889571282 -217.73754348262904 0 0 0 0 960.70162465663816 -192.43055094724818 0 -192.43055094724818 -63.669305180238268 0 0 0 0 937.7499469451086 -222.26165750998177 0 -222.26165750998177 -68.304660973522118 0 0 0 0 12.288948555361907 17.345059930646457 0 17.345059930646457 1.9101398530051545 0 0 0 0 44.167285738949431 5.4525701053278866 0 5.4525701053278866 -20.924925109193595 0 0 0 0 51.998582597225322 30.824741185137952 0 30.824741185137952 -29.619860942732458 0 0 0 0 1497.2998385357741 -241.33541116161112 0 -241.33541116161112 -330.64989314161892 0 0 0 0 1034.1615115755012 -508.66054085305797 0 -508.66054085305797 23.218799253775241 0 0 0 0 1042.7163895077524 23.432854593648511 0 23.432854593648511 -169.4523546954876 0 0 0 0 1167.3569873663 -50.015123435551772 0 -50.015123435551772 -202.53249503589558 0 0 0 0 1021.3333225857423 -70.742053968334631 0 -70.742053968334631 -191.54461131817396 0 0 0 0 1066.5617787510273 82.885895297449949 0 82.885895297449949 -73.01348904728539 0 0 0 0 46.503651113052911 13.606585810046511 0 13.606585810046511 2.6480506572338527 0 0 0 0 185.65052862005905 -135.20044278857574 0 -135.20044278857574 60.710781752947696 0 0 0 0 95.821908188449015 314.14908202288711 0 314.14908202288711 384.39802472527492 0 0 0 0 192.68615834855109 15.857459869683279 0 15.857459869683279 4.0336557046396138 0 0 0 0 1005.1330406223242 6.2416255409435166 0 6.2416255409435166 -164.27008093820086 0 0 0 0 3.8753337367950351 6.2688652505167903 0 6.2688652505167903 -2.0731922715445013 0 0 0 0 30.527929176575284 6.0795600001393044 0 6.0795600001393044 -10.606250834245753 0 0 0 0 0.91905233490251703 -23.024683704105882 0 -23.024683704105882 -5.2211978192935931 0 0 0 0 6.9213406122507877 -12.181616869194386 0 -12.181616869194386 -10.131931184903408 0 0 0 0 44.908533959722263 -44.373971984514867 0 -44.373971984514867 180.76358403438149 0 0 0 0 20.195917506484456 7.462636794936234 0 7.462636794936234 -0.70181333331655515 0 0 0 0 1.5387063182988641 -28.181404856770769 0 -28.181404856770769 -12.508822127512758 0 0 0 0 18.976788885192946 9.0351776558907204 0 9.0351776558907204 -5.8497190609490417 0 0 0 0 31.954671685670345 1.5314344604202219 0 1.5314344604202219 -6.7538970341143774 0 0 0 0 6.0749380704633431 2.3538624173456952 0 2.3538624173456952 -1.8061987562794553 0 0 0 0 65.719410384139337 37.142987503192444 0 37.142987503192444 -107.81623208442943 0 0 0 0 3.553701515411376 -8.8217616213432848 0 -8.8217616213432848 5.5499358190022576 0 0 0 0 24.607986561386497 10.594844742315104 0 10.594844742315104 36.200818033559244 0 0 0 0 97.543088956910651 161.02483268777462 0 161.02483268777462 141.2402178080219 0 0 0 0 83.91862467705505 103.20564149697771 0 103.20564149697771 59.601759757970513 0 0 0 0 89.909674242229812 20.165837695298478 0 20.165837695298478 21.523361480159792 0 0 0 0 38.866433334306805 -4.3709530410195505 0 -4.3709530410195505 -2.9100152229151828 0 0 0 0 62.945698161753171 -3.1807971875869043 0 -3.1807971875869043 89.300921774747621 0 0 0 0 242.50012645848619 185.87611854761849 0 185.87611854761849 223.76930322059161 0 0 0 0 101.40626104786497 208.91699916409959 0 208.91699916409959 331.21032286287527 0 0 0 0 135.75817982971421 135.20832866531703 0 135.20832866531703 162.95007800911037 0 0 0 0 -19.803303642594983 61.393608762658232 0 61.393608762658232 269.46141051858672 0 0 0 0 56.570011194054132 202.88637264468065 0 202.88637264468065 245.05243827419145 0 0 0 0 32.740681300517494 -1.653919935707707 0 -1.653919935707707 -2.339349252903292 0 0 0 0 53.867637272305728 -9.2497309719261125 0 -9.2497309719261125 -167.68986204122598 0 0 0 0 -1.9380930989736953 9.1360134156887511 0 9.1360134156887511 49.101952539959939 0 0 0 0 7.296130810157976 4.3770671894100133 0 4.3770671894100133 -3.3037692226190742 0 0 0 0 101.01204344893995 23.204413996526341 0 23.204413996526341 -49.277469975077167 0 0 0 0 62.617435000753176 -82.232731090996879 0 -82.232731090996879 -57.77926005732138 0 0 0 0 65.346330717760054 51.48332806526011 0 51.48332806526011 -6.9127929259959728 0 0 0 0 -0.85616212801225089 0.40906381963657878 0 0.40906381963657878 -1.10608658639612 0 0 0 0 65.895476749174122 131.54708468213539 0 131.54708468213539 -12.666560648455913 0 0 0 0 49.641791723634924 78.125212542510695 0 78.125212542510695 -54.594650140392901 0 0 0 0 -95.990771681121259 197.63109715335031 0 197.63109715335031 175.92687337501297 0 0 0 0 7.8491489072878977 7.1633044947063809 0 7.1633044947063809 -8.8342013107605215 0 0 0 0 92.473504944969136 -33.674368148134079 0 -33.674368148134079 -530.40648756805967 0 0 0 0 31.934155495913728 37.425398460547285 0 37.425398460547285 -208.17220692473893 0 0 0 0 -5.4890318399702664 75.388215154285717 0 75.388215154285717 -86.011099324395673 0 0 0 0 3.0391649488392432 66.752057556963564 0 66.752057556963564 -85.094488535557502 0 0 0 0 22.720255883094069 33.937696087199299 0 33.937696087199299 8.6465827767902965 0 0 0 0 7.9968814570118241 13.67034490030766 0 13.67034490030766 -8.6029936612241862 0 0 0 0 41.140194109928416 57.525697314407296 0 57.525697314407296 22.215998851005338 0 0 0 0 12.584637313450649 18.191382060752083 0 18.191382060752083 -3.6982717551320863 0 0 0 0 8.5025051483928635 3.1323016694147388 0 3.1323016694147388 2.9346952846966476 0 0 0 0 112.22874068997726 -169.18380686524111 0 -169.18380686524111 436.17431511153927 0 0 0 0 1497.0840012344779 375.02870629288969 0 375.02870629288969 10.151061743218133 0 0 0 0 7.5161416705799429 15.779687473984065 0 15.779687473984065 17.809397333371983 0 0 0 0 761.95108876378708 -8.1493300676359475 0 -8.1493300676359475 -14.383022410983127 0 0 0 0 -280.25523405198328 294.06674529854001 0 294.06674529854001 -102.51019723977697 0 0 0 0 1500.4363272383689 -160.21030102678 0 -160.21030102678 -26.014156683425341 0 0 0 0 5.0807666078690801 9.7770109424409988 0 9.7770109424409988 13.671280973084073 0 0 0 0 1318.3483216393688 -290.5230030774203 0 -290.5230030774203 70.90798801570071 0 0 0 0 35.393315935492865 217.10374541246949 0 217.10374541246949 -161.31615420377284 0 0 0 0 -67.385695285491238 144.20652491474812 0 144.20652491474812 -98.904009655106165 0 0 0 0 49.718042891096957 123.26302040915351 0 123.26302040915351 -114.2736631306484 0 0 0 0 4.851159634753003 258.23792868074747 0 258.23792868074747 -200.54729952112439 0 0 0 0 1499.7558319995424 -359.3127626822095 0 -359.3127626822095 96.157960581818912 0 0 0 0 -153.4263199167217 7.9836511401832695 0 7.9836511401832695 40.914833207048559 0 0 0 0 -716.82217584502905 366.77957120428619 0 366.77957120428619 864.94372091139394 0 0 0 0 2.0283327793332084 3.0380110382796914 0 3.0380110382796914 5.883464424222038 0 0 0 0 43.812408729874733 991.97992762033709 0 991.97992762033709 1110.2839857486633 0 0 0 0 -48.754625368310371 289.38873543014626 0 289.38873543014626 544.75903442791082 0 0 0 0 59.512093060340703 126.86126366981023 0 126.86126366981023 138.67890270014004 0 0 0 0 208.53714808712539 407.0239675864118 0 407.0239675864118 458.65432090506624 0 0 0 0 114.53938925844704 412.49300546923928 0 412.49300546923928 548.01464670578252 0 0 0 0 671.45098648737803 633.8538763202198 0 633.8538763202198 396.72935034956498 0 0 0 0 1496.0037573344971 1159.1439158208595 0 1159.1439158208595 323.51441255046689 0 0 0 0 161.25631919206353 171.99350003955556 0 171.99350003955556 363.78538404912229 0 0 0 0 201.3237320700573 93.547827407545014 0 93.547827407545014 363.54227151075543 0 0 0 0 156.17328294050458 148.47858131763036 0 148.47858131763036 308.46351528743935 0 0 0 0 214.76518469501934 280.71002036116624 0 280.71002036116624 356.84605122644257 0 0 0 0 124.71729316326673 219.03696052187388 0 219.03696052187388 348.18954637925026 0 0 0 0 43.407471026293933 229.34741111270068 0 229.34741111270068 385.64192587374521 0 0 0 0 88.702057127218723 148.34747731885693 0 148.34747731885693 260.9546347446144 0 0 0 0 75.013117463189701 251.93751321330319 0 251.93751321330319 164.98079660264898 0 0 0 0 61.895043890428497 196.3634711520815 0 196.3634711520815 357.84989900395635 0 0 0 0 173.77816856502977 128.54105192728548 0 128.54105192728548 362.19867072171155 0 0 0 0 115.51115641743127 104.42829277163548 0 104.42829277163548 381.90289085919721 0 0 0 0 96.630571981404501 262.02347725730237 0 262.02347725730237 293.82052723511106 0 0 0 0 108.53036161400814 161.07478020241751 0 161.07478020241751 118.62670836329016 0 0 0 0 79.470160185512214 232.37845026937157 0 232.37845026937157 81.973817806119087 0 0 0 0 201.32987231237348 192.89760922377218 0 192.89760922377218 -306.98323702390371 0 0 0 0 64.038526355245267 247.15443695480531 0 247.15443695480531 82.727289779269199 0 0 0 0 65.479488155844592 144.05276434334382 0 144.05276434334382 63.227197487262629 0 0 0 0 128.9620244953876 245.96975116680801 0 245.96975116680801 -157.07107501206565 0 0 0 0 114.21488599726035 170.80081988979259 0 170.80081988979259 -264.99231330014572 0 0 0 0 50.911272320132412 131.96651477510181 0 131.96651477510181 -192.11899247263818 0 0 0 0 116.20963267267325 172.9970006793917 0 172.9970006793917 -420.70853852800337 0 0 0 0 -18.93063700921266 144.34196754763639 0 144.34196754763639 -228.96578637588618 0 0 0 0 60.210395490179508 185.62015877013192 0 185.62015877013192 274.61269802422714 0 0 0 0 3.6644585378271586 -200.97879617696162 0 -200.97879617696162 -558.20804254298753 0 0 0 0 335.64661958305078 -231.6862108913042 0 -231.6862108913042 -1229.3992695506831 0 0 0 0 9.7974189038178423 3.2143796063808026 0 3.2143796063808026 -5.6378297419564305 0 0 0 0 -152.11977395990471 10.367042120068703 0 10.367042120068703 -526.13628294901264 0 0 0 0 -310.19313274662818 -670.22086933439743 0 -670.22086933439743 -370.41893366183922 0 0 0 0 509.34610310987046 -309.97910523960354 0 -309.97910523960354 -425.39109378347393 0 0 0 0 970.72727944737562 26.337805985152499 0 26.337805985152499 -285.3471270499349 0 0 0 0 127.20013829198069 -167.35676467593612 0 -167.35676467593612 -450.21143007934097 0 0 0 0 455.52915712653339 268.84955446651384 0 268.84955446651384 -428.85677339028416 0 0 0 0 291.33489771051609 240.7103717713436 0 240.7103717713436 -5.2313635280688686 0 0 0 0 628.32701088105387 216.66405436122977 0 216.66405436122977 -34.06324762513259 0 0 0 0 149.29399841987106 275.36703861887418 0 275.36703861887418 195.82279481725436 0 0 0 0 304.14287347882782 253.74906780784431 0 253.74906780784431 191.22790456383154 0 0 0 0 108.08182139019573 181.04839013378165 0 181.04839013378165 499.1677937845925 0 0 0 0 303.23231749232218 32.104041250865748 0 32.104041250865748 407.58361603057062 0 0 0 0 324.47563047747099 106.96306916709545 0 106.96306916709545 418.28454476513389 0 0 0 0 802.3620672766483 196.60585185170089 0 196.60585185170089 318.67864427558015 0 0 0 0 499.59662773922901 -76.037136082878988 0 -76.037136082878988 584.23735497851703 0 0 0 0 296.77018465336005 302.47883786104717 0 302.47883786104717 856.75746445934601 0 0 0 0 803.57787753981393 -260.0417780852672 0 -260.0417780852672 954.23671452843973 0 0 0 0 511.08170231092663 156.71481655750358 0 156.71481655750358 496.98500301786066 0 0 0 0 744.57303443246929 592.160663253861 0 592.160663253861 882.07006863835159 0 0 0 0 5.4422372526983906 -0.14665184673659493 0 -0.14665184673659493 -1.4957204529275021 0 0 0 0 204.77638919337187 509.90060985793752 0 509.90060985793752 1330.190257211696 0 0 0 0 179.72293055976843 -378.12832059412267 0 -378.12832059412267 392.96773145990937 0 0 0 0 1060.6985293439211 903.31019878268671 0 903.31019878268671 908.93280420795691 0 0 0 0 1698.2382875594558 207.54020522080828 0 207.54020522080828 407.36522405454343 0 0 0 0 270.728588184822 456.89599657636427 0 456.89599657636427 498.8191741879715 0 0 0 0 0.044749154826916993 -1.6254898212468927 0 -1.6254898212468927 -0.84978910585937451 0 0 0 0 418.30547257178114 284.07329731854338 0 284.07329731854338 306.24609644646353 0 0 0 0 116.2528859107988 409.01738946991304 0 409.01738946991304 637.6694623419462 0 0 0 0 792.52139867289225 162.92023668225465 0 162.92023668225465 406.2577615290673 0 0 0 0 276.03841300251224 488.97813096552363 0 488.97813096552363 692.19915392242729 0 0 0 0 963.35006234289904 596.45883759209892 0 596.45883759209892 471.00158899081543 0 0 0 0 656.37510590687452 347.77850883012707 0 347.77850883012707 230.95958541439313 0 0 0 0 429.18393142882269 162.76363408671023 0 162.76363408671023 315.62574034264776 0 0 0 0 323.30326530720413 289.70197321818034 0 289.70197321818034 224.68745227205454 0 0 0 0 331.53006480635668 268.9393461241325 0 268.9393461241325 130.59454393057808 0 0 0 0 328.34816645041906 355.28431483262545 0 355.28431483262545 108.4132733923293 0 0 0 0 528.49255208745308 285.47338486590616 0 285.47338486590616 144.2341389231525 0 0 0 0 335.23869259476328 259.87095816695029 0 259.87095816695029 142.31103936833711 0 0 0 0 345.75476765794883 140.72357272858744 0 140.72357272858744 219.7656182204027 0 0 0 0 563.37774715525302 48.268944632379544 0 48.268944632379544 280.33664439298059 0 0 0 0 358.95933438259817 118.15411873705193 0 118.15411873705193 257.85220110305818 0 0 0 0 170.76611865277664 8.396977081987643 0 8.396977081987643 -51.759094927311253 0 0 0 0 99.854372697354847 165.76035226131057 0 165.76035226131057 113.24746135144062 0 0 0 0 113.1497137185288 -16.335841781988165 0 -16.335841781988165 -18.01263281236514 0 0 0 0 222.47024179022628 292.36251442649746 0 292.36251442649746 243.62103789194953 0 0 0 0 11.175857023038276 3.3759428063913521 0 3.3759428063913521 -1.6625164903434455 0 0 0 0 9.901225201046131 -5.0819020781030693 0 -5.0819020781030693 -1.4882748502308143 0 0 0 0 161.40718607386543 175.32122618418151 0 175.32122618418151 192.01638122657641 0 0 0 0 -93.512453365750844 -261.65236988006404 0 -261.65236988006404 -366.09559967132606 0 0 0 0 11.511714659602148 2.7798677430307634 0 2.7798677430307634 -33.110103562963218 0 0 0 0 160.74808395989021 93.039718170165088 0 93.039718170165088 -726.28394459701872 0 0 0 0 12.558422621918069 -4.1304978193813717 0 -4.1304978193813717 -2.5345818116191934 0 0 0 0 16.526978214820701 -12.356481679086222 0 -12.356481679086222 -21.309398788475505 0 0 0 0 249.61805522548457 239.53871708894587 0 239.53871708894587 -557.18542102242588 0 0 0 0 81.111788479713141 -87.267229847391462 0 -87.267229847391462 -195.53203116603993 0 0 0 0 47.293264085201372 -721.49727596246839 0 -721.49727596246839 -1156.6876905565816 0 0 0 0 208.9553662554415 -155.28265315586052 0 -155.28265315586052 -673.4324610239205 0 0 0 0 257.42506721699465 195.58836641855527 0 195.58836641855527 294.65928057793906 0 0 0 0 4.0692419528014767 -0.33260189250720273 0 -0.33260189250720273 -1.3083254620280051 0 0 0 0 543.71303069543501 448.04349238136433 0 448.04349238136433 300.63993363195613 0 0 0 0 223.87788495872519 -106.6825234430429 0 -106.6825234430429 -41.111753158143529 0 0 0 0 602.6554707477826 7.1377668407776618 0 7.1377668407776618 -197.39680076365261 0 0 0 0 500.21344022990525 -42.53409700861431 0 -42.53409700861431 -48.885768614169649 0 0 0 0 302.04488700239745 -54.717857725495492 0 -54.717857725495492 -22.927860856100153 0 0 0 0 549.28744959915821 119.45523693739273 0 119.45523693739273 -207.87724515458945 0 0 0 0 276.48746325292723 -42.511864637529584 0 -42.511864637529584 -11.926767079556157 0 0 0 0 -2.5331981130148051 -145.31998723244965 0 -145.31998723244965 632.92737600410169 0 0 0 0 278.31317328340083 278.66717653176431 0 278.66717653176431 427.03339945972948 0 0 0 0 7.9139053982869285 0.63672608732073144 0 0.63672608732073144 -0.5557529421341707 0 0 0 0 306.09958490460122 -218.76194429568318 0 -218.76194429568318 -568.94667293934515 0 0 0 0 224.33644939577061 883.83892588313529 0 883.83892588313529 1155.5878666070155 0 0 0 0 -54.107588937597029 -122.2408066413175 0 -122.2408066413175 -121.04436132397041 0 0 0 0 107.01961716569713 25.047244662495928 0 25.047244662495928 146.9839343217983 0 0 0 0 263.67254370925593 112.68447394426191 0 112.68447394426191 -0.91609602772791732 0 0 0 0 157.6055757933791 158.71519838392885 0 158.71519838392885 101.35894385660981 0 0 0 0 116.4446041561423 6.5408148948894222 0 6.5408148948894222 -15.227512779953599 0 0 0 0 35.434617201572109 39.938828363093648 0 39.938828363093648 200.74384138587038 0 0 0 0 151.1448321150674 92.90022040226097 0 92.90022040226097 -52.839865179912181 0 0 0 0 63.074378848199558 93.739310540678275 0 93.739310540678275 -85.567848841153818 0 0 0 0 73.337927604181459 -55.710815963541677 0 -55.710815963541677 -318.99344055902418 0 0 0 0 14.701590083562223 127.2762246282844 0 127.2762246282844 -101.94091711392116 0 0 0 0 263.22938512077599 370.06586218414247 0 370.06586218414247 510.12312866007721 0 0 0 0 22.155738050866752 0.29553767751612448 0 0.29553767751612448 -2.1990204907844828 0 0 0 0 194.54393469959723 407.427281736439 0 407.427281736439 529.84556662359364 0 0 0 0 30.001066543851266 180.45669253485573 0 180.45669253485573 386.53836738969085 0 0 0 0 262.57647794072182 85.138714431833023 0 85.138714431833023 132.33423971043021 0 0 0 0 531.05125618623788 350.25254383322579 0 350.25254383322579 330.75512512489905 0 0 0 0 227.4921662167053 160.91747324665371 0 160.91747324665371 380.93988543972722 0 0 0 0 290.12533840365359 511.70289981628309 0 511.70289981628309 553.60671333490836 0 0 0 0 4.8110408084637299 0.66093030868083069 0 0.66093030868083069 -0.92244146230742474 0 0 0 0 108.35617135459506 101.20775161120835 0 101.20775161120835 134.25149326714222 0 0 0 0 79.434351558793423 114.80003159276677 0 114.80003159276677 201.06158488133752 0 0 0 0 85.496223256125631 114.95423399146085 0 114.95423399146085 153.9990870383767 0 0 0 0 118.91433360304654 197.34064578183973 0 197.34064578183973 239.23109077231175 0 0 0 0 184.26500524243784 153.12394521744289 0 153.12394521744289 141.19718391102344 0 0 0 0 104.21850024736705 98.170792905496086 0 98.170792905496086 137.80000448660047 0 0 0 0 8.888325570701717 -0.92345438999272744 0 -0.92345438999272744 -0.53244363054494936 0 0 0 0 521.27185454429855 179.75761776615332 0 179.75761776615332 11.057476245369344 0 0 0 0 686.68683182196946 908.88991339957852 0 908.88991339957852 405.23686238777555 0 0 0 0 133.49044053748275 204.09779497184914 0 204.09779497184914 830.52192969911812 0 0 0 0 413.73375422572644 46.33439267379697 0 46.33439267379697 57.883093770604546 0 0 0 0 287.4780783041515 343.30717309020747 0 343.30717309020747 362.93809933633645 0 0 0 0 4.5940954483818501 -1.0595488891771296 0 -1.0595488891771296 0.51094380243305659 0 0 0 0 133.74860821284165 100.83708415954345 0 100.83708415954345 189.6581209696657 0 0 0 0 176.77747371105579 158.23975739844346 0 158.23975739844346 93.191823009937849 0 0 0 0 116.21895356618916 39.269221860991422 0 39.269221860991422 15.451628059800157 0 0 0 0 14.560355678724591 121.94291450726577 0 121.94291450726577 90.050824480065657 0 0 0 0 175.69230091642314 36.228373489072332 0 36.228373489072332 -92.124182193228819 0 0 0 0 -26.662883591950958 -71.796430082684793 0 -71.796430082684793 51.24528461595817 0 0 0 0 0.32860832771360826 -0.81603316655332492 0 -0.81603316655332492 -0.57963379835573381 0 0 0 0 15.304295832032949 0.70990505865040632 0 0.70990505865040632 21.4176917179052 0 0 0 0 3.119471319009854 -2.7731577066495205 0 -2.7731577066495205 -4.6497788990469049 0 0 0 0 -46.966984259097444 -85.96527137239255 0 -85.96527137239255 94.144491321686701 0 0 0 0 28.444948518717865 9.599436694955557 0 9.599436694955557 -6.3977368559267234 0 0 0 0 148.47701258171219 54.764182136903173 0 54.764182136903173 -70.172159877520357 0 0 0 0 0.45006648107132108 -0.53801426140073261 0 -0.53801426140073261 -0.92619648235196106 0 0 0 0 -146.03085320633818 -93.986843407863716 0 -93.986843407863716 225.26046023860317 0 0 0 0 153.51702750341792 -164.49971600968513 0 -164.49971600968513 170.3776705578058 0 0 0 0 17.006002698178236 154.77152174697397 0 154.77152174697397 135.95887067540843 0 0 0 0 76.585078434743991 272.70273863462546 0 272.70273863462546 364.42097853381858 0 0 0 0 -17.0847897589083 72.524537566493279 0 72.524537566493279 36.343410376736529 0 0 0 0 61.525676392393507 118.46733197668746 0 118.46733197668746 41.013817518773749 0 0 0 0 146.28533831664208 278.30073972518812 0 278.30073972518812 31.698356735426785 0 0 0 0 227.49470843094059 127.90416626690873 0 127.90416626690873 5.4954054713573441 0 0 0 0 100.8515290645737 285.46416757079135 0 285.46416757079135 135.30222945623782 0 0 0 0 155.95941166178454 264.91707040343476 0 264.91707040343476 37.195864517683106 0 0 0 0 57.960374680733366 215.65218125627356 0 215.65218125627356 126.90171226202212 0 0 0 0 206.62039281102079 117.44873053454432 0 117.44873053454432 45.959990025221373 0 0 0 0 345.11104080306177 203.2609154718071 0 203.2609154718071 123.772956855031 0 0 0 0 115.02227361772384 -166.32589956919708 0 -166.32589956919708 181.04690550381645 0 0 0 0 179.49932797689689 46.633232419279011 0 46.633232419279011 298.8755947451798 0 0 0 0 196.04690710430805 120.40882840088278 0 120.40882840088278 132.68496505454368 0 0 0 0 112.13285463261855 60.97717067318041 0 60.97717067318041 113.87986188300241 0 0 0 0 315.94055178922281 42.027005634546839 0 42.027005634546839 31.548096259962563 0 0 0 0 100.12360794326378 -26.378039643125469 0 -26.378039643125469 10.109443519601506 0 0 0 0 50.9398179474274 181.80404633087198 0 181.80404633087198 23.824728074239431 0 0 0 0 -44.014213183261745 216.66691709685455 0 216.66691709685455 -176.79121053258552 0 0 0 0 -14.995985079294769 -7.6741721828140612 0 -7.6741721828140612 -102.84528523381198 0 0 0 0 87.298781083736685 58.58320454227146 0 58.58320454227146 -60.445038287628563 0 0 0 0 -23.040735925678746 91.570455634893278 0 91.570455634893278 -50.355332183013701 0 0 0 0 67.490454340114411 251.53586471854783 0 251.53586471854783 -112.15524780461604 0 0 0 0 40.463590503866726 18.688406872873372 0 18.688406872873372 -578.22325588680178 0 0 0 0 36.169292923874309 109.46354852803007 0 109.46354852803007 -528.99408466700902 0 0 0 0 -106.94545624482635 133.04691878971084 0 133.04691878971084 -95.432147397456362 0 0 0 0 -27.099685460269029 95.448531057539157 0 95.448531057539157 -298.26449241719581 0 0 0 0 17.931942988150695 186.80465097730939 0 186.80465097730939 -353.35293796226404 0 0 0 0 -8.3082136994635221 -1.7914501668604998 0 -1.7914501668604998 -514.0417534690946 0 0 0 0 -74.74222081102198 154.33785677910748 0 154.33785677910748 -238.36088323742752 0 0 0 0 120.9165367338137 14.893322971981604 0 14.893322971981604 -464.24341053245553 0 0 0 0 -291.84555255820305 13.868681207310374 0 13.868681207310374 -324.63287817433184 0 0 0 0 27.783420289808419 -154.17628676839968 0 -154.17628676839968 -870.82861419456344 0 0 0 0 -113.58359838445904 286.83210568510242 0 286.83210568510242 -612.16396599365294 0 0 0 0 1.3758803954106096 -1.2371730106767131 0 -1.2371730106767131 -1.495458934534275 0 0 0 0 -203.02416340135096 341.92807855262845 0 341.92807855262845 -890.74308149977833 0 0 0 0 -87.930984420083405 -137.85193486277512 0 -137.85193486277512 -575.30810832703742 0 0 0 0 13.54683205128822 -9.2134456273624892 0 -9.2134456273624892 -17.824327532384586 0 0 0 0 23.651310514659841 -5.7866360258828351 0 -5.7866360258828351 -4.0072705567853548 0 0 0 0 -0.25632337906063185 -16.994261117680253 0 -16.994261117680253 -3.8815196522368751 0 0 0 0 9.9676029713420373 -8.9238797110450037 0 -8.9238797110450037 -7.1372388111300307 0 0 0 0 -10.683742881723447 -29.679867873956027 0 -29.679867873956027 16.82646494306924 0 0 0 0 -5.0121359920215127 -3.7462062349377296 0 -3.7462062349377296 -0.95641279970352222 0 0 0 0 3.7485372089486191 -5.164565819589626 0 -5.164565819589626 19.65515168766342 0 0 0 0 -32.573499021360476 -45.722494292911051 0 -45.722494292911051 9.8861563388659306 0 0 0 0 32.100207253060944 -51.031623747335004 0 -51.031623747335004 3.3201172435701665 0 0 0 0 7.9684621908818372 -48.998562371696266 0 -48.998562371696266 36.268554773416099 0 0 0 0 -7.1562827277882661 -67.478630871302997 0 -67.478630871302997 13.886554764950233 0 0 0 0 1.6289282719131961 -6.3161467275505085 0 -6.3161467275505085 -1.9483624078255712 0 0 0 0 2.9950569987122435 -48.185738433060067 0 -48.185738433060067 -48.329679849514378 0 0 0 0 54.605524918755691 25.527659199229788 0 25.527659199229788 -16.411800808548833 0 0 0 0 125.92360172346162 25.398846369760804 0 25.398846369760804 -37.06463123102958 0 0 0 0 12.47418885553332 -22.877250773985288 0 -22.877250773985288 -11.573036923628656 0 0 0 0 239.66155551524571 -59.309741936781052 0 -59.309741936781052 95.565638290859852 0 0 0 0 216.03245453488762 -143.00913437732595 0 -143.00913437732595 -51.803188054893781 0 0 0 0 118.80632061728102 -2.2855718408517305 0 -2.2855718408517305 96.199485570312618 0 0 0 0 2.3130884716424589 0.99236513342007449 0 0.99236513342007449 -0.42241090222398991 0 0 0 0 -6.0337946618742535 -85.756762174570213 0 -85.756762174570213 227.2816440909769 0 0 0 0 182.54454717851331 -46.423458674989547 0 -46.423458674989547 -103.37123829460182 0 0 0 0 -16.445978473344439 -1.2864478096837502 0 -1.2864478096837502 19.215450547288867 0 0 0 0 -15.730660265169718 -17.623674612113916 0 -17.623674612113916 65.32369269708785 0 0 0 0 26.08985183346158 -9.5568631224043941 0 -9.5568631224043941 20.693144904715471 0 0 0 0 480.47412593087938 -2.0237698113187435 0 -2.0237698113187435 -53.385341806371457 0 0 0 0 230.02271200105315 -203.17721098745096 0 -203.17721098745096 -86.912115181729931 0 0 0 0 77.14793714355983 277.28762238949133 0 277.28762238949133 280.23008089713454 0 0 0 0 445.36206455097272 415.10699459740215 0 415.10699459740215 24.401372041317586 0 0 0 0 -1.8011426278361853 0.13958595230169868 0 0.13958595230169868 -0.27707711992538131 0 0 0 0 -78.030895352057996 62.455085574192537 0 62.455085574192537 53.980542429742911 0 0 0 0 20.022605414284044 -12.197389870284567 0 -12.197389870284567 -367.45810412469871 0 0 0 0 10.082187984120537 211.95447103287171 0 211.95447103287171 34.010746317340192 0 0 0 0 120.78999145740454 358.98494958141089 0 358.98494958141089 -14.363540278213925 0 0 0 0 655.85874319994218 9.4952983011603322 0 9.4952983011603322 -24.022997095920015 0 0 0 0 197.2899934864945 265.79476964197073 0 265.79476964197073 34.588824418134976 0 0 0 0 1.6499653327256141 2.2021317229030544 0 2.2021317229030544 -1.8614157976026127 0 0 0 0 18.710219674378095 8.0014833441069868 0 8.0014833441069868 -4.1146074671148654 0 0 0 0 143.66198961305781 66.741264148868936 0 66.741264148868936 -21.482749708948234 0 0 0 0 5.1473344585685084 7.9452663752388446 0 7.9452663752388446 2.0817348610150943 0 0 0 0 2.0323133357886363 5.0923919973700364 0 5.0923919973700364 -4.5987174314377679 0 0 0 0 -10.320691042423277 24.364406303005666 0 24.364406303005666 -2.2731677163052382 0 0 0 0 23.986574331041993 19.944601189134033 0 19.944601189134033 -7.4536575672599952 0 0 0 0 1.8588594616688798 0.36342772595821771 0 0.36342772595821771 -0.17948340250890205 0 0 0 0 -17.447310229639697 12.917949866320388 0 12.917949866320388 34.032642980174231 0 0 0 0 90.35685217901846 159.41473437396601 0 159.41473437396601 281.19512504444509 0 0 0 0 1.6547762756159585 2.3647948077361285 0 2.3647948077361285 2.0527063350170254 0 0 0 0 403.65393376018619 237.54911700091441 0 237.54911700091441 110.24451081690881 0 0 0 0 148.68251166722985 99.821666013167146 0 99.821666013167146 67.910168053756593 0 0 0 0 -0.26906888595368628 0.46287742634717688 0 0.46287742634717688 -1.9716677756067649 0 0 0 0 106.81244903881361 147.75709852351076 0 147.75709852351076 221.66015199251353 0 0 0 0 106.99719108745194 144.85057241969952 0 144.85057241969952 171.42429801244219 0 0 0 0 137.27307190166539 119.41142327862337 0 119.41142327862337 192.69972785711559 0 0 0 0 71.587864961857122 81.58387426820957 0 81.58387426820957 253.07025824819618 0 0 0 0 114.85095689280934 79.540054093783453 0 79.540054093783453 122.38737003981737 0 0 0 0 104.44977935966017 37.740015294135674 0 37.740015294135674 116.46140546239988 0 0 0 0 125.07089991720341 52.918418629020707 0 52.918418629020707 67.205034998405154 0 0 0 0 104.37707560699846 38.694399763029551 0 38.694399763029551 113.95433009868475 0 0 0 0 33.169296897787717 14.547599949010134 0 14.547599949010134 148.61465085491392 0 0 0 0 122.7355481238103 26.375388449434361 0 26.375388449434361 71.10434031506793 0 0 0 0 185.51400492964967 60.838138316641334 0 60.838138316641334 88.543877401666577 0 0 0 0 205.92524155331921 181.53289903152654 0 181.53289903152654 153.42172819737948 0 0 0 0 92.267579998390374 99.705963557629218 0 99.705963557629218 102.3338387939275 0 0 0 0 84.463407839260981 131.45035134671036 0 131.45035134671036 197.0609939361002 0 0 0 0 132.83354065507592 126.2623620754332 0 126.2623620754332 71.067698521584589 0 0 0 0 132.13178193936801 52.325737840817169 0 52.325737840817169 66.778288949913531 0 0 0 0 175.3461002603799 61.527586158748818 0 61.527586158748818 33.698624603410053 0 0 0 0 153.77188696731173 24.945878324848081 0 24.945878324848081 58.406333128823348 0 0 0 0 170.34232673373117 116.79017585423975 0 116.79017585423975 100.99696018008342 0 0 0 0 303.23672584855376 36.765731408939132 0 36.765731408939132 64.629352135981549 0 0 0 0 429.97106636876561 246.92616428769611 0 246.92616428769611 140.63392864622381 0 0 0 0 -265.98940776730524 4.7619681850785618 0 4.7619681850785618 484.84366176928927 0 0 0 0 530.93994859376107 -74.458840264279175 0 -74.458840264279175 -35.04092450941215 0 0 0 0 90.477555561465124 -62.291355347726068 0 -62.291355347726068 71.623524035081857 0 0 0 0 146.4482631539322 -104.28159195909052 0 -104.28159195909052 7.2599683387930654 0 0 0 0 5.964851145778411 0.59381433845689213 0 0.59381433845689213 0.44238471926009382 0 0 0 0 142.1272356810623 237.69880158536668 0 237.69880158536668 335.36281371051945 0 0 0 0 24.731460340244666 134.65547886516021 0 134.65547886516021 256.93990442492907 0 0 0 0 -2.2184578467713436 -47.563123025025455 0 -47.563123025025455 -9.3105008474316158 0 0 0 0 79.622057990454778 -102.09687847801848 0 -102.09687847801848 17.6127276768147 0 0 0 0 140.8569606493038 -42.28700718297813 0 -42.28700718297813 -57.003925531467843 0 0 0 0 131.34842495873454 -86.957825042728302 0 -86.957825042728302 -11.562328871155206 0 0 0 0 110.1759382979144 91.726245386197093 0 91.726245386197093 -63.380985005317626 0 0 0 0 285.27785248811415 83.299921784432314 0 83.299921784432314 -64.781449031892237 0 0 0 0 214.89874539137236 -50.520756854482073 0 -50.520756854482073 -56.800204511908873 0 0 0 0 316.6503322144963 -91.380991458059128 0 -91.380991458059128 -53.579312121379388 0 0 0 0 162.23939318578232 -26.717671821804814 0 -26.717671821804814 -45.972849280123967 0 0 0 0 116.55182599048722 -22.368104622871023 0 -22.368104622871023 -21.182474784766896 0 0 0 0 116.58374236304007 -29.211226551783454 0 -29.211226551783454 -40.759884762860224 0 0 0 0 109.21327142588098 -54.563402628681501 0 -54.563402628681501 61.8146732831392 0 0 0 0 -16.981645279743134 52.452353728725882 0 52.452353728725882 -42.242491702783354 0 0 0 0 6.637827646430992 5.9237128461936912 0 5.9237128461936912 5.6543282441750158 0 0 0 0 105.68688538282368 -37.64941799997564 0 -37.64941799997564 15.490257466830997 0 0 0 0 62.91541645367397 -25.712307978972376 0 -25.712307978972376 12.425695292027399 0 0 0 0 9.728791076261345 10.553773848256839 0 10.553773848256839 7.0455761066065064 0 0 0 0 57.900699656402139 16.182478044633172 0 16.182478044633172 -1.3704728600244493 0 0 0 0 14.059422918833661 30.749653801028671 0 30.749653801028671 -9.3585568436701578 0 0 0 0 14.139168111447361 5.8501465566760089 0 5.8501465566760089 8.5032589126612947 0 0 0 0 4.7055317825565695 2.6711997775630749 0 2.6711997775630749 -8.3683267665698526 0 0 0 0 31.563257387337217 0.61389900445215062 0 0.61389900445215062 -8.1790303302937559 0 0 0 0 37.929396260329668 10.010935731248878 0 10.010935731248878 -10.456072556659137 0 0 0 0 3.0090900921340165 -2.353240310907708 0 -2.353240310907708 -5.7447808124583357 0 0 0 0 1.283342656549781 2.2232021831774347 0 2.2232021831774347 -3.2514214046213081 0 0 0 0 41.3632773267218 19.515454432258707 0 19.515454432258707 -14.278202981322465 0 0 0 0 24.871046595806547 7.5666571878741706 0 7.5666571878741706 -15.929769858366399 0 0 0 0 -2.3180365769112541 14.046440918828011 0 14.046440918828011 -12.366701421400194 0 0 0 0 10.922477306459768 7.0665238369037979 0 7.0665238369037979 -17.828909325416362 0 0 0 0 32.050611037222552 6.3702093827000681 0 6.3702093827000681 -30.34366960602074 0 0 0 0 37.359913938758837 -2.7388757818596332 0 -2.7388757818596332 -16.071787971251524 0 0 0 0 34.140960692220688 -8.3091340927692272 0 -8.3091340927692272 -11.297750184770848 0 0 0 0 2.1176361757851616 0.33087112505945981 0 0.33087112505945981 -0.76986559839002133 0 0 0 0 37.841470787292565 -0.94512529406330259 0 -0.94512529406330259 -10.127383354910762 0 0 0 0 7.3595235948632762 -19.506838669679922 0 -19.506838669679922 -5.6780925192044833 0 0 0 0 34.204368950573553 -7.8695130230687482 0 -7.8695130230687482 -8.2503935811547535 0 0 0 0 39.468500206061435 -14.626090887722739 0 -14.626090887722739 -15.444089841669893 0 0 0 0 36.871236462053275 -12.419962244826877 0 -12.419962244826877 -5.6145484564997332 0 0 0 0 41.187761369448708 3.0159246743793346 0 3.0159246743793346 0.019524100686169277 0 0 0 0 51.871750048501781 4.3536149921361584 0 4.3536149921361584 -21.911681262562979 0 0 0 0 18.117741584399482 28.194757365587748 0 28.194757365587748 12.176771795688182 0 0 0 0 86.078327011880901 35.460138981736236 0 35.460138981736236 5.1961991712281588 0 0 0 0 35.331063274832559 124.26608405789534 0 124.26608405789534 42.526372289730148 0 0 0 0 -39.181428600315485 92.476242035028349 0 92.476242035028349 66.81937110584181 0 0 0 0 41.484594455141632 140.11486838823271 0 140.11486838823271 61.048508786675029 0 0 0 0 190.26524853979208 -91.190944998766895 0 -91.190944998766895 78.109092967675679 0 0 0 0 2.3265676689320145 2.0506705653467847 0 2.0506705653467847 2.0746968009477622 0 0 0 0 26.134326968793175 21.636635411750149 0 21.636635411750149 -52.428798217185943 0 0 0 0 -2.1864080135728727 1.3182837736666215 0 1.3182837736666215 -19.10657693637495 0 0 0 0 2.2219333791392302 -0.21433260367502882 0 -0.21433260367502882 -0.44990221018872711 0 0 0 0 19.216225867621688 -47.2289723132684 0 -47.2289723132684 12.221492467151393 0 0 0 0 53.653433319599571 140.832635662245 0 140.832635662245 23.523757567008147 0 0 0 0 148.1001362715615 139.08876936741319 0 139.08876936741319 14.946949031591316 0 0 0 0 198.67419134585634 5.4929850646884546 0 5.4929850646884546 11.038094576176491 0 0 0 0 70.997573704273236 34.955240954820312 0 34.955240954820312 8.896872862058558 0 0 0 0 74.927096924047191 -15.518721005701998 0 -15.518721005701998 10.099337505168933 0 0 0 0 31.381188613966515 9.8727352334301912 0 9.8727352334301912 44.681078668687803 0 0 0 0 8.0999803852319019 12.715265205333168 0 12.715265205333168 10.157229071909711 0 0 0 0 31.268618601472468 -0.76906016704255786 0 -0.76906016704255786 17.739749609969124 0 0 0 0 24.009876890979285 22.209958745004684 0 22.209958745004684 29.93488251176143 0 0 0 0 32.921958562559666 10.410772552056841 0 10.410772552056841 41.026371947765938 0 0 0 0 64.964039545273408 -1.0639097336067209 0 -1.0639097336067209 95.132037281873693 0 0 0 0 59.877224458596174 20.316357160219837 0 20.316357160219837 30.885726603173509 0 0 0 0 81.805093246995057 16.130986785112924 0 16.130986785112924 -19.161375876926968 0 0 0 0 36.448408392408965 19.639299068121034 0 19.639299068121034 -4.1672841467443504 0 0 0 0 59.126803840699722 47.56510143523326 0 47.56510143523326 30.044779109194224 0 0 0 0 48.320385022624492 29.370465864165595 0 29.370465864165595 -10.515308835096903 0 0 0 0 48.890125457446629 4.4597941033075585 0 4.4597941033075585 -20.382271553817503 0 0 0 0 61.221614224097721 -21.280166869361892 0 -21.280166869361892 -26.736621702191144 0 0 0 0 125.40448292663314 63.011365317784225 0 63.011365317784225 30.647642768361436 0 0 0 0 127.28078603548016 -35.051576496099429 0 -35.051576496099429 -35.180310141141717 0 0 0 0 60.845456925836515 -13.565587120358067 0 -13.565587120358067 -54.544414126107313 0 0 0 0 42.013485938652593 -31.996438516627563 0 -31.996438516627563 -23.771565617694023 0 0 0 0 60.612825268286542 -12.96092687362318 0 -12.96092687362318 -21.654171920163662 0 0 0 0 53.181395354726192 -17.784192762493319 0 -17.784192762493319 -9.8470350754473657 0 0 0 0 61.912505783584493 -5.3609290013321242 0 -5.3609290013321242 -26.091533561714812 0 0 0 0 69.328716157009467 7.8369384198407062 0 7.8369384198407062 -51.065405898105837 0 0 0 0 160.49155151329069 -142.50137247939824 0 -142.50137247939824 6.2035050841643624 0 0 0 0 123.33955411449006 167.74281217844788 0 167.74281217844788 -49.154932505274019 0 0 0 0 55.014283404029165 5.1019467110361809 0 5.1019467110361809 -0.43734402862007504 0 0 0 0 113.85175690388587 107.98553499522893 0 107.98553499522893 -161.76316010104347 0 0 0 0 139.41700550067458 -84.817804271587704 0 -84.817804271587704 29.503056029568938 0 0 0 0 -26.249037719278476 92.37922069571681 0 92.37922069571681 169.16196723417249 0 0 0 0 206.53019845727135 110.89727315217337 0 110.89727315217337 87.365982397709672 0 0 0 0 174.02597320645782 28.817768769016368 0 28.817768769016368 -11.427057774370951 0 0 0 0 151.73041985881355 -60.951837370125077 0 -60.951837370125077 -5.096370632899152 0 0 0 0 39.664372595239001 -63.301203211966595 0 -63.301203211966595 24.91730950882652 0 0 0 0 9.6977262404780795 -3.4053963652349912 0 -3.4053963652349912 1.0367155924781226 0 0 0 0 18.511569466716992 -7.1389187449752711 0 -7.1389187449752711 9.530977649105381 0 0 0 0 40.986218584774178 55.4214620829963 0 55.4214620829963 36.662368286999481 0 0 0 0 49.831683913515008 22.08156671922643 0 22.08156671922643 59.758064020574579 0 0 0 0 23.38218873441474 -8.7505071858086581 0 -8.7505071858086581 25.567151460632431 0 0 0 0 -0.15383363919863768 -21.960433580562039 0 -21.960433580562039 120.15085223443009 0 0 0 0 2.8513126778724285 -1.3798786294012613 0 -1.3798786294012613 0.93169058592491183 0 0 0 0 5.5980976620357978 -8.3482262303728021 0 -8.3482262303728021 18.735082224819962 0 0 0 0 32.72939977344322 -47.125348152959987 0 -47.125348152959987 31.913098476392008 0 0 0 0 30.199649545895227 -21.77520194467138 0 -21.77520194467138 -34.324163677326169 0 0 0 0 80.914594236040102 -7.4032430833914304 0 -7.4032430833914304 -159.57621850505643 0 0 0 0 49.384916076430756 2.8259150256879781 0 2.8259150256879781 -0.056802556621864397 0 0 0 0 41.517551193456704 1.6075672531743423 0 1.6075672531743423 -0.33707222327025699 0 0 0 0 43.313677791025839 14.25046290519947 0 14.25046290519947 -38.806324584574526 0 0 0 0 32.576276483691139 2.7755273638012596 0 2.7755273638012596 1.3168321621074184 0 0 0 0 35.926705697464058 13.929096086024401 0 13.929096086024401 -8.9433493075283081 0 0 0 0 31.978830598290187 26.220155973204768 0 26.220155973204768 3.2322102401558084 0 0 0 0 31.320189126598052 -7.6820125233184058 0 -7.6820125233184058 0.34489794104820248 0 0 0 0 9.4732442780658879 5.1340623056428178 0 5.1340623056428178 3.9752465088350419 0 0 0 0 32.760402012795112 -10.61670682661628 0 -10.61670682661628 6.2313741450911948 0 0 0 0 21.747113249140057 -10.25154252104285 0 -10.25154252104285 6.315007288136405 0 0 0 0 4.9387386146849632 2.2597489287573005 0 2.2597489287573005 -2.9356835208131953 0 0 0 0 -11.479917248882884 0.53842032224366676 0 0.53842032224366676 15.099165832737981 0 0 0 0 38.571316209751785 -2.1935608155757791 0 -2.1935608155757791 -18.00835101185794 0 0 0 0 29.180485634537945 4.5047335496883534 0 4.5047335496883534 -5.1596116354056676 0 0 0 0 12.656772545828062 -22.791856922173793 0 -22.791856922173793 -14.965411075201246 0 0 0 0 -0.11377374582465993 -0.73222571695060878 0 -0.73222571695060878 -0.11604839011390577 0 0 0 0 -55.165046696487252 -12.761934070145315 0 -12.761934070145315 26.006213853123882 0 0 0 0 -70.094384675039692 45.579965685260049 0 45.579965685260049 41.125530318539859 0 0 0 0 -15.542728459688078 31.528424774057612 0 31.528424774057612 20.235232404612361 0 0 0 0 120.83183881084278 -42.303640017792532 0 -42.303640017792532 -80.58268887233362 0 0 0 0 95.4846448807657 16.598842574505852 0 16.598842574505852 30.751172848764327 0 0 0 0 93.300068184550582 36.853485399494616 0 36.853485399494616 5.3739411225679703 0 0 0 0 29.293055326879767 12.920492969941279 0 12.920492969941279 16.294548605598493 0 0 0 0 46.981610824347172 -27.315553740497762 0 -27.315553740497762 6.5204252767719026 0 0 0 0 41.11459337922679 10.83552998283858 0 10.83552998283858 48.731681237687894 0 0 0 0 97.549677811204674 14.769069966844427 0 14.769069966844427 -5.3150603917192711 0 0 0 0 54.707381540500137 -26.323276986411884 0 -26.323276986411884 -6.8172446732888261 0 0 0 0 2.0722122756984733 -4.7794562467805717 0 -4.7794562467805717 1.2810027210588244 0 0 0 0 1.4507627156658192 -0.70162191471948621 0 -0.70162191471948621 0.49412959076255447 0 0 0 0 120.87723720729764 29.981164484153055 0 29.981164484153055 -3.2987457632452788 0 0 0 0 22.057504919095663 -25.234527930878812 0 -25.234527930878812 -6.4642792280848766 0 0 0 0 6.3944508161048361 16.360885735429747 0 16.360885735429747 3.3610010109377981 0 0 0 0 13.278650579414716 -4.0290311218379884 0 -4.0290311218379884 1.382680375171276 0 0 0 0 29.402460794899525 -8.1853666012616486 0 -8.1853666012616486 1.3890197371224531 0 0 0 0 5.3827146403345978 -14.259764827200115 0 -14.259764827200115 8.0259322364181571 0 0 0 0 109.36999528453589 31.882104961081723 0 31.882104961081723 14.449085568589908 0 0 0 0 6.0671697217003384 -16.575825714648545 0 -16.575825714648545 3.8085676853806945 0 0 0 0 -21.619926960089288 -22.93342337288891 0 -22.93342337288891 2.6332380716748958 0 0 0 0 9.7359323616389517 -3.5151618088017909 0 -3.5151618088017909 -1.1479692120996581 0 0 0 0 40.728658207764283 12.942216581533177 0 12.942216581533177 5.2914686801790083 0 0 0 0 88.284998270582037 18.515656726279161 0 18.515656726279161 6.4593117339407513 0 0 0 0 4.4267584267779778 4.6261454015117085 0 4.6261454015117085 3.5700004400026737 0 0 0 0 37.270983014790545 1.697502570075244 0 1.697502570075244 -2.2163381363347412 0 0 0 0 31.823593883419562 6.0510645464086963 0 6.0510645464086963 -0.22961664767177581 0 0 0 0 62.51362557932589 -8.670746718553346 0 -8.670746718553346 0.54069100687183891 0 0 0 0 41.719196818168712 -0.78142599889008579 0 -0.78142599889008579 -2.0580333854363744 0 0 0 0 40.651956591502312 10.694368777741374 0 10.694368777741374 -2.9897067528095249 0 0 0 0 36.310122827229861 10.788565916480707 0 10.788565916480707 -1.3600576245614775 0 0 0 0 40.018142741864722 11.090799185052333 0 11.090799185052333 4.4166674607577079 0 0 0 0 37.119054324899025 1.5462521774185092 0 1.5462521774185092 -0.53583799060970705 0 0 0 0 40.947582647993841 8.7616752409987839 0 8.7616752409987839 1.2715251629633428 0 0 0 0 21.749562060194901 3.5748836141062732 0 3.5748836141062732 -0.58290365808286371 0 0 0 0 31.977538771694526 7.0482107992445435 0 7.0482107992445435 4.196598283930939 0 0 0 0 18.107602230209594 1.2562394953095311 0 1.2562394953095311 3.8235741257247065 0 0 0 0 38.342714382753911 7.5355531579768922 0 7.5355531579768922 3.4419384319130586 0 0 0 0 24.506452288737076 5.7724977949143508 0 5.7724977949143508 1.64095523840457 0 0 0 0 21.665490434992535 2.8941379559873894 0 2.8941379559873894 -1.0392315299860115 0 0 0 0 21.05537497319888 4.9357477726169883 0 4.9357477726169883 2.3175421443694195 0 0 0 0 86.846660835200964 19.963453742148772 0 19.963453742148772 5.7712969753597463 0 0 0 0 11.846478334773931 -0.90602756031086074 0 -0.90602756031086074 0.42681638748939743 0 0 0 0 32.971077240749267 1.9200836698250621 0 1.9200836698250621 -2.2951364187743719 0 0 0 0 53.75246275248719 -3.25472930966896 0 -3.25472930966896 -34.234156302605243 0 0 0 0 14.810610717175532 -5.1892613389456983 0 -5.1892613389456983 -6.0228415670888982 0 0 0 0 50.714074446170343 -3.2591714691704965 0 -3.2591714691704965 -12.745981495878368 0 0 0 0 2.6428693248795874 -0.64495310319693289 0 -0.64495310319693289 0.021335246164744248 0 0 0 0 41.564938319508656 -22.956433624959573 0 -22.956433624959573 -8.4421811111405987 0 0 0 0 44.925336425258138 -11.34925034097455 0 -11.34925034097455 -24.085356347602556 0 0 0 0 62.975425693733996 -19.024492777304431 0 -19.024492777304431 -36.032959046845917 0 0 0 0 67.51176182429117 13.022934359432014 0 13.022934359432014 -29.111094871455947 0 0 0 0 41.222864016547192 -1.5779844042420308 0 -1.5779844042420308 -48.056312240537409 0 0 0 0 4.8099747051539765 0.008804511589822539 0 0.008804511589822539 -6.2407863483841606 0 0 0 0 40.389491627678581 7.5433278700993469 0 7.5433278700993469 0.72614950996194239 0 0 0 0 -9.73265806020936 -30.175734254635813 0 -30.175734254635813 -36.849215217734582 0 0 0 0 3.6019484612796866 -0.53449251973540868 0 -0.53449251973540868 -0.91923438477859154 0 0 0 0 41.918416397740657 -32.471361130940011 0 -32.471361130940011 -70.283372050007983 0 0 0 0 48.07088377920536 8.3998724695577351 0 8.3998724695577351 8.2219204869828673 0 0 0 0 8.6934222641709233 -3.8797229174783538 0 -3.8797229174783538 -0.49048428078885609 0 0 0 0 42.633000394243936 8.1260245745514794 0 8.1260245745514794 -0.70190809119321784 0 0 0 0 13.720402884561242 10.491495186623311 0 10.491495186623311 1.8831930719125953 0 0 0 0 15.509082814535432 1.4734328016378697 0 1.4734328016378697 -1.1294130190223877 0 0 0 0 36.67473521203101 6.7269130419322209 0 6.7269130419322209 0.076316533755743876 0 0 0 0 15.488019310863976 10.066038980245359 0 10.066038980245359 -0.39696686516788571 0 0 0 0 32.375803076731245 17.663734359930345 0 17.663734359930345 -1.9519002049055416 0 0 0 0 31.943206775405997 14.763051472738795 0 14.763051472738795 2.6235837673248597 0 0 0 0 31.980597806139485 14.954282731944772 0 14.954282731944772 1.5804098205918535 0 0 0 0 28.943829211068078 19.822731345018724 0 19.822731345018724 -1.1724341668648464 0 0 0 0 31.909795886658685 17.23964373163335 0 17.23964373163335 -1.5490330809959687 0 0 0 0 32.797579712744664 27.739327567195701 0 27.739327567195701 12.680066885774522 0 0 0 0 21.116542763684265 18.287029961610671 0 18.287029961610671 25.381092970351261 0 0 0 0 29.8369749935664 16.109729034612542 0 16.109729034612542 9.9411116135629527 0 0 0 0 19.759875144984107 9.7381340454067811 0 9.7381340454067811 7.0983233201202864 0 0 0 0 12.930027028131008 3.9958738817820176 0 3.9958738817820176 14.142494967981975 0 0 0 0 14.04569244175218 -21.331500964644334 0 -21.331500964644334 45.219980263374453 0 0 0 0 3.7279804948559985 -4.8325311660614467 0 -4.8325311660614467 -1.0006457285848724 0 0 0 0 16.484264749562499 8.7067252391103125 0 8.7067252391103125 15.134012362205112 0 0 0 0 15.642436343423469 8.088613389426456 0 8.088613389426456 18.74439087401916 0 0 0 0 19.831434022757094 0.095944104473801417 0 0.095944104473801417 -24.429593052008727 0 0 0 0 3.8408981405562734 -4.0415043853386301 0 -4.0415043853386301 -2.100070089338788 0 0 0 0 3.4716626516351425 -10.232159056025839 0 -10.232159056025839 8.8280647638260916 0 0 0 0 106.53194673129292 25.112651052785466 0 25.112651052785466 -67.99010841986096 0 0 0 0 0.33835362123564039 -1.208355527354513 0 -1.208355527354513 -3.6040334781167251 0 0 0 0 -61.641250779794063 -55.811918974456376 0 -55.811918974456376 10.70803769843701 0 0 0 0 65.834189063869417 -77.068005776652399 0 -77.068005776652399 -69.105013587444816 0 0 0 0 89.952714306322378 43.042357574062123 0 43.042357574062123 24.522072511703868 0 0 0 0 153.91263272889955 103.18711024591042 0 103.18711024591042 57.329900582792618 0 0 0 0 96.098885402421729 45.155496317767586 0 45.155496317767586 45.946938104999901 0 0 0 0 106.70204619189462 54.899796601039952 0 54.899796601039952 14.880048898036193 0 0 0 0 89.527388454094762 12.538686523802426 0 12.538686523802426 -16.56535816401788 0 0 0 0 31.581759053602582 -7.9927131950166768 0 -7.9927131950166768 -7.3187786027714878 0 0 0 0 46.77197481201074 -5.0435812028655391 0 -5.0435812028655391 -17.051305398694694 0 0 0 0 75.819293401575123 14.618278708054845 0 14.618278708054845 -16.73362757240875 0 0 0 0 100.46452240718281 29.657100848540267 0 29.657100848540267 -8.5242031157613383 0 0 0 0 71.581920030781475 14.674544740475767 0 14.674544740475767 4.7307192892029661 0 0 0 0 74.607815682033106 3.2218514046368227 0 3.2218514046368227 -42.889872601031129 0 0 0 0 68.929882135809748 6.3023222068995892 0 6.3023222068995892 1.8555929839362761 0 0 0 0 40.725225634290837 11.665956749978932 0 11.665956749978932 -57.232188744556538 0 0 0 0 2.0949871632001305 -7.3838144312480836 0 -7.3838144312480836 -14.292638067615371 0 0 0 0 29.537305516892957 -3.5913462606363282 0 -3.5913462606363282 -14.19112181520768 0 0 0 0 104.7855627977151 49.016388202482631 0 49.016388202482631 23.182958504299108 0 0 0 0 72.208870771606598 19.100548251600458 0 19.100548251600458 27.150711809766335 0 0 0 0 85.505445870454423 1.4661891459993512 0 1.4661891459993512 -26.180511119937364 0 0 0 0 83.264778303222556 35.919333994930525 0 35.919333994930525 38.582157376012219 0 0 0 0 135.29603549137755 116.13478491305311 0 116.13478491305311 102.53608346331072 0 0 0 0 86.590201712017006 80.609716978141634 0 80.609716978141634 113.27973273035894 0 0 0 0 128.47762678692379 68.601000521518984 0 68.601000521518984 31.902015161046549 0 0 0 0 82.669261509733246 81.370433929270845 0 81.370433929270845 122.21955588054539 0 0 0 0 80.387749819878081 44.822673342849683 0 44.822673342849683 62.455755099403518 0 0 0 0 212.75140486625605 141.315896716362 0 141.315896716362 146.65177306505694 0 0 0 0 60.03344592252688 112.04011401986634 0 112.04011401986634 248.83106866555011 0 0 0 0 60.578003304632148 70.175364288738479 0 70.175364288738479 146.87441292420269 0 0 0 0 241.45561973290751 327.47136924786548 0 327.47136924786548 442.19242653205305 0 0 0 0 452.97796076671875 390.025677105059 0 390.025677105059 255.76164967533168 0 0 0 0 31.02608176774811 226.63268128620643 0 226.63268128620643 342.09359188171118 0 0 0 0 493.90137128047718 321.37971389121901 0 321.37971389121901 363.78390416729803 0 0 0 0 550.41862661182063 352.56259817939548 0 352.56259817939548 162.96648529151548 0 0 0 0 -175.51028146640783 55.619042679508084 0 55.619042679508084 201.3062319994483 0 0 0 0 10.102097132186827 -16.40746890939738 0 -16.40746890939738 -12.480347619650729 0 0 0 0 -0.48848263822789012 -0.67812359211873385 0 -0.67812359211873385 2.4924210380695109 0 0 0 0 65.301945961049569 4.447884521349124 0 4.447884521349124 47.289420869657306 0 0 0 0 52.88439107897284 60.934866684302506 0 60.934866684302506 113.82149553587328 0 0 0 0 67.250628452571618 23.650802318283411 0 23.650802318283411 150.37850580830604 0 0 0 0 61.151050770667098 17.222320563958533 0 17.222320563958533 -24.054925528285821 0 0 0 0 37.466629782549717 56.664310357534305 0 56.664310357534305 -43.612068151079825 0 0 0 0 -13.598333775397037 49.85919603612794 0 49.85919603612794 -13.811075486433765 0 0 0 0 7.1449491680050947 2.3792818463301728 0 2.3792818463301728 5.5533708170315901 0 0 0 0 33.644096390849995 11.770436522074926 0 11.770436522074926 2.7053122517570598 0 0 0 0 32.632070529067278 31.414869303937394 0 31.414869303937394 -26.432485421263664 0 0 0 0 25.50602123864337 31.145000708411544 0 31.145000708411544 -11.001042031927682 0 0 0 0 60.705708045794381 23.873390213961329 0 23.873390213961329 -52.303286300937543 0 0 0 0 76.071558695822887 2.3050383687142784 0 2.3050383687142784 -10.721182570706333 0 0 0 0 71.394317165988468 41.868274384224151 0 41.868274384224151 10.198713164023047 0 0 0 0 61.370914430797711 -7.8309486014258027 0 -7.8309486014258027 -15.454208278788428 0 0 0 0 68.175281618503504 13.020929755422003 0 13.020929755422003 -22.462807551638434 0 0 0 0 73.357630252550734 -6.5629140744381402 0 -6.5629140744381402 -23.134656381171226 0 0 0 0 48.892400851382263 -4.5558388321092025 0 -4.5558388321092025 -22.995162398132976 0 0 0 0 43.762302720198932 16.04366007057979 0 16.04366007057979 -22.70941908478099 0 0 0 0 41.828287087067636 10.890113909128951 0 10.890113909128951 0.50614421132090559 0 0 0 0 36.709416144401075 15.77731757238714 0 15.77731757238714 8.2389017837778198 0 0 0 0 36.96173208035907 16.306483620171001 0 16.306483620171001 2.4780504031933184 0 0 0 0 39.292543161900085 19.462195747120887 0 19.462195747120887 -8.1246841652434227 0 0 0 0 37.741314400867154 12.134171465321877 0 12.134171465321877 2.1356478419628893 0 0 0 0 32.642699863613416 14.667667292987261 0 14.667667292987261 9.0167312627186504 0 0 0 0 34.115328616373517 12.583462137361067 0 12.583462137361067 6.5401056300698315 0 0 0 0 29.026303343534892 6.6236803965527429 0 6.6236803965527429 5.192779375589339 0 0 0 0 29.760905981363976 10.268895202228634 0 10.268895202228634 10.204142452719395 0 0 0 0 26.752062719769128 9.9319294736791335 0 9.9319294736791335 20.829865622714124 0 0 0 0 34.34879138312499 16.20587395025828 0 16.20587395025828 10.103462096570411 0 0 0 0 33.307926699834752 12.149583808539887 0 12.149583808539887 15.849963749220365 0 0 0 0 28.219884289434049 0.0026603161177263246 0 0.0026603161177263246 14.948173408015705 0 0 0 0 2.2002582977717573 -4.9995757033461059 0 -4.9995757033461059 3.2843350576301473 0 0 0 0 101.87891213446892 4.7186737138604258 0 4.7186737138604258 7.567898443850936 0 0 0 0 17.668113324368278 2.6789018394126742 0 2.6789018394126742 12.592650593985582 0 0 0 0 98.858804041276017 14.221573192265055 0 14.221573192265055 29.783040296965282 0 0 0 0 11.352187360144853 0.10677926719085917 0 0.10677926719085917 22.064690180823391 0 0 0 0 11.491036389548754 2.2720047819241245 0 2.2720047819241245 31.966224159947103 0 0 0 0 53.281074361661922 38.301916844722939 0 38.301916844722939 45.774248885732746 0 0 0 0 33.454029787247237 18.076028189647605 0 18.076028189647605 27.426259166550551 0 0 0 0 37.333630657912636 9.0659883220639017 0 9.0659883220639017 17.401847578370962 0 0 0 0 107.48566082687694 27.149633688926755 0 27.149633688926755 5.5899811855538744 0 0 0 0 -141.16045029670707 -14.241201035905529 0 -14.241201035905529 74.842392682486775 0 0 0 0 -0.92864256738521933 -0.52515665262836908 0 -0.52515665262836908 0.074308721456091353 0 0 0 0 57.571798451586801 3.4748225008453701 0 3.4748225008453701 5.3239631925444115 0 0 0 0 54.087106731386484 22.531308824869413 0 22.531308824869413 6.6315961415985498 0 0 0 0 48.760063588212688 5.6015959618560771 0 5.6015959618560771 -14.577078869883053 0 0 0 0 34.807390967621359 16.64966903787797 0 16.64966903787797 4.9735069149306241 0 0 0 0 51.696712511055829 12.329945696091686 0 12.329945696091686 -2.7539916493671228 0 0 0 0 -77.54921718581592 66.861363489913828 0 66.861363489913828 45.01864113377448 0 0 0 0 6.632532622074617 2.0355640445218075 0 2.0355640445218075 -0.44543356792600197 0 0 0 0 -15.965966531951835 89.416579752317816 0 89.416579752317816 -82.974267970241414 0 0 0 0 152.38430322683985 -33.805784823860058 0 -33.805784823860058 30.203966125268849 0 0 0 0 -4.1737703542748932 131.41427131244939 0 131.41427131244939 62.535679499192312 0 0 0 0 -52.243828350525746 -6.0312869548632193 0 -6.0312869548632193 182.94957888624828 0 0 0 0 -53.799717391416834 13.338557427370247 0 13.338557427370247 -19.577861822627568 0 0 0 0 95.369941833811936 -57.214003692423944 0 -57.214003692423944 17.778209884315118 0 0 0 0 14.466312991166413 3.5641277320928353 0 3.5641277320928353 0.94516256778357732 0 0 0 0 -7.7524525639733497 36.583863407009915 0 36.583863407009915 -21.928649894591921 0 0 0 0 10.591446531196794 -17.102449429613863 0 -17.102449429613863 -0.14499641296447408 0 0 0 0 8.4367345063474204 4.0713254885005767 0 4.0713254885005767 18.976842842313658 0 0 0 0 6.7876433528313633 1.5974406239182679 0 1.5974406239182679 0.85033055199389307 0 0 0 0 1496.7101752746289 -12.024237979221384 0 -12.024237979221384 -243.6874978214754 0 0 0 0 913.29446851462467 -425.11488242336424 0 -425.11488242336424 101.54642178219132 0 0 0 0 9.2595685259968832 65.171350259012542 0 65.171350259012542 338.59824527419516 0 0 0 0 420.58715712805292 504.4572458458299 0 504.4572458458299 382.38511119910515 0 0 0 0 1497.6214228256558 413.82451002491899 0 413.82451002491899 -102.92504028225305 0 0 0 0 661.39847290722582 -45.670528770797475 0 -45.670528770797475 -194.88694063016399 0 0 0 0 645.11273952675765 144.81793601880167 0 144.81793601880167 -11.609147340337245 0 0 0 0 1497.8585695916004 -188.86356662133358 0 -188.86356662133358 -239.79754834636191 0 0 0 0 620.09671185588195 -571.62628963607756 0 -571.62628963607756 88.566630869101687 0 0 0 0 424.46890135569902 705.87519914869029 0 705.87519914869029 1443.5260926254768 0 0 0 0 9.1093604807192996 2.7552323766359885 0 2.7552323766359885 1.8258976859619271 0 0 0 0 1497.0528601105598 865.32819947831297 0 865.32819947831297 438.17251909140003 0 0 0 0 885.48057169321874 313.49803891988728 0 313.49803891988728 23.405982344847551 0 0 0 0 326.93171366954266 582.02973061023715 0 582.02973061023715 695.42229148347508 0 0 0 0 -57.933824342996559 87.497747344583672 0 87.497747344583672 666.20823480737704 0 0 0 0 894.28616764448827 495.85289624343096 0 495.85289624343096 214.67794055986423 0 0 0 0 157.41119884374802 177.73047089998892 0 177.73047089998892 -197.50063692838003 0 0 0 0 141.67639401342967 144.25839833010752 0 144.25839833010752 191.83737948535995 0 0 0 0 22.134838754727511 5.8875644668121501 0 5.8875644668121501 1.0748002361643951 0 0 0 0 2.2348690258754687 114.39520780513237 0 114.39520780513237 326.65945479239485 0 0 0 0 27.839689203425166 7.5582685159638423 0 7.5582685159638423 1.6340804413288299 0 0 0 0 92.299524284882864 11.368023682672174 0 11.368023682672174 -6.1824633109255842 0 0 0 0 338.43778014818236 164.69005737367149 0 164.69005737367149 28.613826520307612 0 0 0 0 34.230151906127162 23.366950823096925 0 23.366950823096925 98.748251105839699 0 0 0 0 84.426265865985442 296.15200749484256 0 296.15200749484256 389.48361033238746 0 0 0 0 131.30864084674795 286.56963486867335 0 286.56963486867335 278.74751487397378 0 0 0 0 183.09730394352482 400.14081685259504 0 400.14081685259504 365.25637302139876 0 0 0 0 146.09706346051462 335.87254765925076 0 335.87254765925076 258.32128476765325 0 0 0 0 130.41250304125788 300.43789138742125 0 300.43789138742125 315.31274841937142 0 0 0 0 159.82835557859653 309.04134617297984 0 309.04134617297984 310.73794229068449 0 0 0 0 255.92590380315232 415.16016940017755 0 415.16016940017755 466.14110721408093 0 0 0 0 259.15737342062033 348.92153617615509 0 348.92153617615509 298.80889645597938 0 0 0 0 151.49268416701489 262.24123122161882 0 262.24123122161882 221.20460578092161 0 0 0 0 135.77967853721566 263.04787595289793 0 263.04787595289793 401.6106873765325 0 0 0 0 252.88088196627655 219.25230530860469 0 219.25230530860469 264.1116979993219 0 0 0 0 124.27204901798541 282.63127115384634 0 282.63127115384634 202.86622978977334 0 0 0 0 109.59815255789363 247.175290211316 0 247.175290211316 273.04197200024436 0 0 0 0 113.73869630233821 153.93366630359765 0 153.93366630359765 142.71168046396519 0 0 0 0 96.66717804945074 192.49856767518691 0 192.49856767518691 288.406951917161 0 0 0 0 113.13236573974154 129.45667188140703 0 129.45667188140703 0.035046273756506707 0 0 0 0 1105.3877504700667 335.7820205194937 0 335.7820205194937 46.322684086456206 0 0 0 0 57.203255689830257 184.05105939836795 0 184.05105939836795 9.0132479141726662 0 0 0 0 49.968081738361434 148.48010745515859 0 148.48010745515859 126.24927465856547 0 0 0 0 73.845235773404966 -79.519790804392287 0 -79.519790804392287 -30.605826871557056 0 0 0 0 6.610248064537636 1.7026045172171482 0 1.7026045172171482 -1.7489673389943237 0 0 0 0 -12.040215216879687 -32.289100044498625 0 -32.289100044498625 -36.333715928757329 0 0 0 0 391.98718820619251 -35.097042244047337 0 -35.097042244047337 -159.23151252269574 0 0 0 0 169.86964670595898 202.40826105252793 0 202.40826105252793 77.057406811375358 0 0 0 0 72.952191021551698 154.74800477672147 0 154.74800477672147 110.85287715838268 0 0 0 0 1500.7948775788664 250.59962956277349 0 250.59962956277349 -208.17980225548689 0 0 0 0 1278.9378102648352 128.28657086385152 0 128.28657086385152 -104.572465777432 0 0 0 0 1281.3636936796756 27.961509934373112 0 27.961509934373112 -152.45021498429719 0 0 0 0 896.4193830443246 225.24009462037395 0 225.24009462037395 -99.767323442606966 0 0 0 0 969.04471398271562 348.60556370643508 0 348.60556370643508 32.228494349693293 0 0 0 0 396.05399877670425 289.35329788365033 0 289.35329788365033 141.37986043950727 0 0 0 0 346.64897125425341 288.74887886112288 0 288.74887886112288 127.68022114274258 0 0 0 0 390.00085223363385 279.79505923089346 0 279.79505923089346 127.68031441808071 0 0 0 0 512.79232839676115 47.50779009942211 0 47.50779009942211 -179.96886999144039 0 0 0 0 176.34036696185649 -30.163660132426003 0 -30.163660132426003 6.6760651851720922 0 0 0 0 165.9049341518039 8.9137021077976897 0 8.9137021077976897 19.113036170818418 0 0 0 0 182.63311356653867 9.3340939429305081 0 9.3340939429305081 10.301039250146914 0 0 0 0 258.39635995917342 -111.07721295625845 0 -111.07721295625845 49.362574055276013 0 0 0 0 167.73102267292415 -12.890296245115962 0 -12.890296245115962 12.028754683052284 0 0 0 0 161.46490794171768 -17.220741499129872 0 -17.220741499129872 118.1472494783668 0 0 0 0 148.54518143385212 -42.647469305780078 0 -42.647469305780078 55.530318975017281 0 0 0 0 150.18402481910016 -43.985172810790118 0 -43.985172810790118 18.159878586001923 0 0 0 0 160.44748184194395 -34.529975666736163 0 -34.529975666736163 24.03571936586286 0 0 0 0 140.53856421438832 -20.528469780671344 0 -20.528469780671344 51.703833168734946 0 0 0 0 141.76209000719246 -1.9632860856222578 0 -1.9632860856222578 133.9512916730157 0 0 0 0 148.30381020987988 20.840585551539334 0 20.840585551539334 -123.84442870666044 0 0 0 0 250.19948029093212 -148.64456264868022 0 -148.64456264868022 12.348475726170363 0 0 0 0 279.33511147317313 25.583040105061798 0 25.583040105061798 -270.48492887798602 0 0 0 0 13.01130663100048 222.59184817348682 0 222.59184817348682 -222.87602945231538 0 0 0 0 80.44613114616368 85.877932839893219 0 85.877932839893219 -101.33028262971993 0 0 0 0 143.74890394011891 41.953687752729365 0 41.953687752729365 -77.960367575657983 0 0 0 0 174.56033038086753 -26.6264402018287 0 -26.6264402018287 -59.69769586923212 0 0 0 0 127.9257191196084 31.318667180124976 0 31.318667180124976 -69.051200386486926 0 0 0 0 108.7449932465679 24.182000460157724 0 24.182000460157724 -53.826419402306783 0 0 0 0 107.94615996157518 49.151335116807331 0 49.151335116807331 -75.155625067800429 0 0 0 0 32.63760779297445 51.430795088660489 0 51.430795088660489 -22.336673746879114 0 0 0 0 -69.713328964353423 83.827157463831554 0 83.827157463831554 -29.564090121592926 0 0 0 0 161.29272003677761 -26.858484197858388 0 -26.858484197858388 -13.018409568271181 0 0 0 0 152.27936566761491 -2.6086742183620117 0 -2.6086742183620117 -36.956457645902901 0 0 0 0 155.68151137413224 -4.1742281506062682 0 -4.1742281506062682 -52.313443493057093 0 0 0 0 108.36259394694935 24.24658870739222 0 24.24658870739222 -36.370003965613932 0 0 0 0 149.73588780892896 14.927554535278432 0 14.927554535278432 -30.064551548020631 0 0 0 0 134.63565916054358 2.4687782747150777 0 2.4687782747150777 -32.603164137975 0 0 0 0 122.85694049531594 24.460414768134797 0 24.460414768134797 -40.396475957280472 0 0 0 0 124.76262034622414 27.406982335937414 0 27.406982335937414 -53.060149593503411 0 0 0 0 79.25745169701986 24.713263694824946 0 24.713263694824946 -29.244476810235938 0 0 0 0 97.2312648640509 25.737709060969337 0 25.737709060969337 -32.207299859084742 0 0 0 0 89.636087590013631 18.127265197420456 0 18.127265197420456 -29.333194448865925 0 0 0 0 109.39242134119559 11.166416117472636 0 11.166416117472636 -34.983765040262369 0 0 0 0 88.897258939767198 14.563660415063168 0 14.563660415063168 -26.902982904803139 0 0 0 0 82.831675518507836 1.3434524529147893 0 1.3434524529147893 -25.986756070062256 0 0 0 0 75.54621633439092 20.337467157819447 0 20.337467157819447 -27.001610130708173 0 0 0 0 109.62345075260964 13.410918208491239 0 13.410918208491239 -33.130216406678301 0 0 0 0 116.289182171633 0.42558253395259271 0 0.42558253395259271 -34.44722243997785 0 0 0 0 133.20691338053439 19.292452019473785 0 19.292452019473785 -37.953730192090916 0 0 0 0 167.82279424741864 12.707058411380331 0 12.707058411380331 -49.807754876573199 0 0 0 0 148.81409359545796 7.8350790313743346 0 7.8350790313743346 -41.631406942279682 0 0 0 0 -31.589250108991109 42.589121800207067 0 42.589121800207067 -9.2169710161329022 0 0 0 0 21.593332913882477 28.244535310935817 0 28.244535310935817 -11.73633817382688 0 0 0 0 18.451954659059993 36.504136969575484 0 36.504136969575484 -18.176143405542916 0 0 0 0 72.710256818507332 38.266375921516556 0 38.266375921516556 -32.00758252024616 0 0 0 0 36.013748584366112 45.394602753643426 0 45.394602753643426 -32.409446840359124 0 0 0 0 56.447237840290654 27.384240789253369 0 27.384240789253369 -18.693638561444459 0 0 0 0 19.740618843396078 30.627847169202596 0 30.627847169202596 -15.23282728217464 0 0 0 0 56.451877462066477 27.346292845230892 0 27.346292845230892 -25.033833863107247 0 0 0 0 -9.5796926028706366 27.309365859915715 0 27.309365859915715 -7.655138273905095 0 0 0 0 15.011799361357959 0.26889651891493571 0 0.26889651891493571 -4.8599326108689729 0 0 0 0 37.202185599140648 0.71730449726146617 0 0.71730449726146617 -47.280239396237221 0 0 0 0 14.743402114445416 19.182535011494849 0 19.182535011494849 -14.47898508104845 0 0 0 0 34.464146121084923 21.284287825239517 0 21.284287825239517 -19.567399758674298 0 0 0 0 50.483781676244689 21.029928758647657 0 21.029928758647657 -19.603474643862683 0 0 0 0 49.185068468428653 10.101894521978579 0 10.101894521978579 -19.68803924704298 0 0 0 0 45.761026472922822 2.8817791454966937 0 2.8817791454966937 -34.256931368567166 0 0 0 0 14.967150676013262 7.5689904712000953 0 7.5689904712000953 -27.826631191968318 0 0 0 0 11.085643174410933 4.3809837911205136 0 4.3809837911205136 -4.6267052765838903 0 0 0 0 12.250737541595299 17.453800776204389 0 17.453800776204389 -13.702538465995076 0 0 0 0 180.70966569834854 11.224909281199871 0 11.224909281199871 -49.356980489017133 0 0 0 0 163.38230810433743 14.195951343985143 0 14.195951343985143 -43.141636390377244 0 0 0 0 167.19809620355954 -16.779769489589398 0 -16.779769489589398 -52.805880797579448 0 0 0 0 246.72388668256463 -29.277006208345483 0 -29.277006208345483 -70.392933683359843 0 0 0 0 211.42069104782422 40.610422015854056 0 40.610422015854056 -33.856414102110648 0 0 0 0 170.82697762767202 20.203632131282347 0 20.203632131282347 -22.86708302596162 0 0 0 0 143.01960309420247 3.3006882053850859 0 3.3006882053850859 -42.76834428255097 0 0 0 0 143.79094157214422 -4.0440814761832371 0 -4.0440814761832371 -45.130279112065182 0 0 0 0 119.65999115962768 6.3028469879282056 0 6.3028469879282056 -35.464490551562221 0 0 0 0 98.456249708717223 -6.0712001232434432 0 -6.0712001232434432 -31.690791812332463 0 0 0 0 96.384517541267996 2.1442305920102172 0 2.1442305920102172 -30.728190012778214 0 0 0 0 77.184427038533613 5.1184883836795052 0 5.1184883836795052 -26.299394176249734 0 0 0 0 115.76251308625797 -13.032357283256715 0 -13.032357283256715 -42.687396756611633 0 0 0 0 113.89358421749785 -4.9259943231390935 0 -4.9259943231390935 -34.231996284484921 0 0 0 0 61.680928259214852 16.036883078884784 0 16.036883078884784 -23.932120089045839 0 0 0 0 65.319970235181245 -4.1523941175013306 0 -4.1523941175013306 -24.525980308644648 0 0 0 0 5.5514029772020876 -37.303784566989634 0 -37.303784566989634 -13.208644678426936 0 0 0 0 39.771956874683383 12.397819671154139 0 12.397819671154139 -32.787607577738981 0 0 0 0 98.193195237196051 -14.424644658758552 0 -14.424644658758552 -31.178925332658764 0 0 0 0 87.71851662255358 -16.172109772575823 0 -16.172109772575823 -28.318913342500309 0 0 0 0 107.51004498108523 -50.414655874174059 0 -50.414655874174059 -57.109017752583895 0 0 0 0 1.4530259432273454 1.5230419362110936 0 1.5230419362110936 0.10342882856574942 0 0 0 0 56.46113728461205 -172.3175292069086 0 -172.3175292069086 -111.83952491475065 0 0 0 0 54.286689018495963 13.752788730636894 0 13.752788730636894 -42.008751685797051 0 0 0 0 258.37727375008399 39.392652710023867 0 39.392652710023867 -10.103496918872224 0 0 0 0 186.5248086900101 22.899168178160835 0 22.899168178160835 -11.128987976917415 0 0 0 0 174.54615041482612 30.028541193979436 0 30.028541193979436 -10.850778291637653 0 0 0 0 189.73311823619588 17.725207385846716 0 17.725207385846716 -21.497718578631975 0 0 0 0 183.66775238342234 33.284149784119109 0 33.284149784119109 -32.384413335376848 0 0 0 0 189.66041947918711 29.451615116686753 0 29.451615116686753 -30.694678944195402 0 0 0 0 182.1825775578327 29.122430595718015 0 29.122430595718015 -30.667046728563832 0 0 0 0 183.67836743310909 21.276331656733873 0 21.276331656733873 -39.582250579313495 0 0 0 0 180.2288758198556 29.705264732016531 0 29.705264732016531 -32.626733957166834 0 0 0 0 179.32853934169543 17.745272818352078 0 17.745272818352078 -41.732232158886973 0 0 0 0 163.59336903675649 22.342172620602469 0 22.342172620602469 -35.739152694150107 0 0 0 0 181.95413477706461 27.114944700273099 0 27.114944700273099 -34.397359555628555 0 0 0 0 179.43016007813048 19.162473961479492 0 19.162473961479492 -23.402481922803418 0 0 0 0 186.5800472191404 19.778570306418942 0 19.778570306418942 -24.043813736711854 0 0 0 0 165.29661570560711 -1.558139329540154 0 -1.558139329540154 -30.774794286167889 0 0 0 0 154.45605668727876 20.37178960548124 0 20.37178960548124 -25.688283483572377 0 0 0 0 157.60129503897406 27.877265695758069 0 27.877265695758069 -16.10363949309658 0 0 0 0 185.23377041624917 3.2861201394468935 0 3.2861201394468935 3.8264096165753472 0 0 0 0 181.44683689565227 28.909950992770405 0 28.909950992770405 -26.59981520977999 0 0 0 0 183.19829990190192 33.157547395167057 0 33.157547395167057 -27.43553055364589 0 0 0 0 98.607958374246664 29.071346258675248 0 29.071346258675248 5.1070140470429806 0 0 0 0 86.044295470383076 45.533736815573548 0 45.533736815573548 -0.026342223148731136 0 0 0 0 0.63368716785217316 -0.46072590348628495 0 -0.46072590348628495 0.14270721592460722 0 0 0 0 80.782481987556821 18.156663765349663 0 18.156663765349663 38.467337560245824 0 0 0 0 104.34986918353388 32.56113757837943 0 32.56113757837943 4.0645673760967043 0 0 0 0 140.91531528204723 -1.5084754059698184 0 -1.5084754059698184 16.22760711078945 0 0 0 0 1.5172040379174661 -0.70910166760350535 0 -0.70910166760350535 0.10858191619276347 0 0 0 0 38.368589286656061 -2.2308815817102641 0 -2.2308815817102641 -74.719790445910803 0 0 0 0 22.12227528297808 52.344447490478842 0 52.344447490478842 21.389089844569753 0 0 0 0 -4.5415527669865696 5.4754260714591396 0 5.4754260714591396 20.853059772573488 0 0 0 0 34.011193585858564 48.890581334000444 0 48.890581334000444 34.992350927891835 0 0 0 0 14.90565071441597 4.5616079406885319 0 4.5616079406885319 66.187530611136253 0 0 0 0 31.372655855822813 31.622682447474176 0 31.622682447474176 71.314233860023251 0 0 0 0 40.552688098381623 30.367850610840378 0 30.367850610840378 70.016087545329697 0 0 0 0 37.470225523822592 22.926354051069097 0 22.926354051069097 78.631886831114912 0 0 0 0 34.643701491197135 22.818148571537904 0 22.818148571537904 91.063544222710561 0 0 0 0 36.758814912031085 31.27871343706272 0 31.27871343706272 80.986186500133499 0 0 0 0 46.572218648558191 0.97462475554925732 0 0.97462475554925732 112.41499961526188 0 0 0 0 176.19366561535753 -15.931879329975487 0 -15.931879329975487 18.569840188572925 0 0 0 0 58.500572657321754 29.187530698289947 0 29.187530698289947 60.874909543467766 0 0 0 0 40.374282103899532 42.470123118703782 0 42.470123118703782 51.233820803096478 0 0 0 0 39.093048749407899 22.636364951127234 0 22.636364951127234 62.310085186424658 0 0 0 0 55.945012022708397 -21.3691820971776 0 -21.3691820971776 105.85887380981296 0 0 0 0 38.545780255010868 12.377162165454507 0 12.377162165454507 5.7178815662180114 0 0 0 0 36.22230490063157 22.907189698701245 0 22.907189698701245 62.356216328894561 0 0 0 0 75.800718251213766 -1.3261430130067708 0 -1.3261430130067708 63.639206928598014 0 0 0 0 52.225503465379006 3.1017352464885448 0 3.1017352464885448 28.035515699182383 0 0 0 0 95.175665514449051 4.046548492133387 0 4.046548492133387 30.358029591862646 0 0 0 0 50.708488552289054 10.560426721981912 0 10.560426721981912 58.022483011381212 0 0 0 0 35.353920934259804 13.545016480090197 0 13.545016480090197 42.558291787503236 0 0 0 0 42.537335785783398 -15.452231701251947 0 -15.452231701251947 14.445915720198968 0 0 0 0 77.038524235723742 -5.7546355517064036 0 -5.7546355517064036 2.7107543405771821 0 0 0 0 23.617910553286492 -20.007735324220363 0 -20.007735324220363 7.7624155831005055 0 0 0 0 28.881787585173697 -5.5759219019571162 0 -5.5759219019571162 7.0563842936937249 0 0 0 0 26.440710229133401 -5.6633775672959246 0 -5.6633775672959246 39.925149798230819 0 0 0 0 32.391773296993051 -19.632835595576125 0 -19.632835595576125 -4.6189884346124757 0 0 0 0 28.474286143093195 -12.955284266009869 0 -12.955284266009869 15.543201728565236 0 0 0 0 14.088505709034507 -12.749606881218625 0 -12.749606881218625 3.5583487248336496 0 0 0 0 189.9180880783897 -3.7341968872310645 0 -3.7341968872310645 -7.0327329049610796 0 0 0 0 -5.0455060044087077 -30.243070888890827 0 -30.243070888890827 72.064496569109679 0 0 0 0 -0.034458281419535552 -0.27140892181676435 0 -0.27140892181676435 3.9558764332461651 0 0 0 0 189.61450100502771 -108.02857196744606 0 -108.02857196744606 21.123727896730998 0 0 0 0 -0.01802514983431891 -0.30283869236652805 0 -0.30283869236652805 3.4359056169539826 0 0 0 0 -7.2218321883774479 -14.792978359301344 0 -14.792978359301344 17.259306111118121 0 0 0 0 112.72206537263446 -70.993260658887777 0 -70.993260658887777 44.376712868624054 0 0 0 0 197.87282884928209 -62.655023368069806 0 -62.655023368069806 12.209335958709516 0 0 0 0 207.70484114250394 -61.510568780029701 0 -61.510568780029701 11.947027189738492 0 0 0 0 0.98989102447376354 33.415142787973025 0 33.415142787973025 59.691275695401828 0 0 0 0 0.20271383082218719 0.021670713714819101 0 0.021670713714819101 1.2809913798353065 0 0 0 0 144.1729179605245 24.218137361051504 0 24.218137361051504 30.299109261359263 0 0 0 0 0.24400011433278479 0.7074225917782897 0 0.7074225917782897 2.8766866730832934 0 0 0 0 170.13554611594463 14.012758944705297 0 14.012758944705297 -15.507758484452552 0 0 0 0 173.71165055918391 -2.2327258238362901 0 -2.2327258238362901 57.536260309870158 0 0 0 0 203.67096197554201 -57.021124830443568 0 -57.021124830443568 38.206012260604552 0 0 0 0 178.89133608091652 -17.59030571162134 0 -17.59030571162134 1.3193551159261006 0 0 0 0 241.22236475293175 -93.629689753914931 0 -93.629689753914931 12.478053289511536 0 0 0 0 288.51967776411584 -12.8303429918397 0 -12.8303429918397 -38.636237433261613 0 0 0 0 221.37396829170757 2.4707554721485394 0 2.4707554721485394 -28.554270153234938 0 0 0 0 192.51509468266704 -3.9395982558682476 0 -3.9395982558682476 -29.219209249703908 0 0 0 0 188.91275809530634 -11.376422440434453 0 -11.376422440434453 -2.1861843715289524 0 0 0 0 25.024414285951934 -9.4219907212611815 0 -9.4219907212611815 13.555421093271661 0 0 0 0 225.40999252315669 71.366038492758207 0 71.366038492758207 27.858408544034319 0 0 0 0 -7.2728405370166911 42.861190653604183 0 42.861190653604183 63.153228067287273 0 0 0 0 201.06048997338803 125.27869815109148 0 125.27869815109148 65.574116297577802 0 0 0 0 0.89036734349855351 0.062051063034182619 0 0.062051063034182619 -0.022990624723987135 0 0 0 0 495.91562745843839 14.175865120202161 0 14.175865120202161 -33.269235968195972 0 0 0 0 555.63054437299434 -94.750684532750256 0 -94.750684532750256 -145.25809328068999 0 0 0 0 370.6735225708253 -35.428440584782265 0 -35.428440584782265 33.031002955002577 0 0 0 0 -86.406283766358683 -82.503408016482126 0 -82.503408016482126 18.302889173952281 0 0 0 0 238.22480076266947 -62.635979077137563 0 -62.635979077137563 17.732035832754178 0 0 0 0 309.3756922139728 -145.5220423526805 0 -145.5220423526805 100.85040097114415 0 0 0 0 370.52613530604867 -34.277063075493174 0 -34.277063075493174 35.970749556178134 0 0 0 0 221.4899336078106 -102.84051456434372 0 -102.84051456434372 49.905731238121007 0 0 0 0 362.16687455679494 -55.663781543664754 0 -55.663781543664754 -7.8381857311894692 0 0 0 0 556.37052584117919 -144.39815686290319 0 -144.39815686290319 -31.523113916253806 0 0 0 0 1.2752647767060026 1.1057896196799533 0 1.1057896196799533 1.6368966488532593 0 0 0 0 125.7739512853077 -48.773969780719995 0 -48.773969780719995 -66.812396910861025 0 0 0 0 -19.195904322674323 31.894487469057481 0 31.894487469057481 -38.501020777751592 0 0 0 0 -40.741932435466879 66.201984756070487 0 66.201984756070487 -40.582596039115515 0 0 0 0 69.009976197274227 82.641299542671277 0 82.641299542671277 -29.424050774140937 0 0 0 0 -18.478276346395432 71.12581530809598 0 71.12581530809598 -76.514647488582796 0 0 0 0 -38.490439107070415 52.057003816119732 0 52.057003816119732 -58.034276768799373 0 0 0 0 -19.698051435909292 54.176313459092853 0 54.176313459092853 -99.784538960708232 0 0 0 0 -1.5320275093247346 -23.597296981644249 0 -23.597296981644249 -24.910643214516767 0 0 0 0 1.2410441407076291 1.224413349726555 0 1.224413349726555 0.78437491731740161 0 0 0 0 -61.190200654513319 7.0921750103743761 0 7.0921750103743761 60.606231982098961 0 0 0 0 -18.037982056070177 -23.982710324560166 0 -23.982710324560166 -50.962090745427879 0 0 0 0 18.549202092792257 -0.62395903331633917 0 -0.62395903331633917 -36.050571074530581 0 0 0 0 6.7990220758802167 9.5352783677508253 0 9.5352783677508253 -0.085485389438574214 0 0 0 0 0.72644693022542128 -0.79192812715748317 0 -0.79192812715748317 -4.8708845888528112 0 0 0 0 -100.31684246367149 -42.802043825240673 0 -42.802043825240673 6.1163723845738787 0 0 0 0 -124.35312812257325 113.37756145709682 0 113.37756145709682 -72.612218565714102 0 0 0 0 -1.0854766353013829 -1.1880879078821067 0 -1.1880879078821067 -0.59031163258405428 0 0 0 0 -70.292358697399322 -98.093665157337796 0 -98.093665157337796 -83.199547325888375 0 0 0 0 2.1986436392762698 -40.303840475932112 0 -40.303840475932112 -38.707502630900407 0 0 0 0 100.42549191589205 -46.504423854496508 0 -46.504423854496508 -102.30047629389605 0 0 0 0 3.9760473799688043 -16.73222227627712 0 -16.73222227627712 -111.28161534099674 0 0 0 0 60.566079236421501 -28.834150791637242 0 -28.834150791637242 -163.21160744654287 0 0 0 0 15.765136692214583 28.44871155337205 0 28.44871155337205 -7.9940905655648749 0 0 0 0 6.9760175584530941 9.8973340877582725 0 9.8973340877582725 -0.39433775798667497 0 0 0 0 38.063078811559535 36.23891465074928 0 36.23891465074928 -108.88340039407376 0 0 0 0 -81.533939440829272 -24.822334737253186 0 -24.822334737253186 30.376626138472602 0 0 0 0 5.0453179030856461 3.070712400600037 0 3.070712400600037 -3.1223714032472714 0 0 0 0 34.055027827122103 43.3789638421174 0 43.3789638421174 -39.004772999081979 0 0 0 0 -33.674214447761187 20.344865353284149 0 20.344865353284149 -1.3807866910201483 0 0 0 0 20.455734675269923 -19.959542612102268 0 -19.959542612102268 -78.837959723823133 0 0 0 0 22.204918350412683 3.5861163790812149 0 3.5861163790812149 -4.8811358210026921 0 0 0 0 27.823860830278136 43.578904984772635 0 43.578904984772635 -27.418592928344879 0 0 0 0 24.870099272851803 16.691137922563939 0 16.691137922563939 -33.369668865159838 0 0 0 0 26.610993544381927 7.9461524091275351 0 7.9461524091275351 -96.646961488586385 0 0 0 0 32.235596554710355 27.601768541441288 0 27.601768541441288 -36.469954284211781 0 0 0 0 35.567177519595134 22.956513110310425 0 22.956513110310425 -36.973600946686929 0 0 0 0 0.028287389232318105 7.3963746717323886 0 7.3963746717323886 -6.0398998030132862 0 0 0 0 3.7496659294411074 -11.284896979948826 0 -11.284896979948826 -35.822720897982435 0 0 0 0 3.7945458709145896 -11.814926574503261 0 -11.814926574503261 -50.276463413669262 0 0 0 0 5.7005182619098775 -1.9597427179295153 0 -1.9597427179295153 -0.34916996854159876 0 0 0 0 -5.9893209091319903 5.0094163469801174 0 5.0094163469801174 2.2225088455292745 0 0 0 0 13.430012342994615 10.561631537452378 0 10.561631537452378 0.5624593544598504 0 0 0 0 -7.3757321293524001 34.668611262138711 0 34.668611262138711 -15.340385354427781 0 0 0 0 -42.361937292722359 44.386954787009529 0 44.386954787009529 0.50342671779344528 0 0 0 0 10.659888957219664 9.8195077736272651 0 9.8195077736272651 1.110868192955877 0 0 0 0 -41.869004851498175 26.583429055963279 0 26.583429055963279 4.5008169825559889 0 0 0 0 -21.430008385235851 25.732919480426744 0 25.732919480426744 1.0196197736729573 0 0 0 0 -22.177194703683199 40.107295860528666 0 40.107295860528666 0.13174228845485914 0 0 0 0 -14.977915310264507 55.813936310260488 0 55.813936310260488 1.3751107945689682 0 0 0 0 -23.465873581128108 50.240247440331359 0 50.240247440331359 -10.843533031187235 0 0 0 0 -14.205640235762985 41.217043428093348 0 41.217043428093348 -3.1410286550828914 0 0 0 0 1.8658832009896287 -56.063669672937522 0 -56.063669672937522 81.368814769600249 0 0 0 0 -11.722797100446769 41.960890161931729 0 41.960890161931729 1.5188924083699931 0 0 0 0 -14.477342421811045 41.6038414360969 0 41.6038414360969 5.6563457211263994 0 0 0 0 40.486750700918492 -6.3510565796021865 0 -6.3510565796021865 -6.2331131058817846 0 0 0 0 -0.75340388103359146 23.115778334552715 0 23.115778334552715 31.810382344507843 0 0 0 0 1.5251105657787889 3.6721235574047384 0 3.6721235574047384 6.5626029597518896 0 0 0 0 -66.67084256004091 70.053937209441642 0 70.053937209441642 -17.460191808745549 0 0 0 0 22.551242774112325 32.527512775353216 0 32.527512775353216 -16.76192936272264 0 0 0 0 -1.3416076926223468 -8.5397302641654278 0 -8.5397302641654278 -85.430834830240656 0 0 0 0 16.205308936963746 2.1568555635266229 0 2.1568555635266229 -2.3460742177107545 0 0 0 0 78.85958648880478 -10.234795064713715 0 -10.234795064713715 -28.149780766611201 0 0 0 0 -14.546173141392501 75.104572669657841 0 75.104572669657841 185.98340842747871 0 0 0 0 75.588086134761397 78.290875355647245 0 78.290875355647245 67.213765415936905 0 0 0 0 71.395989304666728 92.67570547931291 0 92.67570547931291 56.844239242573622 0 0 0 0 -9.9713425840236596 75.240661780479599 0 75.240661780479599 37.803788598739729 0 0 0 0 13.391398147068685 112.74976288784502 0 112.74976288784502 77.906839200091895 0 0 0 0 1.4903053054139122 0.072469201333358768 0 0.072469201333358768 -1.7640732681976006 0 0 0 0 7.0093237629698706 12.914422327735792 0 12.914422327735792 -46.299879318953757 0 0 0 0 47.582275382490479 57.339220819524712 0 57.339220819524712 -128.513886951193 0 0 0 0 6.8182311758312721 11.546243215568731 0 11.546243215568731 -1.6960574627974963 0 0 0 0 12.173492794572667 39.169494425827054 0 39.169494425827054 -78.63523815300357 0 0 0 0 20.972654016179149 76.434125724504497 0 76.434125724504497 2.7591726237083556 0 0 0 0 53.287649365662219 58.870199157949685 0 58.870199157949685 -86.833344277687274 0 0 0 0 95.354274316811598 43.139659791885286 0 43.139659791885286 -66.933528962376386 0 0 0 0 24.526174644430284 60.723980922978171 0 60.723980922978171 -36.659162571438173 0 0 0 0 82.52268181926047 18.625637332539782 0 18.625637332539782 -100.25357557271482 0 0 0 0 -19.050501439727668 -7.2119606937588401 0 -7.2119606937588401 -96.632902416396917 0 0 0 0 10.942478871926141 70.681872433741319 0 70.681872433741319 -89.891232405487798 0 0 0 0 26.609548061798705 17.6029854964072 0 17.6029854964072 -32.941502411174042 0 0 0 0 5.3502608035487356 13.475838795029404 0 13.475838795029404 -28.366544518289629 0 0 0 0 13.068205291536287 41.424630724974293 0 41.424630724974293 -17.661510632755359 0 0 0 0 7.4354277878883295 46.069928641234469 0 46.069928641234469 -18.210831528155609 0 0 0 0 27.107164654597 21.943653051150534 0 21.943653051150534 -9.11574986483933 0 0 0 0 -10.859898409627931 32.506945621140346 0 32.506945621140346 -11.14111177342977 0 0 0 0 40.810050957967178 15.379051214878587 0 15.379051214878587 -7.9900022905390244 0 0 0 0 21.101002279327076 26.71982678148828 0 26.71982678148828 -10.540015983047169 0 0 0 0 25.400671736402728 39.771065439911496 0 39.771065439911496 -65.834745393650337 0 0 0 0 18.23068409885451 -2.2227112534140048 0 -2.2227112534140048 -7.8102710882683173 0 0 0 0 25.141628155395665 9.1153621301866394 0 9.1153621301866394 -49.636682018328202 0 0 0 0 9.4911800030686209 9.941929597698703 0 9.941929597698703 -37.692103060878424 0 0 0 0 53.949052711855984 4.2483297203092008 0 4.2483297203092008 -38.396216979050166 0 0 0 0 54.388423829641397 14.62352456880663 0 14.62352456880663 -14.007534482350195 0 0 0 0 78.629222293529892 -38.290351763689046 0 -38.290351763689046 -23.271566575308384 0 0 0 0 53.108000579399231 -23.35126765315394 0 -23.35126765315394 -30.782901073203902 0 0 0 0 -15.195496925127372 -4.2445959277471488 0 -4.2445959277471488 -1.0805491330735322 0 0 0 0 38.296350051961781 15.929813599946726 0 15.929813599946726 -90.354935436093513 0 0 0 0 193.55965586997627 -16.663476726396084 0 -16.663476726396084 -11.278494752380425 0 0 0 0 122.66518888005794 53.975369934814552 0 53.975369934814552 40.983178402411227 0 0 0 0 123.85813198089909 29.002516244519683 0 29.002516244519683 3.5223866078083574 0 0 0 0 116.03764572576256 -29.027514474981672 0 -29.027514474981672 -11.383336235448496 0 0 0 0 63.263168553719879 1.3755016454725819 0 1.3755016454725819 -6.8219166942917582 0 0 0 0 45.34840949608224 19.37441547637161 0 19.37441547637161 25.487918376825519 0 0 0 0 47.698124584636389 31.968649126480187 0 31.968649126480187 20.340793625018023 0 0 0 0 54.836592435269267 29.900598800474256 0 29.900598800474256 32.61288714663408 0 0 0 0 72.558309424181061 -131.50227853216711 0 -131.50227853216711 -68.31776652880967 0 0 0 0 -1.8370753868457825 1.7518694722359882 0 1.7518694722359882 -2.4606822114048952 0 0 0 0 50.853616698776023 73.989473457446366 0 73.989473457446366 -37.564455823292974 0 0 0 0 10.673830363626621 25.10234872249751 0 25.10234872249751 32.547090370587057 0 0 0 0 37.664666206931088 38.519666452495386 0 38.519666452495386 34.497104617503737 0 0 0 0 -22.903208985750098 31.936353820092336 0 31.936353820092336 61.772118156468537 0 0 0 0 -3.5517355407564537 80.691872409133708 0 80.691872409133708 22.459695282728262 0 0 0 0 177.77824908208095 60.323893842105349 0 60.323893842105349 38.670698084925561 0 0 0 0 -0.007056978506952305 0.32644629184174789 0 0.32644629184174789 1.49037455221371 0 0 0 0 -21.986757094848144 3.2746234558908895 0 3.2746234558908895 35.99821263326362 0 0 0 0 10.03247260968601 -13.872704736879598 0 -13.872704736879598 12.793146808581355 0 0 0 0 90.001673337872489 -90.051686961791575 0 -90.051686961791575 31.781263315218439 0 0 0 0 183.65532750928105 -23.549391495419741 0 -23.549391495419741 -28.138563786969655 0 0 0 0 1.9381924370475332 -0.62728153682078513 0 -0.62728153682078513 0.067425183963467195 0 0 0 0 127.11654975246529 44.379155743276669 0 44.379155743276669 0.062506693814839309 0 0 0 0 24.044029791963112 -50.428904152394239 0 -50.428904152394239 71.414884671410846 0 0 0 0 196.80460453358683 21.201878487654994 0 21.201878487654994 -37.542691506535448 0 0 0 0 -125.9098480183311 -11.528420179291629 0 -11.528420179291629 73.78413521815196 0 0 0 0 -77.625873245028743 -78.458304343947844 0 -78.458304343947844 -23.838677590488487 0 0 0 0 0.23080036358894063 0.51709917400483363 0 0.51709917400483363 -0.76954502996990559 0 0 0 0 -122.05943320184451 -47.095320491568259 0 -47.095320491568259 78.344775770588484 0 0 0 0 -136.35754542996528 12.583892111677358 0 12.583892111677358 147.00627320920103 0 0 0 0 248.62699493476248 -159.76451243477027 0 -159.76451243477027 -98.352235047454542 0 0 0 0 -3.2956812984339194 121.28381771353247 0 121.28381771353247 165.53244333717157 0 0 0 0 407.94466599340376 186.97704180260075 0 186.97704180260075 28.849657708188943 0 0 0 0 268.23306004929691 55.012541248420462 0 55.012541248420462 38.397278960047714 0 0 0 0 106.92940310183985 37.013189605435628 0 37.013189605435628 -33.283121395131275 0 0 0 0 456.08392267986346 -132.30383515487074 0 -132.30383515487074 -19.820398374371507 0 0 0 0 12.335432323592968 11.379369875486624 0 11.379369875486624 0.89429557763751255 0 0 0 0 17.553083877097379 -0.7995544543429105 0 -0.7995544543429105 0.47242790799748491 0 0 0 0 -154.99222957746133 63.752991277298065 0 63.752991277298065 1.1908321807418361 0 0 0 0 -49.712579588004701 10.79812476862196 0 10.79812476862196 -7.8232176441879346 0 0 0 0 20.602160486112552 20.726744617425055 0 20.726744617425055 -81.593543094879436 0 0 0 0 3.7768151979302615 2.4455658337917967 0 2.4455658337917967 -3.5003985439272425 0 0 0 0 -18.753801340962127 65.019343701147363 0 65.019343701147363 26.705592676327797 0 0 0 0 -79.060238094767556 152.14966441384149 0 152.14966441384149 -98.701492546223449 0 0 0 0 -232.38599813247129 35.057158736942483 0 35.057158736942483 180.07093348663648 0 0 0 0 13.165981524378594 28.062596151138976 0 28.062596151138976 -22.072039383419451 0 0 0 0 -17.544739615555955 67.597595636152278 0 67.597595636152278 -23.116776497409774 0 0 0 0 11.833198954023828 45.477201488746687 0 45.477201488746687 -68.560418944113735 0 0 0 0 -19.715988344989455 45.784403277942488 0 45.784403277942488 -19.221980796486605 0 0 0 0 4.6179502806844539 30.302449426313387 0 30.302449426313387 -16.282397822503697 0 0 0 0 9.9010831066043465 21.912927888748413 0 21.912927888748413 -3.4591338442387496 0 0 0 0 13.695187689491362 9.7342517451242472 0 9.7342517451242472 1.9857608136697378 0 0 0 0 19.61510338012522 5.7376273927266084 0 5.7376273927266084 -10.651196182433523 0 0 0 0 7.1234433245481341 54.523720047370716 0 54.523720047370716 -45.410701801201682 0 0 0 0 17.799933964783122 14.036074592026353 0 14.036074592026353 -48.389836263213056 0 0 0 0 8.4575804067317222 40.666282237281393 0 40.666282237281393 1.8723351856519912 0 0 0 0 -2.3187739791101194 30.152660599575938 0 30.152660599575938 8.4505106469916882 0 0 0 0 -23.679333757099812 25.105144527895732 0 25.105144527895732 11.098461280347919 0 0 0 0 -2.3510180552621023 21.36815327013403 0 21.36815327013403 -2.7197923528935917 0 0 0 0 -7.3550154116092017 11.385199554132896 0 11.385199554132896 -0.54244114477444327 0 0 0 0 2.4498703481076518 16.344166802850395 0 16.344166802850395 0.32190592234246651 0 0 0 0 -12.731088051186816 4.1799843662635112 0 4.1799843662635112 -4.4250691445627517 0 0 0 0 -9.004415048253577 15.031390898665279 0 15.031390898665279 15.667600779571558 0 0 0 0 -10.357598982191121 8.7138393475258056 0 8.7138393475258056 -1.1885984373818417 0 0 0 0 -16.063073234206968 18.21396558658212 0 18.21396558658212 -4.4327546181593993 0 0 0 0 0.28063829286563191 1.1197107640486834 0 1.1197107640486834 3.1454479589124658 0 0 0 0 -0.37125946815649513 13.710089711951667 0 13.710089711951667 -1.960409189528967 0 0 0 0 3.5967676853088051 8.3709874929029837 0 8.3709874929029837 -1.6027598335862834 0 0 0 0 12.762027765109451 15.564084644581015 0 15.564084644581015 -4.6367685997178114 0 0 0 0 1.8446440242766826 5.9572676233266009 0 5.9572676233266009 -6.4366154294494864 0 0 0 0 3.5698423098856438 15.480107551747096 0 15.480107551747096 -4.2926321898617061 0 0 0 0 -18.260425520435092 7.2794241059159503 0 7.2794241059159503 -13.76395365383496 0 0 0 0 8.4247059666730024 7.9537986925562691 0 7.9537986925562691 -1.3420440606380568 0 0 0 0 -2.4658287467973423 15.270470106481753 0 15.270470106481753 -12.907771498477501 0 0 0 0 5.2373247126379283 12.229510194184854 0 12.229510194184854 -7.0413950293207108 0 0 0 0 13.868971473504644 6.3055459866826595 0 6.3055459866826595 -6.5490043341917499 0 0 0 0 15.618023556249682 14.913298068768427 0 14.913298068768427 -2.003711692007073 0 0 0 0 7.7306321069409023 4.7074275843222324 0 4.7074275843222324 -9.9947886883937826 0 0 0 0 6.0482082626798643 6.0930221226511456 0 6.0930221226511456 -5.6312564671749703 0 0 0 0 11.739585669776716 12.436436684141881 0 12.436436684141881 2.0242837934692943 0 0 0 0 6.9033384160939022 6.0592270117107319 0 6.0592270117107319 -3.4569981488692605 0 0 0 0 10.391428772338259 15.529135866830757 0 15.529135866830757 3.2033113110164777 0 0 0 0 9.7241443449729559 12.75880428508458 0 12.75880428508458 -3.5781564816934406 0 0 0 0 6.9028365225804009 11.53226591839001 0 11.53226591839001 -7.8352614475988958 0 0 0 0 9.7585649846078013 13.192240102910318 0 13.192240102910318 -7.8799048478373379 0 0 0 0 -3.0585669595296068 5.769337810803691 0 5.769337810803691 -4.2299633683485673 0 0 0 0 16.445500235269719 12.390004319472553 0 12.390004319472553 -3.6026382806531956 0 0 0 0 6.0440959767095706 5.3654319895836267 0 5.3654319895836267 -7.0225842308163262 0 0 0 0 -1.3702529237089038 12.917031655695496 0 12.917031655695496 -0.30556014411399701 0 0 0 0 6.8761244028937654 13.648929499164865 0 13.648929499164865 -4.4525768484097625 0 0 0 0 0.21753799743055424 11.579867217643319 0 11.579867217643319 -6.6913647036166708 0 0 0 0 1.1906719302494366 1.7490360713356381 0 1.7490360713356381 3.4140685845874388 0 0 0 0 -3.8597663037580787 13.691522922061722 0 13.691522922061722 -3.336573570200585 0 0 0 0 11.43378244552332 16.774574373069349 0 16.774574373069349 11.054570180441345 0 0 0 0 66.009735369003465 21.220814780722264 0 21.220814780722264 10.15219608243811 0 0 0 0 1.6994438038214383 0.22357852934730005 0 0.22357852934730005 -0.12642990022140499 0 0 0 0 4.3982552698337685 5.9314906929198656 0 5.9314906929198656 -7.9083997393401386 0 0 0 0 13.222224063429167 5.538930958239412 0 5.538930958239412 -4.375573074864171 0 0 0 0 4.7490248709621028 4.7577829858757568 0 4.7577829858757568 -6.2010611946347556 0 0 0 0 -3.2709319607165526 10.913797131461024 0 10.913797131461024 -3.1276444258669471 0 0 0 0 4.7958004460700749 1.4253308914586285 0 1.4253308914586285 -4.8889728333672675 0 0 0 0 36.919800521058278 7.6206081535983685 0 7.6206081535983685 -6.2450495373748254 0 0 0 0 11.675467284419099 11.020370851525485 0 11.020370851525485 -1.8089790853811696 0 0 0 0 32.490664532717346 -1.6264820142486087 0 -1.6264820142486087 -18.678682501128492 0 0 0 0 9.1179360821799982 -5.9729353094905022 0 -5.9729353094905022 -7.6305394649925784 0 0 0 0 11.428797666914761 -2.3528430510384908 0 -2.3528430510384908 -2.5932370837205099 0 0 0 0 -2.3915384840474871 -3.5333508432759118 0 -3.5333508432759118 30.994157899893253 0 0 0 0 -23.551165340708394 -38.838007570277284 0 -38.838007570277284 27.111062273576067 0 0 0 0 22.870323266244668 -10.504654951682596 0 -10.504654951682596 -0.1265545310141647 0 0 0 0 16.976758561684619 -24.036248435975494 0 -24.036248435975494 -30.950173891859549 0 0 0 0 -0.058779827141097307 -0.66066802024952409 0 -0.66066802024952409 -0.49611193202108339 0 0 0 0 32.003604506855481 7.7349108973349985 0 7.7349108973349985 -3.0680986234342527 0 0 0 0 31.571769598973333 -6.8612576679947779 0 -6.8612576679947779 -34.123092349354323 0 0 0 0 37.912974038448738 1.7956570103393403 0 1.7956570103393403 -2.5108269631503077 0 0 0 0 15.892520708563097 11.450417368725766 0 11.450417368725766 -4.0165710625914306 0 0 0 0 10.208353092539625 12.449183810848279 0 12.449183810848279 -0.36309572302702131 0 0 0 0 27.114553940444239 30.302235245156552 0 30.302235245156552 -1.7568555724168391 0 0 0 0 5.9572386438085232 13.999376337842705 0 13.999376337842705 -3.5231462890783405 0 0 0 0 11.581562919851422 16.125302643216472 0 16.125302643216472 -3.1114884492353667 0 0 0 0 10.884088715316466 15.819817143770706 0 15.819817143770706 -7.0081487810439285 0 0 0 0 10.446080323674778 15.789046222169659 0 15.789046222169659 -6.9135745705989393 0 0 0 0 10.027168506327143 14.4279769496884 0 14.4279769496884 -3.9130279863306257 0 0 0 0 9.9511786391994974 15.912831448615066 0 15.912831448615066 -8.0058681098544184 0 0 0 0 -2.7791266680133049 -3.5979575704378846 0 -3.5979575704378846 1.5994310940586161 0 0 0 0 9.234822453930974 3.0829052118107398 0 3.0829052118107398 -15.824192394325735 0 0 0 0 54.584551837731851 146.05302838889298 0 146.05302838889298 43.921600731944864 0 0 0 0 3.6714756268605697 -1.1606840433908943 0 -1.1606840433908943 -0.10051062876907613 0 0 0 0 11.283227713076485 -21.296232185544156 0 -21.296232185544156 -27.321936661363637 0 0 0 0 55.557229574398661 33.97870612618226 0 33.97870612618226 -1.4327421047728777 0 0 0 0 0.098003083126059209 -3.5877333942318899 0 -3.5877333942318899 1.0716822312485874 0 0 0 0 44.079264682204666 10.940034921618164 0 10.940034921618164 -9.9815794535015812 0 0 0 0 13.878963463006585 -5.2890975690057758 0 -5.2890975690057758 -0.75029737645536443 0 0 0 0 55.930372743085172 -4.9969896239408342 0 -4.9969896239408342 -4.3389485563267129 0 0 0 0 62.293754626593 2.6283947232442983 0 2.6283947232442983 -9.1888359880506982 0 0 0 0 108.92114910504461 -7.2873713501023758 0 -7.2873713501023758 -26.418874635987549 0 0 0 0 94.024765938294877 -19.116096855491378 0 -19.116096855491378 -26.477169660090908 0 0 0 0 90.638201151763496 -5.0745786924201752 0 -5.0745786924201752 -26.141941764179933 0 0 0 0 89.668598897711945 -12.912730747342124 0 -12.912730747342124 -19.630231423538817 0 0 0 0 79.867395182598557 -27.63028800532993 0 -27.63028800532993 -9.3221985596470063 0 0 0 0 55.208728666359093 -23.339227594429097 0 -23.339227594429097 -9.0070208650933594 0 0 0 0 84.942971919055708 -15.412515744083294 0 -15.412515744083294 -20.433744688560864 0 0 0 0 102.02619310013324 -10.399428201184321 0 -10.399428201184321 -13.030147199660163 0 0 0 0 79.019529485496605 -9.8648627285484238 0 -9.8648627285484238 -12.972829771421429 0 0 0 0 172.0951866928699 0.38848169256323217 0 0.38848169256323217 -48.363539698391151 0 0 0 0 64.9973676087684 -33.997820160931042 0 -33.997820160931042 -45.374395609041017 0 0 0 0 78.489111462255096 35.071026340738058 0 35.071026340738058 17.54486952218042 0 0 0 0 29.534045786133447 -28.94578828869615 0 -28.94578828869615 -13.680765612502455 0 0 0 0 52.425254938651051 -12.930106869270503 0 -12.930106869270503 -3.1182850687987411 0 0 0 0 53.438731002459463 -19.43891142932894 0 -19.43891142932894 -24.567285459059349 0 0 0 0 70.712085200859292 -5.637662698139934 0 -5.637662698139934 -13.732769368376466 0 0 0 0 94.216489819973503 -11.46181592522646 0 -11.46181592522646 -31.902312860695702 0 0 0 0 53.918564729152422 10.161531247361609 0 10.161531247361609 -9.8097060582867925 0 0 0 0 85.801683847179447 15.482825098065533 0 15.482825098065533 -16.687635691773949 0 0 0 0 55.581510390460608 9.0462855165073961 0 9.0462855165073961 -18.056414918707446 0 0 0 0 70.746126106765587 -16.673700869201014 0 -16.673700869201014 34.138520914530432 0 0 0 0 59.108454514069308 11.556300314416262 0 11.556300314416262 -4.0478947023729006 0 0 0 0 32.567061662128253 2.4700625133483527 0 2.4700625133483527 -4.0904448061000949 0 0 0 0 37.576670050333632 -4.9005106560159675 0 -4.9005106560159675 0.18456940729925009 0 0 0 0 56.709149395141139 15.751378869539565 0 15.751378869539565 -9.1367685093299542 0 0 0 0 43.374634281590261 19.160881605704617 0 19.160881605704617 -14.483969976947833 0 0 0 0 39.340189355109032 7.1248027114338583 0 7.1248027114338583 -11.002253853086813 0 0 0 0 0.27928949882966769 -0.83877102962647854 0 -0.83877102962647854 -0.20761880562868296 0 0 0 0 25.928829250722629 23.021151199330461 0 23.021151199330461 -18.035345674735709 0 0 0 0 34.720294408474729 10.607575582436539 0 10.607575582436539 -3.9838765178740232 0 0 0 0 41.331121500356858 7.3105714576341256 0 7.3105714576341256 -38.13860785739098 0 0 0 0 5.4429531118330488 -14.022719358971813 0 -14.022719358971813 9.491228240678879 0 0 0 0 9.2962016982783098 -16.047152920217059 0 -16.047152920217059 -15.65658529367056 0 0 0 0 -45.465415320295051 22.104364058619296 0 22.104364058619296 23.295258672949217 0 0 0 0 49.156105827783904 8.4783570188885449 0 8.4783570188885449 -5.5222839457783266 0 0 0 0 14.99402084377809 -0.49859401191424269 0 -0.49859401191424269 -0.92412412924574028 0 0 0 0 42.398980342266441 11.419355413939911 0 11.419355413939911 -5.9617413608514198 0 0 0 0 38.132838282563171 2.5454135891517353 0 2.5454135891517353 1.9626112426292082 0 0 0 0 38.777044823903481 3.8062418971982641 0 3.8062418971982641 0.65404202191258554 0 0 0 0 38.588787996756764 1.3281975403860997 0 1.3281975403860997 5.2046276040564408 0 0 0 0 50.734455367433839 -1.994449018322257 0 -1.994449018322257 -10.64383835582521 0 0 0 0 42.194596342113073 9.831040379445426 0 9.831040379445426 -9.5684719950759245 0 0 0 0 60.903441509777622 -4.8877966724171529 0 -4.8877966724171529 -9.3169571637386071 0 0 0 0 55.501910873492307 -3.3129283348932859 0 -3.3129283348932859 -13.823749845076009 0 0 0 0 55.803601685802278 -5.0636685647639297 0 -5.0636685647639297 -3.7721449560630731 0 0 0 0 54.049351026900695 -0.6498914908088409 0 -0.6498914908088409 -13.058284572917273 0 0 0 0 48.38290927415801 -1.3777548653874874 0 -1.3777548653874874 -3.8016843809423335 0 0 0 0 48.466361314221103 2.6817422852860773 0 2.6817422852860773 -3.0699959859359751 0 0 0 0 55.016783810697234 -1.6925326031032455 0 -1.6925326031032455 -0.4816950275170484 0 0 0 0 45.341467222546058 2.0588020443128752 0 2.0588020443128752 -0.67478561264952319 0 0 0 0 12.675851864524148 0.13796744823497775 0 0.13796744823497775 -2.4573792896272204 0 0 0 0 67.900746872068794 -13.09585202631115 0 -13.09585202631115 5.7576122830407712 0 0 0 0 41.782718596265113 -5.0858676740600686 0 -5.0858676740600686 10.8315765239455 0 0 0 0 57.669235795840905 1.9652204736009935 0 1.9652204736009935 -1.1260704976180023 0 0 0 0 52.025264435541885 -2.4360161575104371 0 -2.4360161575104371 15.835348246572721 0 0 0 0 26.188804949859332 0.28812400711802866 0 0.28812400711802866 16.734885540262269 0 0 0 0 52.738994756063676 -0.96284719729429469 0 -0.96284719729429469 2.9060531463912866 0 0 0 0 32.856282610144262 1.8386161202261633 0 1.8386161202261633 8.0677998358071363 0 0 0 0 35.11051791182399 11.94797902153968 0 11.94797902153968 -8.4141480097547117 0 0 0 0 39.918792955436857 2.6692305039710078 0 2.6692305039710078 3.9151621053829331 0 0 0 0 40.129313661160268 5.3536353530775784 0 5.3536353530775784 -8.1672419652429369 0 0 0 0 33.373958424509453 8.6445085728720166 0 8.6445085728720166 0.56373175650310259 0 0 0 0 -11.264515335629767 -28.221832522536104 0 -28.221832522536104 28.514219632091681 0 0 0 0 3.9378605878572444 9.5905855455248581 0 9.5905855455248581 -3.0630817769394536 0 0 0 0 40.631710637017932 4.3181417150247512 0 4.3181417150247512 3.0325688852183248 0 0 0 0 9.8332556815104972 10.546666602522709 0 10.546666602522709 0.069160285518641729 0 0 0 0 44.311185859231045 -7.4169684301826635 0 -7.4169684301826635 -16.570031394598999 0 0 0 0 40.293361181626608 4.7456469121192377 0 4.7456469121192377 -4.1659746350549458 0 0 0 0 34.735364037955151 1.8531235480820953 0 1.8531235480820953 -25.431951180169023 0 0 0 0 22.34576263161216 5.3213768347602581 0 5.3213768347602581 -13.033475128808789 0 0 0 0 -6.3452613585286599 43.168249281554154 0 43.168249281554154 -30.558419038329816 0 0 0 0 10.374773747518702 23.829210593586595 0 23.829210593586595 -14.946465231912498 0 0 0 0 17.225885324122757 7.3969810965661509 0 7.3969810965661509 -10.622004847070885 0 0 0 0 -2.7627591935002442 13.882847263521143 0 13.882847263521143 -1.6521925878629076 0 0 0 0 3.7724377235362851 9.9909383520751192 0 9.9909383520751192 -7.1663949606279873 0 0 0 0 2.4985772092986736 25.974399639137346 0 25.974399639137346 -11.319384143161869 0 0 0 0 25.758470108559777 -4.8779449837323483 0 -4.8779449837323483 2.4943568922809618 0 0 0 0 5.5501222167796982 6.6541815304533678 0 6.6541815304533678 -4.3501991752374547 0 0 0 0 32.70644698338765 2.6134453176755628 0 2.6134453176755628 4.1188551964252156 0 0 0 0 34.321499934245367 8.1918449289888713 0 8.1918449289888713 4.5442392473253062 0 0 0 0 7.6660315229820162 0.31681131918794847 0 0.31681131918794847 -1.6833150479242152 0 0 0 0 47.367902836100257 3.3318913804116619 0 3.3318913804116619 -2.1321354795705929 0 0 0 0 9.0385279308266675 -6.4142601389072524 0 -6.4142601389072524 -5.9745970883702739 0 0 0 0 32.90227954566808 2.84781851014941 0 2.84781851014941 -1.5638610362276211 0 0 0 0 34.340705354668899 7.8442313296095136 0 7.8442313296095136 -9.0608078660636409 0 0 0 0 26.653242576635421 -1.8945276713352257 0 -1.8945276713352257 -1.8844526264037995 0 0 0 0 24.727237528084391 0.45128805449196818 0 0.45128805449196818 -4.6648528063709582 0 0 0 0 25.223376279253223 -7.9655984261624546 0 -7.9655984261624546 -3.6238765077117279 0 0 0 0 26.815440795021004 1.1851015389027073 0 1.1851015389027073 -9.1802560719313533 0 0 0 0 50.845356264100701 1.2726519611742333 0 1.2726519611742333 8.9035859432806319 0 0 0 0 26.906871719902185 -5.1022164324451316 0 -5.1022164324451316 -0.77291101432347942 0 0 0 0 35.603080172989202 -2.0245945667347707 0 -2.0245945667347707 -0.96492365163413674 0 0 0 0 43.654571046885394 8.0514163584403633 0 8.0514163584403633 -24.832180121349548 0 0 0 0 42.851977417070884 -1.9010763895312266 0 -1.9010763895312266 1.5286754827839104 0 0 0 0 46.677429230519238 16.988426911363469 0 16.988426911363469 -12.302774196878062 0 0 0 0 38.640154385761889 -2.7181906675327241 0 -2.7181906675327241 6.2163127520127546 0 0 0 0 45.837757765219976 0.34681775857569619 0 0.34681775857569619 2.884599067770182 0 0 0 0 7.2103487759781162 -0.19394271422612164 0 -0.19394271422612164 0.14726804852395858 0 0 0 0 77.272960456665714 -3.7828299459768573 0 -3.7828299459768573 -4.0412818779642521 0 0 0 0 39.514333927947519 2.9185315860492551 0 2.9185315860492551 4.7692163209297291 0 0 0 0 54.847511132829823 -3.0467016814808972 0 -3.0467016814808972 -8.6223783273835579 0 0 0 0 37.349030304674216 0.032401876755159265 0 0.032401876755159265 8.2250611042009041 0 0 0 0 52.99332947775747 -2.5650759061350072 0 -2.5650759061350072 -12.07112567850794 0 0 0 0 59.388148850901416 7.1999524557500081 0 7.1999524557500081 0.67933897770916474 0 0 0 0 49.675333430146566 10.626295423748161 0 10.626295423748161 9.8848527495823362 0 0 0 0 84.250781199064249 -9.4305110027931249 0 -9.4305110027931249 -2.565029256556727 0 0 0 0 80.284254718273587 3.9743574058804825 0 3.9743574058804825 -2.4312147502450898 0 0 0 0 37.195437559479771 28.941236663667802 0 28.941236663667802 -8.2370196205251887 0 0 0 0 68.285721276055483 -7.0223043619070609 0 -7.0223043619070609 2.157600823060875 0 0 0 0 -81.154571531500551 78.025900342688374 0 78.025900342688374 15.50249083677113 0 0 0 0 163.70626284161699 91.088649274992122 0 91.088649274992122 -45.026061174347205 0 0 0 0 30.918446254978335 -71.756353485247814 0 -71.756353485247814 37.793879194035298 0 0 0 0 260.16702691640239 38.534512813037963 0 38.534512813037963 -61.600236767984597 0 0 0 0 209.04792520249612 161.64966517627681 0 161.64966517627681 33.937056421376838 0 0 0 0 0.29153651406826242 -0.41634414315635127 0 -0.41634414315635127 0.29303816181679831 0 0 0 0 415.31105805483821 -30.308736810981372 0 -30.308736810981372 -29.273853620191403 0 0 0 0 334.85997492530805 64.162356191353012 0 64.162356191353012 -49.975495622916242 0 0 0 0 -1.3718772975242217 -2.9988740869887387 0 -2.9988740869887387 -1.9742426967377424 0 0 0 0 482.68455174510746 121.18525369545989 0 121.18525369545989 28.479628429865556 0 0 0 0 -115.18801833769976 2.3100402153613686 0 2.3100402153613686 -0.53619996700354022 0 0 0 0 -151.36917703777726 30.595759515186387 0 30.595759515186387 21.545483055566365 0 0 0 0 -60.694905488235236 43.237447159655403 0 43.237447159655403 -2.0211301874106766 0 0 0 0 -79.941147070712759 57.586635949132415 0 57.586635949132415 -5.0451827054334899 0 0 0 0 -58.000493609732075 68.77313462106622 0 68.77313462106622 -1.6584207639934903 0 0 0 0 -138.88392220521928 42.838156036959845 0 42.838156036959845 2.0775378022935911 0 0 0 0 61.551692425388865 0.19154534672657064 0 0.19154534672657064 -4.0178113415158805 0 0 0 0 47.171025674100747 -18.896359144392136 0 -18.896359144392136 -3.1262702817079315 0 0 0 0 24.310847736998674 -14.909929026602519 0 -14.909929026602519 -15.490662472522608 0 0 0 0 165.72934827000427 127.41142719430331 0 127.41142719430331 7.7046477764963583 0 0 0 0 58.89779927397467 -13.241607143955662 0 -13.241607143955662 -18.264235121476759 0 0 0 0 40.752452998069309 -8.93950767122044 0 -8.93950767122044 -8.1123178736962362 0 0 0 0 5.1684238072881001 1.6563730991592038 0 1.6563730991592038 -2.2969034434115692 0 0 0 0 75.887169346648079 15.947449455372976 0 15.947449455372976 -35.152211916042688 0 0 0 0 -22.577693477278444 -77.687159070662119 0 -77.687159070662119 -12.668698289314761 0 0 0 0 255.84670844174525 34.600037041582766 0 34.600037041582766 -171.19260152200422 0 0 0 0 42.331648856325955 -129.28295253620149 0 -129.28295253620149 -72.15514138525441 0 0 0 0 110.9906486512773 91.281763414083343 0 91.281763414083343 -27.947126165583995 0 0 0 0 -23.063197798535839 19.980985854923347 0 19.980985854923347 -4.5863218197564493 0 0 0 0 -39.857560149383062 22.779037158086794 0 22.779037158086794 1.3784290775456611 0 0 0 0 -31.53364569416226 28.483942805653214 0 28.483942805653214 -3.0541038679507437 0 0 0 0 370.62296952675752 79.895534560613669 0 79.895534560613669 -71.809478212513341 0 0 0 0 0.24721716462979781 0.33977499165136749 0 0.33977499165136749 1.6589310977567724 0 0 0 0 232.50669091320378 18.230682643749674 0 18.230682643749674 47.78523545894268 0 0 0 0 231.14309627352213 77.039580091016717 0 77.039580091016717 21.394498912988183 0 0 0 0 -33.231100859906292 19.151645699718074 0 19.151645699718074 -2.0871519572619945 0 0 0 0 -1.3077161705259641 9.3909060439159475 0 9.3909060439159475 0.7747320428529747 0 0 0 0 6.0067338664952388 9.1784981311663021 0 9.1784981311663021 -11.400139715752402 0 0 0 0 -1.6999539223397733 14.375509472048179 0 14.375509472048179 7.7993458306509638 0 0 0 0 1.9573007372588762 8.3972377835106187 0 8.3972377835106187 -5.9399286162594205 0 0 0 0 9.7104319784975814 11.575951960013356 0 11.575951960013356 -6.8887071697226929 0 0 0 0 7.5614660652463499 13.331152642377617 0 13.331152642377617 -8.1590695972815865 0 0 0 0 0.70289314223286326 6.4936025627417635 0 6.4936025627417635 -6.2179121556397714 0 0 0 0 82.068167251520208 -68.008249881846268 0 -68.008249881846268 68.03860537728815 0 0 0 0 2.6799645288956526 9.6438622940150935 0 9.6438622940150935 -4.6058241208816071 0 0 0 0 0.75975970295888295 2.4806274025250232 0 2.4806274025250232 4.0573883173030438 0 0 0 0 186.2880434243998 92.466645003458098 0 92.466645003458098 17.320970543957401 0 0 0 0 4.8092445981065595 0.32171085431584956 0 0.32171085431584956 -0.81135346762709748 0 0 0 0 286.70630619590884 228.03624471999774 0 228.03624471999774 151.17943481518046 0 0 0 0 417.86070319139617 70.409398178597939 0 70.409398178597939 -34.284869736657015 0 0 0 0 210.34652097533763 -128.64668649475493 0 -128.64668649475493 71.226101960771757 0 0 0 0 43.735036528651108 -42.490011248755536 0 -42.490011248755536 26.718693096801189 0 0 0 0 252.25535488489186 135.97724841599711 0 135.97724841599711 29.525504490201911 0 0 0 0 48.137980691630219 -21.54773069418161 0 -21.54773069418161 206.64277835716052 0 0 0 0 291.66070666398082 -38.910473525499015 0 -38.910473525499015 -39.409864615025981 0 0 0 0 339.42374983717855 48.305386958354802 0 48.305386958354802 -53.357245399815838 0 0 0 0 124.90712488115969 70.607572309621673 0 70.607572309621673 3.7890821566975319 0 0 0 0 226.27434789950257 60.943353239055114 0 60.943353239055114 -46.281639257942516 0 0 0 0 144.09002463630895 58.321442504641027 0 58.321442504641027 -34.260793068405292 0 0 0 0 207.52751285768818 22.308296576583587 0 22.308296576583587 -47.40495726563222 0 0 0 0 209.12262670069322 4.0730774423902858 0 4.0730774423902858 -25.820338179439659 0 0 0 0 215.26054572076828 23.97870867048232 0 23.97870867048232 -55.836298559797115 0 0 0 0 170.94812707454548 -26.174985358454933 0 -26.174985358454933 -29.328604148055547 0 0 0 0 -0.41547840734668018 5.4736455683908574 0 5.4736455683908574 2.8910765906656586 0 0 0 0 11.629413629540068 6.5500800728170816 0 6.5500800728170816 6.5798717724505877 0 0 0 0 24.512919509208587 6.042350718621492 0 6.042350718621492 -6.5488943102936901 0 0 0 0 11.496346683106822 9.6326206227408875 0 9.6326206227408875 16.006575281153346 0 0 0 0 4.8464664505111443 0.85230414758669326 0 0.85230414758669326 -3.9148049494832442 0 0 0 0 17.176000947263674 17.919472618781583 0 17.919472618781583 3.8039128230784627 0 0 0 0 20.402606064507381 9.4255788944189476 0 9.4255788944189476 -4.1690647953073494 0 0 0 0 12.552428885104746 12.376389901166476 0 12.376389901166476 -2.8271733328392656 0 0 0 0 12.708634309390618 14.214835229581695 0 14.214835229581695 -4.8179628254629279 0 0 0 0 10.947998446440579 6.6115198204424814 0 6.6115198204424814 -4.9628884849053065 0 0 0 0 49.26825041362099 -37.290940275953744 0 -37.290940275953744 -81.389247549413312 0 0 0 0 50.494262655349303 2.7907732443447912 0 2.7907732443447912 -50.624237030602671 0 0 0 0 11.297609095407097 -22.663931503354576 0 -22.663931503354576 -64.953522019190132 0 0 0 0 33.032852618933248 -2.7604719580090205 0 -2.7604719580090205 -63.657592500241435 0 0 0 0 16.242417019623645 -51.099022277578882 0 -51.099022277578882 -75.587072506113145 0 0 0 0 -50.134039343920449 -35.551094558298928 0 -35.551094558298928 -19.04308998573697 0 0 0 0 142.82228887140081 46.847139341900856 0 46.847139341900856 -0.56634472321411522 0 0 0 0 110.18470278592213 97.755895083063933 0 97.755895083063933 -51.504120635454683 0 0 0 0 115.58442961603578 6.7866809568658937 0 6.7866809568658937 -117.97396883939268 0 0 0 0 -1.2071461197209428 -0.26988727519258049 0 -0.26988727519258049 -1.6631827601387421 0 0 0 0 -169.42633529908926 -36.541383554063032 0 -36.541383554063032 38.280899678939249 0 0 0 0 46.089366723451349 -0.059165163121917885 0 -0.059165163121917885 -18.424188502853667 0 0 0 0 4.0863359922186646 -107.22669729225709 0 -107.22669729225709 27.796694666581061 0 0 0 0 64.338741532734275 -16.495158351604687 0 -16.495158351604687 -3.2460423026834633 0 0 0 0 7.62204090467886 -0.036838388766838648 0 -0.036838388766838648 -5.4683964545021748 0 0 0 0 40.437926891772804 -14.441702239390565 0 -14.441702239390565 5.7992520197567501 0 0 0 0 16.355603799696837 -18.696735745879778 0 -18.696735745879778 7.4101303826271305 0 0 0 0 90.014188668507018 5.10957531666359 0 5.10957531666359 -37.804975806033326 0 0 0 0 39.948094305113045 -13.733198685987873 0 -13.733198685987873 7.1286074442564313 0 0 0 0 38.459565282748372 -8.2693070970490226 0 -8.2693070970490226 -25.603608105817784 0 0 0 0 52.103332584774762 -10.955216631280109 0 -10.955216631280109 -26.847909742199249 0 0 0 0 34.201020567332307 -3.3953729573702276 0 -3.3953729573702276 -5.3249631576745742 0 0 0 0 32.721405192665131 -12.856390887110166 0 -12.856390887110166 4.6713907043040699 0 0 0 0 51.828418679899187 -21.244865410124476 0 -21.244865410124476 -3.6511440122469594 0 0 0 0 10.666637037208076 0.34616815565800607 0 0.34616815565800607 -1.2660332033079484 0 0 0 0 46.35813499269716 -4.5389965369863603 0 -4.5389965369863603 19.809807208682969 0 0 0 0 -14.277717338361072 -7.0273899758475125 0 -7.0273899758475125 29.447409937651173 0 0 0 0 24.755339075287068 -6.3995514781209089 0 -6.3995514781209089 0.86168308384999825 0 0 0 0 49.9492048596112 -5.0455375084452498 0 -5.0455375084452498 -1.6021744916315583 0 0 0 0 35.254444055533895 3.8953678566967938 0 3.8953678566967938 6.0329911321432519 0 0 0 0 57.314757538320919 11.821919791562095 0 11.821919791562095 7.8588445254872568 0 0 0 0 9.391142405769898 -5.8567079136093056 0 -5.8567079136093056 6.4365137224526414 0 0 0 0 25.954709101268236 1.3264339867246235 0 1.3264339867246235 19.283129051679225 0 0 0 0 43.371236798877362 16.532391107166177 0 16.532391107166177 8.3754315158330428 0 0 0 0 47.585859769853414 -34.437262024246138 0 -34.437262024246138 -119.03380118319512 0 0 0 0 -56.509796785660001 -47.019141982267001 0 -47.019141982267001 -28.399841187456332 0 0 0 0 33.515404213048896 4.9477483666601074 0 4.9477483666601074 12.871857696486586 0 0 0 0 64.465544762508216 6.4187165475518668 0 6.4187165475518668 -5.0107150960534454 0 0 0 0 9.8036132213067813 7.1483710411472501 0 7.1483710411472501 5.5136856554099687 0 0 0 0 53.153787219300284 -54.978503392626862 0 -54.978503392626862 -44.335165391988994 0 0 0 0 43.297051159263347 -4.7602589895491754 0 -4.7602589895491754 -6.2340138931161384 0 0 0 0 58.585003461577799 15.228826971442686 0 15.228826971442686 2.5518618233563757 0 0 0 0 57.00561992503026 13.212880760131611 0 13.212880760131611 0.049752419838114292 0 0 0 0 47.894839089611196 9.9979770628854112 0 9.9979770628854112 3.4221382865109717 0 0 0 0 0.7834498554061563 6.294133362695014 0 6.294133362695014 6.1591155343307058 0 0 0 0 52.819386449018566 17.601951852721413 0 17.601951852721413 3.5458083873309079 0 0 0 0 14.715976510054018 4.317718278334695 0 4.317718278334695 2.7774379706386387 0 0 0 0 15.069310097976995 9.9399880463024601 0 9.9399880463024601 16.154301187732699 0 0 0 0 62.368081215838174 26.153883101235806 0 26.153883101235806 10.998379583427777 0 0 0 0 63.673896771706723 16.206963814648702 0 16.206963814648702 -3.5645338653375802 0 0 0 0 39.060764952608224 2.281684277830891 0 2.281684277830891 7.0271979945194118 0 0 0 0 35.960273450973546 9.7896635918441461 0 9.7896635918441461 -9.0687096525944071 0 0 0 0 4.8215882916475152 -3.9982737464105824 0 -3.9982737464105824 2.20047358021462 0 0 0 0 47.234408809399611 7.9913095902259101 0 7.9913095902259101 2.2987311501897238 0 0 0 0 37.585007567087274 -2.6115014565442713 0 -2.6115014565442713 -8.9639646702097231 0 0 0 0 34.584729562862776 2.0376895175304526 0 2.0376895175304526 3.71858829234327 0 0 0 0 39.527165225848194 15.886324274708898 0 15.886324274708898 8.0303583837721817 0 0 0 0 68.482669221261858 -3.038033155076846 0 -3.038033155076846 -23.427808265867498 0 0 0 0 40.769442214769924 7.0843477791198666 0 7.0843477791198666 0.63278449265453673 0 0 0 0 63.402767115250754 15.708549299102742 0 15.708549299102742 -0.52148715138582702 0 0 0 0 84.24202922687391 -14.966473260876455 0 -14.966473260876455 -4.0372939328190114 0 0 0 0 80.15412546022344 33.630987999498757 0 33.630987999498757 18.45091805816628 0 0 0 0 75.769438513882051 29.672525912176752 0 29.672525912176752 65.405231780430768 0 0 0 0 75.367422966362938 19.532674601903636 0 19.532674601903636 14.731426516119427 0 0 0 0 166.68594770853451 24.236487340089298 0 24.236487340089298 44.934251449185467 0 0 0 0 44.991689584035157 27.055577498608272 0 27.055577498608272 53.367288882460343 0 0 0 0 27.933583901643942 3.4514785691335419 0 3.4514785691335419 21.990910343860151 0 0 0 0 31.800697439719443 11.6641434066687 0 11.6641434066687 8.9169851132246549 0 0 0 0 40.389439284725995 24.184601164783544 0 24.184601164783544 26.653951029191376 0 0 0 0 1.3224859090320109 -0.51946664546700561 0 -0.51946664546700561 0.18574278412440304 0 0 0 0 2.9713616334702238 -5.8398207006912344 0 -5.8398207006912344 44.444542095790894 0 0 0 0 66.375124638751004 53.227426142236709 0 53.227426142236709 45.960046313502971 0 0 0 0 112.33828910742341 36.259677409322194 0 36.259677409322194 4.1947858529038058 0 0 0 0 61.232439479069399 2.0755133281368217 0 2.0755133281368217 -4.0108330496796043 0 0 0 0 8.6806446892082239 -14.886514408906571 0 -14.886514408906571 -13.700896903813128 0 0 0 0 0.5678173125082111 -0.061962111721726387 0 -0.061962111721726387 -0.17300350998554492 0 0 0 0 -13.904662845401617 -8.7053639590803868 0 -8.7053639590803868 -3.2795371752054052 0 0 0 0 12.633057173683483 -0.089213896322689834 0 -0.089213896322689834 0.65849170885485364 0 0 0 0 -2.9929016095729111 -5.7629706948511163 0 -5.7629706948511163 -0.75039381098668922 0 0 0 0 5.7432219965731406 1.316747488582827 0 1.316747488582827 3.0957643139563586 0 0 0 0 36.486758251271965 2.9908439510371565 0 2.9908439510371565 -4.5184199466256008 0 0 0 0 7.6490703785334091 -25.397060239983141 0 -25.397060239983141 -2.2123877067715512 0 0 0 0 30.994905917823417 -40.822244404487037 0 -40.822244404487037 -86.175066735805558 0 0 0 0 203.85718762692704 -14.741010037858359 0 -14.741010037858359 -54.669590531775611 0 0 0 0 -1.158574401569588 -5.3726389295907211 0 -5.3726389295907211 0.38968604903319903 0 0 0 0 182.11632136333719 86.801371950983594 0 86.801371950983594 52.744493696384325 0 0 0 0 37.640801951667527 -92.269676615980188 0 -92.269676615980188 27.124567497381008 0 0 0 0 79.266938348006079 -15.667943414810452 0 -15.667943414810452 -31.450877779413531 0 0 0 0 -8.1786987363084336 4.7707124670905614 0 4.7707124670905614 86.804370002577798 0 0 0 0 48.143819049482317 105.45721912750696 0 105.45721912750696 -110.53799651371173 0 0 0 0 106.48584993206259 -75.597655181340087 0 -75.597655181340087 -8.4820194539333897 0 0 0 0 -9.4328702179682296 79.370998850928117 0 79.370998850928117 78.492735372300558 0 0 0 0 46.091210843616864 -38.821985236985711 0 -38.821985236985711 121.02488577767508 0 0 0 0 5.5104890693795934 0.71942411351037627 0 0.71942411351037627 0.54877526051518544 0 0 0 0 183.27188999083157 98.488150722821132 0 98.488150722821132 73.274173424761102 0 0 0 0 -1.69643169010169 -55.381166377702584 0 -55.381166377702584 11.858637790486682 0 0 0 0 116.18016191152765 86.028717997208332 0 86.028717997208332 -192.43977465999978 0 0 0 0 48.235727927371954 -8.5540373728381383 0 -8.5540373728381383 -82.283722150027643 0 0 0 0 42.709190354514355 5.7001261522808022 0 5.7001261522808022 -0.042913327405658563 0 0 0 0 27.279442591402585 5.8828347635512728 0 5.8828347635512728 15.764034735970199 0 0 0 0 24.06416222028156 -23.261173485639461 0 -23.261173485639461 -9.1067537520848418 0 0 0 0 57.293955284765616 -15.91628488896913 0 -15.91628488896913 17.13303892330714 0 0 0 0 17.326717253132301 0.75105961095550811 0 0.75105961095550811 10.186384812885535 0 0 0 0 44.867943726036174 3.6912135757102078 0 3.6912135757102078 103.13147242774357 0 0 0 0 94.18659691015273 61.489300056691718 0 61.489300056691718 130.40996344524683 0 0 0 0 108.37528947443116 23.312901545775276 0 23.312901545775276 -156.52966325632133 0 0 0 0 40.042387608142903 5.5350452030669839 0 5.5350452030669839 -0.25430947041950702 0 0 0 0 34.442357778257247 -4.8267513258228973 0 -4.8267513258228973 -55.144457804755802 0 0 0 0 32.223089337259985 3.991832281877091 0 3.991832281877091 -0.17683930193102881 0 0 0 0 -83.548629485549611 100.85726795800883 0 100.85726795800883 -60.326568127606151 0 0 0 0 -50.077784108899692 -13.584516197890935 0 -13.584516197890935 -17.290047832229902 0 0 0 0 -47.602767666482848 -32.553806968797375 0 -32.553806968797375 -21.84175676333416 0 0 0 0 10.621450278334954 0.59058634663951359 0 0.59058634663951359 -0.42734987659583856 0 0 0 0 230.98728482472688 -20.327631185893097 0 -20.327631185893097 -128.20001996066685 0 0 0 0 117.0607022903182 -157.72276893840808 0 -157.72276893840808 98.557859691471094 0 0 0 0 468.7588567118537 -166.57803809472489 0 -166.57803809472489 -82.031113754232138 0 0 0 0 -208.15702371984435 55.738639054669875 0 55.738639054669875 292.44492328775232 0 0 0 0 225.54064217081248 145.73287616354196 0 145.73287616354196 66.836972394995428 0 0 0 0 -60.204983327391346 33.719337700049437 0 33.719337700049437 64.05365947497603 0 0 0 0 4.4171046640131397 -0.28065712040545243 0 -0.28065712040545243 0.051531687203414833 0 0 0 0 17.068674009520237 -8.3474106953597129 0 -8.3474106953597129 30.117979862155153 0 0 0 0 38.280975665863934 -1.8719955137717079 0 -1.8719955137717079 17.783618044610193 0 0 0 0 13.906195805539664 -0.1450331737127275 0 -0.1450331737127275 -2.5663812293025625 0 0 0 0 152.88103277427535 -0.30643282717176135 0 -0.30643282717176135 -65.379979334928066 0 0 0 0 70.153833555855272 91.762619051471802 0 91.762619051471802 19.366247726143683 0 0 0 0 -50.698095995320728 29.953014664431976 0 29.953014664431976 25.304725859327846 0 0 0 0 4.1393420978817481 1.2310106126439839 0 1.2310106126439839 -0.2894840225377775 0 0 0 0 36.967234034365902 -71.836500470348028 0 -71.836500470348028 44.729444848556795 0 0 0 0 51.210339891808871 -18.007126841737318 0 -18.007126841737318 -18.730020104475443 0 0 0 0 78.375832964455185 -22.473356425906786 0 -22.473356425906786 -80.224749388330224 0 0 0 0 -86.20865342700381 84.828631672708298 0 84.828631672708298 178.12708750778802 0 0 0 0 380.72723262370073 -53.857546297742147 0 -53.857546297742147 -523.10640168713962 0 0 0 0 84.993383340926812 -198.84351081770637 0 -198.84351081770637 -52.115816547388931 0 0 0 0 117.81945689558233 32.086074159775762 0 32.086074159775762 -6.7413148697519318 0 0 0 0 5.0061159767326089 9.4490467425372842 0 9.4490467425372842 -4.1426944670288943 0 0 0 0 34.638645063378135 2.4362542216684915 0 2.4362542216684915 -4.2653892781736431 0 0 0 0 15.326758678376841 13.424631338374056 0 13.424631338374056 -1.8843498076059539 0 0 0 0 70.962763337218348 3.4771018369419835 0 3.4771018369419835 -22.84891579914256 0 0 0 0 26.867307503663874 10.430084425671549 0 10.430084425671549 -3.8036066510039963 0 0 0 0 64.10051485357144 -5.7633846099740822 0 -5.7633846099740822 8.0092973709861326 0 0 0 0 80.921363755853235 -9.2580451525905119 0 -9.2580451525905119 5.2272299924852632 0 0 0 0 60.570031970521086 -19.054923215536064 0 -19.054923215536064 -19.025203678512582 0 0 0 0 38.881503348957267 -1.0937958583319869 0 -1.0937958583319869 15.982455085124457 0 0 0 0 11.908810069606261 -21.891929708136104 0 -21.891929708136104 0.7885586604488708 0 0 0 0 23.443331691777075 -2.3520978554516887 0 -2.3520978554516887 14.163998359338393 0 0 0 0 35.799312919811541 13.70350705276519 0 13.70350705276519 -18.841927246452997 0 0 0 0 -5.0308120516301642 -7.3041216094202355 0 -7.3041216094202355 -21.030670742929487 0 0 0 0 -20.043375111382375 -10.655914937970465 0 -10.655914937970465 -19.451428342421423 0 0 0 0 41.913437045046521 -4.4265507936879658 0 -4.4265507936879658 -84.722836241768164 0 0 0 0 54.952957021424481 -18.535804893114573 0 -18.535804893114573 -26.264420846476241 0 0 0 0 62.566076293264132 14.401223621596024 0 14.401223621596024 -0.1031668673955437 0 0 0 0 11.025602606889152 -11.357112168468575 0 -11.357112168468575 -11.135274026071784 0 0 0 0 48.703484556637704 71.690774277665156 0 71.690774277665156 39.848149352087219 0 0 0 0 20.802885941322842 -2.3063505246929648 0 -2.3063505246929648 -0.43376758956300931 0 0 0 0 22.962867978181748 -53.1827341486661 0 -53.1827341486661 14.864914112161983 0 0 0 0 2.7586155187902079 -0.94016816097461842 0 -0.94016816097461842 0.20248330285383065 0 0 0 0 49.525012111809701 131.27162535840733 0 131.27162535840733 189.22951408200106 0 0 0 0 15.511888900780903 1.5715956690653243 0 1.5715956690653243 -1.7519057445226918 0 0 0 0 19.95426995220987 -3.7841596664723056 0 -3.7841596664723056 -14.354026528668896 0 0 0 0 41.395958090681233 5.6173720149930091 0 5.6173720149930091 -107.97055567194627 0 0 0 0 18.272383070534829 -1.7377294117066118 0 -1.7377294117066118 -0.59423021900540185 0 0 0 0 13.380352077877433 6.0640545188426813 0 6.0640545188426813 -4.5718835892910192 0 0 0 0 26.432343927459442 7.3321802529740125 0 7.3321802529740125 -5.1008596581309575 0 0 0 0 25.180716138809657 7.2815260547970411 0 7.2815260547970411 -2.9432618201387299 0 0 0 0 25.591689077565874 2.4429406494542967 0 2.4429406494542967 -0.097732775139214634 0 0 0 0 25.573687609707122 7.1419714133237449 0 7.1419714133237449 -7.3290478636534999 0 0 0 0 17.241787097841637 2.6228093630493805 0 2.6228093630493805 -2.6438990141791665 0 0 0 0 15.463091651301511 11.817906489313827 0 11.817906489313827 -1.6877498488081528 0 0 0 0 16.696780438342103 5.7652243101097156 0 5.7652243101097156 -6.9433516086494365 0 0 0 0 19.655962646753323 11.540971038683438 0 11.540971038683438 -11.046442462970845 0 0 0 0 19.66701813562031 4.746329744281411 0 4.746329744281411 -18.859052804419207 0 0 0 0 4.9754456020330622 4.7646217106402888 0 4.7646217106402888 -3.1848687326813838 0 0 0 0 27.702981388079934 15.055008110717608 0 15.055008110717608 -5.2887319890601248 0 0 0 0 11.343141197732225 3.7651136373637293 0 3.7651136373637293 -3.8397308296048465 0 0 0 0 13.383835841270542 10.191446608516332 0 10.191446608516332 -6.6847611423392923 0 0 0 0 44.234718593426351 -18.94134753230378 0 -18.94134753230378 -2.6927411706228668 0 0 0 0 13.44517152030312 24.427722908282249 0 24.427722908282249 4.7945688286276891 0 0 0 0 60.527889402292203 8.1194125423437526 0 8.1194125423437526 -19.564132807986425 0 0 0 0 114.04907845309572 33.428361501252766 0 33.428361501252766 -22.417271394594536 0 0 0 0 82.04008472944588 23.348144317015567 0 23.348144317015567 -24.213973590795831 0 0 0 0 93.822734146306175 19.634383675352638 0 19.634383675352638 -25.939965092405146 0 0 0 0 41.2285333409327 40.962903180876197 0 40.962903180876197 23.210062827990441 0 0 0 0 0.97412255791094537 0.49289429184952471 0 0.49289429184952471 -0.35673327383045272 0 0 0 0 102.13611187408242 96.376577878466833 0 96.376577878466833 58.670497139585905 0 0 0 0 98.624544571557635 70.56343874218237 0 70.56343874218237 36.895788071970856 0 0 0 0 139.6190862868616 45.208879400051387 0 45.208879400051387 -38.162942031166494 0 0 0 0 93.909780239118845 14.342156839602922 0 14.342156839602922 -29.899320715666249 0 0 0 0 89.39581440254824 7.1454806326308358 0 7.1454806326308358 -31.422139361910013 0 0 0 0 96.320334273359549 13.260381526611127 0 13.260381526611127 -32.012351161985862 0 0 0 0 59.134125728598519 9.3540859103477487 0 9.3540859103477487 -18.730980764711603 0 0 0 0 254.18722221860298 261.8930568927176 0 261.8930568927176 -103.92290654651333 0 0 0 0 97.060185094189364 31.52285443564142 0 31.52285443564142 -8.0541415545167183 0 0 0 0 85.921921128781833 21.526359344819866 0 21.526359344819866 -24.222140037163626 0 0 0 0 82.408111105694388 9.1979897863096767 0 9.1979897863096767 -20.484032641350495 0 0 0 0 97.470050320036535 16.802802976162639 0 16.802802976162639 -9.2904416503679386 0 0 0 0 105.09904198347067 8.8429115077879032 0 8.8429115077879032 -16.128877322013068 0 0 0 0 63.773993350703677 20.771129265098352 0 20.771129265098352 -0.063590195000870153 0 0 0 0 77.863024047668659 4.454164264780502 0 4.454164264780502 11.003591630727897 0 0 0 0 25.590547606787368 35.768658354157196 0 35.768658354157196 -49.32051930785201 0 0 0 0 44.030253437315679 21.080125979054454 0 21.080125979054454 -5.1308434720625922 0 0 0 0 81.774161307567141 -1.8834983840668036 0 -1.8834983840668036 -20.91392776813105 0 0 0 0 29.426670710042782 36.667068209844608 0 36.667068209844608 2.6620736905816385 0 0 0 0 5.1907582197637652 18.693235558287661 0 18.693235558287661 0.40392217332457214 0 0 0 0 95.403443836181395 -22.602180959333054 0 -22.602180959333054 33.987625684258091 0 0 0 0 102.51660608385282 276.54343550468548 0 276.54343550468548 -5.6372423112552497 0 0 0 0 71.239412832677885 14.691779736359958 0 14.691779736359958 -5.5237309741308867 0 0 0 0 141.43791382653581 27.963024689188387 0 27.963024689188387 -14.626207587640238 0 0 0 0 104.26063606856042 20.056161417953263 0 20.056161417953263 126.56199153792113 0 0 0 0 261.7140078065986 82.156492553165663 0 82.156492553165663 -206.55035089153807 0 0 0 0 18.127781028095086 7.040315402868714 0 7.040315402868714 -5.2958148877571354 0 0 0 0 -0.54352895637566689 -106.2413944562586 0 -106.2413944562586 373.99703770311135 0 0 0 0 136.01817197504715 -10.606123609082715 0 -10.606123609082715 -2.4102013202827948 0 0 0 0 32.254199149174383 -0.036205463473379496 0 -0.036205463473379496 2.1895755941884545 0 0 0 0 66.246448536441676 19.911458682140619 0 19.911458682140619 -6.9727666488543036 0 0 0 0 26.097553524966827 10.0320768200719 0 10.0320768200719 -3.3846150404676898 0 0 0 0 54.226598790952039 -2.3250111957217996 0 -2.3250111957217996 -18.837119166548291 0 0 0 0 69.280300761778562 63.63761046729087 0 63.63761046729087 -53.943398742911086 0 0 0 0 44.667878896089789 12.156911150363999 0 12.156911150363999 -3.858859137244067 0 0 0 0 40.565083765608421 8.3694738174076289 0 8.3694738174076289 0.27547026574972477 0 0 0 0 14.605032845244295 16.305111191966262 0 16.305111191966262 -19.223203648528397 0 0 0 0 39.892222810422119 4.7163279770458093 0 4.7163279770458093 -1.6397319124055976 0 0 0 0 -41.337118074827231 19.131339830522393 0 19.131339830522393 75.085103842151511 0 0 0 0 28.252115008543115 28.376648298189366 0 28.376648298189366 53.631231965031475 0 0 0 0 134.60020840801099 44.498839055836584 0 44.498839055836584 -128.34024749727814 0 0 0 0 59.400164250066155 38.206930337038557 0 38.206930337038557 -43.758752782324677 0 0 0 0 36.384709838115668 44.761806860560682 0 44.761806860560682 -15.500023810574021 0 0 0 0 43.146270136920066 15.718231762310324 0 15.718231762310324 22.800062932340552 0 0 0 0 50.124704788762756 6.6556892824987699 0 6.6556892824987699 -2.2899380869407082 0 0 0 0 111.07540511888328 -15.401011760018037 0 -15.401011760018037 -2.6971124544688792 0 0 0 0 61.575569444506982 -21.027506417214681 0 -21.027506417214681 42.364790486567472 0 0 0 0 189.08434598298402 89.269566006318939 0 89.269566006318939 -23.321511549314437 0 0 0 0 89.307376155377881 18.898493477532359 0 18.898493477532359 -1.0887912996735207 0 0 0 0 14.389668853834355 6.6145079123646546 0 6.6145079123646546 0.60444181701932354 0 0 0 0 109.8391926493623 57.519029127380179 0 57.519029127380179 4.4382774579619877 0 0 0 0 168.14439930251865 -6.8286330950247134 0 -6.8286330950247134 -61.397562324434972 0 0 0 0 61.671410788696903 -30.576442450727995 0 -30.576442450727995 -22.960414429996831 0 0 0 0 79.709580395361627 20.979609091706152 0 20.979609091706152 -13.845769430864266 0 0 0 0 51.297168591987905 12.135034696563361 0 12.135034696563361 -12.737971256866807 0 0 0 0 43.426857116774272 22.010762552900552 0 22.010762552900552 -5.2036097315509142 0 0 0 0 66.51042844685071 23.076447198251572 0 23.076447198251572 -12.969154284332944 0 0 0 0 82.04957718858941 37.169060002318474 0 37.169060002318474 -10.585084327664845 0 0 0 0 31.53442743698373 -12.987397856431066 0 -12.987397856431066 -19.971637431977648 0 0 0 0 106.72374403774666 6.366132532056838 0 6.366132532056838 -67.097826673684878 0 0 0 0 43.98389338349125 14.931470112729698 0 14.931470112729698 -13.97153786708077 0 0 0 0 93.387313950833004 -11.81635898206067 0 -11.81635898206067 -16.406622453134844 0 0 0 0 111.07110101003309 52.22524304322377 0 52.22524304322377 27.899757898899566 0 0 0 0 40.697037440244152 36.483010992267026 0 36.483010992267026 -2.670910244257013 0 0 0 0 109.22637517967451 86.965269325120005 0 86.965269325120005 -43.462201471744834 0 0 0 0 75.661684632980723 0.6985175136103976 0 0.6985175136103976 -5.5467593131538706 0 0 0 0 90.595242245639383 3.8949295769755281 0 3.8949295769755281 -11.797991281651662 0 0 0 0 45.052168996453929 6.9669628753084094 0 6.9669628753084094 -5.8833170598799143 0 0 0 0 51.814122786459848 -25.495640117262781 0 -25.495640117262781 -17.496266316425089 0 0 0 0 52.39006977461122 0.20565511967754446 0 0.20565511967754446 -6.4545247603361418 0 0 0 0 44.578742801966001 2.405546127290441 0 2.405546127290441 -0.79008992173257397 0 0 0 0 72.290495885803466 19.711564526371532 0 19.711564526371532 -7.3401127498860177 0 0 0 0 4.2653966026382122 1.784178814429259 0 1.784178814429259 0.051863374480032309 0 0 0 0 86.028751728466204 25.372639136371987 0 25.372639136371987 -11.436085375042687 0 0 0 0 6.6418830015591084 -23.732204193229329 0 -23.732204193229329 -16.520852346789109 0 0 0 0 26.334443645108422 15.061627300828683 0 15.061627300828683 -8.8360804880792898 0 0 0 0 33.218283025866185 4.4446691041705151 0 4.4446691041705151 -10.59677243531678 0 0 0 0 -0.73263782467204352 0.50744993719279918 0 0.50744993719279918 -0.073701419480562969 0 0 0 0 118.61558632595006 -24.952175478360402 0 -24.952175478360402 -7.1404505129139864 0 0 0 0 59.934302553539055 -0.3032191178530752 0 -0.3032191178530752 -18.006394408854248 0 0 0 0 90.16739747554675 6.4237623931314829 0 6.4237623931314829 -20.654405485272974 0 0 0 0 69.820475868251378 -3.8114791592357165 0 -3.8114791592357165 -24.550865938605057 0 0 0 0 56.470971830418421 16.690605940795876 0 16.690605940795876 -17.559620838438718 0 0 0 0 275.64888948111911 -70.984859141730567 0 -70.984859141730567 -3.9847493065394701 0 0 0 0 -24.7753955743392 -24.973007443014808 0 -24.973007443014808 59.426140691209298 0 0 0 0 312.24642654302352 -201.80119790690026 0 -201.80119790690026 150.76217604080603 0 0 0 0 178.76083635955365 -73.322367726002383 0 -73.322367726002383 -81.903154196266598 0 0 0 0 40.244391793430623 24.779136528841036 0 24.779136528841036 -39.145731117146397 0 0 0 0 34.449221037138656 -1.8945350941041188 0 -1.8945350941041188 -0.99259737592588959 0 0 0 0 -120.63551913675474 0.21916946542253868 0 0.21916946542253868 134.36248763823914 0 0 0 0 -92.528261394014407 -43.934629184760077 0 -43.934629184760077 145.46957498296871 0 0 0 0 26.324120730075265 31.779228783871531 0 31.779228783871531 -26.455176254968137 0 0 0 0 5.9593553198135396 23.623006484071311 0 23.623006484071311 -13.069560401239869 0 0 0 0 49.242922388810257 17.25669157480948 0 17.25669157480948 -23.357158358216168 0 0 0 0 -9.971626989026845 -7.8637071234541054 0 -7.8637071234541054 8.637638054669992 0 0 0 0 3.5457487374592986 -3.1974785325090633 0 -3.1974785325090633 -0.29394488516097061 0 0 0 0 48.237023234219841 -9.0296666181863667 0 -9.0296666181863667 -4.8296150764537273 0 0 0 0 18.018042866800243 1.0386743625889849 0 1.0386743625889849 -5.4199006068729751 0 0 0 0 40.522784811709471 11.055432556153733 0 11.055432556153733 -32.14878407818685 0 0 0 0 52.82141237515043 4.1480957941250267 0 4.1480957941250267 3.2195937198061984 0 0 0 0 48.110307977172397 -5.5200346244270122 0 -5.5200346244270122 -8.2751504053105975 0 0 0 0 53.423188374678602 4.1515795016984498 0 4.1515795016984498 -3.7832090682443322 0 0 0 0 30.508796270703897 5.2789689264247901 0 5.2789689264247901 -3.7767266613029618 0 0 0 0 25.811505870503424 -3.4253119852229528 0 -3.4253119852229528 -2.4885896394156433 0 0 0 0 27.307517097834761 28.852691552358692 0 28.852691552358692 -12.052487672300458 0 0 0 0 20.567357555307581 21.440965052481147 0 21.440965052481147 16.804324892755631 0 0 0 0 35.645037726565988 9.752579415468972 0 9.752579415468972 -9.3714236155745994 0 0 0 0 13.348870591688014 -2.8842091830173713 0 -2.8842091830173713 -2.160600662491353 0 0 0 0 24.404000510606934 10.942757818738485 0 10.942757818738485 41.674267734186287 0 0 0 0 25.823138068827916 20.021076235019223 0 20.021076235019223 16.807044358022608 0 0 0 0 36.22254692354727 -8.5903520280323846 0 -8.5903520280323846 -16.92763083509044 0 0 0 0 27.509110258026684 -2.137852167114084 0 -2.137852167114084 -2.9081833805781501 0 0 0 0 38.962536633369382 -4.9106830905116112 0 -4.9106830905116112 -12.259447731557884 0 0 0 0 23.583074844871589 -11.712877899660384 0 -11.712877899660384 -22.718387007788579 0 0 0 0 32.281299559728104 -5.5206566025438875 0 -5.5206566025438875 -6.6272266095143886 0 0 0 0 25.754634164550225 -6.2635851670313514 0 -6.2635851670313514 -9.9410262525993858 0 0 0 0 74.907934033151832 49.93693478913292 0 49.93693478913292 60.916602960903901 0 0 0 0 42.369082703644381 -33.55130157900976 0 -33.55130157900976 -21.726322850783163 0 0 0 0 21.588054331740693 -3.0946744264897177 0 -3.0946744264897177 -8.142215368534929 0 0 0 0 127.67415217408416 153.08974190815206 0 153.08974190815206 125.49132650980869 0 0 0 0 232.77027903382077 52.932293667852718 0 52.932293667852718 -167.42135634300195 0 0 0 0 229.47294757745112 60.894514821427492 0 60.894514821427492 -24.863723337874774 0 0 0 0 236.82402481948156 264.2466178239365 0 264.2466178239365 -69.322146350505136 0 0 0 0 43.397513964076097 -98.842124823130121 0 -98.842124823130121 22.644341814093423 0 0 0 0 3.6354454686079123 -3.8825587312989289 0 -3.8825587312989289 -3.4080202974314893 0 0 0 0 54.310247019571761 1.0536505123221502 0 1.0536505123221502 -7.0860015692263616 0 0 0 0 47.815327167226897 -4.296239912868522 0 -4.296239912868522 -11.864791303609124 0 0 0 0 79.956418703390227 -19.315434005611905 0 -19.315434005611905 -11.478435752845598 0 0 0 0 3.2585109251807118 -7.7518374696426422 0 -7.7518374696426422 -1.595712588671681 0 0 0 0 67.425749980287947 -34.661728226753439 0 -34.661728226753439 18.322840984315917 0 0 0 0 63.759456853260417 -20.672267814181396 0 -20.672267814181396 -11.364249391288467 0 0 0 0 50.646049049153589 -17.38962468600073 0 -17.38962468600073 -11.731240598032002 0 0 0 0 67.39248008587856 -13.893123203136611 0 -13.893123203136611 -41.531970327239492 0 0 0 0 -0.20698715529247025 0.88430492324945886 0 0.88430492324945886 0.26391566313822323 0 0 0 0 36.924398438073695 13.33109317401852 0 13.33109317401852 -19.63266079360713 0 0 0 0 36.142038817835157 -0.7660156502873523 0 -0.7660156502873523 -2.0296442311942515 0 0 0 0 35.328375247694225 -19.688196438897876 0 -19.688196438897876 -32.647542039792171 0 0 0 0 44.216870210650541 -36.204034061041568 0 -36.204034061041568 -14.131939740015696 0 0 0 0 51.09129182353081 27.162042155551376 0 27.162042155551376 -43.242420374832363 0 0 0 0 63.711494650173904 30.585218416542716 0 30.585218416542716 -57.798325058101909 0 0 0 0 32.725406129995179 -16.379652640797218 0 -16.379652640797218 -18.258408552793298 0 0 0 0 21.903121055338488 -1.6464737754879479 0 -1.6464737754879479 -18.959174361324585 0 0 0 0 53.106455046803603 -1.8108893737875746 0 -1.8108893737875746 -23.451243760325838 0 0 0 0 -42.189613945243764 68.778989303445428 0 68.778989303445428 0.051821907455860128 0 0 0 0 20.367650422755105 -60.672781295462926 0 -60.672781295462926 42.994466413274722 0 0 0 0 36.449914576295761 -0.8041188784241311 0 -0.8041188784241311 -0.75921985905938205 0 0 0 0 62.26815641226483 2.9461399701094706 0 2.9461399701094706 -90.439958401487274 0 0 0 0 40.946460607890913 38.428745164626321 0 38.428745164626321 -86.188212253648416 0 0 0 0 8.2532732903309878 0.25554828054652035 0 0.25554828054652035 -25.148876793869022 0 0 0 0 19.877804001299864 18.332977580259694 0 18.332977580259694 5.0352733853192149 0 0 0 0 41.320445557951643 30.141934947334676 0 30.141934947334676 7.844918524596892 0 0 0 0 40.558965446444063 13.976106675785786 0 13.976106675785786 3.4744274206232149 0 0 0 0 39.363897530902705 19.026041024538472 0 19.026041024538472 -23.659369941665972 0 0 0 0 38.035792528233429 19.07214251089016 0 19.07214251089016 0.85628055705683437 0 0 0 0 70.255178603574677 9.853962680523864 0 9.853962680523864 -53.737093139885502 0 0 0 0 60.523121153442219 38.116582795713953 0 38.116582795713953 25.092490379447554 0 0 0 0 51.352147640597167 23.268687794103869 0 23.268687794103869 22.201819336583867 0 0 0 0 106.46358982765616 54.053916455299714 0 54.053916455299714 37.615650930614038 0 0 0 0 19.021561127705127 18.126917168863201 0 18.126917168863201 65.578530414161833 0 0 0 0 28.72856454348198 32.61158015523381 0 32.61158015523381 78.041716918465909 0 0 0 0 77.751702148013266 56.073193904535117 0 56.073193904535117 85.26948730063927 0 0 0 0 -7.0592752670454502 -28.269003400070915 0 -28.269003400070915 30.183715829111321 0 0 0 0 5.9219232577909926 -4.5476476236120282 0 -4.5476476236120282 -1.081352596784888 0 0 0 0 32.362763119778279 -2.796531152782137 0 -2.796531152782137 -5.4718507057557577 0 0 0 0 239.2395309849835 27.595043478060461 0 27.595043478060461 25.307944375854049 0 0 0 0 127.66959212827601 37.766918834110811 0 37.766918834110811 25.117231227862135 0 0 0 0 387.66417443441901 -291.34597408439674 0 -291.34597408439674 -362.83149504796859 0 0 0 0 -251.08915955400136 35.363970144520806 0 35.363970144520806 792.20810936617113 0 0 0 0 199.56416301631589 -82.56114801821434 0 -82.56114801821434 11.600128024281503 0 0 0 0 251.12680488099778 -79.202838226360086 0 -79.202838226360086 10.690833844970484 0 0 0 0 49.049020747142947 -49.710087260611431 0 -49.710087260611431 10.153288721687431 0 0 0 0 115.73727586649764 -34.41389951381845 0 -34.41389951381845 -14.64973892785747 0 0 0 0 92.081998843452794 18.527502405733685 0 18.527502405733685 4.3060692802851008 0 0 0 0 98.507294018935909 12.928979291822998 0 12.928979291822998 6.9396297751543443 0 0 0 0 98.957157042936743 17.95650731324713 0 17.95650731324713 -12.496979961067382 0 0 0 0 57.552770563358813 9.1863546461723899 0 9.1863546461723899 -14.197357959718829 0 0 0 0 41.032307221088445 -26.303266347646996 0 -26.303266347646996 -10.759738573493451 0 0 0 0 -24.540640524153559 -21.550095801508633 0 -21.550095801508633 40.472587581025323 0 0 0 0 -5.6696322326436643 118.84482579102686 0 118.84482579102686 -84.75812120029002 0 0 0 0 38.584980086386899 0.56495135871039759 0 0.56495135871039759 -2.8593282469162267 0 0 0 0 43.543362767572177 3.6788460831255314 0 3.6788460831255314 -1.8847098996280107 0 0 0 0 8.8499095721434671 -8.5668309647327359 0 -8.5668309647327359 -4.7533515382461742 0 0 0 0 65.039927079813424 -9.7118567344158464 0 -9.7118567344158464 -30.268864133034867 0 0 0 0 70.342012112150996 0.41941454204382467 0 0.41941454204382467 -13.510559333230503 0 0 0 0 63.894073243863204 -24.797338187964897 0 -24.797338187964897 -3.8641504537399669 0 0 0 0 44.824731326441906 12.03967043194865 0 12.03967043194865 -31.502919707531603 0 0 0 0 12.183333934852499 13.188814755599839 0 13.188814755599839 1.430972105658725 0 0 0 0 37.543210273790969 1.2332045012449067 0 1.2332045012449067 -2.9149681826431619 0 0 0 0 20.278887134212248 -2.4340919109334074 0 -2.4340919109334074 -8.0566053907580457 0 0 0 0 56.479670028877251 -3.0521989793938928 0 -3.0521989793938928 -27.222079740534127 0 0 0 0 54.197178705263468 -3.6505821940299938 0 -3.6505821940299938 -11.836180731062882 0 0 0 0 41.797230669955752 -2.1073876491901729 0 -2.1073876491901729 -5.428847499272706 0 0 0 0 8.3336434597828841 -8.7193821140553709 0 -8.7193821140553709 -10.575337018543262 0 0 0 0 45.739700692076788 1.1126439679317901 0 1.1126439679317901 -3.4171495420028788 0 0 0 0 98.623375896138896 17.366712060325654 0 17.366712060325654 -11.029672238298645 0 0 0 0 93.949804721509281 11.977389884895615 0 11.977389884895615 -14.321861463941559 0 0 0 0 93.461270421079462 14.634635581618454 0 14.634635581618454 -6.686824019353935 0 0 0 0 -90.428931900378814 -156.85701057278547 0 -156.85701057278547 -78.009835152923415 0 0 0 0 4.4668387175989466 1.8702816908522557 0 1.8702816908522557 -1.4515275238063996 0 0 0 0 9.1797272177645937 -89.789543121617498 0 -89.789543121617498 -100.08976748261853 0 0 0 0 -62.238540129976172 -81.284021472227664 0 -81.284021472227664 -98.765671699400627 0 0 0 0 -85.718229303289263 -14.210296104592089 0 -14.210296104592089 -233.72243285856166 0 0 0 0 1.2530675590927132 -3.8650886237183091 0 -3.8650886237183091 -1.20346474173079 0 0 0 0 44.937375848705038 -2.2036921982774196 0 -2.2036921982774196 -4.7584832644003265 0 0 0 0 45.833074610440235 0.7643654322622595 0 0.7643654322622595 -17.064992849586133 0 0 0 0 7.3938225636011339 -35.016968673111933 0 -35.016968673111933 -22.975101682266427 0 0 0 0 32.069877887474576 -5.0778948303763798 0 -5.0778948303763798 -5.2177864245481373 0 0 0 0 64.055712756682624 -38.665054084497797 0 -38.665054084497797 -127.04859780347033 0 0 0 0 63.960242672213099 -40.527578064510521 0 -40.527578064510521 -163.0163058601438 0 0 0 0 90.32297841059335 -62.534683807204146 0 -62.534683807204146 -148.80021042443923 0 0 0 0 69.967149113379264 -72.462721030030025 0 -72.462721030030025 -152.74482393968356 0 0 0 0 70.061744538877974 -77.023300422526972 0 -77.023300422526972 -133.61010813335361 0 0 0 0 25.254724139813334 -63.410452185462418 0 -63.410452185462418 -122.92703024205025 0 0 0 0 17.055097267530527 -76.83364262962327 0 -76.83364262962327 -120.24524224414381 0 0 0 0 16.031235753151122 -97.490434307956093 0 -97.490434307956093 -102.85438255055396 0 0 0 0 16.702826205568272 -104.29697921025763 0 -104.29697921025763 -78.60120217678832 0 0 0 0 59.641355738080165 -95.350124585385856 0 -95.350124585385856 -112.30428987063578 0 0 0 0 57.99973620671517 -91.922559111502324 0 -91.922559111502324 -99.835024040529788 0 0 0 0 93.139893974592269 -94.532555677509208 0 -94.532555677509208 -142.05690715483343 0 0 0 0 50.594669137841265 -103.95734729606306 0 -103.95734729606306 -45.218285226461376 0 0 0 0 94.737964732118144 -108.69638855746703 0 -108.69638855746703 -92.515743804280646 0 0 0 0 8.9336373098740296 -128.7118344343321 0 -128.7118344343321 -49.125098800060186 0 0 0 0 53.31491960844869 -100.83521824729587 0 -100.83521824729587 -79.962611653492331 0 0 0 0 35.265783905095304 -132.70658997250166 0 -132.70658997250166 23.728610906963695 0 0 0 0 106.21843462416291 -103.50767027776033 0 -103.50767027776033 -46.333238068224034 0 0 0 0 73.253296721910374 -119.37183330125653 0 -119.37183330125653 107.96373494726186 0 0 0 0 22.518462005296897 -61.7557565657537 0 -61.7557565657537 42.871289448026801 0 0 0 0 -0.35891606573386525 -100.34276155839831 0 -100.34276155839831 29.893240680851704 0 0 0 0 -60.507265764437761 -34.45348089452807 0 -34.45348089452807 109.54655611664521 0 0 0 0 -41.028261732011742 -65.34388323594203 0 -65.34388323594203 5.6433998970169341 0 0 0 0 -7.5090324307057017 -99.856203126486889 0 -99.856203126486889 -112.37624563330655 0 0 0 0 -37.56692154249231 -161.57307617146762 0 -161.57307617146762 -97.707918792965529 0 0 0 0 7.7108306323680154 -92.41644443011046 0 -92.41644443011046 -32.301818361635469 0 0 0 0 -13.119112115513417 -132.35538738020159 0 -132.35538738020159 -40.926700272990502 0 0 0 0 -43.636224206384213 -105.7177970374637 0 -105.7177970374637 -56.944433738111911 0 0 0 0 99.39400333208323 16.508599368231444 0 16.508599368231444 -46.992227786684452 0 0 0 0 -38.674562447180506 -63.126812083489767 0 -63.126812083489767 -70.56693968795571 0 0 0 0 -77.970272755184851 -70.755131131616054 0 -70.755131131616054 1.3246904364104921 0 0 0 0 -2.5029812359760584 -8.3807551672628691 0 -8.3807551672628691 -1.6537226801262452 0 0 0 0 -54.067762808543193 -51.904663937078283 0 -51.904663937078283 16.178020251925773 0 0 0 0 -13.362122199288933 -12.429475162242397 0 -12.429475162242397 34.80573900836896 0 0 0 0 41.728530279986444 -1.0728733357587146 0 -1.0728733357587146 -16.146085617270046 0 0 0 0 137.38553591805612 137.58920462236233 0 137.58920462236233 -95.720239952423071 0 0 0 0 204.40502229725098 105.31983718547622 0 105.31983718547622 -144.24109954668711 0 0 0 0 271.67336567445454 195.72804245795407 0 195.72804245795407 -73.007648678135411 0 0 0 0 149.88510426383255 37.511260522540397 0 37.511260522540397 -180.41247841784843 0 0 0 0 1.5359124715079808 -0.58299133074839915 0 -0.58299133074839915 -2.5935273844003834 0 0 0 0 -15.875366812077118 -68.315884606431155 0 -68.315884606431155 -78.490281099281674 0 0 0 0 0.32479371242880362 -0.62101237533992659 0 -0.62101237533992659 -4.6981545143866583 0 0 0 0 203.20743424384546 13.147981838705391 0 13.147981838705391 -25.833936081064167 0 0 0 0 149.32449192419517 78.140470188687686 0 78.140470188687686 51.175823085693537 0 0 0 0 13.261421435941884 -10.443802164041244 0 -10.443802164041244 -2.7073036042290823 0 0 0 0 145.25124837544377 23.190316604103884 0 23.190316604103884 -166.87170018878714 0 0 0 0 5.8955104104070415 -27.796886907804833 0 -27.796886907804833 5.4077792115522243 0 0 0 0 24.342831457747465 -7.2981387755262368 0 -7.2981387755262368 -3.2366905721226047 0 0 0 0 37.587185849475645 -2.9570737270114478 0 -2.9570737270114478 -9.9853947148875548 0 0 0 0 0.80775740609402646 -3.0245941604023585 0 -3.0245941604023585 0.26273279856945964 0 0 0 0 91.806337734036788 34.514601541086449 0 34.514601541086449 -305.09496073424339 0 0 0 0 37.211981420727582 0.28214972454158627 0 0.28214972454158627 -3.5685769822010496 0 0 0 0 38.135139301477466 -9.6239661309168696 0 -9.6239661309168696 -68.61543805349811 0 0 0 0 35.764630345085607 -6.7208270822970917 0 -6.7208270822970917 -10.843771270865773 0 0 0 0 64.101149134519801 130.01720942137445 0 130.01720942137445 -170.32628725752238 0 0 0 0 1.0782865911896806 -68.38974238957644 0 -68.38974238957644 -327.34306000725837 0 0 0 0 6.0767270880840414 1.2671819405998903 0 1.2671819405998903 -3.9955463686171697 0 0 0 0 21.947156144666224 -69.806708561532105 0 -69.806708561532105 -152.34305774286349 0 0 0 0 91.905764505616389 -69.366050174481643 0 -69.366050174481643 -236.09089228585106 0 0 0 0 52.839844924148565 31.118684029346412 0 31.118684029346412 -234.50288626066504 0 0 0 0 90.129561366517009 -99.673494468992885 0 -99.673494468992885 -107.47383392562642 0 0 0 0 121.89115115453023 -56.739352284976121 0 -56.739352284976121 -153.59132672182386 0 0 0 0 60.268206360011391 -17.259478934411732 0 -17.259478934411732 -208.12289102768045 0 0 0 0 120.58278058505675 -48.696997775276714 0 -48.696997775276714 -161.00707741082465 0 0 0 0 98.454821769406408 77.667650014543597 0 77.667650014543597 -105.07331914799761 0 0 0 0 181.60556852690934 25.204366728607056 0 25.204366728607056 -75.116453047960363 0 0 0 0 187.23499204100517 89.943459317679071 0 89.943459317679071 15.818415276924497 0 0 0 0 126.75310504608933 -117.58995137415377 0 -117.58995137415377 -51.287819987505145 0 0 0 0 95.665607652864196 -79.622301316106586 0 -79.622301316106586 -89.968797048714805 0 0 0 0 178.92745949429809 -15.771942171950968 0 -15.771942171950968 -70.035252736437315 0 0 0 0 65.2297330016263 -52.073209102223927 0 -52.073209102223927 -78.669739645363734 0 0 0 0 175.15992572722098 -48.596558540649085 0 -48.596558540649085 -19.38643309451254 0 0 0 0 93.231787777308455 -77.195857912800136 0 -77.195857912800136 9.7164050260807926 0 0 0 0 235.90985628334602 -136.7296617904758 0 -136.7296617904758 34.078486353919061 0 0 0 0 276.87056347094767 31.443533727513426 0 31.443533727513426 26.328292037096617 0 0 0 0 78.90417063383029 -85.656547486492528 0 -85.656547486492528 169.3396737288424 0 0 0 0 222.17113797061393 24.508752026647358 0 24.508752026647358 92.81137359050058 0 0 0 0 686.23152112714888 106.03786332307919 0 106.03786332307919 88.050667210584464 0 0 0 0 336.44477570314484 67.870235761489766 0 67.870235761489766 17.418924880384282 0 0 0 0 190.30242601995633 205.85206480170916 0 205.85206480170916 202.88868248160816 0 0 0 0 107.54986314345661 117.67099683727486 0 117.67099683727486 109.23214018783295 0 0 0 0 78.080403161522554 132.48540093126928 0 132.48540093126928 238.2642261435916 0 0 0 0 75.862037659742782 77.16756891618229 0 77.16756891618229 69.794885993563867 0 0 0 0 152.01667055495636 121.99249188560472 0 121.99249188560472 47.592083245037429 0 0 0 0 130.21482634716085 14.24479701127143 0 14.24479701127143 -158.45559757118062 0 0 0 0 207.94275836856104 71.448241302510951 0 71.448241302510951 22.447891211141382 0 0 0 0 68.83466818440138 184.24300502381516 0 184.24300502381516 -28.588221884077711 0 0 0 0 44.601133628519165 109.45655175646647 0 109.45655175646647 270.76897304364161 0 0 0 0 187.96194917942194 223.01474789764421 0 223.01474789764421 191.053265086316 0 0 0 0 -2.2406295873734052 -21.748196257441322 0 -21.748196257441322 -80.609279576074869 0 0 0 0 29.021692982018067 -41.334400368277826 0 -41.334400368277826 -125.71368815509567 0 0 0 0 13.544288730462299 -2.1288215873325225 0 -2.1288215873325225 0.23106383059993141 0 0 0 0 20.566420534278222 -16.502903808634699 0 -16.502903808634699 -81.975426420117174 0 0 0 0 9.5545737361680949 -25.107345303317999 0 -25.107345303317999 -49.808025583463404 0 0 0 0 20.363771133008413 -26.711148705973073 0 -26.711148705973073 -50.238999550501347 0 0 0 0 16.175044915584294 -19.207728885424444 0 -19.207728885424444 -46.070681577940604 0 0 0 0 70.119254780818665 -0.83312790030629458 0 -0.83312790030629458 -179.68974252069182 0 0 0 0 43.000983878187981 -4.8149626363606615 0 -4.8149626363606615 -96.450002528245136 0 0 0 0 16.795064197058082 -126.99917987312492 0 -126.99917987312492 66.292243314775646 0 0 0 0 5.0527145117633268 -0.35587242539076946 0 -0.35587242539076946 0.19665575761556342 0 0 0 0 287.87569197282573 354.56076095643868 0 354.56076095643868 461.85284636941083 0 0 0 0 284.69862737322364 -179.70208250123181 0 -179.70208250123181 276.29433101161067 0 0 0 0 251.75641412657569 157.76119236775457 0 157.76119236775457 324.06602571416056 0 0 0 0 117.76974388616509 -28.969163726841998 0 -28.969163726841998 151.77308592817357 0 0 0 0 402.04753733000325 -195.30599652055162 0 -195.30599652055162 -68.800678571879985 0 0 0 0 537.80527484672712 4.2293367298514681 0 4.2293367298514681 -44.316445015307409 0 0 0 0 334.92374994224974 -204.49478120042306 0 -204.49478120042306 46.448383991184187 0 0 0 0 176.29373476860928 -120.72377469890068 0 -120.72377469890068 31.747656655227019 0 0 0 0 241.4271948678761 -60.292998161658829 0 -60.292998161658829 -57.752315464037963 0 0 0 0 288.37375213035193 -9.8952629450920995 0 -9.8952629450920995 -43.981132842797933 0 0 0 0 131.53628563102757 -0.77459402295994551 0 -0.77459402295994551 -21.559796582362992 0 0 0 0 227.89163285829272 -30.489437561326554 0 -30.489437561326554 -37.234099538156443 0 0 0 0 135.17346437231026 -32.000300643650561 0 -32.000300643650561 -87.763166043162187 0 0 0 0 105.87087156427606 -79.787923195795486 0 -79.787923195795486 -43.871550792335483 0 0 0 0 2.0603069943371679 -0.80863797766294709 0 -0.80863797766294709 -1.3570238493619833 0 0 0 0 1.1482576329203766 -0.62496933437001445 0 -0.62496933437001445 -0.84974661513814898 0 0 0 0 45.050898587633128 -21.918165729825205 0 -21.918165729825205 -2.4110380253073345 0 0 0 0 44.518883262724557 -37.388266361975639 0 -37.388266361975639 2.8585044909241333 0 0 0 0 -59.719931595836897 -49.203076439975746 0 -49.203076439975746 17.228713646729375 0 0 0 0 -92.766174044931176 33.925477120072969 0 33.925477120072969 57.234369823134557 0 0 0 0 22.697777818182658 -23.63684660120839 0 -23.63684660120839 6.3546408726033405 0 0 0 0 -1.7691513023627472 -7.168050714971514 0 -7.168050714971514 6.5871173987346943 0 0 0 0 -63.790135962261161 -31.641740592521245 0 -31.641740592521245 47.226747815906492 0 0 0 0 -60.654727595489589 37.480811618216023 0 37.480811618216023 -5.4581042192261293 0 0 0 0 46.489073232314695 68.032963756851245 0 68.032963756851245 135.72586882814213 0 0 0 0 -2.9292406242748257 -86.151218072890856 0 -86.151218072890856 149.42613907084535 0 0 0 0 113.48950452122517 -61.043298317440303 0 -61.043298317440303 95.740634572935164 0 0 0 0 134.06413555521794 89.764642535840551 0 89.764642535840551 69.582359645508518 0 0 0 0 131.64432657786347 -29.239590049493131 0 -29.239590049493131 35.555504908161538 0 0 0 0 -32.873954980128474 129.83743839110684 0 129.83743839110684 -2.9662861142684847 0 0 0 0 28.622587628215115 87.90624492155041 0 87.90624492155041 1.1082060154295679 0 0 0 0 62.68723237015729 3.5403935347636093 0 3.5403935347636093 1.9776460034020147 0 0 0 0 -4.3373489122168394 18.944400332091163 0 18.944400332091163 -9.9722273780034811 0 0 0 0 132.9062710938224 3.5197063501093453 0 3.5197063501093453 -8.2440440078260053 0 0 0 0 5.8467616311667943 2.0816270641222303 0 2.0816270641222303 -1.8113845105086748 0 0 0 0 32.692538548089942 6.5733343861011804 0 6.5733343861011804 -4.5586433341532029 0 0 0 0 -52.752151625194529 27.096287930473181 0 27.096287930473181 5.7988145379895286 0 0 0 0 -39.59499151732598 23.735723076665181 0 23.735723076665181 -2.9147564106284563 0 0 0 0 -187.34274958653259 5.7291076021646177 0 5.7291076021646177 41.497401496119892 0 0 0 0 -0.38008296605704039 0.37518241816678 0 0.37518241816678 -0.60191233185703741 0 0 0 0 56.31584995830417 31.812737549677081 0 31.812737549677081 -12.586725565249935 0 0 0 0 -27.52554082979259 44.463392350898971 0 44.463392350898971 -14.617227703285153 0 0 0 0 3.9174619694538535 -7.2871574668593411 0 -7.2871574668593411 14.028643596728321 0 0 0 0 -6.2754675506839703 18.526754582503941 0 18.526754582503941 18.271377356028211 0 0 0 0 47.072813504341866 -18.085931182799641 0 -18.085931182799641 15.472842895866506 0 0 0 0 22.069974417084239 3.1511040157104517 0 3.1511040157104517 3.2087022421891747 0 0 0 0 24.681284542162757 10.914733446900186 0 10.914733446900186 -1.852503211259318 0 0 0 0 33.966392469591412 2.828780927512561 0 2.828780927512561 -7.4824983571614352 0 0 0 0 28.595609817177319 13.743232289878961 0 13.743232289878961 -13.94426401431474 0 0 0 0 46.952166991066406 -13.606323393233879 0 -13.606323393233879 10.474538108889647 0 0 0 0 38.512063354373822 5.3220016161517378 0 5.3220016161517378 -10.596912290181081 0 0 0 0 31.207023667273461 17.028751933977219 0 17.028751933977219 -28.254225823703507 0 0 0 0 22.302921227303159 13.852060522786815 0 13.852060522786815 -3.5796552911947401 0 0 0 0 27.350992152029903 6.8357719857359172 0 6.8357719857359172 -6.6583473741861781 0 0 0 0 27.734329203414745 4.2214569255308447 0 4.2214569255308447 -1.4185420852109019 0 0 0 0 5.3313166007974822 1.3089339767816739 0 1.3089339767816739 -3.5511236698881312 0 0 0 0 60.262248054479642 11.739410417857073 0 11.739410417857073 -16.34258512831957 0 0 0 0 20.450058208727569 11.514367618185929 0 11.514367618185929 -8.5155368691762305 0 0 0 0 37.54412953582505 8.0337118953223126 0 8.0337118953223126 -12.76605877243162 0 0 0 0 62.371641402907699 0.71426480986741581 0 0.71426480986741581 7.6458793375390997 0 0 0 0 10.419081924078881 -2.0616490765805224 0 -2.0616490765805224 0.21410611147710767 0 0 0 0 53.518403334848699 -4.5598239205799018 0 -4.5598239205799018 -5.6579666137972708 0 0 0 0 29.741611799494422 1.6502737695358292 0 1.6502737695358292 10.138494185760464 0 0 0 0 25.279363235938945 -2.2700707389219588 0 -2.2700707389219588 -18.083768587345645 0 0 0 0 26.769649351344924 0.37302691039383262 0 0.37302691039383262 -25.793412152076598 0 0 0 0 26.740797936123272 2.0699510405388537 0 2.0699510405388537 -18.201308797988787 0 0 0 0 27.738916897305899 4.2338848270744052 0 4.2338848270744052 -22.36348563201318 0 0 0 0 19.681375428432531 7.4066512011746326 0 7.4066512011746326 0.71865563731439508 0 0 0 0 28.122200433608668 3.9495529554187669 0 3.9495529554187669 -25.722921003119609 0 0 0 0 17.174945874125115 50.290808435644408 0 50.290808435644408 -24.731085408495858 0 0 0 0 16.568292614752863 49.978526481516383 0 49.978526481516383 -13.388385056809966 0 0 0 0 25.497311970797455 -2.3642390349266407 0 -2.3642390349266407 -21.938812329647817 0 0 0 0 23.904112871790858 11.173367338959281 0 11.173367338959281 -81.254039945767545 0 0 0 0 52.130672184015566 5.2591065193089435 0 5.2591065193089435 -82.461247532843117 0 0 0 0 57.692712624757405 23.215344111389413 0 23.215344111389413 -39.894614697457882 0 0 0 0 71.951304154034005 6.2445541581652151 0 6.2445541581652151 -139.90946461515409 0 0 0 0 1.8891366675488825 -56.213928122206426 0 -56.213928122206426 -91.700442728445068 0 0 0 0 -0.59617099730109402 0.31627633547772405 0 0.31627633547772405 -1.3131035829699744 0 0 0 0 29.878364922511537 38.460839960264934 0 38.460839960264934 -22.734832295850993 0 0 0 0 44.36945406821178 -105.2041007833559 0 -105.2041007833559 -18.575738118017625 0 0 0 0 48.937516003558358 57.162415871707069 0 57.162415871707069 -12.819478085763421 0 0 0 0 50.225712565788854 -53.483775709849397 0 -53.483775709849397 -122.93398155880715 0 0 0 0 50.032597737965261 31.071826878735124 0 31.071826878735124 -101.48835950517241 0 0 0 0 45.937300104160386 6.0222735080396887 0 6.0222735080396887 -29.796396600151951 0 0 0 0 62.653983219954171 4.6824022879383449 0 4.6824022879383449 -92.238729763071319 0 0 0 0 144.98033940267123 -114.20072593138548 0 -114.20072593138548 67.674821665780769 0 0 0 0 2.3327700629006358 -0.44547829631700964 0 -0.44547829631700964 -1.0998057005639148 0 0 0 0 89.807325711043632 -41.513149577550848 0 -41.513149577550848 -18.51539522953226 0 0 0 0 1.3778437435844921 -0.44569347422087802 0 -0.44569347422087802 -0.84028245047423411 0 0 0 0 94.621267022159373 -28.845104250279917 0 -28.845104250279917 -5.5697023176417133 0 0 0 0 29.049447703102487 18.945550657931335 0 18.945550657931335 -81.801885883566001 0 0 0 0 17.891844534764829 5.917605230107057 0 5.917605230107057 0.48384650355890546 0 0 0 0 115.80351933519705 0.62611057531000824 0 0.62611057531000824 -35.956942134188921 0 0 0 0 186.78984328744627 -194.75769745299908 0 -194.75769745299908 126.39488656888375 0 0 0 0 14.55747061764113 4.3319109750005218 0 4.3319109750005218 -0.20059045662961239 0 0 0 0 12.412649317810178 70.598114806397689 0 70.598114806397689 -137.90799566431269 0 0 0 0 13.322255436938576 21.8091777619411 0 21.8091777619411 -77.792542434581037 0 0 0 0 44.726866922171212 29.60504137450468 0 29.60504137450468 -84.032352154974888 0 0 0 0 31.075246191798215 -7.2573727502726797 0 -7.2573727502726797 -40.809231736420088 0 0 0 0 40.587316825763992 24.861733428346497 0 24.861733428346497 -97.24024730138126 0 0 0 0 22.564916065231955 14.750342455220789 0 14.750342455220789 -102.85568534815752 0 0 0 0 -39.661658540828284 122.0953512990543 0 122.0953512990543 -170.45166604604469 0 0 0 0 129.12459091389474 -76.725873774358888 0 -76.725873774358888 54.650918677226628 0 0 0 0 192.23153215558523 -220.65951788398297 0 -220.65951788398297 152.9129071225392 0 0 0 0 9.6659673298977253 2.7010680226132173 0 2.7010680226132173 -0.18244547775869435 0 0 0 0 68.420250644228872 47.314770073062476 0 47.314770073062476 39.756241001811077 0 0 0 0 444.57904469156711 -193.92090900066523 0 -193.92090900066523 88.577016365206703 0 0 0 0 547.70371165763208 -264.28770005543265 0 -264.28770005543265 195.23533866186403 0 0 0 0 1.3516012922864604 -0.24203201755539538 0 -0.24203201755539538 -0.45727738436171439 0 0 0 0 85.341719162352092 -15.421590496920544 0 -15.421590496920544 44.692329814359709 0 0 0 0 162.78027754373761 -116.21760374612279 0 -116.21760374612279 -0.61554482262749843 0 0 0 0 233.43853353927989 -86.403180416144778 0 -86.403180416144778 -95.403630842431198 0 0 0 0 1.2784447918689779 -0.43561575569833622 0 -0.43561575569833622 -0.82855192615799345 0 0 0 0 85.798747829823697 100.85723878285728 0 100.85723878285728 -188.80484617309963 0 0 0 0 36.735324309880525 -75.044080644236601 0 -75.044080644236601 -39.662857590664316 0 0 0 0 76.046259667742561 40.673075601426149 0 40.673075601426149 -26.127180075768706 0 0 0 0 258.25655210352215 55.961574334129054 0 55.961574334129054 -50.287387114476587 0 0 0 0 159.51000933374053 -0.60690025730684738 0 -0.60690025730684738 -10.02600987075175 0 0 0 0 244.32137350393896 75.203265029650652 0 75.203265029650652 57.734015952464233 0 0 0 0 219.83088997904997 -22.839835120147654 0 -22.839835120147654 89.827835155252956 0 0 0 0 379.62874146526519 59.280235981995702 0 59.280235981995702 113.62123752242064 0 0 0 0 153.87535755477802 48.705064865740269 0 48.705064865740269 100.73134055244691 0 0 0 0 130.78364768796018 -2.370269907655711 0 -2.370269907655711 -1.4254354191305083 0 0 0 0 52.642199282956426 35.099730486271483 0 35.099730486271483 -48.230718717462878 0 0 0 0 83.456296334399667 83.896531005431257 0 83.896531005431257 28.991381737721895 0 0 0 0 -229.26622196783319 141.95159967952759 0 141.95159967952759 -11.791360471105236 0 0 0 0 -79.111931727493356 71.170547598114467 0 71.170547598114467 -94.617847877676468 0 0 0 0 -91.705755162958667 38.755462167062319 0 38.755462167062319 8.3651641166223953 0 0 0 0 -13.908198068416823 126.5771561849283 0 126.5771561849283 -59.671711930301399 0 0 0 0 -221.69845154839095 197.13034511288259 0 197.13034511288259 -99.841688267742029 0 0 0 0 -131.90098477261563 141.1156622244107 0 141.1156622244107 -62.21567327127525 0 0 0 0 -37.593979081197176 112.67848795805287 0 112.67848795805287 -93.465607915506325 0 0 0 0 -132.0992488919801 76.876942128561836 0 76.876942128561836 -49.764054195683457 0 0 0 0 6.9092461344137703 6.946850765091682 0 6.946850765091682 0.58299291345850435 0 0 0 0 73.226386969090527 -11.047425848862872 0 -11.047425848862872 1.4847308418186458 0 0 0 0 -57.106551487231627 98.465911500901484 0 98.465911500901484 -12.983016338528557 0 0 0 0 111.10044869785634 74.928017091202548 0 74.928017091202548 -81.59202772308106 0 0 0 0 -85.638195099765653 50.697981542827449 0 50.697981542827449 -61.254124254383214 0 0 0 0 -5.6835791338417039 127.68260989476653 0 127.68260989476653 -94.959907017372871 0 0 0 0 -62.343631633295445 60.751826510891192 0 60.751826510891192 6.4122619339332232 0 0 0 0 3.6760322899546907 3.147421626585313 0 3.147421626585313 -0.56083897744917977 0 0 0 0 6.5500695389455359 47.448358484321147 0 47.448358484321147 -142.83425354566907 0 0 0 0 35.729094853099014 145.79839732521395 0 145.79839732521395 -136.82283661192741 0 0 0 0 65.401644118968761 -11.071199394083692 0 -11.071199394083692 1.5303748923079183 0 0 0 0 8.8299567541976529 7.1802917440125924 0 7.1802917440125924 -0.72472096945055942 0 0 0 0 44.426342069198654 2.5903653996712706 0 2.5903653996712706 -2.646891472715879 0 0 0 0 55.126959468718269 2.7485670597768603 0 2.7485670597768603 -2.9346298015789785 0 0 0 0 25.565369523351976 0.0056495810589787254 0 0.0056495810589787254 -2.8479521195388622 0 0 0 0 34.788337611806583 13.234535491126763 0 13.234535491126763 0.58402712762608644 0 0 0 0 46.72494766139971 -7.7741710124701058 0 -7.7741710124701058 17.133362869371922 0 0 0 0 38.27888851972687 0.21808592572537311 0 0.21808592572537311 1.3009389895604064 0 0 0 0 33.014154756726384 -7.4436807353420136 0 -7.4436807353420136 41.604441641958829 0 0 0 0 51.592820773442554 19.851412496236037 0 19.851412496236037 23.590240299966581 0 0 0 0 22.767114986610174 -3.4347540309750935 0 -3.4347540309750935 3.6099566672735146 0 0 0 0 25.83892479145652 29.904979021652593 0 29.904979021652593 -12.505249654241794 0 0 0 0 23.198297911859001 14.017570961548532 0 14.017570961548532 0.56936977103101372 0 0 0 0 36.804560232711538 7.4858800356613528 0 7.4858800356613528 -4.4861399325382081 0 0 0 0 45.268553984782557 -3.5017700147524238 0 -3.5017700147524238 35.697975210608092 0 0 0 0 34.570290757990179 11.9707733489265 0 11.9707733489265 -0.037747334632072915 0 0 0 0 31.940688861697105 8.3421601167813044 0 8.3421601167813044 -0.6513807336679287 0 0 0 0 6.6681391101446934 50.460208674346887 0 50.460208674346887 -30.999850952842507 0 0 0 0 29.496946980027133 11.176670907666136 0 11.176670907666136 -9.9564989664195309 0 0 0 0 43.344397002812912 43.704338059013821 0 43.704338059013821 -100.33170599943855 0 0 0 0 17.619115756244355 56.662166391183007 0 56.662166391183007 -74.287660623420379 0 0 0 0 49.795953267708683 67.964633461542689 0 67.964633461542689 -71.146143084559299 0 0 0 0 69.614281160484097 26.908919064939482 0 26.908919064939482 -81.355366796213275 0 0 0 0 81.27532352806702 41.889353389022119 0 41.889353389022119 -63.239309907335382 0 0 0 0 29.569528995703877 38.942202476002478 0 38.942202476002478 -83.941309781144582 0 0 0 0 47.263242876817458 -4.5506840304423406 0 -4.5506840304423406 -97.032941561729217 0 0 0 0 56.749164603861573 -11.730056540100236 0 -11.730056540100236 -91.910910945029372 0 0 0 0 35.07925467111636 -16.146738161810845 0 -16.146738161810845 -103.48098512811444 0 0 0 0 24.346310960600022 -10.593828960368199 0 -10.593828960368199 -91.943026159506758 0 0 0 0 29.741124835163646 -35.212754293043815 0 -35.212754293043815 -53.922845506833141 0 0 0 0 41.479998319344304 0.93878261524139361 0 0.93878261524139361 -79.894207275929716 0 0 0 0 105.71823157861945 -17.725133660131178 0 -17.725133660131178 -74.513435891820336 0 0 0 0 51.659751649105601 -47.461371143979363 0 -47.461371143979363 -23.941112152420374 0 0 0 0 51.590640937780336 -24.998620018895622 0 -24.998620018895622 -30.025697241139142 0 0 0 0 135.00881540907631 -131.70146700518285 0 -131.70146700518285 99.995494267010827 0 0 0 0 255.33820416372328 5.1816127171976518 0 5.1816127171976518 -113.48652746447488 0 0 0 0 99.373964511391023 55.870544782934758 0 55.870544782934758 -68.311846736929965 0 0 0 0 74.537435214537254 32.034101420025195 0 32.034101420025195 -51.485965178733295 0 0 0 0 19.854186819153888 -6.5877213492007716 0 -6.5877213492007716 -0.33491114898770213 0 0 0 0 31.51700087037807 3.4801464609834056 0 3.4801464609834056 0.47385034224953415 0 0 0 0 18.434118827817656 -4.4495509264791053 0 -4.4495509264791053 -1.3770028676385664 0 0 0 0 15.191734546373482 -12.122795325823972 0 -12.122795325823972 0.90409689079507416 0 0 0 0 1473.9690003428677 -509.58848230313652 0 -509.58848230313652 51.941484379299951 0 0 0 0 31.63424785909865 0.74459725485917261 0 0.74459725485917261 7.3507281116332024 0 0 0 0 1.0146357710950653 -0.64347081095266123 0 -0.64347081095266123 4.6090345940468396 0 0 0 0 15.917181798040392 1.3425791146641055 0 1.3425791146641055 4.7624282607441035 0 0 0 0 7.3869959426726872 -0.89898134264317164 0 -0.89898134264317164 6.3778480553333585 0 0 0 0 8.9941099547504564 -2.355942694055102 0 -2.355942694055102 3.0848797546022979 0 0 0 0 2.8875471778009398 -3.1303869679568663 0 -3.1303869679568663 9.7018887247824281 0 0 0 0 1499.1731649174872 -416.27055216258947 0 -416.27055216258947 323.9172829629 0 0 0 0 12.907043861118694 -6.3012740543018353 0 -6.3012740543018353 7.5295317197689959 0 0 0 0 -19.115763522993802 -46.155997140477211 0 -46.155997140477211 -13.054744743114043 0 0 0 0 1131.7016452722964 251.93585632333074 0 251.93585632333074 68.266452536490448 0 0 0 0 920.05392327672052 -698.35703288287232 0 -698.35703288287232 542.39557262388314 0 0 0 0 -1.3173489390357638 -0.14150447057002857 0 -0.14150447057002857 4.4301690045353643 0 0 0 0 26.045001135144048 -17.390832704915738 0 -17.390832704915738 5.1547656983698289 0 0 0 0 25.509602931272639 -20.773700723134993 0 -20.773700723134993 -11.509620680532862 0 0 0 0 15.607889490383755 -3.7523389769915685 0 -3.7523389769915685 -2.496404598281293 0 0 0 0 26.136998439247691 -6.7386306819605579 0 -6.7386306819605579 -39.769751280678065 0 0 0 0 16.416067683968684 -0.064074721196675455 0 -0.064074721196675455 -3.1084510959012359 0 0 0 0 42.441957500468561 23.54539000241175 0 23.54539000241175 -24.090621240109613 0 0 0 0 22.196048100935514 -9.7347749646446573 0 -9.7347749646446573 5.4066543769733926 0 0 0 0 14.431918069292806 -23.91829303540203 0 -23.91829303540203 22.949747772946239 0 0 0 0 3.5770327823625854 -9.6950130575825675 0 -9.6950130575825675 5.9148883750712571 0 0 0 0 36.694616035307263 -24.854718964179028 0 -24.854718964179028 24.618551588381251 0 0 0 0 0.47789778931446669 1.3501767926423831 0 1.3501767926423831 0.49555575817703357 0 0 0 0 -0.25681319625800825 1.6107367251483993 0 1.6107367251483993 -0.64271783790945847 0 0 0 0 2.0975853317048561 -1.6806303959325017 0 -1.6806303959325017 4.0597461346097159 0 0 0 0 32.475208983791163 -10.883240369736995 0 -10.883240369736995 1.9785063444014668 0 0 0 0 28.679572628410369 -3.718722347668745 0 -3.718722347668745 2.8121430791316016 0 0 0 0 16.673119307426532 -5.5346186592466893 0 -5.5346186592466893 8.0578381686857483 0 0 0 0 23.363686614895414 -10.695354154986717 0 -10.695354154986717 0.90518834064073417 0 0 0 0 78.512279714646866 -35.954671208311311 0 -35.954671208311311 -65.227189661333796 0 0 0 0 17.103542794946193 -12.772080271946987 0 -12.772080271946987 4.6190438019456499 0 0 0 0 9.8555481802901319 -10.216307850498438 0 -10.216307850498438 4.7706479117465861 0 0 0 0 49.80042203129733 -20.078466609497525 0 -20.078466609497525 1.9632879659266109 0 0 0 0 -12.953378672395047 -103.83301088378258 0 -103.83301088378258 25.829904122616995 0 0 0 0 40.175753571495989 4.9669200897654946 0 4.9669200897654946 -48.15322103207518 0 0 0 0 -30.715902210380136 -76.357131406014844 0 -76.357131406014844 33.911237153903016 0 0 0 0 93.022887727316345 60.329389717531015 0 60.329389717531015 38.722680547570349 0 0 0 0 25.314103108449672 -0.7427963627563372 0 -0.7427963627563372 0.12530557552867094 0 0 0 0 86.533306306152554 -40.40911897942749 0 -40.40911897942749 -9.030395962222201 0 0 0 0 30.24139553755731 13.884685967150347 0 13.884685967150347 13.443902090985148 0 0 0 0 33.525764762950075 10.262302655659823 0 10.262302655659823 2.1619534621472667 0 0 0 0 4.561250419350575 2.8122738959135827 0 2.8122738959135827 7.1285527625501173 0 0 0 0 23.299312222875869 6.6069875493700465 0 6.6069875493700465 6.3847071545337712 0 0 0 0 1493.5985746355102 -581.5384975079844 0 -581.5384975079844 -126.1423740361999 0 0 0 0 1111.7990723123676 251.94899647154469 0 251.94899647154469 66.890836976901781 0 0 0 0 4.6827944958887358 4.2353569313138379 0 4.2353569313138379 2.9929760739885016 0 0 0 0 -160.74430867909882 178.45950803973767 0 178.45950803973767 -6.1096206813733742 0 0 0 0 2.354521094504519 1.9791985169442885 0 1.9791985169442885 1.9320771715181515 0 0 0 0 6.5232650605193108 -1.0380254744759299 0 -1.0380254744759299 0.66817742059305374 0 0 0 0 1499.5752724487743 2.9472481276589848 0 2.9472481276589848 2.1104640176294347 0 0 0 0 -1.007923173535346 -63.463167364844708 0 -63.463167364844708 -182.57604698453147 0 0 0 0 1497.9764479963287 -0.88781280477096158 0 -0.88781280477096158 2.0545196939177108 0 0 0 0 204.64399082145064 432.24373046575863 0 432.24373046575863 75.619460636971326 0 0 0 0 55.382074575123625 117.97011557054856 0 117.97011557054856 86.770407623523795 0 0 0 0 580.50423527748808 173.07392745237024 0 173.07392745237024 18.238351822267695 0 0 0 0 672.84748136669896 631.99762800362726 0 631.99762800362726 150.65773870768061 0 0 0 0 182.50071057404239 7.9266360273302041 0 7.9266360273302041 -166.94333290114713 0 0 0 0 -76.451602933114145 -134.28656513593049 0 -134.28656513593049 107.02728056768656 0 0 0 0 4.6078777329439617 25.094162306909595 0 25.094162306909595 57.51245397652454 0 0 0 0 286.4675744797778 38.365039083572142 0 38.365039083572142 39.927680723757341 0 0 0 0 3.5557647756331789 -87.503865407990347 0 -87.503865407990347 171.61314359409857 0 0 0 0 58.109477231980691 -70.360929261600546 0 -70.360929261600546 72.841231121338211 0 0 0 0 92.101666197365375 -133.05118989150094 0 -133.05118989150094 154.25611838658574 0 0 0 0 310.56787554600646 -21.331327984798428 0 -21.331327984798428 132.84275628205128 0 0 0 0 289.37621276855907 -126.78920688273351 0 -126.78920688273351 75.025399967388481 0 0 0 0 60.290952823522275 43.245070280113723 0 43.245070280113723 243.94751787945404 0 0 0 0 57.3514523225831 -18.590138547089332 0 -18.590138547089332 18.504909462364182 0 0 0 0 0.3448683633828562 1.1129119678014217 0 1.1129119678014217 2.2067268480208981 0 0 0 0 1496.7472266128134 402.33442905766111 0 402.33442905766111 -201.84720020230975 0 0 0 0 1139.4534334913537 32.572412994910223 0 32.572412994910223 -129.1950874216495 0 0 0 0 567.42643597502047 247.04572946160638 0 247.04572946160638 157.63472750338053 0 0 0 0 439.10313932546751 -99.281772818408086 0 -99.281772818408086 57.686532836358879 0 0 0 0 988.554870310968 -211.29404289905122 0 -211.29404289905122 10.140830861374052 0 0 0 0 1066.7937012060625 49.72954572209953 0 49.72954572209953 -72.017615890469202 0 0 0 0 1629.6222165360327 -143.00065733988305 0 -143.00065733988305 -73.216864229420253 0 0 0 0 1501.3133084349388 15.356665268214041 0 15.356665268214041 329.30029788762147 0 0 0 0 4.155820883142729 1.0995566970857271 0 1.0995566970857271 0.28398049886953858 0 0 0 0 1258.4061173913265 -516.45785525419285 0 -516.45785525419285 271.13449892180984 0 0 0 0 164.86135641657279 295.86557573965939 0 295.86557573965939 -13.546240918449584 0 0 0 0 277.29573902660832 -418.80278894726189 0 -418.80278894726189 262.54923783062929 0 0 0 0 9.481912565515124 1.6323965975092278 0 1.6323965975092278 2.104020203534124 0 0 0 0 27.854155360495838 -6.4395749885650275 0 -6.4395749885650275 -111.31175099962988 0 0 0 0 56.177824945264547 -6.858637123653736 0 -6.858637123653736 90.106510985732456 0 0 0 0 -58.375732100391531 -151.43045895024005 0 -151.43045895024005 -10.240566365667576 0 0 0 0 -15.574802460827026 -44.121129993019906 0 -44.121129993019906 264.37014937779071 0 0 0 0 -24.406103536108098 77.414490101698775 0 77.414490101698775 119.28997734784409 0 0 0 0 313.6390528823926 -132.92028808091598 0 -132.92028808091598 119.78640661317243 0 0 0 0 1472.7978423317604 -152.02698951397605 0 -152.02698951397605 -145.42905330470978 0 0 0 0 852.81414009635125 355.54429198898214 0 355.54429198898214 -16.999262799935021 0 0 0 0 10.072847597935628 4.9499383240224475 0 4.9499383240224475 16.928442821747922 0 0 0 0 3.8049617894153016 7.4529723626348243 0 7.4529723626348243 36.742376821021722 0 0 0 0 -22.698059445079821 -68.314178294845561 0 -68.314178294845561 94.745471920610868 0 0 0 0 13.457580792159609 -7.3019026810669931 0 -7.3019026810669931 5.1736461418203339 0 0 0 0 13.314147912108979 -21.040103058999819 0 -21.040103058999819 6.2961454658315432 0 0 0 0 -12.07624846932282 -36.333108035147248 0 -36.333108035147248 1.0473379604653701 0 0 0 0 8.4979687895288976 -8.1012719690334904 0 -8.1012719690334904 35.997237989496625 0 0 0 0 6.8493489455076997 -10.499616973511536 0 -10.499616973511536 25.72934582880589 0 0 0 0 10.095346762336703 -18.820381688297289 0 -18.820381688297289 16.143662102034796 0 0 0 0 165.91339033551048 -20.835338711007779 0 -20.835338711007779 -60.934298760319422 0 0 0 0 -2.2998233790161091 3.3929904681563201 0 3.3929904681563201 6.8430263092410817 0 0 0 0 10.961770450071867 -91.403253252569385 0 -91.403253252569385 39.842560269919076 0 0 0 0 2.4639037344461929 -0.85964845868715134 0 -0.85964845868715134 -0.17771297555686277 0 0 0 0 181.35225493117105 88.471706572331513 0 88.471706572331513 33.080434593249109 0 0 0 0 -13.939506899174376 -193.62861112874489 0 -193.62861112874489 -10.000469539446641 0 0 0 0 0.16164519609097283 -2.6908919715284969 0 -2.6908919715284969 6.4671842009713236 0 0 0 0 -21.92021198177099 -4.0753621993443687 0 -4.0753621993443687 -15.185787547031964 0 0 0 0 -53.291508786395525 -26.55680391216066 0 -26.55680391216066 143.86005481790221 0 0 0 0 5.818215629590668 -174.72478214014455 0 -174.72478214014455 321.70045543226104 0 0 0 0 248.70589590791224 -80.524980653262332 0 -80.524980653262332 3.9280932313624817 0 0 0 0 96.674212166766154 -122.07754312127153 0 -122.07754312127153 35.883024145407489 0 0 0 0 89.858723936137721 -10.841647108003201 0 -10.841647108003201 17.131218693747257 0 0 0 0 6.8760676198826332 -17.530035996518336 0 -17.530035996518336 28.851883750982779 0 0 0 0 7.1177997447248345 -13.881241406099889 0 -13.881241406099889 22.359960410687563 0 0 0 0 20.058800051850994 58.307169387143858 0 58.307169387143858 6.4000108817955095 0 0 0 0 30.085469615004513 -12.892984407469385 0 -12.892984407469385 14.631448198378166 0 0 0 0 20.088864347264462 -17.410057745915765 0 -17.410057745915765 14.409885214170401 0 0 0 0 31.30846856346659 -5.0917575763055254 0 -5.0917575763055254 42.782878734931728 0 0 0 0 9.6156493080734435 -21.874706505751192 0 -21.874706505751192 27.546187100448378 0 0 0 0 18.570557763313445 -8.6896749370232556 0 -8.6896749370232556 23.12764644661911 0 0 0 0 8.2938849538173756 -5.9905140414057882 0 -5.9905140414057882 21.358868266742689 0 0 0 0 13.257583453581447 -22.284336192413321 0 -22.284336192413321 -6.5726674037605335 0 0 0 0 15.538517894356442 -9.6917451061322062 0 -9.6917451061322062 4.6760689076104782 0 0 0 0 46.955763678114636 -25.567556738760231 0 -25.567556738760231 -28.725698034105335 0 0 0 0 28.65679657980354 -3.2724915265096115 0 -3.2724915265096115 -3.7945620952787067 0 0 0 0 36.799219514699871 4.006735104012364 0 4.006735104012364 8.2360384376250977 0 0 0 0 19.393543983410623 2.5133373420166816 0 2.5133373420166816 3.1061851208610571 0 0 0 0 20.915225814878752 -7.1227455372588384 0 -7.1227455372588384 4.4833287853699009 0 0 0 0 19.131197395063495 -0.90169850217396075 0 -0.90169850217396075 18.933111113741916 0 0 0 0 18.176304426839522 -2.6278377533491124 0 -2.6278377533491124 22.478232870074635 0 0 0 0 16.113659989746459 4.66515125370882 0 4.66515125370882 1.0092860471184606 0 0 0 0 33.295937793346639 24.598451453848043 0 24.598451453848043 -6.6712993485925836 0 0 0 0 33.354269716978123 1.918349931090404 0 1.918349931090404 0.17875883701088391 0 0 0 0 22.089755789391347 40.728218699250647 0 40.728218699250647 -7.5507403701692226 0 0 0 0 2.0641741220315453 2.8670092961050386 0 2.8670092961050386 29.850296400634761 0 0 0 0 66.581566604521868 75.299824672915292 0 75.299824672915292 70.497371455692701 0 0 0 0 43.29486527126096 -29.379147789852141 0 -29.379147789852141 20.361459736928737 0 0 0 0 -1.9768510148591378 -2.3359101411536192 0 -2.3359101411536192 2.3335483540347495 0 0 0 0 12.684378294996964 0.19972817168756718 0 0.19972817168756718 0.80334644156472068 0 0 0 0 28.960289455219026 1.0940948237175689 0 1.0940948237175689 1.033129342672396 0 0 0 0 33.202566696383656 3.2387967162280802 0 3.2387967162280802 -5.2580696446475486 0 0 0 0 61.00097802595883 -2.3497257633930531 0 -2.3497257633930531 -9.0481477126577374 0 0 0 0 63.058583693237324 24.29462651631809 0 24.29462651631809 -1.780747578930459 0 0 0 0 73.170402621242829 19.144887614961135 0 19.144887614961135 5.9223006829192855 0 0 0 0 55.582531002998167 15.855410430800248 0 15.855410430800248 -22.491879808049816 0 0 0 0 4.0353100815379399 -0.052899887572239734 0 -0.052899887572239734 1.989232618638642 0 0 0 0 60.85252197227237 4.9717508273906788 0 4.9717508273906788 -17.911530557999413 0 0 0 0 5.0276743836147944 13.676441873332806 0 13.676441873332806 8.0448196096112952 0 0 0 0 14.158193768856108 -2.1483232781502011 0 -2.1483232781502011 -13.273407149217746 0 0 0 0 2.1392618645336263 2.4127650774010405 0 2.4127650774010405 -0.060920226091919716 0 0 0 0 20.046214214379525 8.6740290635663158 0 8.6740290635663158 -7.2021347126162691 0 0 0 0 -31.049830312339509 -86.397258918697162 0 -86.397258918697162 -28.500295202616144 0 0 0 0 9.3896137539368283 -39.787381497881142 0 -39.787381497881142 -48.886540773099114 0 0 0 0 73.731528691163476 17.523525751494617 0 17.523525751494617 2.3551645210436618 0 0 0 0 175.47613489145624 26.44241611682196 0 26.44241611682196 9.707398835736285 0 0 0 0 90.885966374184136 12.123940165998647 0 12.123940165998647 -2.5606961286175647 0 0 0 0 66.685858693658702 -39.88289289123918 0 -39.88289289123918 28.974897996535219 0 0 0 0 71.052962024890803 21.169682907734114 0 21.169682907734114 17.133767093224833 0 0 0 0 105.4405500518933 -69.208567116747417 0 -69.208567116747417 88.051224341805664 0 0 0 0 -16.617160639451868 45.347365275706352 0 45.347365275706352 84.790012932272674 0 0 0 0 -0.27987374493839923 -0.13931780471586741 0 -0.13931780471586741 1.192497980470927 0 0 0 0 -114.47927982105512 -58.726170975763807 0 -58.726170975763807 121.11304256946232 0 0 0 0 -18.913587499226196 -29.328114418736504 0 -29.328114418736504 107.87887967288191 0 0 0 0 -20.986867626751064 51.830452378996142 0 51.830452378996142 78.286063877724246 0 0 0 0 -22.597988886311214 -14.072659597040342 0 -14.072659597040342 61.252279868688674 0 0 0 0 13.677814956967268 80.87600819475233 0 80.87600819475233 -69.126032782023003 0 0 0 0 36.586220400420629 7.1096804366558883 0 7.1096804366558883 -5.9127025160125157 0 0 0 0 49.82458289245551 8.5406486185224821 0 8.5406486185224821 -31.321078981332448 0 0 0 0 73.614116500461023 -36.713954697674126 0 -36.713954697674126 -12.545609389788069 0 0 0 0 39.721548764642378 6.7270210288419641 0 6.7270210288419641 -3.6330825278592638 0 0 0 0 54.385889698220126 -13.576583366189425 0 -13.576583366189425 3.0854428476777684 0 0 0 0 39.188923494309307 -22.517047442245627 0 -22.517047442245627 9.0959114794469222 0 0 0 0 55.976217870022083 -9.0216712267488219 0 -9.0216712267488219 8.9243972860986105 0 0 0 0 52.736432482101009 -16.427706524263385 0 -16.427706524263385 6.235894987836673 0 0 0 0 55.781249659428795 -18.48314143495827 0 -18.48314143495827 -6.9554969842697574 0 0 0 0 56.7839424850863 -12.347217683956387 0 -12.347217683956387 2.3562892879714354 0 0 0 0 67.086659516256077 -27.689183042785885 0 -27.689183042785885 -3.4374684911786062 0 0 0 0 48.880793207395982 -26.100262526950701 0 -26.100262526950701 4.1105753279591681 0 0 0 0 47.682256385225628 -28.267175591452315 0 -28.267175591452315 19.112726034353727 0 0 0 0 65.9205485673574 -44.979175367658854 0 -44.979175367658854 24.450825837160664 0 0 0 0 70.030190100195796 -23.642397752772126 0 -23.642397752772126 12.108411710749806 0 0 0 0 86.487085679247684 -26.329414424736115 0 -26.329414424736115 -11.077415102124927 0 0 0 0 86.764656499526609 -0.80790524070812353 0 -0.80790524070812353 -23.037611626099533 0 0 0 0 31.200650797403796 2.9919241350845596 0 2.9919241350845596 -12.04723303890114 0 0 0 0 57.981772397016357 -13.480575512401174 0 -13.480575512401174 -11.214546342504946 0 0 0 0 67.59368083130903 -14.842219361950811 0 -14.842219361950811 -25.985725474578942 0 0 0 0 51.145974222952646 29.474696321727833 0 29.474696321727833 -71.048015453182188 0 0 0 0 33.751727738230962 4.5627951849229476 0 4.5627951849229476 -7.5420294170148834 0 0 0 0 67.550083080335753 -7.5690632121618364 0 -7.5690632121618364 -23.631218581005555 0 0 0 0 -0.16624956114492306 60.141433111116839 0 60.141433111116839 -26.093859073538624 0 0 0 0 12.016538760643016 6.1367791030365879 0 6.1367791030365879 -18.950140784034375 0 0 0 0 45.934049798626802 47.781696297561211 0 47.781696297561211 -32.80539820450258 0 0 0 0 14.882155660416174 52.827205830180446 0 52.827205830180446 -63.713926268034811 0 0 0 0 28.605909173506163 1.2855548640581649 0 1.2855548640581649 -9.3032627941989929 0 0 0 0 35.122638831563563 -21.604851152831031 0 -21.604851152831031 -6.3574718886037545 0 0 0 0 33.076645232116789 -32.535081509838079 0 -32.535081509838079 18.407158848850258 0 0 0 0 28.154577222027001 -13.313315113333601 0 -13.313315113333601 -14.690788499196728 0 0 0 0 43.812188813895773 -27.975839700083952 0 -27.975839700083952 -19.417959941488704 0 0 0 0 76.403518924094897 -24.328259509461873 0 -24.328259509461873 -52.746897558768353 0 0 0 0 43.914345174041955 -39.788467420965105 0 -39.788467420965105 10.229967038482982 0 0 0 0 45.507768486568239 15.230343434153795 0 15.230343434153795 -60.689840588009076 0 0 0 0 44.564378839015262 -36.077778697550229 0 -36.077778697550229 11.809498011631433 0 0 0 0 40.380746142498992 -48.456585219603895 0 -48.456585219603895 24.92475931190279 0 0 0 0 18.810839672865839 0.47515580734593676 0 0.47515580734593676 -0.45111679909511659 0 0 0 0 20.024805795639622 -11.62233718668449 0 -11.62233718668449 49.475795342981201 0 0 0 0 22.722714934836404 -24.316139259702879 0 -24.316139259702879 64.693235000986817 0 0 0 0 -0.17191626875683141 -1.7022317592013678 0 -1.7022317592013678 152.98791891474457 0 0 0 0 92.261106423307865 -98.034248540993985 0 -98.034248540993985 86.899205159567828 0 0 0 0 2.2128787688369904 0.82115740285387062 0 0.82115740285387062 0.6739629748400171 0 0 0 0 234.67893802172148 -75.094027408990087 0 -75.094027408990087 74.86473325790638 0 0 0 0 37.503249282348406 -3.9513688936023073 0 -3.9513688936023073 75.572412966513411 0 0 0 0 17.263777877751636 -7.7432239151775093 0 -7.7432239151775093 -5.6857967821038073 0 0 0 0 124.09542896674293 -3.5205601100858104 0 -3.5205601100858104 -8.8324795172065933 0 0 0 0 47.770036139183503 72.567988341807904 0 72.567988341807904 -91.313858905770644 0 0 0 0 91.086747027513411 -32.347491248098777 0 -32.347491248098777 -51.114404967192058 0 0 0 0 9.5970235426311774 57.754313068705756 0 57.754313068705756 221.27059644095789 0 0 0 0 117.57172130693107 -147.85705063057412 0 -147.85705063057412 134.6688949439631 0 0 0 0 87.031601817510818 -98.120580443532617 0 -98.120580443532617 126.90566869213626 0 0 0 0 2.9928790495362634 0.21600202583534989 0 0.21600202583534989 -0.13879003588986749 0 0 0 0 18.852089292093297 58.32642917842054 0 58.32642917842054 122.92500239518495 0 0 0 0 227.73892848621199 60.860002553449704 0 60.860002553449704 -14.018869214290135 0 0 0 0 26.812190664551053 15.64232266647582 0 15.64232266647582 -23.267994837724359 0 0 0 0 7.2972936084261164 -34.634609434253889 0 -34.634609434253889 19.555152291677587 0 0 0 0 54.194123635903452 -89.168670625600498 0 -89.168670625600498 -26.742435625500548 0 0 0 0 -5.4484256445739447 -39.048362256089604 0 -39.048362256089604 -58.507239662152642 0 0 0 0 54.417837265355047 7.1213568772215012 0 7.1213568772215012 -117.4960286365058 0 0 0 0 24.56688011498683 -3.0076046635062115 0 -3.0076046635062115 -1.11211030481067 0 0 0 0 120.68876517101126 -18.454800612964505 0 -18.454800612964505 -108.56276308247743 0 0 0 0 29.190762185364292 -32.497795017140561 0 -32.497795017140561 -64.167791442856469 0 0 0 0 22.111484853084271 -0.85185418302087612 0 -0.85185418302087612 -4.5560486194128629 0 0 0 0 22.413055974985507 0.19154740236241086 0 0.19154740236241086 -0.37865870746514574 0 0 0 0 23.829802901328776 4.8025515943249957 0 4.8025515943249957 -14.487917714481682 0 0 0 0 23.281500117592088 5.2312343043625447 0 5.2312343043625447 -11.671680147052257 0 0 0 0 20.775723018623012 24.261942067680735 0 24.261942067680735 1.7303902390012809 0 0 0 0 20.487322345128018 1.5240033289306112 0 1.5240033289306112 -3.6086496968440125 0 0 0 0 46.848543086122845 17.732986851399573 0 17.732986851399573 -27.428067324478434 0 0 0 0 56.39547420834424 -1.1034383535679808 0 -1.1034383535679808 -27.29987939014427 0 0 0 0 7.9559704818656627 0.69832099780803958 0 0.69832099780803958 -0.42745896939128158 0 0 0 0 63.506996562912718 -1.620328159940982 0 -1.620328159940982 -6.6904856423093406 0 0 0 0 19.238505587300097 -49.404634643649842 0 -49.404634643649842 24.752638808244228 0 0 0 0 66.669484445729722 18.598381411633682 0 18.598381411633682 -12.991331999923204 0 0 0 0 14.046273123485662 18.45795636402886 0 18.45795636402886 19.407525830461964 0 0 0 0 117.6821101493133 35.27820384798224 0 35.27820384798224 -39.364091380520676 0 0 0 0 -4.2643647146542207 8.7980159657249715 0 8.7980159657249715 6.7459733261179764 0 0 0 0 4.3052635864331199 1.5274091794544455 0 1.5274091794544455 4.2084442254228609 0 0 0 0 22.275740024459765 0.50356811438985005 0 0.50356811438985005 7.1247966002197245 0 0 0 0 16.101590708632557 3.9523965735397724 0 3.9523965735397724 4.2416304581760187 0 0 0 0 14.43494195981911 1.7357205042868427 0 1.7357205042868427 -3.5307734470140408 0 0 0 0 11.619462950614889 11.168645342466903 0 11.168645342466903 7.3709307616394426 0 0 0 0 31.233388213012432 3.0845404009839301 0 3.0845404009839301 -0.8079884232087915 0 0 0 0 15.308298622197071 13.254830280139458 0 13.254830280139458 -9.8971071069745449 0 0 0 0 12.762201214422021 15.144730196451064 0 15.144730196451064 -9.0618654025061005 0 0 0 0 23.356821284270609 13.661800951569148 0 13.661800951569148 -22.346585572056711 0 0 0 0 7.8007773964536682 67.377970243961499 0 67.377970243961499 -75.126590185820987 0 0 0 0 17.059365701101797 -15.978788452247727 0 -15.978788452247727 23.275070066957596 0 0 0 0 -55.360740531617921 76.731830787354056 0 76.731830787354056 67.49087490954571 0 0 0 0 32.276402563452393 53.512168767797903 0 53.512168767797903 -34.162784881052175 0 0 0 0 38.855054537600083 5.8294888687708397 0 5.8294888687708397 -1.3141204433699749 0 0 0 0 42.567825988285222 18.019875801362559 0 18.019875801362559 2.8160643603317794 0 0 0 0 4.0863052358618024 7.8313474614212417 0 7.8313474614212417 -2.5069738357420448 0 0 0 0 1.1094446043834978 37.689828801962221 0 37.689828801962221 30.357067367889613 0 0 0 0 68.179592157066963 56.661083005419869 0 56.661083005419869 -109.6831636709926 0 0 0 0 17.529701787499107 26.070126523144836 0 26.070126523144836 25.873846964058885 0 0 0 0 -3.9551353683703496 5.3627156786306323 0 5.3627156786306323 -0.66660395938339079 0 0 0 0 28.686993532118322 17.576565708133899 0 17.576565708133899 -20.634180887254388 0 0 0 0 12.340145768230286 18.183914522210443 0 18.183914522210443 3.9414498735518464 0 0 0 0 35.614235119795921 2.879307597390607 0 2.879307597390607 -50.176847343146619 0 0 0 0 34.01015352825334 25.048015331019769 0 25.048015331019769 -8.9724863539888702 0 0 0 0 29.973773774062337 9.7770240660770931 0 9.7770240660770931 -28.295775268593843 0 0 0 0 37.354946899552047 4.2279734064137244 0 4.2279734064137244 -1.3312173206966986 0 0 0 0 14.841166908163359 0.6512463839328575 0 0.6512463839328575 28.520166430615291 0 0 0 0 49.787477113854038 27.44278826956247 0 27.44278826956247 -28.742785507773988 0 0 0 0 10.653341810660908 4.7357683285433225 0 4.7357683285433225 -4.0918062816617891 0 0 0 0 184.62458580153179 -261.95662997296245 0 -261.95662997296245 197.69325058124195 0 0 0 0 241.15278549662708 -99.452232542422166 0 -99.452232542422166 -34.021819355039952 0 0 0 0 -0.34124595601037111 -0.16919415756373013 0 -0.16919415756373013 2.313295016679767 0 0 0 0 51.505726550741201 207.0059447237586 0 207.0059447237586 -204.96216295312888 0 0 0 0 -0.38111233086719487 0.50465493595501965 0 0.50465493595501965 0.06456565567694561 0 0 0 0 30.222594957910587 27.723044783848422 0 27.723044783848422 1.0395539799183098 0 0 0 0 44.945827041907705 48.005467524184496 0 48.005467524184496 -37.056101890997525 0 0 0 0 45.925787434928679 58.094968647199494 0 58.094968647199494 4.8029030055454029 0 0 0 0 90.021572371811999 16.46329317492382 0 16.46329317492382 -60.867720511267407 0 0 0 0 47.140155447258394 59.258373116750676 0 59.258373116750676 -55.546108698891203 0 0 0 0 -29.753584184223655 -94.083722642345492 0 -94.083722642345492 -30.299041199983094 0 0 0 0 120.31807985470732 -28.451228429264575 0 -28.451228429264575 -26.327618921277463 0 0 0 0 48.491595623546345 -26.689924841354468 0 -26.689924841354468 -8.1851226718060843 0 0 0 0 72.681157145013458 -51.024622547317449 0 -51.024622547317449 -6.3390973915584254 0 0 0 0 85.137452286723601 13.875784135990443 0 13.875784135990443 -13.57583800368991 0 0 0 0 120.23925355825122 -1.0317134072552108 0 -1.0317134072552108 -34.890692409459007 0 0 0 0 89.644122640378555 5.5715892897464983 0 5.5715892897464983 -36.298233650505608 0 0 0 0 62.570258567914607 28.728041834112446 0 28.728041834112446 -17.309410282091221 0 0 0 0 56.408692007995342 1.8739964766047024 0 1.8739964766047024 -23.547424446520836 0 0 0 0 71.017880436515043 -24.056503933471049 0 -24.056503933471049 -26.313324772417943 0 0 0 0 60.954896226478013 -27.794673472591057 0 -27.794673472591057 -9.8875236604462771 0 0 0 0 70.767062852802155 -25.670329411927241 0 -25.670329411927241 -15.806763121913264 0 0 0 0 61.070299276422702 -9.2398518026670899 0 -9.2398518026670899 -22.223980510389197 0 0 0 0 44.225109602163684 -10.347501358917611 0 -10.347501358917611 -8.5403399091578649 0 0 0 0 54.098165801169216 12.63518964458865 0 12.63518964458865 -53.43955311503305 0 0 0 0 48.347094962363826 16.134418417066854 0 16.134418417066854 -34.859888203704145 0 0 0 0 40.246708697684262 4.1508262434401182 0 4.1508262434401182 -0.52018716075730209 0 0 0 0 25.488291437472071 -11.03846112122767 0 -11.03846112122767 17.40157357370623 0 0 0 0 40.214761213427664 -16.011785642565883 0 -16.011785642565883 1.4908756899314426 0 0 0 0 32.451862994772455 -2.7870640663730626 0 -2.7870640663730626 -6.2919312419365951 0 0 0 0 33.216521176280366 -17.792172437512562 0 -17.792172437512562 -8.3351977183328927 0 0 0 0 55.362169793550493 -11.257456687204467 0 -11.257456687204467 -26.636472264208578 0 0 0 0 31.557404950024612 1.9389994956529746 0 1.9389994956529746 -0.00039863016910568483 0 0 0 0 46.125426308410965 11.611222480126813 0 11.611222480126813 -40.405566332436138 0 0 0 0 25.63583915742926 0.61544999609654871 0 0.61544999609654871 -0.4870826166738782 0 0 0 0 23.321167451194924 -23.592312365852479 0 -23.592312365852479 22.539436800642278 0 0 0 0 34.13952493652323 -28.18777842233655 0 -28.18777842233655 22.332580725336072 0 0 0 0 32.128473462602415 -35.849797894225389 0 -35.849797894225389 14.310166549568748 0 0 0 0 23.377787986022668 -32.980719274629564 0 -32.980719274629564 20.424315760823845 0 0 0 0 28.304775268978119 -21.557054808335579 0 -21.557054808335579 -3.6382800727686799 0 0 0 0 21.038021067730369 -16.371448631006388 0 -16.371448631006388 -8.0221634033930513 0 0 0 0 2.9702690584090305 0.27640933798079459 0 0.27640933798079459 5.2542520185639887 0 0 0 0 -1.113004133081418 -0.87430874745819054 0 -0.87430874745819054 2.212893750526356 0 0 0 0 179.72218851605794 32.669209474447143 0 32.669209474447143 5.966542465798284 0 0 0 0 -4.027398103804444 -34.31030167498443 0 -34.31030167498443 54.855713716263892 0 0 0 0 109.9242439849404 -68.551669818850314 0 -68.551669818850314 42.889136797017557 0 0 0 0 42.574787085044591 7.4412865380478195 0 7.4412865380478195 69.105396330563465 0 0 0 0 96.973044729654816 8.6663735725015592 0 8.6663735725015592 -9.2930976543985935 0 0 0 0 29.720586835282234 -68.477263914383514 0 -68.477263914383514 47.267532528167294 0 0 0 0 91.668084320846901 -49.604392278363207 0 -49.604392278363207 8.7931847089574831 0 0 0 0 71.665040266649157 -19.099110869491597 0 -19.099110869491597 -15.86455562586616 0 0 0 0 62.427667319085231 19.233950869552643 0 19.233950869552643 -9.0164204745378811 0 0 0 0 27.57008351222612 5.4084575080496506 0 5.4084575080496506 -10.181008950107753 0 0 0 0 48.237510007871606 20.911577994469553 0 20.911577994469553 -17.868044512194501 0 0 0 0 6.0896510388958234 4.0204409808416077 0 4.0204409808416077 -5.7671017837302712 0 0 0 0 51.456152815691894 -24.020655575071487 0 -24.020655575071487 -72.119938179981546 0 0 0 0 48.450797022276674 -14.751621621285608 0 -14.751621621285608 -17.626619962844416 0 0 0 0 57.873624409970944 -13.319484951356117 0 -13.319484951356117 -19.682842055459332 0 0 0 0 59.093278500047745 -20.986906739624374 0 -20.986906739624374 -8.2471804873646306 0 0 0 0 54.80330147811037 -14.302718947405083 0 -14.302718947405083 -19.128989246290871 0 0 0 0 64.000095420706202 -24.380682326929673 0 -24.380682326929673 -10.539240188345616 0 0 0 0 54.658397403967683 -12.627301108701431 0 -12.627301108701431 -17.219683088134843 0 0 0 0 49.869438466892461 -37.487804123278693 0 -37.487804123278693 27.134478066163638 0 0 0 0 126.49046923833885 -35.017633087514241 0 -35.017633087514241 -9.2586796837485963 0 0 0 0 61.180999607786362 -21.587219213247181 0 -21.587219213247181 -11.71826431752379 0 0 0 0 68.115112026863244 24.818352936318888 0 24.818352936318888 6.5087537100087047 0 0 0 0 38.862910803763953 11.310828924771613 0 11.310828924771613 2.1002479263197529 0 0 0 0 30.685441150460974 -8.0590417743335365 0 -8.0590417743335365 -16.348415703533192 0 0 0 0 10.339943218052213 -12.764241334133658 0 -12.764241334133658 -5.2195779776575364 0 0 0 0 35.344691262431297 2.7343429958797856 0 2.7343429958797856 -16.879538541798411 0 0 0 0 3.7606747132571243 -0.84152285293147422 0 -0.84152285293147422 -0.8071405955528137 0 0 0 0 9.8485277907781779 -3.2632015938126218 0 -3.2632015938126218 -21.847662295468581 0 0 0 0 4.9935276973971527 -1.1283108089969573 0 -1.1283108089969573 -0.097553591752455482 0 0 0 0 16.860779762697348 -3.6608659963794707 0 -3.6608659963794707 -10.033613691639857 0 0 0 0 24.181609264023898 -5.0527855997955911 0 -5.0527855997955911 -12.390243175086868 0 0 0 0 12.843917343399859 -0.72819509209106315 0 -0.72819509209106315 -7.5886303631151293 0 0 0 0 21.294117594037271 -3.4530270842195705 0 -3.4530270842195705 -14.992446062277208 0 0 0 0 28.170242023257742 -6.4833382645007305 0 -6.4833382645007305 -11.027592711373245 0 0 0 0 14.92651048290918 -1.7532556929956264 0 -1.7532556929956264 -6.4553470767448289 0 0 0 0 5.2507052491874733 -0.8977258292098611 0 -0.8977258292098611 -4.4434664799399366 0 0 0 0 5.2118522363280846 0.7303498718460375 0 0.7303498718460375 -5.5877513156402081 0 0 0 0 27.007125050757168 -0.93549674827954732 0 -0.93549674827954732 -0.2832827145371084 0 0 0 0 38.530772389533013 17.242837287854741 0 17.242837287854741 -14.019368404306988 0 0 0 0 21.983951588982066 -3.0221768196655887 0 -3.0221768196655887 -7.3703976901377706 0 0 0 0 19.716410390421515 -10.836241973890822 0 -10.836241973890822 -12.194406909967654 0 0 0 0 23.570923135928751 -6.886671393803681 0 -6.886671393803681 -10.579244174831842 0 0 0 0 25.586139060835194 -3.6585425288223803 0 -3.6585425288223803 -10.861385109954199 0 0 0 0 4.5939880844453 -39.408219378952481 0 -39.408219378952481 -31.768644085437586 0 0 0 0 19.325899155521014 -7.1965139607413704 0 -7.1965139607413704 -4.0867048085505484 0 0 0 0 17.048699872506404 -52.513473899153723 0 -52.513473899153723 -39.393073692748658 0 0 0 0 57.489893343419681 7.8789944716606897 0 7.8789944716606897 -32.431576560086796 0 0 0 0 0.47985195164437755 -7.4860044762590405 0 -7.4860044762590405 -9.9975426456443586 0 0 0 0 3.9640764140772689 -2.2749081810637115 0 -2.2749081810637115 -4.5756898944196589 0 0 0 0 0.92981138715526868 -17.535368056776207 0 -17.535368056776207 -17.618401935825204 0 0 0 0 5.8579100424920432 -9.9482913516544187 0 -9.9482913516544187 -15.270200093225643 0 0 0 0 -1.6520284129946958 -11.323446355222131 0 -11.323446355222131 -10.107044911126195 0 0 0 0 -0.824601435234257 -2.9219340070652891 0 -2.9219340070652891 -0.9581741703840887 0 0 0 0 5.2100706584642467 -23.340703297257562 0 -23.340703297257562 -26.24244160269302 0 0 0 0 -6.6370868327721837 -13.676654091196042 0 -13.676654091196042 -10.738009807862909 0 0 0 0 -1.3042999798362871 -21.223236155667109 0 -21.223236155667109 6.3559958908360841 0 0 0 0 111.56359143456939 -38.438187991101813 0 -38.438187991101813 -60.575937320224853 0 0 0 0 10.503268424405221 -5.2157789802615326 0 -5.2157789802615326 -8.5856473815430157 0 0 0 0 61.055220763177203 -10.834175063230305 0 -10.834175063230305 35.59204750003687 0 0 0 0 56.101579559704987 8.9912408126061791 0 8.9912408126061791 0.46333517267203206 0 0 0 0 41.785824617672915 12.528761715724272 0 12.528761715724272 9.2353092553071292 0 0 0 0 64.233304320863681 22.964014419563597 0 22.964014419563597 -19.137628957738798 0 0 0 0 54.724361105058051 2.1532187073835303 0 2.1532187073835303 -25.996075861926556 0 0 0 0 92.202610409726731 46.470241286726989 0 46.470241286726989 17.087699763304954 0 0 0 0 40.57179432220255 9.2016128669843908 0 9.2016128669843908 -26.134127864261472 0 0 0 0 49.32124297133123 -7.0174878951580695 0 -7.0174878951580695 -47.389255780771123 0 0 0 0 26.210599766611878 -1.9055660520991218 0 -1.9055660520991218 -4.7489343489237257 0 0 0 0 48.030856033605232 18.508391359097459 0 18.508391359097459 -24.853288790554075 0 0 0 0 37.851409134195265 5.5020744427565518 0 5.5020744427565518 -8.9293563564032343 0 0 0 0 54.689319886005251 -10.560599284071941 0 -10.560599284071941 -14.758872204209183 0 0 0 0 48.512737961783387 -13.637533038740571 0 -13.637533038740571 -11.283574494151253 0 0 0 0 39.617905127008271 4.4711853378277056 0 4.4711853378277056 -18.54162761072314 0 0 0 0 37.004490428458666 3.7825211988480305 0 3.7825211988480305 -7.2094023634469977 0 0 0 0 39.766706402184354 7.3608217487170009 0 7.3608217487170009 -4.8507653582466901 0 0 0 0 67.074262431800889 6.8733495274564689 0 6.8733495274564689 0.12540072813180814 0 0 0 0 48.260266257391777 -4.1883061920696036 0 -4.1883061920696036 6.8506375134850828 0 0 0 0 70.325274830960552 3.4629855233320086 0 3.4629855233320086 -8.178108707784304 0 0 0 0 70.264885466836859 7.7475583108710566 0 7.7475583108710566 -15.744776517486798 0 0 0 0 54.350940258183982 3.5978486783352537 0 3.5978486783352537 -17.638787885327019 0 0 0 0 57.950862780577154 -2.3514603299820465 0 -2.3514603299820465 -7.9598789277273667 0 0 0 0 50.441977453083382 -1.7157185276853397 0 -1.7157185276853397 -18.124404728670214 0 0 0 0 59.473927090890356 1.6061934828804283 0 1.6061934828804283 -16.912059808847289 0 0 0 0 39.423973370541717 6.6328820249572686 0 6.6328820249572686 -17.266673634506787 0 0 0 0 46.374983011970471 -1.8850584477165739 0 -1.8850584477165739 -6.9563400387619936 0 0 0 0 50.797591647344234 -1.137361530634962 0 -1.137361530634962 -26.95756989517281 0 0 0 0 46.351478813769972 6.6034006525657389 0 6.6034006525657389 -34.326062085215199 0 0 0 0 59.710895621330565 3.9638320884948826 0 3.9638320884948826 -26.341165428158092 0 0 0 0 58.218862335554149 -5.8077195326227411 0 -5.8077195326227411 -31.273696040912796 0 0 0 0 50.23111252716626 -7.1842131414737196 0 -7.1842131414737196 -20.409814888118035 0 0 0 0 50.480150038711145 -8.0900033527185542 0 -8.0900033527185542 -21.315191779862516 0 0 0 0 51.548835407680599 -40.067083528805028 0 -40.067083528805028 -16.916847824361867 0 0 0 0 49.84936187124913 -18.595048034793308 0 -18.595048034793308 -52.300874124949814 0 0 0 0 9.4838241428519581 13.022253308419494 0 13.022253308419494 -18.153513136337473 0 0 0 0 140.28072457145026 -18.336217584895167 0 -18.336217584895167 -28.793073129261757 0 0 0 0 94.206327509680705 5.0128795446621552 0 5.0128795446621552 -10.956505929985369 0 0 0 0 6.8157396957387366 -1.7289725355636278 0 -1.7289725355636278 -4.3622015141025337 0 0 0 0 76.8211507250453 -31.224239072574164 0 -31.224239072574164 -6.1242801373728071 0 0 0 0 56.622297552101372 1.1171845088149439 0 1.1171845088149439 -20.710611930096093 0 0 0 0 49.452160448345239 -2.3209334536841197 0 -2.3209334536841197 -19.639832048109383 0 0 0 0 58.516050175348937 -0.94435004247702636 0 -0.94435004247702636 -21.978850708647656 0 0 0 0 58.689921463170322 2.6101433630760766 0 2.6101433630760766 -19.67189498380867 0 0 0 0 64.555903217285959 1.7491093760746708 0 1.7491093760746708 -24.786915407632591 0 0 0 0 57.327698864114609 -0.38129945353998096 0 -0.38129945353998096 -19.397529127896632 0 0 0 0 60.530246071881265 2.854228187869353 0 2.854228187869353 -20.464567688670741 0 0 0 0 78.817544380170148 -37.534120469105346 0 -37.534120469105346 -16.691545094410685 0 0 0 0 45.023152879402005 0.22539120555961256 0 0.22539120555961256 -9.0722307055957572 0 0 0 0 8.6740475639956749 0.23042853355979531 0 0.23042853355979531 -11.097126445008387 0 0 0 0 12.902475882134823 8.3527903701639019 0 8.3527903701639019 -14.133280314154373 0 0 0 0 66.835039898265677 -38.349386104024688 0 -38.349386104024688 -9.5516230886105404 0 0 0 0 3.903992923841022 3.4706953911332903 0 3.4706953911332903 -8.1176737311045333 0 0 0 0 49.596154956754617 8.7180875134121152 0 8.7180875134121152 -7.6557154600820922 0 0 0 0 39.43659828681848 -3.2057504642289985 0 -3.2057504642289985 -10.87879877009351 0 0 0 0 31.602385858834168 -34.927708448357293 0 -34.927708448357293 -37.280324096127515 0 0 0 0 24.873336031568456 -9.4956056262890733 0 -9.4956056262890733 -11.245376711399913 0 0 0 0 6.7477467399348612 1.1236881272631081 0 1.1236881272631081 -1.6469619653035412 0 0 0 0 63.580056957172928 8.6547313965104422 0 8.6547313965104422 -12.31127689928644 0 0 0 0 -0.91171531104649262 -1.8177248151836665 0 -1.8177248151836665 -0.75940604687486335 0 0 0 0 68.091541851171314 24.605602844404046 0 24.605602844404046 5.7872432855183433 0 0 0 0 100.74355896977613 32.715161182590762 0 32.715161182590762 0.10449547094049194 0 0 0 0 107.81029644143564 -3.8657077674288303 0 -3.8657077674288303 -1.5142831251273492 0 0 0 0 78.294480548502179 1.3499263967908064 0 1.3499263967908064 -10.915750279404165 0 0 0 0 -10.467899305247556 -24.567307460742086 0 -24.567307460742086 -19.374278383680576 0 0 0 0 -27.392491615792096 -20.838894279490887 0 -20.838894279490887 -18.852520571465902 0 0 0 0 -13.003919113813026 -9.848645939650396 0 -9.848645939650396 -20.426101302910411 0 0 0 0 -11.548134524509805 -2.5569945314239249 0 -2.5569945314239249 -33.446216996160729 0 0 0 0 -17.588362411966955 -12.317183593239861 0 -12.317183593239861 -21.75511479186116 0 0 0 0 -8.1922429927690246 -3.0726435672745538 0 -3.0726435672745538 -15.062738582668544 0 0 0 0 -12.467615277950244 -8.9379744184093397 0 -8.9379744184093397 -16.743665558445741 0 0 0 0 -50.17069077526412 -79.389154341966446 0 -79.389154341966446 -50.369490379843228 0 0 0 0 1.1731813517852272 -0.086180756985122287 0 -0.086180756985122287 -1.8578329341808235 0 0 0 0 8.1376265226863325 -12.324057721918962 0 -12.324057721918962 -34.248153391415144 0 0 0 0 106.7918634845264 -62.871812315274838 0 -62.871812315274838 -127.15951245758788 0 0 0 0 -13.450871618086239 11.130015240159992 0 11.130015240159992 -57.481881907544448 0 0 0 0 146.53906795330658 100.722883783572 0 100.722883783572 -8.7525994478801294 0 0 0 0 105.10461893184402 205.43964367809849 0 205.43964367809849 213.74611312518118 0 0 0 0 -96.100724648793403 41.484056304080696 0 41.484056304080696 88.897209313107396 0 0 0 0 439.49520286983898 85.603055090030011 0 85.603055090030011 -71.678809568056977 0 0 0 0 -226.48367694553599 -167.3062243923564 0 -167.3062243923564 76.963154368967025 0 0 0 0 34.133791019073989 -24.125313861865862 0 -24.125313861865862 5.0374644704497573 0 0 0 0 -128.3778278042264 -14.753580510923484 0 -14.753580510923484 -17.120800255404902 0 0 0 0 -25.232694199577963 -0.7974713669045741 0 -0.7974713669045741 -38.355638482390077 0 0 0 0 -21.428759539589009 -6.1995232510712412 0 -6.1995232510712412 -29.527014152765332 0 0 0 0 -22.594459171916242 -4.9585067386396986 0 -4.9585067386396986 -33.594603477449255 0 0 0 0 -86.298830333427759 -64.372888169204543 0 -64.372888169204543 -41.514977250058024 0 0 0 0 75.379552774349577 -27.870889258140323 0 -27.870889258140323 -16.187361285346014 0 0 0 0 60.028793227822462 -22.257756240097478 0 -22.257756240097478 -16.874743486761531 0 0 0 0 -199.28119573559889 15.160658061491773 0 15.160658061491773 315.06224702937243 0 0 0 0 321.25642956360389 -285.20997808280481 0 -285.20997808280481 -161.30668241838703 0 0 0 0 58.742977139689174 -265.62996595432105 0 -265.62996595432105 -152.12602947609003 0 0 0 0 298.18696184178862 58.491243567889057 0 58.491243567889057 -109.68044714757434 0 0 0 0 53.287614488988766 -38.367418243078191 0 -38.367418243078191 -131.57932760434471 0 0 0 0 18.541284918799647 -54.923853808868216 0 -54.923853808868216 12.265118463489671 0 0 0 0 1.0346459967346817 -7.6179903263308031 0 -7.6179903263308031 0.62799144145281405 0 0 0 0 36.279221730778588 -18.495182459115391 0 -18.495182459115391 3.3247897794000352 0 0 0 0 -22.921775516242633 19.60772794614013 0 19.60772794614013 -121.64750130909215 0 0 0 0 -6.9723162152804434 -70.862215347190158 0 -70.862215347190158 -45.284233693431815 0 0 0 0 9.5422558071060735 2.2520655677567234 0 2.2520655677567234 -3.8092184387665959 0 0 0 0 88.482033155887621 -32.857748942735043 0 -32.857748942735043 -71.516106562144159 0 0 0 0 20.417063382718879 -35.489776818027906 0 -35.489776818027906 -6.1542867601219768 0 0 0 0 27.069072195561603 -7.8394217137297346 0 -7.8394217137297346 -11.689566112818511 0 0 0 0 47.671007522774744 -2.5163044772607464 0 -2.5163044772607464 -10.70137551859068 0 0 0 0 70.148331842559855 44.91546283983962 0 44.91546283983962 -164.54212364716273 0 0 0 0 40.583634811763744 -0.58758682228252912 0 -0.58758682228252912 -1.0640117377206724 0 0 0 0 68.143173429922172 55.704133284377576 0 55.704133284377576 -41.988667429684938 0 0 0 0 29.995052218393539 39.951630092979258 0 39.951630092979258 -47.916566863592152 0 0 0 0 93.192845710349502 73.944796051833691 0 73.944796051833691 -110.05181121827445 0 0 0 0 72.047636094102927 31.544525373407851 0 31.544525373407851 -155.49383448872504 0 0 0 0 81.381858156724775 1.9106799402520664 0 1.9106799402520664 -122.17426330318858 0 0 0 0 23.942731109255305 11.411334032906169 0 11.411334032906169 -123.29204661907443 0 0 0 0 23.674501951976708 17.459060437394896 0 17.459060437394896 -90.803384746797065 0 0 0 0 -68.967895214685086 118.03997453905754 0 118.03997453905754 193.3659687189238 0 0 0 0 7.1576863573240246 0.5976326969311937 0 0.5976326969311937 0.084900720133552099 0 0 0 0 128.67320075918724 -296.79784216667053 0 -296.79784216667053 76.183512393085039 0 0 0 0 279.14616955605015 -217.73454709986299 0 -217.73454709986299 33.246899490139867 0 0 0 0 34.504018419596946 -76.587437235476614 0 -76.587437235476614 176.92016973951695 0 0 0 0 200.35697702296602 27.059952945051919 0 27.059952945051919 -7.2190923014798045 0 0 0 0 1.9777361254760848 -2.0830467566668212 0 -2.0830467566668212 0.36367231479044726 0 0 0 0 240.04989061309607 -127.00476104458335 0 -127.00476104458335 41.520168537622794 0 0 0 0 122.66596898539501 -161.71689007872101 0 -161.71689007872101 164.88164724311309 0 0 0 0 101.31220115839528 -45.294124138840715 0 -45.294124138840715 -2.3437197081375416 0 0 0 0 165.06156824949358 -65.054754556113267 0 -65.054754556113267 -9.6066603789627152 0 0 0 0 101.80586634766951 -53.78127276277246 0 -53.78127276277246 17.498343384219055 0 0 0 0 108.03941390181308 -7.1755088773838338 0 -7.1755088773838338 -16.788742236529288 0 0 0 0 15.246549901619801 0.51656626157614483 0 0.51656626157614483 10.878938721944678 0 0 0 0 11.029652679930223 2.2593240712699298 0 2.2593240712699298 19.558450375578104 0 0 0 0 -1.6392267263763642 15.234500060971641 0 15.234500060971641 16.409317888294026 0 0 0 0 1.7493320323410302 -2.215776028587328 0 -2.215776028587328 1.1917175125595132 0 0 0 0 1.1637578416032253 -1.3821755301351786 0 -1.3821755301351786 -2.4676634892730362 0 0 0 0 7.4369375679161749 -8.3449419208789095 0 -8.3449419208789095 -11.603278367678058 0 0 0 0 -3.0907432566273201 -4.1733120133268358 0 -4.1733120133268358 -0.86840405541443033 0 0 0 0 -5.9174591381342907 -16.157722814918543 0 -16.157722814918543 -15.411074278351407 0 0 0 0 -5.4242628291503934 -9.5957711965058934 0 -9.5957711965058934 -5.8663884717607289 0 0 0 0 0.62710294130374677 0.55921661829734148 0 0.55921661829734148 -1.1287978973390267 0 0 0 0 3.3044556822060258 -3.6021332335872103 0 -3.6021332335872103 -6.0883121364280157 0 0 0 0 0.41162152637835447 0.1328640340225391 0 0.1328640340225391 0.30093040777499702 0 0 0 0 37.628593922836444 7.3794578344177353 0 7.3794578344177353 -18.717918736163028 0 0 0 0 0.5508365302886169 -1.0498230201749692 0 -1.0498230201749692 -0.33876937090161618 0 0 0 0 7.4678020445503535 0.6270824301133473 0 0.6270824301133473 0.30410615494520243 0 0 0 0 4.5371770290876725 1.1043805002953793 0 1.1043805002953793 -0.39914879329580355 0 0 0 0 2.8545823811509763 12.106035556746292 0 12.106035556746292 -17.335944414242931 0 0 0 0 4.6941396250294929 -0.90270362939122606 0 -0.90270362939122606 -1.3965190561930285 0 0 0 0 3.9487304967151431 17.626448966444059 0 17.626448966444059 -27.319121700328196 0 0 0 0 22.089063460378739 -1.8301954301111483 0 -1.8301954301111483 -12.849027374673913 0 0 0 0 -4.0892441702599172 9.7858988620112086 0 9.7858988620112086 -20.612945650783331 0 0 0 0 -6.1340313061596135 17.698210199390928 0 17.698210199390928 -21.165251487807836 0 0 0 0 -10.482404733520525 16.997877494008208 0 16.997877494008208 -10.6786344501229 0 0 0 0 0.60252545865290452 0.060974069075129478 0 0.060974069075129478 -0.0603771746023547 0 0 0 0 -2.8272646428922599 10.714780175232136 0 10.714780175232136 -47.431939095730513 0 0 0 0 6.6357341349603303 8.5928364414954643 0 8.5928364414954643 17.054951255258857 0 0 0 0 0.65487703700152622 -0.11249051939738486 0 -0.11249051939738486 0.083115068255414037 0 0 0 0 55.392355242995109 4.3185765128703224 0 4.3185765128703224 20.25499266200768 0 0 0 0 73.860149629770603 -12.261121965350185 0 -12.261121965350185 14.024289784982557 0 0 0 0 68.806235123327497 -9.1410501762020999 0 -9.1410501762020999 30.218484330603587 0 0 0 0 67.149575196144724 -1.3780001193495082 0 -1.3780001193495082 -4.9403943751863153 0 0 0 0 82.608375544525188 -35.3446551273762 0 -35.3446551273762 74.830303898370857 0 0 0 0 66.253208875201381 -23.266456008783905 0 -23.266456008783905 13.997112332684083 0 0 0 0 94.490605502523977 4.5471816230669901 0 4.5471816230669901 41.302923912585129 0 0 0 0 140.58585897798912 -32.426062194695305 0 -32.426062194695305 9.0799086464489847 0 0 0 0 100.54520244018477 -90.517045811211801 0 -90.517045811211801 80.382295017551769 0 0 0 0 40.389170496084262 -34.736792777554911 0 -34.736792777554911 29.204782334611764 0 0 0 0 42.711938907679723 -31.568454448946795 0 -31.568454448946795 28.151733204745142 0 0 0 0 2.9936413221529676 0.39506125450362362 0 0.39506125450362362 0.85747268176959501 0 0 0 0 5.1459286462886666 -3.0710916399059442 0 -3.0710916399059442 -1.2651610232112489 0 0 0 0 8.6956887846645259 -11.349350347408745 0 -11.349350347408745 15.800649712961786 0 0 0 0 9.0311120552178181 -7.0101042072956261 0 -7.0101042072956261 0.80630457541519718 0 0 0 0 23.741691171906496 22.558355278154522 0 22.558355278154522 21.243873118515239 0 0 0 0 1.145553171656033 0.18728224382812542 0 0.18728224382812542 -0.11152055157093788 0 0 0 0 31.69907152133419 1.2962002929805294 0 1.2962002929805294 27.384742080630076 0 0 0 0 21.387824065328459 13.063127982316701 0 13.063127982316701 21.048856145862828 0 0 0 0 4.4010453896530848 -3.3211226144993828 0 -3.3211226144993828 15.018156948024625 0 0 0 0 4.3878229872061638 2.1169244721313589 0 2.1169244721313589 33.464511744486572 0 0 0 0 -0.78253568235959392 -1.8957127391904578 0 -1.8957127391904578 22.626435756621504 0 0 0 0 10.120693026651679 5.680541509676118 0 5.680541509676118 16.110486751684221 0 0 0 0 10.611149689168087 4.0804099757492622 0 4.0804099757492622 17.400037641430572 0 0 0 0 17.683680946047389 12.205038556518957 0 12.205038556518957 15.017766614422726 0 0 0 0 13.732103640560126 7.8788228964973541 0 7.8788228964973541 10.483499860306438 0 0 0 0 31.833620077188243 -0.092271763950861896 0 -0.092271763950861896 20.068963789700319 0 0 0 0 19.74442845865633 11.052614358568462 0 11.052614358568462 17.363149861211468 0 0 0 0 49.852370349291959 2.7356615264739048 0 2.7356615264739048 15.238316430969462 0 0 0 0 53.515849352750593 -47.553855503457044 0 -47.553855503457044 39.952101604689915 0 0 0 0 118.3058305762861 -4.9944704902279682 0 -4.9944704902279682 9.9279231828938919 0 0 0 0 107.17892162916269 -68.17660070971084 0 -68.17660070971084 37.806690107027862 0 0 0 0 101.19524970667226 -55.742594838066225 0 -55.742594838066225 22.07754404430807 0 0 0 0 56.281873492325758 -104.16180609711841 0 -104.16180609711841 115.25763663933094 0 0 0 0 38.949951725423034 -30.117063255518644 0 -30.117063255518644 22.004285945250558 0 0 0 0 -2.4007033684749217 26.641697189263645 0 26.641697189263645 -2.1100389319562964 0 0 0 0 -0.95995801427852712 -24.766695283043418 0 -24.766695283043418 40.061177810266599 0 0 0 0 18.979015711005118 2.0210277426508236 0 2.0210277426508236 0.046017533559448154 0 0 0 0 62.580234954972184 53.670540212239302 0 53.670540212239302 -98.317075408644087 0 0 0 0 -41.715439135521592 28.817356958491018 0 28.817356958491018 -103.75367943197642 0 0 0 0 -108.49580893182065 7.954661909723427 0 7.954661909723427 -84.52275969459015 0 0 0 0 -110.67788423064644 -12.985092870194265 0 -12.985092870194265 20.418892581259115 0 0 0 0 0.42194487568485783 -71.940563125813242 0 -71.940563125813242 167.44193271956669 0 0 0 0 26.390244760934365 0.61458611351084258 0 0.61458611351084258 -0.085718251572657334 0 0 0 0 -33.645786472829059 -4.2260325137256132 0 -4.2260325137256132 -101.15945595058201 0 0 0 0 87.987613431305363 -8.9018019331856522 0 -8.9018019331856522 11.416987948008 0 0 0 0 543.94720302046335 511.96358469209599 0 511.96358469209599 -68.385732201693259 0 0 0 0 343.18030768616882 -365.03462808900076 0 -365.03462808900076 413.84305895195649 0 0 0 0 905.67500209304126 -324.14598724831649 0 -324.14598724831649 -47.373767323391803 0 0 0 0 9.7428820022955733 -0.30056679042038414 0 -0.30056679042038414 0.053451972504363621 0 0 0 0 971.92344237656653 -130.32719343808185 0 -130.32719343808185 -208.18835735186713 0 0 0 0 460.74870711287804 79.849805099430796 0 79.849805099430796 -189.65858332140454 0 0 0 0 711.10308841095684 12.897441432001415 0 12.897441432001415 -233.58284600631646 0 0 0 0 940.6059787762897 -290.37946223216022 0 -290.37946223216022 -68.322240845354372 0 0 0 0 2.0516768520482032 -5.3745244171719264 0 -5.3745244171719264 8.6371498807681064 0 0 0 0 768.11614980680315 -336.21256078884107 0 -336.21256078884107 -7.4444089426224309 0 0 0 0 -1132.4326577951638 -661.16014563207636 0 -661.16014563207636 642.0856947168304 0 0 0 0 791.25227493148122 -353.98529997016885 0 -353.98529997016885 -4.4065745146062909 0 0 0 0 1047.6744770817895 -602.36674703572908 0 -602.36674703572908 232.27757526894436 0 0 0 0 -891.80911225629825 -639.26476267099713 0 -639.26476267099713 608.73419087896855 0 0 0 0 -842.37971134512918 -883.77708129115672 0 -883.77708129115672 324.31691578142363 0 0 0 0 -875.58178518350542 -784.1440548858593 0 -784.1440548858593 498.90415620361091 0 0 0 0 -896.59850559136248 -762.70130618607573 0 -762.70130618607573 521.75620122685541 0 0 0 0 -666.71737031730299 -654.27826858845151 0 -654.27826858845151 433.43576579946966 0 0 0 0 -696.81801137245202 -694.97105966421327 0 -694.97105966421327 423.98218087882378 0 0 0 0 771.72176056049727 -187.67589043791224 0 -187.67589043791224 -116.59549567154954 0 0 0 0 160.67080927110146 1101.8384433391177 0 1101.8384433391177 1934.9886969799936 0 0 0 0 -1180.0999049662496 -1050.713072696888 0 -1050.713072696888 785.47518779061284 0 0 0 0 22.006924322842679 2.3839984714742286 0 2.3839984714742286 -4.4716317264683312 0 0 0 0 21.1225063815873 1.1134855427326329 0 1.1134855427326329 1.1420430756043061 0 0 0 0 22.057018304949452 1.7393993700875399 0 1.7393993700875399 -0.29315887812481378 0 0 0 0 21.554147574264789 2.8731636376742244 0 2.8731636376742244 -1.9514784104158025 0 0 0 0 19.882619557611179 2.7502264600043418 0 2.7502264600043418 0.89097783188844915 0 0 0 0 19.612495886554825 1.3134428265057068 0 1.3134428265057068 2.4716653490177123 0 0 0 0 -583.8075919704861 -711.30083280252711 0 -711.30083280252711 214.70471956532174 0 0 0 0 17.52901001329883 2.0657284814242303 0 2.0657284814242303 3.6425971177177416 0 0 0 0 19.640161810784775 3.0526107654436601 0 3.0526107654436601 0.63532582894004008 0 0 0 0 18.182022895969567 2.8910480448721501 0 2.8910480448721501 2.804336076628033 0 0 0 0 26.433969458128558 18.959536908988412 0 18.959536908988412 -27.908010073128594 0 0 0 0 25.795852266317524 4.0446904271793755 0 4.0446904271793755 -15.479071649871457 0 0 0 0 376.326759489697 -147.30489469805661 0 -147.30489469805661 -86.289639822969548 0 0 0 0 26.195345017437063 2.4813579476709444 0 2.4813579476709444 -0.081456303296620236 0 0 0 0 564.44362419199024 33.530290021496512 0 33.530290021496512 -146.37350525124305 0 0 0 0 12.963826973860705 6.7323222673539931 0 6.7323222673539931 18.683657722986482 0 0 0 0 34.605935198644147 -5.6872781493884759 0 -5.6872781493884759 16.959398148243054 0 0 0 0 20.584312490289449 18.763082275007037 0 18.763082275007037 -10.787759993517398 0 0 0 0 18.602555750108877 7.3596068804690731 0 7.3596068804690731 9.8963958224103408 0 0 0 0 18.868620199864381 12.855516315014029 0 12.855516315014029 8.8346795373390705 0 0 0 0 17.293629385523673 7.6440604233607701 0 7.6440604233607701 1.8986836410449541 0 0 0 0 16.23864246361336 6.1440397117848988 0 6.1440397117848988 3.9487734770664247 0 0 0 0 17.507806750491 5.1645337248332908 0 5.1645337248332908 2.7184087885052577 0 0 0 0 17.005390184640419 3.6480393628239653 0 3.6480393628239653 2.9668150115139724 0 0 0 0 16.781074323371286 4.0276771487156111 0 4.0276771487156111 3.2430703153549985 0 0 0 0 19.905293413627078 5.4763832856706358 0 5.4763832856706358 -1.8243786179368158 0 0 0 0 19.653672658852884 4.812358143792153 0 4.812358143792153 1.4533708530752847 0 0 0 0 19.361546565436583 12.298923983140867 0 12.298923983140867 -1.5797618043907278 0 0 0 0 21.752601991254778 7.9470342007225554 0 7.9470342007225554 1.1134693570920717 0 0 0 0 21.870887799435877 8.1006838497060016 0 8.1006838497060016 -8.4878085540785833 0 0 0 0 17.246025276694127 11.883198464264524 0 11.883198464264524 8.3823399780130785 0 0 0 0 15.393391177407466 6.3757277539066308 0 6.3757277539066308 6.500662034240122 0 0 0 0 13.830373713935842 7.0412358837625106 0 7.0412358837625106 8.3239426148475104 0 0 0 0 10.82000823031558 5.0189988904839993 0 5.0189988904839993 7.8507691038369103 0 0 0 0 10.631837732900749 3.3595963010511696 0 3.3595963010511696 7.9271358409575896 0 0 0 0 7.3990391932893544 1.3939349247664268 0 1.3939349247664268 8.6864110535743748 0 0 0 0 10.526426106720464 2.6988809312952071 0 2.6988809312952071 7.5385333706508391 0 0 0 0 9.4063225280460756 0.45643115692729452 0 0.45643115692729452 5.2404231328691822 0 0 0 0 9.9461880559611018 2.1279963763236083 0 2.1279963763236083 6.9941871240462206 0 0 0 0 11.105408090181299 1.6246209071168778 0 1.6246209071168778 4.9538498989295476 0 0 0 0 13.04795898408338 2.0430134819944215 0 2.0430134819944215 4.3241173753349358 0 0 0 0 12.825895544490777 2.5083655614939744 0 2.5083655614939744 4.6506587919502635 0 0 0 0 13.576116892138089 3.1572130898903197 0 3.1572130898903197 4.9437770529748377 0 0 0 0 14.426810087141348 4.8014274253664553 0 4.8014274253664553 5.3951159033349541 0 0 0 0 12.808756341572007 3.119196990144701 0 3.119196990144701 4.9755488895680173 0 0 0 0 12.668666022247635 3.1183507685009317 0 3.1183507685009317 6.3764268936183726 0 0 0 0 2.8432209584674677 -3.3690888503178478 0 -3.3690888503178478 8.9075441734930969 0 0 0 0 472.48247364423059 -26.801093852108789 0 -26.801093852108789 294.86070144872895 0 0 0 0 1457.4254890014345 -233.5483084442117 0 -233.5483084442117 7.1843228120087872 0 0 0 0 601.99323359819755 452.58603111304433 0 452.58603111304433 244.43382259760074 0 0 0 0 1272.9147902880213 -271.27571727639139 0 -271.27571727639139 115.74400458376226 0 0 0 0 2440.3773227048096 -581.173782241352 0 -581.173782241352 -97.849667658481621 0 0 0 0 2140.1373568307254 -143.20055081119767 0 -143.20055081119767 616.07007737388426 0 0 0 0 1476.1243860010145 -537.90478628526182 0 -537.90478628526182 1423.3307241819664 0 0 0 0 1797.7889450050789 756.26497814831782 0 756.26497814831782 -561.34522779235158 0 0 0 0 1315.2304772290081 -1085.6472348889349 0 -1085.6472348889349 2263.0410228875903 0 0 0 0 815.44154064175382 -1320.7973743000794 0 -1320.7973743000794 2162.3540463700219 0 0 0 0 1.3623132881578535 -0.070573947333066656 0 -0.070573947333066656 1.4163311512336287 0 0 0 0 4.8103645277466995 -0.66030228985192285 0 -0.66030228985192285 1.2502407661174373 0 0 0 0 -267.6663448919353 755.48817892132092 0 755.48817892132092 2209.7186693608965 0 0 0 0 103.46507451098296 902.25955901740963 0 902.25955901740963 1372.137627277456 0 0 0 0 -4.4452384274336509 -316.72047757251585 0 -316.72047757251585 2738.9291220485134 0 0 0 0 285.67819901483017 -174.10856578647326 0 -174.10856578647326 1357.1383753990967 0 0 0 0 1360.61672801448 -384.91267111671027 0 -384.91267111671027 542.0288988943455 0 0 0 0 716.64012131937125 -486.66545989314773 0 -486.66545989314773 952.61099924545124 0 0 0 0 646.54825323271871 -623.69017023341485 0 -623.69017023341485 887.60645154490157 0 0 0 0 1307.4465834324365 -991.00151651153101 0 -991.00151651153101 1365.8210251511673 0 0 0 0 679.20341771123549 -725.51660619757047 0 -725.51660619757047 857.22061901375127 0 0 0 0 2062.7125346440225 -1037.8426719005934 0 -1037.8426719005934 1016.036140418767 0 0 0 0 1488.1259735237254 -322.18473636573293 0 -322.18473636573293 597.87399170863023 0 0 0 0 -137.38885240629315 -356.37351375851722 0 -356.37351375851722 216.88386517042591 0 0 0 0 14.445444410346681 1.9999529479628109 0 1.9999529479628109 3.8207427484908294 0 0 0 0 18.398324409531213 -0.75386600756544064 0 -0.75386600756544064 1.0094151434711685 0 0 0 0 14.651569505484076 2.504867797976658 0 2.504867797976658 3.6170206177548607 0 0 0 0 16.065945594527875 3.0249201176939096 0 3.0249201176939096 3.791731473074833 0 0 0 0 13.2702055471309 2.3006238256348297 0 2.3006238256348297 4.3999052357653454 0 0 0 0 13.69171086724964 2.9201114602874441 0 2.9201114602874441 4.7575519353104028 0 0 0 0 261.29901166021591 48.697049280672218 0 48.697049280672218 380.93401187428753 0 0 0 0 337.37530065618921 495.1676789621788 0 495.1676789621788 685.65547806411814 0 0 0 0 11.466486362733121 1.3276089462779055 0 1.3276089462779055 3.8999805272305821 0 0 0 0 258.10672829323448 -208.17660156414422 0 -208.17660156414422 586.409074663198 0 0 0 0 213.68439083494013 -45.903276068480864 0 -45.903276068480864 1145.7634079477466 0 0 0 0 -70.497110542375594 -405.25298554552228 0 -405.25298554552228 338.89926196787258 0 0 0 0 -169.61409823624126 -407.99936235922178 0 -407.99936235922178 555.8594839826269 0 0 0 0 89.434540589127209 -256.37434501784537 0 -256.37434501784537 477.20807484241777 0 0 0 0 87.249326485802158 -475.20966998601273 0 -475.20966998601273 475.65736760752588 0 0 0 0 239.94368637631123 -350.13431260429297 0 -350.13431260429297 711.79119491970323 0 0 0 0 94.486852623871528 -217.84975844783366 0 -217.84975844783366 749.99600209274467 0 0 0 0 81.561731126421364 -464.15588943305238 0 -464.15588943305238 681.68546126817887 0 0 0 0 674.80796718880379 -635.43121088662042 0 -635.43121088662042 574.61200991504029 0 0 0 0 113.76043412631407 -387.44956876566584 0 -387.44956876566584 479.88739387135684 0 0 0 0 -41.323116075785947 -602.70720372027097 0 -602.70720372027097 511.24828383426797 0 0 0 0 -309.85087771105282 -532.09164474498812 0 -532.09164474498812 471.61737202120457 0 0 0 0 -268.8684030630975 -457.81182011022156 0 -457.81182011022156 358.15178967181419 0 0 0 0 -245.04425628302852 -386.54262427126127 0 -386.54262427126127 510.66867343191188 0 0 0 0 -477.25166789328796 -619.22856588796913 0 -619.22856588796913 315.84229009141688 0 0 0 0 -371.87827764527174 -520.17633036092411 0 -520.17633036092411 324.90407241198955 0 0 0 0 -416.71768128441181 -518.69165645725479 0 -518.69165645725479 438.08213166203222 0 0 0 0 -310.75232728820447 -524.68465288210871 0 -524.68465288210871 413.35587825074435 0 0 0 0 -428.19949503053795 -611.41099613022629 0 -611.41099613022629 476.02481840964242 0 0 0 0 -605.03824872618134 -677.81166104097292 0 -677.81166104097292 428.44806632221446 0 0 0 0 -560.41764086169132 -553.33625654061188 0 -553.33625654061188 541.6951108802532 0 0 0 0 -704.70925673109741 -482.08220761297002 0 -482.08220761297002 562.24589738143823 0 0 0 0 -347.34336722946318 -440.62843796424482 0 -440.62843796424482 532.18952022591975 0 0 0 0 -462.99374939172412 -534.14566690815241 0 -534.14566690815241 530.84630462148834 0 0 0 0 -483.32238017973577 -493.28312432351845 0 -493.28312432351845 527.6333417652238 0 0 0 0 -156.33923492533359 154.92594096528552 0 154.92594096528552 -502.63716681304174 0 0 0 0 -1180.5949289405817 -234.84452132390564 0 -234.84452132390564 503.713288575494 0 0 0 0 499.50626083429233 -532.1938827276042 0 -532.1938827276042 -4.2254400823502181 0 0 0 0 634.54614215691618 -638.87409376411165 0 -638.87409376411165 296.51222480182923 0 0 0 0 16.690580056150793 -191.02724358588739 0 -191.02724358588739 60.9478057553832 0 0 0 0 762.52278808703886 -347.35004329366416 0 -347.35004329366416 207.12869459880778 0 0 0 0 1225.7946937386587 -653.12108941687165 0 -653.12108941687165 395.23287662096925 0 0 0 0 1148.9806898978968 -320.37963130801785 0 -320.37963130801785 109.4097470688896 0 0 0 0 1650.1013265140791 -231.13022183913807 0 -231.13022183913807 102.69199123627197 0 0 0 0 1544.8645134434628 -303.97178628831779 0 -303.97178628831779 -208.53233606398291 0 0 0 0 1180.5722848964506 -520.83953772983125 0 -520.83953772983125 -38.946556546718668 0 0 0 0 592.83622180909515 -322.09296830980065 0 -322.09296830980065 -59.314276297209119 0 0 0 0 1135.5015440824923 -430.18923360474435 0 -430.18923360474435 -401.07498902477653 0 0 0 0 1119.4209228258735 -314.11378453616953 0 -314.11378453616953 -135.85686034572427 0 0 0 0 411.71292821506358 -611.84784488939988 0 -611.84784488939988 -329.14394380879929 0 0 0 0 5.262426783291879 -9.9244871456500618 0 -9.9244871456500618 14.264782918257325 0 0 0 0 440.63781991156975 -489.85145297090952 0 -489.85145297090952 -50.359906907293691 0 0 0 0 1550.1288864748385 -294.18860398451091 0 -294.18860398451091 -133.13749487086997 0 0 0 0 1538.0768039459108 -389.68134962625697 0 -389.68134962625697 -79.834036462952298 0 0 0 0 1534.0057493708409 -345.45147670071253 0 -345.45147670071253 -316.43914921874682 0 0 0 0 1469.5381478409709 -297.17883451437518 0 -297.17883451437518 161.52385310853174 0 0 0 0 1576.1743212239089 -188.04858859662534 0 -188.04858859662534 183.48725564381095 0 0 0 0 1499.9679144470319 -385.55158791530602 0 -385.55158791530602 203.89021305921466 0 0 0 0 1366.3588029032726 -373.38454505741663 0 -373.38454505741663 238.80957436168279 0 0 0 0 1366.507473265121 -348.37509335320084 0 -348.37509335320084 696.59262657181944 0 0 0 0 1491.8430688740791 -451.54326004557231 0 -451.54326004557231 390.52396510574107 0 0 0 0 1381.3649247508642 -512.01367856486149 0 -512.01367856486149 38.991840703928347 0 0 0 0 1255.0460116176 -587.15033876026939 0 -587.15033876026939 436.70342646975274 0 0 0 0 1499.7949033916393 -472.59234881838279 0 -472.59234881838279 310.4977253700377 0 0 0 0 1392.3982777405399 -640.76264624224132 0 -640.76264624224132 92.827823016160025 0 0 0 0 1344.5580639610944 -526.22633245023212 0 -526.22633245023212 34.202235500952469 0 0 0 0 1233.4647081201983 -492.50636655511801 0 -492.50636655511801 298.15667583324296 0 0 0 0 1499.8437262456191 -613.78197045803893 0 -613.78197045803893 5.0047373766884569 0 0 0 0 1236.3679522771386 -631.24235765935941 0 -631.24235765935941 148.13476997351381 0 0 0 0 790.91485437730262 -469.78806077876607 0 -469.78806077876607 161.05020290109388 0 0 0 0 1341.4588115832121 -545.67145711785815 0 -545.67145711785815 -87.63115156001993 0 0 0 0 1156.3922980982497 -565.72098525717183 0 -565.72098525717183 46.859368511921787 0 0 0 0 1165.5046504764364 -284.97833836080167 0 -284.97833836080167 -170.24198161267879 0 0 0 0 816.03590755728874 -311.71017643679278 0 -311.71017643679278 58.157806378984603 0 0 0 0 865.67340033501023 -301.69394240691622 0 -301.69394240691622 -208.65716299663237 0 0 0 0 555.05727636543088 93.765355272192707 0 93.765355272192707 -233.21240739357836 0 0 0 0 671.71074112407587 -309.79181598687182 0 -309.79181598687182 67.872450923946133 0 0 0 0 6.4559575781422609 3.3482335300459454 0 3.3482335300459454 15.06215824064725 0 0 0 0 7.930975367406063 2.8415020799459398 0 2.8415020799459398 10.952440350871257 0 0 0 0 6.4829197671788279 -0.024809419570374303 0 -0.024809419570374303 7.9853269445952719 0 0 0 0 -4.8004011911671114 -4.3857730386353069 0 -4.3857730386353069 17.198396088464733 0 0 0 0 0.79384884277976475 -3.7570938881569305 0 -3.7570938881569305 10.543245175399566 0 0 0 0 -1.7680566682101926 0.52963304723198235 0 0.52963304723198235 16.684393494036158 0 0 0 0 2.8778320995625108 -0.61824289985474934 0 -0.61824289985474934 10.764574747945062 0 0 0 0 736.04382455876112 -154.77204686160664 0 -154.77204686160664 -89.543265791340943 0 0 0 0 -0.22527803457242968 0.46760697091673009 0 0.46760697091673009 -0.04168815344064436 0 0 0 0 339.45437833706865 -289.84456101042338 0 -289.84456101042338 283.17736925372992 0 0 0 0 20.856977849671239 -69.679438283999417 0 -69.679438283999417 162.85738941245125 0 0 0 0 48.4222283064355 4.7751756546982875 0 4.7751756546982875 -38.120143775861607 0 0 0 0 402.71429531015747 -132.26313500826518 0 -132.26313500826518 -29.349230317535103 0 0 0 0 136.52240109413833 103.48799613195217 0 103.48799613195217 -1.821668898020107 0 0 0 0 -17.367982389541794 13.245551979178288 0 13.245551979178288 23.961337963689971 0 0 0 0 0.48122140577834216 -6.3302916377756446 0 -6.3302916377756446 5.3182366469523004 0 0 0 0 3.6572915084780107 -10.376080504157926 0 -10.376080504157926 9.830724194672257 0 0 0 0 14.333331812742472 2.8890450486729264 0 2.8890450486729264 -2.0782085915948301 0 0 0 0 0.78027565528805987 -2.8385455245482341 0 -2.8385455245482341 7.916579683596991 0 0 0 0 -33.363351420376603 4.7944401705480573 0 4.7944401705480573 2.1752129164387952 0 0 0 0 0.461643527403794 57.844261462877512 0 57.844261462877512 27.816203672044139 0 0 0 0 2.2344948611733813 1.2724685407848746 0 1.2724685407848746 -2.1404363610671346 0 0 0 0 55.485688508677413 -30.195627012734008 0 -30.195627012734008 -13.897180873203979 0 0 0 0 100.31011299502279 -5.6248116500530614 0 -5.6248116500530614 -42.138333975577098 0 0 0 0 -196.13961010411003 14.780391800549864 0 14.780391800549864 185.02361705871783 0 0 0 0 252.45496670191642 -119.74523998850009 0 -119.74523998850009 26.248664130958559 0 0 0 0 59.598640096585768 -45.770470952396863 0 -45.770470952396863 -61.375485980314807 0 0 0 0 0.90289215967198277 -0.75195264090505631 0 -0.75195264090505631 3.6619957242290679 0 0 0 0 2061.7837583373093 -600.41665407819244 0 -600.41665407819244 -27.976036860690783 0 0 0 0 1567.0290130362373 -422.35190020818754 0 -422.35190020818754 140.15789463721705 0 0 0 0 1500.4620830011454 -780.72129100081531 0 -780.72129100081531 537.95312815356624 0 0 0 0 288.15860669876929 -548.60452005546108 0 -548.60452005546108 573.24110676445684 0 0 0 0 -84.466615770357748 -129.35796195838083 0 -129.35796195838083 354.51619552847774 0 0 0 0 4.8549765914315657 0.089828188603952697 0 0.089828188603952697 -0.89124123578445735 0 0 0 0 1396.7167751855959 -863.64739363200715 0 -863.64739363200715 234.11013310102794 0 0 0 0 1498.2532698765281 -823.67949545490649 0 -823.67949545490649 156.59775886958184 0 0 0 0 795.28258153329807 -511.32196100155761 0 -511.32196100155761 30.218340513350633 0 0 0 0 1500.0158319461807 -326.96606963989495 0 -326.96606963989495 -154.73118706821157 0 0 0 0 854.87870453072878 89.30831756144957 0 89.30831756144957 -321.48632385369774 0 0 0 0 1168.5196206916808 -377.64823138047905 0 -377.64823138047905 111.95218532112595 0 0 0 0 1277.2701779045383 -257.94997411167378 0 -257.94997411167378 -37.803424208755672 0 0 0 0 1163.4655072347159 -370.04995498281471 0 -370.04995498281471 100.58387233866746 0 0 0 0 1113.2911115112438 -402.30090578673003 0 -402.30090578673003 176.83784086216218 0 0 0 0 1237.5630513217038 -433.50049645485694 0 -433.50049645485694 32.411858620196028 0 0 0 0 1297.0655175699212 -305.16317986878198 0 -305.16317986878198 129.5486247260296 0 0 0 0 1583.7572255475179 -486.15209732752936 0 -486.15209732752936 -49.42751027646068 0 0 0 0 1251.8070773097897 -490.59519441637167 0 -490.59519441637167 -33.404117137515783 0 0 0 0 1044.8384671549102 -449.60639540598754 0 -449.60639540598754 68.638474687586566 0 0 0 0 1273.62733810385 -467.04140213880828 0 -467.04140213880828 -31.09768915474104 0 0 0 0 921.50328261497634 -406.15652905435041 0 -406.15652905435041 32.96685287566401 0 0 0 0 1195.0972671460231 -397.71697168507797 0 -397.71697168507797 1.988510020336232 0 0 0 0 1288.0037299497963 -385.81692069837339 0 -385.81692069837339 -7.0571404160935742 0 0 0 0 716.36888857478698 -596.24420109655625 0 -596.24420109655625 156.11541842847078 0 0 0 0 717.53936621209891 182.01038174752827 0 182.01038174752827 -168.36224904885387 0 0 0 0 5.1242951263040624 -0.097881808052306951 0 -0.097881808052306951 -0.84158717459526622 0 0 0 0 1497.4450525090069 -159.11007282901758 0 -159.11007282901758 -20.001939446792516 0 0 0 0 1201.4385426650952 -230.52911875131366 0 -230.52911875131366 171.84195288579758 0 0 0 0 1303.7564167272903 -306.20348640954279 0 -306.20348640954279 178.86518143709822 0 0 0 0 1300.5481740438136 -438.75625246678089 0 -438.75625246678089 449.98198652441789 0 0 0 0 1500.2378635456826 -419.14687355896194 0 -419.14687355896194 210.00247011793877 0 0 0 0 1481.5153083110308 -589.07630629079392 0 -589.07630629079392 130.41985273005966 0 0 0 0 1500.1249769155256 -428.25267180522047 0 -428.25267180522047 -110.13637596788689 0 0 0 0 903.78868926465293 -256.89562844104245 0 -256.89562844104245 -107.93897538485913 0 0 0 0 1494.6216256514574 -261.77271196422947 0 -261.77271196422947 -132.44347409264665 0 0 0 0 2120.6540671820803 -637.68610955282679 0 -637.68610955282679 92.310817676440024 0 0 0 0 -229.46890746834288 -110.55210430884136 0 -110.55210430884136 216.09300202536178 0 0 0 0 3.1311662862236389 -4.0355461085600908 0 -4.0355461085600908 6.0298516880536965 0 0 0 0 506.31028273732227 -531.23980711604554 0 -531.23980711604554 448.24713969825211 0 0 0 0 1334.4698823807921 -271.36486146632467 0 -271.36486146632467 206.06082811335719 0 0 0 0 1445.9513956292449 -568.37425602118492 0 -568.37425602118492 25.17383608534584 0 0 0 0 415.22380149894161 -177.06786504528168 0 -177.06786504528168 201.33944960740388 0 0 0 0 377.01116001577248 -29.862535326739703 0 -29.862535326739703 42.742139127622636 0 0 0 0 385.56969445536379 -68.088381856525757 0 -68.088381856525757 -7.4092440844533485 0 0 0 0 388.30545146748682 -76.510186667913302 0 -76.510186667913302 -103.11869808268102 0 0 0 0 -151.45435004345381 -104.82239043275251 0 -104.82239043275251 60.675187503137749 0 0 0 0 397.54930167838756 -33.809196545744726 0 -33.809196545744726 -192.99443592664147 0 0 0 0 395.48537931459941 -34.74092055400547 0 -34.74092055400547 -41.412791706795133 0 0 0 0 394.78532997121852 -152.67599930620463 0 -152.67599930620463 57.09520832623457 0 0 0 0 377.06261559030327 -15.175028279545359 0 -15.175028279545359 12.050781051072136 0 0 0 0 171.51536972092435 -86.748424818288413 0 -86.748424818288413 39.700067976911782 0 0 0 0 136.97702020929228 -5.377226403603629 0 -5.377226403603629 32.301534092463953 0 0 0 0 142.08613737121505 -65.041601425624378 0 -65.041601425624378 46.98944681057128 0 0 0 0 166.12768786229935 -19.977981616161088 0 -19.977981616161088 43.026273975732295 0 0 0 0 390.40095198313043 8.6522079904513145 0 8.6522079904513145 -14.089453291132259 0 0 0 0 123.51526341681529 60.934879339811403 0 60.934879339811403 -4.7872769515353184 0 0 0 0 6.4155128175641778 -4.6320238956760846 0 -4.6320238956760846 2.6773056846953471 0 0 0 0 149.14816570905896 -209.96859165843804 0 -209.96859165843804 -125.26237832867983 0 0 0 0 451.13851671924022 145.38927248171657 0 145.38927248171657 -79.492106147736166 0 0 0 0 413.40589538683344 -164.581889572676 0 -164.581889572676 53.354914572949149 0 0 0 0 559.08465693226572 -70.547715567571345 0 -70.547715567571345 -60.179481484937597 0 0 0 0 950.69750612698408 -303.00888367312587 0 -303.00888367312587 14.095547670503549 0 0 0 0 1020.7816541105276 -257.03078903696547 0 -257.03078903696547 -59.168802585603714 0 0 0 0 990.21892585223759 -280.58033801542666 0 -280.58033801542666 -68.261051682891534 0 0 0 0 1366.908612400669 -46.662989068547937 0 -46.662989068547937 -144.42259698182482 0 0 0 0 1170.9531758908633 -447.36492736196584 0 -447.36492736196584 16.51909304624256 0 0 0 0 1109.7853604577394 -438.07596624900407 0 -438.07596624900407 151.35968118286502 0 0 0 0 1110.2532937229334 -408.30784612464436 0 -408.30784612464436 169.59452963778821 0 0 0 0 1143.2068424060417 -426.09143099126817 0 -426.09143099126817 178.89826558723047 0 0 0 0 1108.5234084858748 -412.25682077485408 0 -412.25682077485408 226.06884292576348 0 0 0 0 1150.6013138857052 -467.98537242361408 0 -467.98537242361408 169.52315844445496 0 0 0 0 1452.1147284427207 -494.77326932146451 0 -494.77326932146451 294.30073134693794 0 0 0 0 1141.2286762987642 -366.58356792823668 0 -366.58356792823668 264.34424391469997 0 0 0 0 21.732937361572112 -219.6030304885538 0 -219.6030304885538 -160.78021441803776 0 0 0 0 3.5244586212683942 -1.9990882283535356 0 -1.9990882283535356 0.8751532422801982 0 0 0 0 1434.1226891313927 -586.90240226449782 0 -586.90240226449782 -172.88198751344208 0 0 0 0 2.0202185586604173 5.672658722006048 0 5.672658722006048 -104.30641912374085 0 0 0 0 -85.857786179851246 27.278094987449578 0 27.278094987449578 -101.13354584955268 0 0 0 0 -22.117349923856636 -3.9268491403517771 0 -3.9268491403517771 -107.28963641147902 0 0 0 0 -18.821755844059226 -30.706503021524185 0 -30.706503021524185 -39.017482515229403 0 0 0 0 32.666529531496053 -29.70057494492977 0 -29.70057494492977 -109.49040428345567 0 0 0 0 -11.382045943758385 -42.460910569886906 0 -42.460910569886906 -97.394423465199736 0 0 0 0 -80.031753815404954 -39.686914947483956 0 -39.686914947483956 -97.441041936498621 0 0 0 0 2.9782264919467707 -45.324540476900367 0 -45.324540476900367 -187.51684407959399 0 0 0 0 11.230868973903853 -18.089864946709156 0 -18.089864946709156 -110.4812833169572 0 0 0 0 22.586514096943574 -31.396674361210586 0 -31.396674361210586 -104.46577611010616 0 0 0 0 348.64760163493338 106.15726822475499 0 106.15726822475499 40.771723354504502 0 0 0 0 -16.116786727208819 -64.22955052088912 0 -64.22955052088912 -105.88195112295915 0 0 0 0 4.4974315810627701 -2.5686781424110023 0 -2.5686781424110023 0.16167804094553895 0 0 0 0 38.327820507030992 -58.381376912541356 0 -58.381376912541356 -110.66619903223858 0 0 0 0 20.751378739345455 -31.232541260934525 0 -31.232541260934525 -103.3396539465724 0 0 0 0 26.963347580855043 -41.854693854646825 0 -41.854693854646825 -93.046827311792526 0 0 0 0 91.718380877602613 6.8867357962406004 0 6.8867357962406004 -66.026751775940625 0 0 0 0 69.405902870198588 -79.54336744145823 0 -79.54336744145823 -44.575117511379631 0 0 0 0 205.91944092742051 -117.97645964411237 0 -117.97645964411237 35.802327457010051 0 0 0 0 273.77374032796797 -55.178849159039942 0 -55.178849159039942 -51.564899346950767 0 0 0 0 23.143853198722354 -41.301829383213544 0 -41.301829383213544 -0.63880502798019734 0 0 0 0 6.5268586501042591 -19.096621748260077 0 -19.096621748260077 9.3059852219369077 0 0 0 0 21.644515678919561 -29.449939389599649 0 -29.449939389599649 -21.020785411876915 0 0 0 0 -9.1651026510517113 -23.01027927814846 0 -23.01027927814846 -37.578334537166668 0 0 0 0 3.3726139537975541 -5.8737560856818902 0 -5.8737560856818902 -14.158951979879475 0 0 0 0 -42.663604887495239 -174.10707502479329 0 -174.10707502479329 -95.27126198484774 0 0 0 0 5.7864594806951288 -4.8510578731150602 0 -4.8510578731150602 3.4684898586896384 0 0 0 0 -83.440682944627042 -23.340228494928908 0 -23.340228494928908 47.15073962345275 0 0 0 0 4.0803227825013408 -3.9631447137421603 0 -3.9631447137421603 3.3345550747139585 0 0 0 0 -113.79468310588118 -173.9124218312183 0 -173.9124218312183 -87.813885381347632 0 0 0 0 -93.041494065488223 -10.552485900890019 0 -10.552485900890019 -0.75936211104618678 0 0 0 0 -48.117834479048724 -82.442249423090288 0 -82.442249423090288 78.901392651753213 0 0 0 0 61.110174640311016 17.397252464385019 0 17.397252464385019 3.4881936209397963 0 0 0 0 -64.19980683387621 -42.650109624754009 0 -42.650109624754009 93.829335424356032 0 0 0 0 10.132817114270438 -24.119706331826364 0 -24.119706331826364 78.156832936545129 0 0 0 0 -7.0250961317069596 -76.352826594318003 0 -76.352826594318003 76.806738738816421 0 0 0 0 -6.6345647498928884 -54.846012922884029 0 -54.846012922884029 34.656563843934691 0 0 0 0 15.627375538764682 -50.473687006357238 0 -50.473687006357238 34.536625556636409 0 0 0 0 37.588066487463948 -55.77849385464333 0 -55.77849385464333 70.48062846969151 0 0 0 0 17.765179557547526 -4.1698354623645173 0 -4.1698354623645173 65.676287257780132 0 0 0 0 97.981524324546626 -21.454097540543671 0 -21.454097540543671 -44.890470534852284 0 0 0 0 122.5606684214813 38.606720777586659 0 38.606720777586659 -37.063294209921878 0 0 0 0 124.98139522042516 -8.4517030017639883 0 -8.4517030017639883 -45.912925917720713 0 0 0 0 45.66002996782936 -72.318341014783414 0 -72.318341014783414 -57.457144531620543 0 0 0 0 60.20865467585827 -12.555701747788135 0 -12.555701747788135 -23.13916533185693 0 0 0 0 37.540749250667432 -96.29266452443585 0 -96.29266452443585 33.305791546219552 0 0 0 0 16.21074621736625 -53.681285764789152 0 -53.681285764789152 -35.289589432198227 0 0 0 0 110.61949720156554 -39.670372982014442 0 -39.670372982014442 -44.683282859737346 0 0 0 0 158.79739797124421 -215.81699406104485 0 -215.81699406104485 86.775703833930038 0 0 0 0 -14.35408262792771 -94.559268204520777 0 -94.559268204520777 37.874136923816536 0 0 0 0 333.65035841074859 -7.8459239697704106 0 -7.8459239697704106 -54.167804046214542 0 0 0 0 177.41101661663561 -40.591937048661066 0 -40.591937048661066 -40.406132216356241 0 0 0 0 151.53824608350988 -12.284204720869866 0 -12.284204720869866 197.92661769480401 0 0 0 0 265.61899171195182 -208.54493087812307 0 -208.54493087812307 107.71880621090622 0 0 0 0 349.13613648471801 -56.152694742224071 0 -56.152694742224071 -23.123618845870396 0 0 0 0 1.2000175053757687 -1.6378808863489454 0 -1.6378808863489454 1.8827437100584152 0 0 0 0 -89.832187544590852 -156.19473398493449 0 -156.19473398493449 120.70561864441294 0 0 0 0 129.5261129900282 27.015259491230722 0 27.015259491230722 -12.443947481294344 0 0 0 0 229.99216715369403 -80.563186562472765 0 -80.563186562472765 83.557532643566446 0 0 0 0 382.72584485058906 -26.44593130464682 0 -26.44593130464682 96.82133953072119 0 0 0 0 225.98572230600985 -88.8075855190325 0 -88.8075855190325 98.673999665306127 0 0 0 0 525.20604015720892 -279.70480435439549 0 -279.70480435439549 146.45172220430504 0 0 0 0 0.61251511761361144 0.97867789773975034 0 0.97867789773975034 -1.2196797806454525 0 0 0 0 602.88616375037964 -226.34609545470676 0 -226.34609545470676 76.929905038749894 0 0 0 0 309.17728698297287 -44.714698701758266 0 -44.714698701758266 -5.3853964117374744 0 0 0 0 255.03518278123374 -133.51822114393963 0 -133.51822114393963 21.552158737346872 0 0 0 0 47.740436226369638 -22.538020354141736 0 -22.538020354141736 -23.700731107333922 0 0 0 0 -2.8580078594674347 8.6219970984719509 0 8.6219970984719509 -7.7532320045743024 0 0 0 0 8.3054218872675847 10.745163209934788 0 10.745163209934788 -10.916551055052537 0 0 0 0 -2.0792833384402911 94.774513106459835 0 94.774513106459835 21.255543059709908 0 0 0 0 24.925236350729392 67.418749729525871 0 67.418749729525871 -1.4325587403855025 0 0 0 0 57.310636271453404 2.5009887869667864 0 2.5009887869667864 33.772747186511424 0 0 0 0 9.7032248685536118 12.418054943338731 0 12.418054943338731 -16.938900612124833 0 0 0 0 203.46796350334625 -121.28979947791572 0 -121.28979947791572 19.78260279231381 0 0 0 0 85.051051441114396 16.268481549101125 0 16.268481549101125 3.9313175541491319 0 0 0 0 209.77267366852175 -104.69720948046881 0 -104.69720948046881 63.364251320596395 0 0 0 0 4.1973631712753559 -11.925998223100805 0 -11.925998223100805 69.629214411078294 0 0 0 0 133.33370251638189 -83.466157832402587 0 -83.466157832402587 -61.137909859240608 0 0 0 0 100.00186112881056 63.798249978690365 0 63.798249978690365 -56.419907155544024 0 0 0 0 206.55899522521941 74.094725364568035 0 74.094725364568035 -104.23243845460274 0 0 0 0 78.905759490691707 -28.499387114337424 0 -28.499387114337424 -96.595033746011836 0 0 0 0 46.818675131255077 61.336100179218192 0 61.336100179218192 -44.592643361128012 0 0 0 0 57.548105930396559 -8.6294567119684871 0 -8.6294567119684871 -18.401782863489643 0 0 0 0 10.758121421398201 11.585484751020552 0 11.585484751020552 -17.252758891883087 0 0 0 0 47.107444456247322 -4.6819601401052751 0 -4.6819601401052751 -9.5375977634375886 0 0 0 0 55.197531682653789 2.5477021402664377 0 2.5477021402664377 -16.143471999909707 0 0 0 0 20.905189975768735 9.7066374878440911 0 9.7066374878440911 20.711277736930242 0 0 0 0 83.780905214907648 52.978217142242187 0 52.978217142242187 -31.175277200702112 0 0 0 0 -0.21301370848582957 1.0280242819389258 0 1.0280242819389258 -1.4670651393490655 0 0 0 0 98.536591639756807 30.964964987997973 0 30.964964987997973 -1.456775205240092 0 0 0 0 27.488284625433153 -7.6502760795063978 0 -7.6502760795063978 -12.060115803972167 0 0 0 0 16.678361930888059 -29.325782900553179 0 -29.325782900553179 -10.923326536773857 0 0 0 0 32.622762469072768 -11.158919890307288 0 -11.158919890307288 -15.795553813729839 0 0 0 0 47.104233439776522 -4.966660266880405 0 -4.966660266880405 -16.545267784872522 0 0 0 0 26.837383981687708 -13.216219854005303 0 -13.216219854005303 -16.80024184685044 0 0 0 0 27.158483480972791 -5.8564840987994558 0 -5.8564840987994558 -10.410195425683924 0 0 0 0 46.751882788248622 4.6693598951146669 0 4.6693598951146669 -14.990256161796424 0 0 0 0 1.6977589650651339 -1.9444346196803686 0 -1.9444346196803686 1.8464215788023814 0 0 0 0 -0.30552442243788391 -8.78632436988687 0 -8.78632436988687 -3.4344675119823478 0 0 0 0 2.651135513182453 -25.95899749128094 0 -25.95899749128094 -15.049117970345378 0 0 0 0 20.957919004245923 -1.0365629637594793 0 -1.0365629637594793 -4.3199076129008063 0 0 0 0 7.0357784490643382 -1.1603227051777729 0 -1.1603227051777729 -0.97232145368883716 0 0 0 0 31.416686841144838 -12.019496209073168 0 -12.019496209073168 -10.354734021775698 0 0 0 0 28.19885175563104 -4.6814676494501555 0 -4.6814676494501555 -23.172480683493859 0 0 0 0 -11.928227646778396 12.257293110533396 0 12.257293110533396 2.7077847757901736 0 0 0 0 2.9212614122334344 -0.06517065230980279 0 -0.06517065230980279 -8.9239736795409499 0 0 0 0 3.4803313978782171 4.2382368162728596 0 4.2382368162728596 10.540714040572311 0 0 0 0 8.1534880189738033 4.7190015952561453 0 4.7190015952561453 -12.560527081611781 0 0 0 0 11.506297340796664 15.000771621541105 0 15.000771621541105 10.805830822828284 0 0 0 0 -0.26735206734520034 23.904771468030503 0 23.904771468030503 1.2510994115758649 0 0 0 0 20.094309416608667 3.9934822732994348 0 3.9934822732994348 -9.2720857101664933 0 0 0 0 0.12832325909039355 14.102258702885592 0 14.102258702885592 -13.513659573789994 0 0 0 0 103.79787208796915 89.920778957322284 0 89.920778957322284 -50.689553571091402 0 0 0 0 7.5724586553012472 7.4898203761510587 0 7.4898203761510587 -3.7920953215037212 0 0 0 0 6.9692917582584073 5.8818747295592004 0 5.8818747295592004 -5.5041964005254833 0 0 0 0 -3.0137293967563892 6.803558329243458 0 6.803558329243458 -0.65991013354323513 0 0 0 0 10.502284789778059 4.7737318292021769 0 4.7737318292021769 -8.0966466945255888 0 0 0 0 4.6365544706458408 6.9091928039345731 0 6.9091928039345731 -5.0794254238539542 0 0 0 0 285.1207411571886 -116.08377142573158 0 -116.08377142573158 -59.498689431460377 0 0 0 0 1.0866605344162963 14.710595381363959 0 14.710595381363959 -8.0812448204678731 0 0 0 0 252.87051320090541 -82.936039036250236 0 -82.936039036250236 -29.106317562986533 0 0 0 0 78.779346367926337 -84.505702280669539 0 -84.505702280669539 95.415389605399469 0 0 0 0 8.8540210834474351 2.9765243146714084 0 2.9765243146714084 -5.4084302929737058 0 0 0 0 1.0835561851566524 0.22311369772747724 0 0.22311369772747724 -1.1030648732166264 0 0 0 0 356.10593655001139 -62.789795832991103 0 -62.789795832991103 10.444786414818509 0 0 0 0 247.38798469505855 -117.29889347850826 0 -117.29889347850826 105.98977197057775 0 0 0 0 280.89365287443798 -146.10848748497256 0 -146.10848748497256 101.59486446103847 0 0 0 0 238.29839733534027 -84.331773939758136 0 -84.331773939758136 11.465321660688005 0 0 0 0 255.04268016936112 -131.98526821518635 0 -131.98526821518635 -148.46756402180122 0 0 0 0 297.01028746807424 -67.32008685559984 0 -67.32008685559984 -61.487431964426172 0 0 0 0 132.38958989529783 -53.273448508791333 0 -53.273448508791333 7.3859236500417964 0 0 0 0 529.56921349075492 -52.094692386291548 0 -52.094692386291548 -32.581523019010973 0 0 0 0 189.24126455876103 -24.754448499386513 0 -24.754448499386513 61.08580014382845 0 0 0 0 0.96098718154277663 -0.67423694911796872 0 -0.67423694911796872 0.41808099974052693 0 0 0 0 706.20319034800377 238.28443793431947 0 238.28443793431947 2.2772453419408407 0 0 0 0 -128.65156757217483 -194.63086991262347 0 -194.63086991262347 -131.01590877214929 0 0 0 0 361.5594210979034 137.07458719531036 0 137.07458719531036 107.47548702040996 0 0 0 0 347.90269994362461 97.024269776905101 0 97.024269776905101 57.040790184555703 0 0 0 0 350.75319944451621 -44.074426549368411 0 -44.074426549368411 14.983275143454307 0 0 0 0 439.67266880943498 82.163727284885709 0 82.163727284885709 16.698307504138825 0 0 0 0 297.04894132711343 34.655783326477376 0 34.655783326477376 26.242467698630719 0 0 0 0 310.41472005900141 22.339145069265612 0 22.339145069265612 21.386601820530132 0 0 0 0 248.29440937192703 -34.032514204930976 0 -34.032514204930976 37.94796330282503 0 0 0 0 193.40797098459734 -21.429794299013111 0 -21.429794299013111 49.981238533887336 0 0 0 0 202.0927072938066 -0.20181987344784602 0 -0.20181987344784602 38.466899065333109 0 0 0 0 185.53931156438921 -2.8718777482416442 0 -2.8718777482416442 42.302889892567009 0 0 0 0 178.88203513887129 -25.418003816743635 0 -25.418003816743635 36.481422154644775 0 0 0 0 144.36301990379434 -38.966938594462903 0 -38.966938594462903 34.079863624032669 0 0 0 0 68.525734706257936 -32.732662417453412 0 -32.732662417453412 39.87009760736295 0 0 0 0 83.324197584326612 6.4727865103506019 0 6.4727865103506019 72.591567272166003 0 0 0 0 63.651645717123756 -24.439473937949742 0 -24.439473937949742 63.33994755821243 0 0 0 0 55.445686599441615 8.6638630334793589 0 8.6638630334793589 78.600379514116185 0 0 0 0 -38.872284576806123 -134.28764097681238 0 -134.28764097681238 -20.442312059039523 0 0 0 0 174.35486719213077 -67.039899476300036 0 -67.039899476300036 -117.34119586415056 0 0 0 0 -36.874201654425633 13.427485992840957 0 13.427485992840957 5.3149766848300715 0 0 0 0 -238.45857270096894 8.935686054434818 0 8.935686054434818 244.47404943451238 0 0 0 0 71.347181068340433 84.704005052473008 0 84.704005052473008 -95.901340866852195 0 0 0 0 -2.9105293815884039 3.0086401105891767 0 3.0086401105891767 -0.095898695950270785 0 0 0 0 -121.97107434483041 105.63537838563077 0 105.63537838563077 10.270891355764377 0 0 0 0 12.600148870850894 12.854927804849467 0 12.854927804849467 -7.5841899336189735 0 0 0 0 26.534823286085157 -28.35392987910231 0 -28.35392987910231 -0.79290375813705793 0 0 0 0 185.17844959584818 13.871247524437806 0 13.871247524437806 -20.304006732734592 0 0 0 0 86.087546526337974 -18.04422447488821 0 -18.04422447488821 0.7992468132345607 0 0 0 0 123.9348793875688 3.9227463714531723 0 3.9227463714531723 -6.8934738049277939 0 0 0 0 161.99350598820456 1.9477458252612792 0 1.9477458252612792 -2.2867926502158298 0 0 0 0 149.69694360314315 -20.954440232060733 0 -20.954440232060733 -3.7731677791496168 0 0 0 0 177.14044404798187 -2.3820390609778315 0 -2.3820390609778315 -3.6788864073951117 0 0 0 0 149.31554423586931 -14.789861678573402 0 -14.789861678573402 -2.1798029982154361 0 0 0 0 131.10726585779776 1.313732315945515 0 1.313732315945515 -7.4027373558235467 0 0 0 0 149.61686540777737 -12.470192135517095 0 -12.470192135517095 -8.4829252215045656 0 0 0 0 1.1445824071143615 0.84529841807389516 0 0.84529841807389516 1.4432862521926255 0 0 0 0 50.91597588296645 -5.2357989490578234 0 -5.2357989490578234 18.046910237375187 0 0 0 0 15.510997686957126 16.187179728608243 0 16.187179728608243 -18.413328624128368 0 0 0 0 14.342733117639909 33.149295217966966 0 33.149295217966966 -10.443195114344235 0 0 0 0 14.592744940710872 35.328116987449675 0 35.328116987449675 -5.2884176980960547 0 0 0 0 1.5947549798509399 -0.49113602090852737 0 -0.49113602090852737 -7.0763060706264787 0 0 0 0 13.272615800153289 33.70537232544541 0 33.70537232544541 1.6283777249282139 0 0 0 0 80.436117589681089 -34.584449246047853 0 -34.584449246047853 -8.5606711160603481 0 0 0 0 0.016094535612030114 0.0058816934000702759 0 0.0058816934000702759 0.71786251402679335 0 0 0 0 77.818096652306849 18.815238898012041 0 18.815238898012041 44.925988528858397 0 0 0 0 16.066637138275837 -21.23519856735561 0 -21.23519856735561 10.554207291172474 0 0 0 0 11.4372883516386 12.282947215236391 0 12.282947215236391 -5.4298949847744273 0 0 0 0 -197.13549663744197 102.05879634267087 0 102.05879634267087 102.00154346456958 0 0 0 0 14.985695401046542 -29.223096263700256 0 -29.223096263700256 147.83258869379779 0 0 0 0 -88.863514291209867 128.50566424087907 0 128.50566424087907 57.61582306539907 0 0 0 0 0.24272930096826428 1.4265079985503206 0 1.4265079985503206 0.71992824643635145 0 0 0 0 -163.6025267241057 -30.745145765272071 0 -30.745145765272071 -281.67508621830802 0 0 0 0 -5.42909298169252 9.9643760978449336 0 9.9643760978449336 -0.33162964155195596 0 0 0 0 0.88078385744067589 0.95065348977648512 0 0.95065348977648512 -0.15244510163493852 0 0 0 0 88.499951281039102 11.133949628879208 0 11.133949628879208 44.657657543947835 0 0 0 0 111.52903121711279 -3.1569062474849261 0 -3.1569062474849261 42.854245733290554 0 0 0 0 107.75573484227061 -21.056562199151358 0 -21.056562199151358 -31.040547647825065 0 0 0 0 102.1002381169892 20.479181889268148 0 20.479181889268148 -9.6772647558661902 0 0 0 0 136.03500201286806 11.026609213893039 0 11.026609213893039 9.5462217393620463 0 0 0 0 137.89872442775231 -13.364386725131965 0 -13.364386725131965 7.5795934556167595 0 0 0 0 151.11957172108669 -11.535785740786082 0 -11.535785740786082 33.846644649260497 0 0 0 0 131.03168630751679 -7.5233538911033406 0 -7.5233538911033406 46.384370313995987 0 0 0 0 125.00887284810597 -19.676523071780366 0 -19.676523071780366 60.034170825328488 0 0 0 0 177.93553629380767 -5.6379199903988138 0 -5.6379199903988138 29.674869861079287 0 0 0 0 184.14858167466082 -20.054286955221784 0 -20.054286955221784 37.154356793498437 0 0 0 0 233.22446219950507 6.7667172658188974 0 6.7667172658188974 22.167080102363006 0 0 0 0 262.78144322963635 44.447117964760281 0 44.447117964760281 37.720915592067968 0 0 0 0 272.22605546690465 18.047200390743512 0 18.047200390743512 13.105414941055869 0 0 0 0 235.09751587599021 3.8470788539057708 0 3.8470788539057708 25.146176949854862 0 0 0 0 253.93650483425154 34.391018485969425 0 34.391018485969425 15.082183685780137 0 0 0 0 229.60204893803166 20.90044125388431 0 20.90044125388431 23.045659581100495 0 0 0 0 216.50735414978408 -0.11157207379903866 0 -0.11157207379903866 12.424227722351361 0 0 0 0 188.77404400354862 5.5536039045866232 0 5.5536039045866232 9.4911765799099612 0 0 0 0 173.50112756944145 -11.582192236781339 0 -11.582192236781339 10.879046420522485 0 0 0 0 201.72313387284521 -8.6186246774752817 0 -8.6186246774752817 22.198870570943182 0 0 0 0 310.6081622695674 118.94679562230777 0 118.94679562230777 102.40149642755205 0 0 0 0 288.8029184917541 71.35955860528577 0 71.35955860528577 41.780639109750268 0 0 0 0 328.45052370632766 103.75729066970632 0 103.75729066970632 58.25714181775777 0 0 0 0 340.39827360090567 56.835540324369902 0 56.835540324369902 20.265944849643574 0 0 0 0 243.44155682470591 32.380862741097872 0 32.380862741097872 34.226488544106594 0 0 0 0 301.39888862804946 66.358535097384333 0 66.358535097384333 36.449626106294545 0 0 0 0 284.16729120599484 54.927160315123217 0 54.927160315123217 19.311975555418485 0 0 0 0 301.61307651470997 61.903124105738129 0 61.903124105738129 61.204499563452828 0 0 0 0 262.40020164004818 73.366978653341334 0 73.366978653341334 58.789242160020876 0 0 0 0 255.47036409145221 73.949605217680414 0 73.949605217680414 16.498098700340051 0 0 0 0 224.93783685707604 43.943498394155881 0 43.943498394155881 21.354745395373399 0 0 0 0 240.07360547183998 33.476069941875039 0 33.476069941875039 3.12161778854761 0 0 0 0 191.19316705903475 21.336477373059665 0 21.336477373059665 1.3255815578251458 0 0 0 0 188.50037186506961 54.620614658440616 0 54.620614658440616 11.334322072735063 0 0 0 0 181.91793355678965 -9.5590084389635877 0 -9.5590084389635877 3.0423261216758419 0 0 0 0 206.78143344277487 8.8422600304344883 0 8.8422600304344883 4.6899114192419802 0 0 0 0 208.84732422944217 10.816351106698789 0 10.816351106698789 9.2335082856732527 0 0 0 0 176.19535685263691 -4.2020828182266996 0 -4.2020828182266996 -1.8181661257255044 0 0 0 0 213.93949737879302 8.756367606744675 0 8.756367606744675 -2.4950334309821756 0 0 0 0 159.45127666771441 -17.696348118190144 0 -17.696348118190144 -4.5406705847578905 0 0 0 0 177.38571887565195 -4.7701675681112476 0 -4.7701675681112476 -7.2291686883459079 0 0 0 0 201.17338033318811 11.643189969439561 0 11.643189969439561 -2.9021627490119499 0 0 0 0 159.69159802208742 7.9432465589565027 0 7.9432465589565027 5.2568163074660106 0 0 0 0 163.91941404593672 5.8937661587360139 0 5.8937661587360139 -0.81609337723375575 0 0 0 0 171.05517691824934 -5.5972499972853882 0 -5.5972499972853882 5.2616796718500609 0 0 0 0 216.52847283764277 45.727373624106662 0 45.727373624106662 -3.9973874421104938 0 0 0 0 171.37149797415623 42.161813453966147 0 42.161813453966147 3.1473122473607873 0 0 0 0 177.37806755815836 42.714239905838269 0 42.714239905838269 -3.4886598332897165 0 0 0 0 133.45922105119826 46.183258827005091 0 46.183258827005091 6.6789109839187972 0 0 0 0 126.06043928816871 46.286649003141179 0 46.286649003141179 16.441183237925884 0 0 0 0 145.96043814867153 -9.0348840053536605 0 -9.0348840053536605 4.801932368021312 0 0 0 0 156.6845315043538 -20.649873898945316 0 -20.649873898945316 16.880166529763983 0 0 0 0 154.86457422500098 4.9471439509416086 0 4.9471439509416086 14.10928676797846 0 0 0 0 112.10717053552798 7.259088603269447 0 7.259088603269447 19.987378010369014 0 0 0 0 132.67098624435312 -11.670149184787874 0 -11.670149184787874 19.929678769899056 0 0 0 0 133.6805037579179 -8.8509468692630549 0 -8.8509468692630549 27.528558925311359 0 0 0 0 164.90356200871975 -35.636530999264266 0 -35.636530999264266 25.537659855951006 0 0 0 0 267.79341693210881 58.029559136415742 0 58.029559136415742 21.843231603063828 0 0 0 0 209.75010599819507 40.021586075986448 0 40.021586075986448 41.059523588108959 0 0 0 0 137.84848224710731 8.1880846022030482 0 8.1880846022030482 28.972812022192272 0 0 0 0 169.01994538956205 -11.499520880000091 0 -11.499520880000091 2.8685340555214225 0 0 0 0 94.016227326537773 12.797792881453915 0 12.797792881453915 -10.238615511073704 0 0 0 0 123.36210672347443 -11.818692867866503 0 -11.818692867866503 12.50016641958905 0 0 0 0 145.82631184248021 -8.5355836872032853 0 -8.5355836872032853 -11.439458902920705 0 0 0 0 145.254781331103 -6.688528141433153 0 -6.688528141433153 2.8975248025744458 0 0 0 0 1.1032360625880671 0.27050235753513618 0 0.27050235753513618 -4.337674221929924 0 0 0 0 1.2536435250551108 -2.0899447518362706 0 -2.0899447518362706 -0.044127304993015759 0 0 0 0 -3.9673142373212613 -6.960707918170101 0 -6.960707918170101 13.58067206803986 0 0 0 0 4.5205772633846664 15.330913192141878 0 15.330913192141878 18.350787493711323 0 0 0 0 74.966504492556851 -3.5495016687887073 0 -3.5495016687887073 -33.21849166249558 0 0 0 0 95.704039820862818 17.350126585719522 0 17.350126585719522 -45.284120131881082 0 0 0 0 10.134173660811939 -16.994437914467284 0 -16.994437914467284 -16.014588647186429 0 0 0 0 -71.701192487780645 63.202064019003899 0 63.202064019003899 -39.900311043161594 0 0 0 0 61.308174006346235 4.6063744589127396 0 4.6063744589127396 -48.470720261555471 0 0 0 0 54.223452973368694 -4.5522164020327409 0 -4.5522164020327409 61.64499282896486 0 0 0 0 143.84745517597912 -13.203193691873935 0 -13.203193691873935 -26.132670566081515 0 0 0 0 -0.030408689304536551 -0.23700781509479896 0 -0.23700781509479896 -1.5862252198406952 0 0 0 0 -59.422587743792974 23.689544442732426 0 23.689544442732426 82.602544247366041 0 0 0 0 422.01987612563244 -38.427905013883446 0 -38.427905013883446 -199.15054942170332 0 0 0 0 94.254966013562807 45.684202254366426 0 45.684202254366426 10.222900619987513 0 0 0 0 407.36588151921751 13.779227637578231 0 13.779227637578231 -79.95848426734733 0 0 0 0 -161.68822469524821 -321.87226625214112 0 -321.87226625214112 -145.26662464660967 0 0 0 0 0.39517011883118158 -0.6356668937027905 0 -0.6356668937027905 0.10346236607834403 0 0 0 0 110.51695521343936 -53.569591759241916 0 -53.569591759241916 4.9557819736143074 0 0 0 0 245.66863690279024 -18.378579127812287 0 -18.378579127812287 7.9934389898317022 0 0 0 0 372.26428990000932 -120.14068488718686 0 -120.14068488718686 -74.287422379172995 0 0 0 0 2.5210738993152972 -1.4270033468515777 0 -1.4270033468515777 0.22106063138895049 0 0 0 0 423.83191590111346 165.59889266165558 0 165.59889266165558 -40.476103380241057 0 0 0 0 -15.068363944301382 -340.38918962162006 0 -340.38918962162006 -247.66068061287751 0 0 0 0 -252.95366667365306 -261.30603374511497 0 -261.30603374511497 -35.497911585083557 0 0 0 0 -52.861743783534621 -294.01971748844954 0 -294.01971748844954 -65.227725650973753 0 0 0 0 -320.78976181926555 -92.708805991772238 0 -92.708805991772238 -70.074929823011189 0 0 0 0 339.78889274522226 54.911767985734429 0 54.911767985734429 -22.129095439961702 0 0 0 0 260.18089064055675 110.47112024088312 0 110.47112024088312 28.109738462417909 0 0 0 0 131.72244883395615 102.06203870689308 0 102.06203870689308 30.087654017586431 0 0 0 0 -361.25246847446624 -6.0900389599854563 0 -6.0900389599854563 -122.33043420324975 0 0 0 0 -361.86600912935683 -62.371687559253132 0 -62.371687559253132 -45.479335191339487 0 0 0 0 84.752151037617296 66.97171303976333 0 66.97171303976333 13.724728987441722 0 0 0 0 122.34581659926334 90.100246672609956 0 90.100246672609956 -24.272930068992537 0 0 0 0 481.12921658585401 50.414903367711815 0 50.414903367711815 -176.87054839300754 0 0 0 0 327.89741648464405 42.859247686491926 0 42.859247686491926 -41.00397519246485 0 0 0 0 219.06284707835584 -85.685160053776713 0 -85.685160053776713 -119.05560716110983 0 0 0 0 305.74732870262233 23.211640795564676 0 23.211640795564676 -42.801868521597427 0 0 0 0 261.61309077342958 108.53936932545331 0 108.53936932545331 23.265347308186392 0 0 0 0 258.39116840552924 168.11660369889637 0 168.11660369889637 131.20855912279279 0 0 0 0 506.72517641794821 275.49248686646843 0 275.49248686646843 97.547179436897906 0 0 0 0 130.87671927694464 90.238622557207336 0 90.238622557207336 89.422649518432891 0 0 0 0 2.6628073840996933 -0.65989607435589903 0 -0.65989607435589903 -0.014248707640889563 0 0 0 0 297.28050368225377 -13.107483770408209 0 -13.107483770408209 25.501435772205866 0 0 0 0 393.29754549558857 48.340729662433674 0 48.340729662433674 -29.86480670717998 0 0 0 0 302.06218864180846 55.559346966773546 0 55.559346966773546 -20.319090169115981 0 0 0 0 294.33408088904616 32.16093228486217 0 32.16093228486217 -2.1863191529512278 0 0 0 0 173.05620838087634 47.540456694003126 0 47.540456694003126 16.046216955279561 0 0 0 0 -6.3010346425726311 28.793249233979964 0 28.793249233979964 77.698454436229326 0 0 0 0 157.45677997474195 7.451074590155855 0 7.451074590155855 36.588732179777821 0 0 0 0 93.681858839889173 -55.302516490685186 0 -55.302516490685186 27.504349785567115 0 0 0 0 153.47407506681338 31.257284165782465 0 31.257284165782465 50.069619542882783 0 0 0 0 221.34858086785243 49.287843207017303 0 49.287843207017303 25.808664803576242 0 0 0 0 190.97984130631812 -3.5532031431622713 0 -3.5532031431622713 51.097062579969702 0 0 0 0 364.63036497811845 -45.026734373640302 0 -45.026734373640302 65.676334793397245 0 0 0 0 431.10562845502864 102.60314304087593 0 102.60314304087593 -0.05684438206063868 0 0 0 0 171.86817868162325 48.435859545128267 0 48.435859545128267 122.97287891728335 0 0 0 0 158.33360389901645 -17.618372382875584 0 -17.618372382875584 54.967570443148205 0 0 0 0 144.91396007808362 99.104470286195209 0 99.104470286195209 27.946643062231061 0 0 0 0 133.54273171869499 -79.75719390323701 0 -79.75719390323701 -87.089401614856143 0 0 0 0 31.176751944297848 21.497547120275918 0 21.497547120275918 1.9670026841328934 0 0 0 0 0.10695592996236769 -0.11415263839657541 0 -0.11415263839657541 0.01554125040914759 0 0 0 0 46.386314145260258 -0.91410699885510904 0 -0.91410699885510904 0.11530037826157863 0 0 0 0 -69.511704029413522 -5.1028397802322942 0 -5.1028397802322942 30.401268070140148 0 0 0 0 100.37520962442795 33.17729201648099 0 33.17729201648099 -60.540349883358132 0 0 0 0 96.550704938388662 33.603659644971174 0 33.603659644971174 13.057162795567393 0 0 0 0 1.2905443400454573 0.11910058142045443 0 0.11910058142045443 -0.83950077177619375 0 0 0 0 1.1209329745615833 -59.397073072690546 0 -59.397073072690546 -174.02845070462695 0 0 0 0 19.346206641857862 -1.492620516936789 0 -1.492620516936789 -15.668261124859384 0 0 0 0 5.639281903396153 -2.5955455936509964 0 -2.5955455936509964 0.71995924201057704 0 0 0 0 6.7632236661197567 -84.102839802942057 0 -84.102839802942057 34.662605308663586 0 0 0 0 102.4964517961198 -42.448047465366955 0 -42.448047465366955 -58.113662965681144 0 0 0 0 17.053536925435765 -24.766265962314403 0 -24.766265962314403 -19.316967607771119 0 0 0 0 -19.383043833578995 -81.965367318605672 0 -81.965367318605672 -114.47463243534617 0 0 0 0 -56.202613789319003 -33.87768087131451 0 -33.87768087131451 -61.055487159911308 0 0 0 0 -21.092186836875044 7.7068897561298542 0 7.7068897561298542 16.166999958239749 0 0 0 0 28.773176097376563 44.960955599447402 0 44.960955599447402 -42.318747444409269 0 0 0 0 18.990260063081223 42.096522862647589 0 42.096522862647589 -30.646746988481823 0 0 0 0 58.215587347411201 27.416246155857721 0 27.416246155857721 -34.576800949515928 0 0 0 0 -102.13278863525193 18.06647522931712 0 18.06647522931712 -180.61924836422645 0 0 0 0 -104.33145937230438 -75.479654320585723 0 -75.479654320585723 -104.24054533206186 0 0 0 0 -50.707715352560626 19.982792330803932 0 19.982792330803932 -189.32025983506696 0 0 0 0 0.98205085750669241 -36.878447269602134 0 -36.878447269602134 -127.44451288658388 0 0 0 0 23.882427180740706 -23.46546332741265 0 -23.46546332741265 -108.66661883294501 0 0 0 0 31.89472010541067 -4.2214038144559254 0 -4.2214038144559254 -148.76715562869117 0 0 0 0 53.457124492575531 37.244234917438575 0 37.244234917438575 -45.432105018041625 0 0 0 0 16.864245114120422 22.524830084361838 0 22.524830084361838 -43.3557807868483 0 0 0 0 107.89988100568007 -35.103584541396003 0 -35.103584541396003 -58.14088835880375 0 0 0 0 25.663377688711989 -12.591689089464992 0 -12.591689089464992 -135.54927497160793 0 0 0 0 6.9300071097532054 41.889002007128283 0 41.889002007128283 -69.345027838092392 0 0 0 0 -66.260573235398624 -107.72158062109133 0 -107.72158062109133 -72.999103304668324 0 0 0 0 -7.9540804473726894 -6.6341869898632808 0 -6.6341869898632808 14.914822732936955 0 0 0 0 34.335790847660974 -11.57818228388328 0 -11.57818228388328 -23.548701304397696 0 0 0 0 64.81876142339388 2.8395998880373838 0 2.8395998880373838 29.294750085972282 0 0 0 0 90.960969922034565 44.805516389795315 0 44.805516389795315 7.0300517755244982 0 0 0 0 126.15561270578473 -17.815647249657559 0 -17.815647249657559 11.332852560872098 0 0 0 0 110.40185073952307 61.905137304311609 0 61.905137304311609 -3.950361480819538 0 0 0 0 66.113868168962654 75.17352796841476 0 75.17352796841476 -4.1067546308825627 0 0 0 0 40.968094949799706 31.338453955881107 0 31.338453955881107 4.4110251336626334 0 0 0 0 78.290095001626469 51.22019607695529 0 51.22019607695529 16.362574666138812 0 0 0 0 144.4834409876712 87.042213481715692 0 87.042213481715692 1.7121900822107818 0 0 0 0 143.54172970233776 87.597416389595935 0 87.597416389595935 20.139947375654913 0 0 0 0 96.992739839324713 93.838339144436489 0 93.838339144436489 15.495796279398519 0 0 0 0 248.54620868706297 -34.548951114914374 0 -34.548951114914374 60.041962105652829 0 0 0 0 199.74406447201909 95.69586647758365 0 95.69586647758365 7.0164627582386174 0 0 0 0 149.75400399012142 71.702940462222273 0 71.702940462222273 37.774635814552084 0 0 0 0 322.85673958514963 85.653589160985092 0 85.653589160985092 -14.56073419123021 0 0 0 0 150.04058691035607 66.749214428340849 0 66.749214428340849 -10.300710210547493 0 0 0 0 85.220430408586253 94.605965930244267 0 94.605965930244267 -1.4817084476638911 0 0 0 0 63.61582447134424 11.061978334866581 0 11.061978334866581 -9.7130243152268818 0 0 0 0 5.678801682571077 -1.8439592679810062 0 -1.8439592679810062 0.28227068755905338 0 0 0 0 37.422122144445893 -59.905855648026403 0 -59.905855648026403 -73.651232208495458 0 0 0 0 -44.459024775431317 -13.377082307340231 0 -13.377082307340231 77.87847262161965 0 0 0 0 158.30765987926861 89.189222694285746 0 89.189222694285746 2.8765992492346868 0 0 0 0 164.94170365938407 75.394948755451622 0 75.394948755451622 26.28115481201803 0 0 0 0 503.10235288922559 121.13020388719968 0 121.13020388719968 -11.807340999188568 0 0 0 0 83.77091009709693 164.25994374442621 0 164.25994374442621 94.496009484418153 0 0 0 0 -7.1305269740678341 -10.754150167384431 0 -10.754150167384431 -0.039053189639654248 0 0 0 0 556.80420390792278 243.26010088980979 0 243.26010088980979 97.532724880578101 0 0 0 0 2.9833141442855435 -0.35861627696235132 0 -0.35861627696235132 -0.020635011914358181 0 0 0 0 -7.1785597454945673 -10.665192634602152 0 -10.665192634602152 0.044357334223036567 0 0 0 0 35.577346022683287 -10.881842571350731 0 -10.881842571350731 -21.738301097979662 0 0 0 0 852.24041845903412 -28.410548753383566 0 -28.410548753383566 -42.961480326694812 0 0 0 0 706.41974784660852 -194.78555097519043 0 -194.78555097519043 0.5032850354830033 0 0 0 0 589.01132921722456 -40.212596031769863 0 -40.212596031769863 -44.774960201792169 0 0 0 0 472.79966599289855 -7.4556716017982332 0 -7.4556716017982332 -30.615332735638162 0 0 0 0 702.54874619893235 -189.89563789692554 0 -189.89563789692554 -5.5801520348819054 0 0 0 0 562.79612522655498 -180.61378931787903 0 -180.61378931787903 48.642237620769038 0 0 0 0 570.7414799717917 -113.25503993691561 0 -113.25503993691561 -1.7319177225518843 0 0 0 0 679.9628113665749 -248.5880526684083 0 -248.5880526684083 38.301758267495757 0 0 0 0 338.87320162783908 -37.532661408589988 0 -37.532661408589988 38.678263645574248 0 0 0 0 373.02434126997468 -3.8465320139875416 0 -3.8465320139875416 -1.0757415446053642 0 0 0 0 394.86684230379933 -169.46786684960387 0 -169.46786684960387 84.223781361642978 0 0 0 0 534.84535851387045 -177.09545155343216 0 -177.09545155343216 -4.2347702629976425 0 0 0 0 287.60343306394498 -124.34432035764024 0 -124.34432035764024 43.344875546103594 0 0 0 0 547.29954774725047 -196.71590272152821 0 -196.71590272152821 -21.99023245911269 0 0 0 0 180.61829910922552 -164.77188435188336 0 -164.77188435188336 101.14726503534007 0 0 0 0 -46.668862926539077 -17.165956800880913 0 -17.165956800880913 41.813791540782702 0 0 0 0 157.55663085641572 42.747556282616344 0 42.747556282616344 -54.999621187259905 0 0 0 0 56.822111431734811 24.215363132195137 0 24.215363132195137 60.602528879243501 0 0 0 0 284.81959435540921 -145.79788173392291 0 -145.79788173392291 -33.018609207766644 0 0 0 0 166.82959893524821 97.067973820354595 0 97.067973820354595 -36.542567595723426 0 0 0 0 141.30493383491194 118.90347327448882 0 118.90347327448882 -6.2360208548303149 0 0 0 0 160.52889244015387 80.893774742025244 0 80.893774742025244 -5.6760611161096222 0 0 0 0 143.97326866656113 86.661424769186681 0 86.661424769186681 1.4964408021214695 0 0 0 0 159.31869996598834 72.576741819076858 0 72.576741819076858 15.69357992854583 0 0 0 0 193.42013985681842 79.58662000321317 0 79.58662000321317 -13.48833534619439 0 0 0 0 158.84008301135327 61.756344139489613 0 61.756344139489613 -21.119713605889416 0 0 0 0 -1.1126380902851167 1.164862215725627 0 1.164862215725627 -0.78428158755317257 0 0 0 0 -0.21929632772943819 3.1630960790151121 0 3.1630960790151121 -3.7422332153530693 0 0 0 0 206.13130424365227 97.243157533239923 0 97.243157533239923 28.277236689072765 0 0 0 0 163.14098088620085 95.786625043531103 0 95.786625043531103 66.296842985333114 0 0 0 0 220.80442892496649 101.20898841178951 0 101.20898841178951 26.597403066836591 0 0 0 0 215.43313057662454 88.685764617215227 0 88.685764617215227 27.01805892764969 0 0 0 0 335.7126188356342 90.610630815594277 0 90.610630815594277 33.133831886148187 0 0 0 0 242.50368788751803 225.46164359035947 0 225.46164359035947 140.2030759293466 0 0 0 0 296.99303672270617 104.86032740330643 0 104.86032740330643 29.767618092139401 0 0 0 0 402.45477712669526 122.03065051439853 0 122.03065051439853 14.837120566076919 0 0 0 0 0.32167004823119782 -0.73536065208995982 0 -0.73536065208995982 -0.51452621837307144 0 0 0 0 13.843687943162053 -3.3342533894008124 0 -3.3342533894008124 -0.90379314578846259 0 0 0 0 -0.24059929932263913 27.666911402274167 0 27.666911402274167 -38.977973717222653 0 0 0 0 5.6078612989822432 -33.90912979049078 0 -33.90912979049078 -95.460630240952639 0 0 0 0 139.18326781953147 -41.981034013355583 0 -41.981034013355583 -98.253487707458021 0 0 0 0 12.874147804048619 -3.3412400600292593 0 -3.3412400600292593 -0.42235918508167597 0 0 0 0 -7.1325498823462112 57.742968877593007 0 57.742968877593007 38.481773946346578 0 0 0 0 902.69190022704424 -532.29969919402367 0 -532.29969919402367 115.96173263724521 0 0 0 0 902.66430657410092 -351.74349294145105 0 -351.74349294145105 -23.72603292324203 0 0 0 0 1168.0177793581388 -448.6688929046324 0 -448.6688929046324 -12.976593776769562 0 0 0 0 714.95425521310972 -515.70116174345355 0 -515.70116174345355 127.22570775019577 0 0 0 0 465.19721439878049 -269.33380738612965 0 -269.33380738612965 99.974246537893706 0 0 0 0 -45.791360274270119 -31.554775086205382 0 -31.554775086205382 210.28839638405097 0 0 0 0 276.88579941214266 -24.992973088860836 0 -24.992973088860836 -409.81591371041611 0 0 0 0 1225.8152369960153 -513.58791140173537 0 -513.58791140173537 103.05087270864914 0 0 0 0 559.1881248427253 -609.3419828044423 0 -609.3419828044423 525.64783083074053 0 0 0 0 6.0299337613823525 -2.2598931253314563 0 -2.2598931253314563 -0.099454816347883127 0 0 0 0 1137.339194874512 -307.87160553846155 0 -307.87160553846155 358.30602195927668 0 0 0 0 1273.1168024381841 -246.00012018435433 0 -246.00012018435433 142.5281422986065 0 0 0 0 1109.4170869955706 -334.95884014962979 0 -334.95884014962979 119.54387507200478 0 0 0 0 1109.4856409159147 -303.28394424640612 0 -303.28394424640612 195.55220526583014 0 0 0 0 1149.4448523520696 -335.97403185455869 0 -335.97403185455869 160.14944795244847 0 0 0 0 1149.2492842248175 -273.2081782399502 0 -273.2081782399502 25.220220840734612 0 0 0 0 1079.7274391071223 -298.98132685626717 0 -298.98132685626717 16.609682339118137 0 0 0 0 1120.0775041608576 -267.90914954639049 0 -267.90914954639049 134.2584678304699 0 0 0 0 1183.7228699665102 -353.84930886393153 0 -353.84930886393153 62.502384409977871 0 0 0 0 1116.5207110337942 -286.68528874013094 0 -286.68528874013094 8.6454755182622876 0 0 0 0 1121.2526895515548 -351.34405816977528 0 -351.34405816977528 -60.145937003324889 0 0 0 0 1056.1314819065155 -295.61412555959674 0 -295.61412555959674 -103.55039151881994 0 0 0 0 1095.0037430441771 -341.66838341991865 0 -341.66838341991865 -139.97637188092551 0 0 0 0 1131.328580925674 -281.75502347696164 0 -281.75502347696164 -64.407458792822013 0 0 0 0 1274.7150032944191 -252.79413449356136 0 -252.79413449356136 -182.78776951873266 0 0 0 0 1146.9337876486115 -303.04341183531682 0 -303.04341183531682 -192.37834568712793 0 0 0 0 1030.2726051979807 -317.87804328959476 0 -317.87804328959476 -105.40692399364423 0 0 0 0 1109.6654206749336 -250.77774815015223 0 -250.77774815015223 -113.200631465475 0 0 0 0 827.84331652468973 -320.80602369228222 0 -320.80602369228222 -38.040744587833842 0 0 0 0 950.66648981274193 -222.77905490331327 0 -222.77905490331327 -37.012272726896434 0 0 0 0 767.75107684754039 -289.21177257408789 0 -289.21177257408789 -23.127810784429244 0 0 0 0 968.87652606784832 -387.79139787775046 0 -387.79139787775046 -43.732446294206511 0 0 0 0 513.25907886688583 -247.52950641127012 0 -247.52950641127012 60.707761962333791 0 0 0 0 738.91579759322485 -313.36641838536849 0 -313.36641838536849 14.956959527534451 0 0 0 0 753.20899886490952 -205.45014568647065 0 -205.45014568647065 -17.974672172169562 0 0 0 0 534.24648573274317 -254.31191878688497 0 -254.31191878688497 35.391761209904303 0 0 0 0 565.508591787162 -136.81727077591012 0 -136.81727077591012 40.649058035617031 0 0 0 0 675.24789654627966 -273.34500466031216 0 -273.34500466031216 7.2835714355350376 0 0 0 0 925.75851944504393 -279.24022091132463 0 -279.24022091132463 -32.647199629962699 0 0 0 0 850.3912000570017 -161.90326000760183 0 -161.90326000760183 33.119275562236908 0 0 0 0 675.96312751885489 -236.39135191839742 0 -236.39135191839742 131.38172816244426 0 0 0 0 937.10320457442867 -308.31355463473881 0 -308.31355463473881 14.316671171316045 0 0 0 0 695.34724705586632 -211.47784207150647 0 -211.47784207150647 6.252303926859895 0 0 0 0 1211.1322562176611 6.7620675257490603 0 6.7620675257490603 -94.910528121243317 0 0 0 0 2.0302775719073054 -1.2887078998388404 0 -1.2887078998388404 0.51947382284128807 0 0 0 0 674.47621046294626 -3.4266251783437163 0 -3.4266251783437163 -85.281591515353398 0 0 0 0 739.59988400347356 -196.18466600206958 0 -196.18466600206958 -0.25807170022381254 0 0 0 0 1395.3168095605506 -25.969011595676591 0 -25.969011595676591 -191.36936494289739 0 0 0 0 404.72569394268066 -156.49264915969698 0 -156.49264915969698 0.044845792860265514 0 0 0 0 2.7226796396117976 -1.3875330813633298 0 -1.3875330813633298 0.31813174115102527 0 0 0 0 898.15645093590138 112.93479401682708 0 112.93479401682708 -81.888018367782109 0 0 0 0 1401.4552345054417 -40.536534881421801 0 -40.536534881421801 -344.71316183717079 0 0 0 0 1758.4805269186763 -182.44378396656927 0 -182.44378396656927 -322.9669989937741 0 0 0 0 1497.3364608991251 7.7442932540157017 0 7.7442932540157017 -84.797818333532859 0 0 0 0 1103.2987596230269 -271.92981180025481 0 -271.92981180025481 339.72676184792272 0 0 0 0 469.75103124410634 -411.66778829870691 0 -411.66778829870691 28.484907613880296 0 0 0 0 1075.0808201991531 -229.50134973316938 0 -229.50134973316938 -110.00702253073992 0 0 0 0 980.17803462593292 -190.0390267036758 0 -190.0390267036758 107.01117659596139 0 0 0 0 1140.8056817576398 -160.06589574627546 0 -160.06589574627546 -162.32080328852817 0 0 0 0 1155.7947951651513 -523.89438781502088 0 -523.89438781502088 -340.83573335128114 0 0 0 0 1599.2199602155124 -336.89055957667051 0 -336.89055957667051 -268.36219783612535 0 0 0 0 555.00304831729954 -115.91430116205079 0 -115.91430116205079 0.21741714463021516 0 0 0 0 71.537926064025669 -4.1619206811460572 0 -4.1619206811460572 -216.05499745703003 0 0 0 0 463.77155522345856 -361.37488273559285 0 -361.37488273559285 -23.207947994860874 0 0 0 0 510.07462742508142 -220.77932779167355 0 -220.77932779167355 -603.42032929775758 0 0 0 0 485.42202815110431 -22.081023232848608 0 -22.081023232848608 -887.90829762809187 0 0 0 0 15.769135529846693 -0.80444550704369133 0 -0.80444550704369133 -1.243589264112223 0 0 0 0 857.75765839047381 -862.45727800644886 0 -862.45727800644886 -37.79778645598924 0 0 0 0 8.3347964450819347 -0.71080140415641146 0 -0.71080140415641146 -0.66552011694601798 0 0 0 0 1341.9949286281699 406.95236709128301 0 406.95236709128301 -621.03917068994679 0 0 0 0 1076.2209930016288 -65.376240774023898 0 -65.376240774023898 -50.464668017003476 0 0 0 0 -86.193361925310455 103.93875041000037 0 103.93875041000037 -73.712996728374577 0 0 0 0 1495.7332532879736 -307.87384829365379 0 -307.87384829365379 -153.09172667076794 0 0 0 0 7.4350685209091694 0.10147091912240036 0 0.10147091912240036 -0.018112701765211878 0 0 0 0 511.67882194831327 828.96088020563195 0 828.96088020563195 -23.305299827874396 0 0 0 0 -30.131857181462692 -400.14504452880101 0 -400.14504452880101 261.25460607175313 0 0 0 0 412.29740161967493 219.33629505767013 0 219.33629505767013 -65.89448010544254 0 0 0 0 101.09677056941291 -116.75236968965008 0 -116.75236968965008 -285.40157931576078 0 0 0 0 1496.9839224568495 534.59647801048231 0 534.59647801048231 -363.57260044355809 0 0 0 0 1500.3221061651361 156.19471334963822 0 156.19471334963822 -247.35556224405423 0 0 0 0 882.42298072361518 422.53821090330655 0 422.53821090330655 -313.71066779026842 0 0 0 0 1108.049627245895 33.302408691537273 0 33.302408691537273 -199.75891958169302 0 0 0 0 1112.3438772138579 -76.317623889664034 0 -76.317623889664034 -42.634600066753279 0 0 0 0 876.6598081217262 55.311193357077329 0 55.311193357077329 -43.488197294890199 0 0 0 0 798.34317046326396 19.827617742221861 0 19.827617742221861 -54.559410078554379 0 0 0 0 848.43512220984485 -267.629375295827 0 -267.629375295827 -34.753413902981904 0 0 0 0 882.0291118852183 -269.70672502202137 0 -269.70672502202137 -42.586885575673165 0 0 0 0 838.58907156747773 -355.66975219266436 0 -355.66975219266436 -83.023805500384185 0 0 0 0 1031.5502046763868 -322.52145633807208 0 -322.52145633807208 -77.672683365011977 0 0 0 0 1054.4698712271966 -293.56253546911148 0 -293.56253546911148 -51.962950117727985 0 0 0 0 1062.7996838329782 -224.4613082161367 0 -224.4613082161367 -18.082304602655896 0 0 0 0 916.46332132699536 -222.09766951907415 0 -222.09766951907415 -18.065502657621295 0 0 0 0 1126.6476774565526 -199.70127719381998 0 -199.70127719381998 -9.3737038543099089 0 0 0 0 1014.3334025218273 -208.07293538880023 0 -208.07293538880023 15.784350792978557 0 0 0 0 1037.3229967770712 -234.7296774295429 0 -234.7296774295429 15.418494050545036 0 0 0 0 1097.2739682185129 -299.30807865107096 0 -299.30807865107096 -51.611953307288985 0 0 0 0 1120.7632293160568 -292.13565838433271 0 -292.13565838433271 40.675390592614853 0 0 0 0 1098.3329956232365 -282.67061909480003 0 -282.67061909480003 83.35062311269742 0 0 0 0 1098.0634594001967 -188.19803260197264 0 -188.19803260197264 0.57233091399751856 0 0 0 0 1143.7862731138703 -163.03962346519108 0 -163.03962346519108 -19.378214215365517 0 0 0 0 1165.4585633179413 -252.18099486306758 0 -252.18099486306758 -158.28768354476091 0 0 0 0 1499.5346741474139 -106.06611967432895 0 -106.06611967432895 -165.60229576882264 0 0 0 0 1031.7549177681049 -109.057485155305 0 -109.057485155305 -44.611084299497122 0 0 0 0 41.549244390469539 -22.980782657606564 0 -22.980782657606564 21.190648204819261 0 0 0 0 0.058935814946160292 -0.60606321725747847 0 -0.60606321725747847 0.70513017171844217 0 0 0 0 41.822796902513801 4.6743650306215727 0 4.6743650306215727 112.41778797133748 0 0 0 0 138.63766152779135 25.710561827549441 0 25.710561827549441 31.943453569353835 0 0 0 0 117.04714939076985 36.837798239163362 0 36.837798239163362 93.563621131922446 0 0 0 0 183.78176964799059 64.25091894932325 0 64.25091894932325 36.033645326687363 0 0 0 0 169.53864001271904 84.932543339713618 0 84.932543339713618 56.540291048891277 0 0 0 0 159.01093250191752 124.744328382776 0 124.744328382776 -8.5040435512544263 0 0 0 0 122.73896557353874 48.898309620806486 0 48.898309620806486 35.8477680784166 0 0 0 0 108.10303265534458 63.929165871716833 0 63.929165871716833 20.870084211450088 0 0 0 0 5.2902496903734573 -13.335850511280158 0 -13.335850511280158 -19.868109717142893 0 0 0 0 324.3866369892894 140.98056120519087 0 140.98056120519087 -22.144276104939408 0 0 0 0 56.456603335492673 202.95609688144393 0 202.95609688144393 17.801096803783977 0 0 0 0 2.4614947999014873 1.0676947184849581 0 1.0676947184849581 0.43806094891357261 0 0 0 0 280.66878928168808 -129.81565700523285 0 -129.81565700523285 7.9963348113358137 0 0 0 0 9.1163171891166712 79.145721209219545 0 79.145721209219545 -134.17273537310547 0 0 0 0 6.1161555995906554 2.2889581889698043 0 2.2889581889698043 0.53929791866755394 0 0 0 0 13.39827402282026 -28.38417582115477 0 -28.38417582115477 -76.7024019293126 0 0 0 0 0.03209646045033665 -0.74209070317996151 0 -0.74209070317996151 1.0299575144055964 0 0 0 0 78.980012738637015 -34.983660965067855 0 -34.983660965067855 2.3296866831205989 0 0 0 0 38.152237344373134 28.787467392130139 0 28.787467392130139 24.389823568068735 0 0 0 0 145.86035429846015 -18.360830412717007 0 -18.360830412717007 -108.89411091769182 0 0 0 0 112.21441077900818 33.758107203804514 0 33.758107203804514 -0.3913589156048829 0 0 0 0 8.6467419964828878 -57.258853834466493 0 -57.258853834466493 31.452625979132449 0 0 0 0 289.19220176470481 -19.625399795646985 0 -19.625399795646985 -86.795920782564735 0 0 0 0 0.061992820822309724 -0.36663295480570213 0 -0.36663295480570213 0.36552759573490556 0 0 0 0 242.65980720228254 72.104779598319226 0 72.104779598319226 -53.113730590086021 0 0 0 0 252.84711257871822 47.364726851553087 0 47.364726851553087 -41.748780546354581 0 0 0 0 272.23207308427664 59.34722207378006 0 59.34722207378006 -52.827485449995109 0 0 0 0 163.75792497954899 41.68521967142631 0 41.68521967142631 134.77108425029968 0 0 0 0 186.36072817157401 -59.839184897653539 0 -59.839184897653539 31.045655480595343 0 0 0 0 65.475700583966045 -22.723342052835942 0 -22.723342052835942 68.00010821211346 0 0 0 0 152.02789091645536 -5.2631350144391309 0 -5.2631350144391309 -49.037556682985567 0 0 0 0 74.300230949262186 119.0794301462339 0 119.0794301462339 104.57556078990447 0 0 0 0 74.572232731881741 115.17210701916585 0 115.17210701916585 95.534140053656529 0 0 0 0 76.424296694545774 110.38355715163915 0 110.38355715163915 107.82032362588913 0 0 0 0 272.29927495784318 37.365803518293923 0 37.365803518293923 -44.939417720492884 0 0 0 0 56.968449650239563 -43.359209772220836 0 -43.359209772220836 36.702358222484833 0 0 0 0 0.66896215345503407 0.7627530286084081 0 0.7627530286084081 -0.91561644090464367 0 0 0 0 71.898967522349267 83.540970659571713 0 83.540970659571713 148.44607724141818 0 0 0 0 2.1499223143376156 0.12757413823618791 0 0.12757413823618791 -0.19849717562594196 0 0 0 0 70.008668735189531 97.13317026373484 0 97.13317026373484 147.35782393376988 0 0 0 0 4.0548889128931478 -3.5975724149768951 0 -3.5975724149768951 101.70365085561156 0 0 0 0 1.1914422950612718 0.16677380713551315 0 0.16677380713551315 -0.23035317005888889 0 0 0 0 2.0201996190862701 12.282874797450518 0 12.282874797450518 140.15448586738131 0 0 0 0 34.37747293443681 40.933552136413695 0 40.933552136413695 142.9556740272306 0 0 0 0 -19.794644216093729 18.595272277906812 0 18.595272277906812 136.4266516610665 0 0 0 0 165.67687593000664 78.511570893037742 0 78.511570893037742 107.87807006459457 0 0 0 0 51.731348605597304 32.705842675281517 0 32.705842675281517 99.926816134744399 0 0 0 0 68.423331666934246 18.213890343631022 0 18.213890343631022 102.20478998706379 0 0 0 0 129.79422509209326 -12.8158388298651 0 -12.8158388298651 85.056964637282476 0 0 0 0 64.376742908418237 -23.929755819885884 0 -23.929755819885884 89.100317531053804 0 0 0 0 19.091297215021768 4.5858182848571332 0 4.5858182848571332 141.17388138301584 0 0 0 0 31.645617125963327 -16.578294047536446 0 -16.578294047536446 111.3943383313059 0 0 0 0 37.632827678578906 -5.8159050840895361 0 -5.8159050840895361 113.08972261852034 0 0 0 0 42.73995108903182 -2.7330394842547321 0 -2.7330394842547321 112.68106760444228 0 0 0 0 142.85280555908321 -8.8084316184020111 0 -8.8084316184020111 19.236596093304684 0 0 0 0 235.95383751451664 8.9980834052324781 0 8.9980834052324781 47.139583225869615 0 0 0 0 125.60461769838548 -26.41169396355042 0 -26.41169396355042 42.257113767623423 0 0 0 0 149.09121079651231 -57.189227714240758 0 -57.189227714240758 82.413383227023587 0 0 0 0 166.79838799209392 -103.23342298738828 0 -103.23342298738828 102.09169552592209 0 0 0 0 149.55566697968243 -61.954875747671736 0 -61.954875747671736 22.743339761435777 0 0 0 0 129.66281701463595 -31.162997402630992 0 -31.162997402630992 131.26802970338554 0 0 0 0 95.462859450752148 -31.301401345418299 0 -31.301401345418299 106.73402130598822 0 0 0 0 82.518709908414166 -22.901030452928069 0 -22.901030452928069 101.9835550127325 0 0 0 0 103.54404790400622 -55.825535348625124 0 -55.825535348625124 122.23574920457713 0 0 0 0 134.2378438456326 -38.299016613898971 0 -38.299016613898971 109.11077473616149 0 0 0 0 53.383585838779254 3.9996796451484897 0 3.9996796451484897 105.59576545633092 0 0 0 0 91.24214732159453 -17.76477214823467 0 -17.76477214823467 80.252783338421636 0 0 0 0 70.911276530005125 -18.171298913682733 0 -18.171298913682733 130.29704462184202 0 0 0 0 51.880539129406316 16.729369527401566 0 16.729369527401566 4.1236238624167072 0 0 0 0 68.05198139306458 128.52297270118478 0 128.52297270118478 20.057867266330504 0 0 0 0 34.665703895953129 -57.934262514445692 0 -57.934262514445692 58.634963978678798 0 0 0 0 43.842323102493538 -12.818649958052106 0 -12.818649958052106 130.0083658557084 0 0 0 0 53.012941391036293 53.382025277270372 0 53.382025277270372 -28.57402641605654 0 0 0 0 -64.075767690883367 10.839309328024001 0 10.839309328024001 -74.963487143061457 0 0 0 0 67.613591968885885 -62.678832017741684 0 -62.678832017741684 109.90370987359938 0 0 0 0 24.857831776693274 -10.999376920222403 0 -10.999376920222403 86.525545672389399 0 0 0 0 110.04237262913375 -0.044583438542076692 0 -0.044583438542076692 71.007075657676069 0 0 0 0 200.89214748751328 -3.5917861304069447 0 -3.5917861304069447 130.58080656052834 0 0 0 0 136.48913978085693 -55.109462479247725 0 -55.109462479247725 103.39192746418166 0 0 0 0 207.13900506897517 -27.890151633107791 0 -27.890151633107791 220.7336322783417 0 0 0 0 321.12356517457738 -85.229833548193596 0 -85.229833548193596 140.43703910011232 0 0 0 0 240.69409677363365 -18.258204200817318 0 -18.258204200817318 98.153461726539945 0 0 0 0 195.27937672273765 -81.271380341516988 0 -81.271380341516988 125.47450285393799 0 0 0 0 168.80829132923827 -54.311299373548422 0 -54.311299373548422 113.05839290791795 0 0 0 0 132.70321987200487 -45.029216654794794 0 -45.029216654794794 120.1456202901627 0 0 0 0 172.93853941611997 -19.35761401349265 0 -19.35761401349265 98.141887411173457 0 0 0 0 184.9778903901115 -35.770080263953389 0 -35.770080263953389 118.00560178592946 0 0 0 0 267.71085153177773 6.861949490991492 0 6.861949490991492 112.01807528438889 0 0 0 0 167.80506109513044 122.01200294273735 0 122.01200294273735 193.55821029182903 0 0 0 0 232.05258928783587 49.295844850614571 0 49.295844850614571 90.476800868702611 0 0 0 0 175.14059822810304 106.46040844142567 0 106.46040844142567 51.264199481416654 0 0 0 0 238.3344804602657 196.23786009915659 0 196.23786009915659 -38.701721671309315 0 0 0 0 368.42554669955643 57.510371908216371 0 57.510371908216371 61.817417058042679 0 0 0 0 3.3589841104130755 1.0084838278536843 0 1.0084838278536843 0.24271721081023045 0 0 0 0 -27.689625943415535 244.94748391179809 0 244.94748391179809 -40.461387690113725 0 0 0 0 -5.9892277192780057 -5.6097952399291628 0 -5.6097952399291628 -34.552655998606269 0 0 0 0 61.001369881538267 36.319857138153111 0 36.319857138153111 -157.43706473681883 0 0 0 0 121.14433709847435 57.401195929478035 0 57.401195929478035 -16.617216947772647 0 0 0 0 31.094190405074187 -4.8794085273663086 0 -4.8794085273663086 80.715316674196629 0 0 0 0 53.428362733582617 -8.0269238567714183 0 -8.0269238567714183 0.5080795381986718 0 0 0 0 3.5941357575611619 -13.273653420176629 0 -13.273653420176629 -25.400932816344266 0 0 0 0 44.611888732375519 4.4801811534118769 0 4.4801811534118769 -32.432372373432372 0 0 0 0 33.132613827328896 -23.443801810844889 0 -23.443801810844889 9.2484432690378071 0 0 0 0 43.242656421156425 -3.2521854393432932 0 -3.2521854393432932 24.270449312805113 0 0 0 0 41.18829230692063 -23.284963170648098 0 -23.284963170648098 35.803298276146847 0 0 0 0 20.996081706201949 5.0175344410321259 0 5.0175344410321259 18.406969163748272 0 0 0 0 47.185064344870625 11.372059795635323 0 11.372059795635323 -15.081451275029849 0 0 0 0 43.47855886715115 12.036555491913418 0 12.036555491913418 66.88750650015777 0 0 0 0 34.460977553760813 4.9298970616061055 0 4.9298970616061055 71.295535451855812 0 0 0 0 31.14282949808694 9.991381268394889 0 9.991381268394889 106.34879170447711 0 0 0 0 36.554384333255257 -13.824602043708168 0 -13.824602043708168 41.312519335057914 0 0 0 0 50.011272046314843 9.3925239206139395 0 9.3925239206139395 54.261574901487393 0 0 0 0 45.311243070231285 5.011483784401662 0 5.011483784401662 58.265222979678583 0 0 0 0 59.888576753233792 20.113156638842611 0 20.113156638842611 64.518939915117699 0 0 0 0 55.571153888045956 41.054819602906264 0 41.054819602906264 76.280778076625211 0 0 0 0 67.254404578037793 30.23651788548068 0 30.23651788548068 56.573412238222318 0 0 0 0 39.769671141570143 40.27517495280415 0 40.27517495280415 99.62525241574258 0 0 0 0 41.60351906712458 44.474990113920512 0 44.474990113920512 108.24458368912155 0 0 0 0 42.38866164673891 21.936826735399336 0 21.936826735399336 88.117178921283994 0 0 0 0 46.822913913230877 33.736828525400142 0 33.736828525400142 78.913862390391841 0 0 0 0 56.066903446742799 43.730251636162848 0 43.730251636162848 85.376332527524255 0 0 0 0 45.400539547998051 48.884162458534092 0 48.884162458534092 89.511481762812764 0 0 0 0 47.140894048265181 53.366998264918948 0 53.366998264918948 100.11004116537697 0 0 0 0 44.971534157142742 55.977510588662881 0 55.977510588662881 97.001341661074548 0 0 0 0 45.071218254831365 58.918658887485392 0 58.918658887485392 106.35368301700146 0 0 0 0 53.584672878911078 74.627746218362745 0 74.627746218362745 96.949050866713151 0 0 0 0 52.593235436339455 74.5715412322661 0 74.5715412322661 178.35340788953283 0 0 0 0 42.619426445067802 66.821619660928263 0 66.821619660928263 124.87724282677846 0 0 0 0 51.361031231077504 75.35612622963572 0 75.35612622963572 109.14964978854823 0 0 0 0 52.839997369097546 66.600511185224605 0 66.600511185224605 97.922432967272471 0 0 0 0 46.496452500716259 46.575637764496605 0 46.575637764496605 125.17806326734149 0 0 0 0 40.049809955806268 41.613244217913916 0 41.613244217913916 123.6781128291309 0 0 0 0 56.785348697652807 19.026099702217607 0 19.026099702217607 198.09049480725685 0 0 0 0 2.728741485861903 0.31068735311494322 0 0.31068735311494322 1.0634277593417982 0 0 0 0 103.68683058615898 35.500372511265198 0 35.500372511265198 73.722825675465629 0 0 0 0 132.23093332217832 -35.954035581969492 0 -35.954035581969492 148.47061703982979 0 0 0 0 264.19111471194992 103.1669198420808 0 103.1669198420808 96.947407171942359 0 0 0 0 83.578105060743837 22.035226503623107 0 22.035226503623107 79.967045461547286 0 0 0 0 32.521214984073595 18.826513118635376 0 18.826513118635376 137.17023924902753 0 0 0 0 1.0459812612458421 -0.58861056431740266 0 -0.58861056431740266 0.34991478257886932 0 0 0 0 -10.026317397594539 -19.527433153610218 0 -19.527433153610218 -5.214069667903118 0 0 0 0 -9.8058808443150269 -44.995273004994537 0 -44.995273004994537 67.456568697017246 0 0 0 0 130.66714633908487 18.295360477052327 0 18.295360477052327 -3.5011107948132576 0 0 0 0 133.93365218412691 -54.887981715247953 0 -54.887981715247953 24.787902590039721 0 0 0 0 75.63747168189002 -40.592037913380182 0 -40.592037913380182 32.332338700675976 0 0 0 0 78.735873631754657 -22.246599633902633 0 -22.246599633902633 7.8004871999692114 0 0 0 0 52.23486888566913 -35.705627913186163 0 -35.705627913186163 90.186439613607945 0 0 0 0 34.366173671638535 4.6585924356347732 0 4.6585924356347732 28.661052772067251 0 0 0 0 38.053969521924955 -6.2709060066346183 0 -6.2709060066346183 13.874252850498124 0 0 0 0 48.571161897110869 -5.5535192712054595 0 -5.5535192712054595 -33.460047079776018 0 0 0 0 50.947743927877127 -23.962855684026877 0 -23.962855684026877 24.432950983561568 0 0 0 0 52.711434961507621 -13.886836291385862 0 -13.886836291385862 10.969823994485694 0 0 0 0 41.335289045894115 -16.004503485719198 0 -16.004503485719198 34.333518107666805 0 0 0 0 53.819323335579611 -10.525931535073198 0 -10.525931535073198 32.43269395310972 0 0 0 0 64.183770022469162 -15.490150507803747 0 -15.490150507803747 24.467308642405897 0 0 0 0 61.589085482766677 -1.409187628665677 0 -1.409187628665677 42.322175283415618 0 0 0 0 64.060640795975814 3.2410387610916302 0 3.2410387610916302 37.335500881726603 0 0 0 0 74.795748579574138 15.567468258332838 0 15.567468258332838 48.173805110230887 0 0 0 0 81.124932216982415 0.97181566621907223 0 0.97181566621907223 27.804023521355646 0 0 0 0 69.590134105892503 2.0503566525635506 0 2.0503566525635506 10.653896071248397 0 0 0 0 72.894801201984592 -6.0508269775643271 0 -6.0508269775643271 25.700806150513927 0 0 0 0 73.749544651711858 -15.674270852270027 0 -15.674270852270027 7.5180185271619848 0 0 0 0 73.13653418951435 -19.750819634751451 0 -19.750819634751451 25.155590572706842 0 0 0 0 74.674920651475986 -18.345527772493483 0 -18.345527772493483 11.469576741514288 0 0 0 0 62.555462844633439 25.415796737281653 0 25.415796737281653 4.2037385350894851 0 0 0 0 52.060441740470196 -1.4100581281057103 0 -1.4100581281057103 25.632653313693027 0 0 0 0 52.483279278611008 3.5800817105616716 0 3.5800817105616716 6.6498975074323425 0 0 0 0 22.551858488150174 1.4376932944727514 0 1.4376932944727514 -2.9514018869565462 0 0 0 0 30.056182086424087 16.768687500181954 0 16.768687500181954 12.881943111215136 0 0 0 0 21.917241641996952 -4.9914371936097268 0 -4.9914371936097268 10.690537062589101 0 0 0 0 41.254917046557239 37.519539036925607 0 37.519539036925607 -8.0177392865991806 0 0 0 0 45.275517830363242 29.687860993596814 0 29.687860993596814 -2.3551586776452496 0 0 0 0 31.449702981735754 15.631102934330784 0 15.631102934330784 -10.242582836220663 0 0 0 0 32.680978522994337 23.511161583085254 0 23.511161583085254 18.611589889458173 0 0 0 0 36.62958351366251 23.1898890278419 0 23.1898890278419 13.087590239550423 0 0 0 0 61.611905636396841 8.623450226277555 0 8.623450226277555 15.053792815393081 0 0 0 0 45.8899607399253 6.4353943199611763 0 6.4353943199611763 27.600614473095447 0 0 0 0 27.282364232705731 30.377636434227043 0 30.377636434227043 29.798061491882933 0 0 0 0 33.30955141573213 39.130176981838304 0 39.130176981838304 -0.97010934531431303 0 0 0 0 54.202509035938419 8.1817107022168329 0 8.1817107022168329 32.243217698185163 0 0 0 0 70.42615778628533 24.20126342847243 0 24.20126342847243 41.301997513763581 0 0 0 0 63.500531200199475 0.46083161124272465 0 0.46083161124272465 38.938525877737447 0 0 0 0 81.511205684975721 12.156118494962129 0 12.156118494962129 33.681267298170496 0 0 0 0 87.591974847775418 -2.4263137625739546 0 -2.4263137625739546 30.419039322065373 0 0 0 0 106.50760553077998 8.7834578405838784 0 8.7834578405838784 25.265726262601902 0 0 0 0 101.12366619550812 32.941003551667791 0 32.941003551667791 49.581710045345062 0 0 0 0 79.580813650347409 19.126734540499683 0 19.126734540499683 41.049379297872747 0 0 0 0 111.76211718665581 38.13261240571228 0 38.13261240571228 46.327136459319263 0 0 0 0 139.26727055547599 71.960607502718972 0 71.960607502718972 64.852834448020076 0 0 0 0 122.24630713180341 37.43963904665469 0 37.43963904665469 39.799770601691762 0 0 0 0 117.86738849892572 -5.3069635324320643 0 -5.3069635324320643 25.304337234006198 0 0 0 0 216.63213356444612 86.516286021605083 0 86.516286021605083 58.59581413529736 0 0 0 0 100.86590193554002 92.772628806545526 0 92.772628806545526 131.21078995446396 0 0 0 0 225.95479457402871 193.54697412807462 0 193.54697412807462 135.02414736637365 0 0 0 0 14.462714328050595 -3.801035715255594 0 -3.801035715255594 -0.72946524994486861 0 0 0 0 261.93895964696276 -266.70761183923332 0 -266.70761183923332 -528.29108914261224 0 0 0 0 1.8547625610813441 -0.57416351036368241 0 -0.57416351036368241 -0.50421684223739405 0 0 0 0 -245.15184424545441 -302.91801437020104 0 -302.91801437020104 -514.50036400851423 0 0 0 0 306.98431205526867 68.097461751421861 0 68.097461751421861 3.9176222301986741 0 0 0 0 153.25421563376585 185.92665544425563 0 185.92665544425563 138.57768579684762 0 0 0 0 163.56220648527415 125.81076343619065 0 125.81076343619065 61.19909392782165 0 0 0 0 164.18127250499674 148.54592367183227 0 148.54592367183227 45.226874374260206 0 0 0 0 117.27469898205891 111.97147616584402 0 111.97147616584402 81.733931613626737 0 0 0 0 143.29670672225984 162.5292753519272 0 162.5292753519272 140.9792257351387 0 0 0 0 132.10822821782494 15.882217566934969 0 15.882217566934969 -50.672643031193275 0 0 0 0 21.785946970916868 -6.7968003856074901 0 -6.7968003856074901 0.40340110525284745 0 0 0 0 89.924205580857233 39.856411635554934 0 39.856411635554934 -4.9452641901339121 0 0 0 0 -12.536693977061077 65.879140987267419 0 65.879140987267419 23.074965024539779 0 0 0 0 -14.964780778489512 70.282538826408882 0 70.282538826408882 -95.891219852765971 0 0 0 0 -220.45067680095963 -90.749119838746765 0 -90.749119838746765 -53.58658702981711 0 0 0 0 108.46314076113777 -76.121756695977183 0 -76.121756695977183 -53.71742908490387 0 0 0 0 34.038056679812144 67.130962171428791 0 67.130962171428791 -27.181494044534702 0 0 0 0 13.995631746212894 22.548287397554986 0 22.548287397554986 -51.941320901826657 0 0 0 0 18.521800481317769 -29.106666495473974 0 -29.106666495473974 -158.97625063573184 0 0 0 0 4.6754324979738158 -16.877329052046434 0 -16.877329052046434 -51.96287353280303 0 0 0 0 36.970083691117907 39.926062381220959 0 39.926062381220959 37.272829958325246 0 0 0 0 111.34462640254969 -39.702367123036254 0 -39.702367123036254 -79.95397250270571 0 0 0 0 137.27691401822813 22.509588771734116 0 22.509588771734116 -49.036280768095821 0 0 0 0 56.025193470683007 90.228192904575735 0 90.228192904575735 8.9588050869792824 0 0 0 0 82.065486947343743 -3.69114035080338 0 -3.69114035080338 -12.546417836603723 0 0 0 0 59.483907046211243 42.859279285052253 0 42.859279285052253 -12.475954694312804 0 0 0 0 90.479753994331077 32.699123025967253 0 32.699123025967253 -60.764668481449917 0 0 0 0 -133.30818043378531 76.867780699838931 0 76.867780699838931 -29.897711252705903 0 0 0 0 187.08589581739579 -6.2840252108888244 0 -6.2840252108888244 -36.154697968832124 0 0 0 0 -126.56439516920727 106.83890400954647 0 106.83890400954647 79.802482813285224 0 0 0 0 -0.25322468139059495 1.7180780206305926 0 1.7180780206305926 7.0233846257626213 0 0 0 0 92.344803612539181 39.026599950179104 0 39.026599950179104 42.052225836125075 0 0 0 0 247.7900030551391 66.671049949049191 0 66.671049949049191 -28.874537086337867 0 0 0 0 249.70261913031209 94.102356025115569 0 94.102356025115569 -0.85507455730703441 0 0 0 0 251.34180426915191 74.914212931990278 0 74.914212931990278 15.828484687419177 0 0 0 0 179.22489505726116 45.885355803885659 0 45.885355803885659 -17.304237169847966 0 0 0 0 241.62547457151595 118.29056735170614 0 118.29056735170614 49.893837861936163 0 0 0 0 160.65135496068979 93.841756195099833 0 93.841756195099833 43.962624153562047 0 0 0 0 -75.373588434114936 64.162571969394094 0 64.162571969394094 -131.54083030780566 0 0 0 0 7.8795937341074591 -1.1262817993237526 0 -1.1262817993237526 -1.4390774929460353 0 0 0 0 58.421287830875372 66.643515531643516 0 66.643515531643516 82.486098109958448 0 0 0 0 54.628381100395927 62.122768561030171 0 62.122768561030171 86.602045289698935 0 0 0 0 56.469132329511922 70.329921190179448 0 70.329921190179448 84.445571362979535 0 0 0 0 56.888179492430936 72.295530451705645 0 72.295530451705645 93.313645308153355 0 0 0 0 51.260390075942269 66.869044483759353 0 66.869044483759353 100.30784890906716 0 0 0 0 56.767259899177589 69.400822255100138 0 69.400822255100138 88.445495646433301 0 0 0 0 52.987884155329084 65.463318213608545 0 65.463318213608545 93.153170407415018 0 0 0 0 53.5131546896082 58.890440108880512 0 58.890440108880512 85.97800333175428 0 0 0 0 52.243408048700076 62.778646269693127 0 62.778646269693127 93.731095060174766 0 0 0 0 49.255909319108468 62.826528566633442 0 62.826528566633442 93.73901900958208 0 0 0 0 51.919166277177283 61.298597705640077 0 61.298597705640077 90.720593016876137 0 0 0 0 49.862463086377829 61.164395194708959 0 61.164395194708959 97.675158018151251 0 0 0 0 50.846019250930112 59.807521328417579 0 59.807521328417579 93.109610347629314 0 0 0 0 58.426711090949539 59.533765102315556 0 59.533765102315556 84.748175250763325 0 0 0 0 53.841719325020676 56.97654884230451 0 56.97654884230451 88.726629595099865 0 0 0 0 51.996418051981891 68.739735532468103 0 68.739735532468103 94.190220995606978 0 0 0 0 69.873197189939674 64.786534499953177 0 64.786534499953177 84.370250169669163 0 0 0 0 49.697112706817279 59.538207300101476 0 59.538207300101476 91.031477078369107 0 0 0 0 85.030832784264931 41.416120863744482 0 41.416120863744482 63.574584884573824 0 0 0 0 68.977356405062892 47.075567085644707 0 47.075567085644707 67.527735142378333 0 0 0 0 70.777012136852136 51.071956825503548 0 51.071956825503548 76.311748459015547 0 0 0 0 70.006250875453134 65.886094325752708 0 65.886094325752708 87.048162598595809 0 0 0 0 86.946228013832297 48.147256123416582 0 48.147256123416582 58.486293006617871 0 0 0 0 93.507084066040989 61.537909349352958 0 61.537909349352958 69.601512302526032 0 0 0 0 75.185678145790007 75.933021578779062 0 75.933021578779062 95.792383073130168 0 0 0 0 5.6499384879616343 -1.2949654833522892 0 -1.2949654833522892 -1.4683773780224136 0 0 0 0 87.947791708087607 68.353029706006055 0 68.353029706006055 86.38549455118158 0 0 0 0 88.172037556600117 73.889460334034993 0 73.889460334034993 108.29740734009602 0 0 0 0 208.58391313748143 -328.08238000398114 0 -328.08238000398114 -444.39907116799759 0 0 0 0 4.4295544556443929 194.93450653361424 0 194.93450653361424 13.560271425720202 0 0 0 0 -26.478805994520371 121.02626599120481 0 121.02626599120481 -120.72419355563397 0 0 0 0 -123.98486289419816 136.79748525980767 0 136.79748525980767 168.96227462801562 0 0 0 0 -98.224651995828026 -116.81025913291319 0 -116.81025913291319 96.386048826855358 0 0 0 0 440.36010232517674 -44.023724611725925 0 -44.023724611725925 -55.626552947962864 0 0 0 0 -182.60905261873359 -83.227947331565389 0 -83.227947331565389 156.53217861832218 0 0 0 0 159.32163232089079 -62.652346939292329 0 -62.652346939292329 102.74292570516832 0 0 0 0 89.075866426937864 145.46517109886372 0 145.46517109886372 320.01843038353513 0 0 0 0 237.85905480811743 397.50928931502841 0 397.50928931502841 330.77874730548956 0 0 0 0 -245.71754035814956 -317.29024827759395 0 -317.29024827759395 -444.2700598411846 0 0 0 0 4.8636903773169706 -1.0713260529372945 0 -1.0713260529372945 -0.44852382138081737 0 0 0 0 172.81549337944307 231.25143608739927 0 231.25143608739927 148.32764323653419 0 0 0 0 228.68442555385991 130.78888637189539 0 130.78888637189539 128.24516443963012 0 0 0 0 146.55664776658523 172.4815166749936 0 172.4815166749936 114.23720869870772 0 0 0 0 186.85241218219744 169.35167560589787 0 169.35167560589787 34.18282878621676 0 0 0 0 100.09461234834453 104.42710070701958 0 104.42710070701958 125.95226753942234 0 0 0 0 75.443236095066823 101.02029029148491 0 101.02029029148491 18.773206184194805 0 0 0 0 132.74079202238499 155.25039908633119 0 155.25039908633119 -16.066241110241208 0 0 0 0 145.02406418840837 128.78316594127614 0 128.78316594127614 35.375597295773332 0 0 0 0 173.34195720383286 142.30436137791389 0 142.30436137791389 11.099491907537413 0 0 0 0 -168.49732450734882 6.543919605053361 0 6.543919605053361 102.19098001340762 0 0 0 0 -167.72258715582211 -0.53573622582621283 0 -0.53573622582621283 151.05532331575341 0 0 0 0 -19.227847680391278 5.1282884777017443 0 5.1282884777017443 105.18589648739589 0 0 0 0 37.881706165011565 176.71654584976932 0 176.71654584976932 43.125479237218769 0 0 0 0 -119.16231938965211 200.4707428422214 0 200.4707428422214 -0.9557825208680697 0 0 0 0 -212.97321106339223 83.40709588345544 0 83.40709588345544 96.919902162821472 0 0 0 0 -311.91277423415158 -10.359681104493575 0 -10.359681104493575 31.712593069105878 0 0 0 0 -223.38982896614471 -95.030285894431245 0 -95.030285894431245 -127.83615777600198 0 0 0 0 -168.63823629603939 -18.878761488570547 0 -18.878761488570547 -39.399440562064228 0 0 0 0 -0.69497591628428168 0.62996559551493903 0 0.62996559551493903 6.7476874904815274 0 0 0 0 196.69287477228499 37.222805254480406 0 37.222805254480406 19.264215163918884 0 0 0 0 119.69867486379007 45.640190111886952 0 45.640190111886952 106.99406772856909 0 0 0 0 192.40211000300405 65.383816490137818 0 65.383816490137818 43.616269873088925 0 0 0 0 154.75055093642368 95.479714086559753 0 95.479714086559753 54.434953375899454 0 0 0 0 251.64196097648323 7.0125895707653108 0 7.0125895707653108 -60.894572041134609 0 0 0 0 176.70861540632177 43.196316944003492 0 43.196316944003492 169.25252623533922 0 0 0 0 329.77843019786087 -2.6364532621434407 0 -2.6364532621434407 21.1157552343075 0 0 0 0 397.57117601093341 76.652411688211458 0 76.652411688211458 -5.3313321767469688 0 0 0 0 256.24799108784646 143.77777084351754 0 143.77777084351754 134.01376092259093 0 0 0 0 250.33827754774393 17.529959102781788 0 17.529959102781788 -28.95783767307276 0 0 0 0 172.90027383675624 -7.3447864288921778 0 -7.3447864288921778 12.118724373591476 0 0 0 0 176.48889008534024 -8.4698381217578458 0 -8.4698381217578458 7.089238323147697 0 0 0 0 107.22974984322354 -22.648589431717824 0 -22.648589431717824 24.690370153842139 0 0 0 0 120.80846074988676 -75.483810345352055 0 -75.483810345352055 -9.7433984392537241 0 0 0 0 166.08674496327012 182.63488498258755 0 182.63488498258755 135.22691944586154 0 0 0 0 71.313381623629539 34.567953739466702 0 34.567953739466702 63.037347517873172 0 0 0 0 160.76952135252941 56.657356120374061 0 56.657356120374061 46.409772975121513 0 0 0 0 152.0573832100381 61.152593377710787 0 61.152593377710787 60.325769019740051 0 0 0 0 248.75657567195958 84.576250047571691 0 84.576250047571691 20.715056904834455 0 0 0 0 244.96851565093675 91.778120849546582 0 91.778120849546582 20.708717372553963 0 0 0 0 264.28601955400427 102.61441541157605 0 102.61441541157605 25.970161586495237 0 0 0 0 231.58116432683892 100.97838774741814 0 100.97838774741814 51.882355347617391 0 0 0 0 224.05068129896244 64.077996259255883 0 64.077996259255883 6.5558698603160934 0 0 0 0 -347.7432666602981 -1.6378384906560086 0 -1.6378384906560086 -134.99204273953907 0 0 0 0 -332.82678101332749 -58.648066771651763 0 -58.648066771651763 -2.8819285360268765 0 0 0 0 326.76284208028119 169.83205742564667 0 169.83205742564667 30.373511286870951 0 0 0 0 -0.060774916794599676 0.025224329425086012 0 0.025224329425086012 2.3345092503952287 0 0 0 0 -323.11416583580649 -57.091582614301217 0 -57.091582614301217 -20.16849006797122 0 0 0 0 82.475656006005011 146.82856090310088 0 146.82856090310088 -24.352632996167358 0 0 0 0 121.20693787338678 97.93841303081274 0 97.93841303081274 22.194680382862941 0 0 0 0 117.02204779621388 109.78245299193105 0 109.78245299193105 5.5601746623894996 0 0 0 0 -0.86314124158741379 0.5203814108997733 0 0.5203814108997733 -1.7783294065566277 0 0 0 0 147.59587620108505 124.56167652527921 0 124.56167652527921 13.079845633216792 0 0 0 0 157.71811583176896 115.4832497014205 0 115.4832497014205 14.374702227700709 0 0 0 0 121.55803030790412 99.149750338284321 0 99.149750338284321 -1.47604482799278 0 0 0 0 132.82003127739881 118.68516168402243 0 118.68516168402243 44.649308645438566 0 0 0 0 -49.194610161728633 60.341639878989156 0 60.341639878989156 97.000662845282534 0 0 0 0 -331.51015174669374 -80.33435663023451 0 -80.33435663023451 28.266748722106968 0 0 0 0 49.454005049847183 100.91871809830229 0 100.91871809830229 157.9574974793417 0 0 0 0 54.293169924359972 -6.8533751671151606 0 -6.8533751671151606 37.00106986973833 0 0 0 0 48.947824539327485 112.30107778611892 0 112.30107778611892 -20.019335329013302 0 0 0 0 91.818706960239069 45.483266986006413 0 45.483266986006413 -40.45367056315763 0 0 0 0 1.4058412374579348 49.461073952147444 0 49.461073952147444 -40.001279522440655 0 0 0 0 -37.960802170593524 3.6669123902554475 0 3.6669123902554475 -88.350992632480029 0 0 0 0 -15.057678829369252 83.362845690462791 0 83.362845690462791 -27.583378536877603 0 0 0 0 79.34192940867797 15.676268202098527 0 15.676268202098527 -140.82421864974538 0 0 0 0 17.301652897076565 -34.045426823245634 0 -34.045426823245634 -160.78286885926479 0 0 0 0 63.195875471843465 7.0991864799240147 0 7.0991864799240147 -110.4891898018318 0 0 0 0 -9.049528683990502 69.29556220717086 0 69.29556220717086 -56.7708873418444 0 0 0 0 -50.789637717180312 31.109945414714275 0 31.109945414714275 -18.949622948926162 0 0 0 0 1.9997678342805614 4.3911527240322599 0 4.3911527240322599 -3.5445174043068954 0 0 0 0 427.33140364687279 -16.478113132214684 0 -16.478113132214684 -488.63641778993184 0 0 0 0 206.61592955546075 -265.17564651281191 0 -265.17564651281191 -661.60920552997197 0 0 0 0 29.325506999839433 6.0486465762410253 0 6.0486465762410253 -0.39525205796609109 0 0 0 0 -169.96321425548376 -398.37995820945071 0 -398.37995820945071 -153.19964421640009 0 0 0 0 95.346607185070752 0.77597278976122652 0 0.77597278976122652 -221.38097449734278 0 0 0 0 -916.87460998845927 -509.70598330128814 0 -509.70598330128814 -121.17185373833456 0 0 0 0 -964.78741228289437 716.36415979555534 0 716.36415979555534 530.91330390295013 0 0 0 0 292.2484521537699 518.22501817503098 0 518.22501817503098 48.474371777334227 0 0 0 0 -237.88310726740019 72.945836388359197 0 72.945836388359197 22.880123233415588 0 0 0 0 -57.115669334452832 -79.491862346707052 0 -79.491862346707052 80.603018888193475 0 0 0 0 369.32460243858077 267.73889889694726 0 267.73889889694726 -178.75941291505353 0 0 0 0 606.97099687271111 304.71869252810188 0 304.71869252810188 -524.46415523610699 0 0 0 0 4.6287192809430451 4.0863861483673976 0 4.0863861483673976 0.92903458099489622 0 0 0 0 -50.266574432025664 -88.740659696936973 0 -88.740659696936973 -30.85710931924126 0 0 0 0 682.63801731045533 615.42215029437068 0 615.42215029437068 103.16031547003206 0 0 0 0 411.47648096269404 102.83569976242393 0 102.83569976242393 -695.16389182210082 0 0 0 0 75.749069165009132 93.258173160795877 0 93.258173160795877 -251.06094406149447 0 0 0 0 25.268143058641755 6.9218005622710015 0 6.9218005622710015 1.3796057806185442 0 0 0 0 -52.489044113084674 105.20802748618939 0 105.20802748618939 -132.61373966314841 0 0 0 0 -122.08954402367817 119.50318234171937 0 119.50318234171937 -117.00021112450418 0 0 0 0 8.7871831007707186 3.3042266275548737 0 3.3042266275548737 0.77422567308158796 0 0 0 0 -316.48269089130906 -128.25708554899199 0 -128.25708554899199 -228.88353817528082 0 0 0 0 48.373077563119296 -97.973559654518567 0 -97.973559654518567 -134.32466988080955 0 0 0 0 208.04216083331266 -19.125956193808179 0 -19.125956193808179 -142.62037592511024 0 0 0 0 -96.655892816801497 -34.050321917081192 0 -34.050321917081192 72.508924977247375 0 0 0 0 -315.39008122222731 278.23379963702536 0 278.23379963702536 24.835505490239257 0 0 0 0 160.16578562787618 -66.110462796170737 0 -66.110462796170737 -128.72578082010955 0 0 0 0 39.190625822317088 -86.214004025772283 0 -86.214004025772283 -68.080927097423228 0 0 0 0 -209.6145149162694 31.799800631095195 0 31.799800631095195 -66.786247988558443 0 0 0 0 -134.74704563723935 -82.179872268891586 0 -82.179872268891586 -83.531043820663854 0 0 0 0 48.518291570886504 -75.734347256873207 0 -75.734347256873207 -87.276616514656439 0 0 0 0 -70.467285539401928 -16.471492688376884 0 -16.471492688376884 -52.47610940891218 0 0 0 0 -87.667214024957502 -17.408098744424478 0 -17.408098744424478 -42.366229179354832 0 0 0 0 5.5079514882236253 -53.930470127155559 0 -53.930470127155559 -35.63045290453465 0 0 0 0 78.883614561593276 -100.79984397377837 0 -100.79984397377837 -43.692713645219555 0 0 0 0 88.891099592598039 -84.568754483323858 0 -84.568754483323858 -24.296216449195299 0 0 0 0 120.83299238291511 -59.692637632886772 0 -59.692637632886772 -41.325256526489511 0 0 0 0 109.72298776055686 -80.935686787413943 0 -80.935686787413943 -72.701393191159923 0 0 0 0 134.34454687524703 -70.604416762855465 0 -70.604416762855465 -22.187329482431721 0 0 0 0 30.595577053662055 -27.801656668212757 0 -27.801656668212757 -8.6953885775030813 0 0 0 0 94.306664259740501 -44.586879055517443 0 -44.586879055517443 -7.2393112443850214 0 0 0 0 34.357418849147507 25.4261462904567 0 25.4261462904567 -7.3731478951058591 0 0 0 0 106.55062188856391 22.692258008923773 0 22.692258008923773 -7.8724545566853976 0 0 0 0 83.886930832566577 83.022568639631118 0 83.022568639631118 -60.474423477869323 0 0 0 0 106.09836154367076 75.38904166726752 0 75.38904166726752 -194.1502960931947 0 0 0 0 94.371911631938929 23.257974331615884 0 23.257974331615884 -98.919565986998805 0 0 0 0 35.184799124777783 67.574400675742481 0 67.574400675742481 -108.5690741298481 0 0 0 0 59.167937567457557 41.549096574397709 0 41.549096574397709 -110.88047436450177 0 0 0 0 27.797508305458905 59.838038983519127 0 59.838038983519127 -79.134538117592456 0 0 0 0 -87.700771975389216 -192.25053263082577 0 -192.25053263082577 -232.52208630474979 0 0 0 0 4.6274886010662328 -2.0447181844886941 0 -2.0447181844886941 0.048973387104591648 0 0 0 0 -37.327895536080177 -12.906353624475059 0 -12.906353624475059 -22.561693922330221 0 0 0 0 -241.90088685592491 -34.084739570666329 0 -34.084739570666329 106.79793896588239 0 0 0 0 1.6804948280318897 4.2483751306081743 0 4.2483751306081743 9.6150043798015741 0 0 0 0 -10.220657501733513 48.592376725987776 0 48.592376725987776 48.98362407815813 0 0 0 0 10.723089951006841 26.089916471153174 0 26.089916471153174 -20.239034995529437 0 0 0 0 -133.25077956730092 -210.30224459571309 0 -210.30224459571309 98.272244878587117 0 0 0 0 -64.68763277051994 -56.408277142599196 0 -56.408277142599196 12.508412143428473 0 0 0 0 -68.646148074444227 0.5232631189320065 0 0.5232631189320065 -47.673163629352302 0 0 0 0 -12.642976762923354 51.867643960232499 0 51.867643960232499 -7.1757639528891559 0 0 0 0 27.170072513099839 -8.6364211715117953 0 -8.6364211715117953 0.21769885789262 0 0 0 0 -21.558203133026836 -38.417705472253658 0 -38.417705472253658 -82.393021015796222 0 0 0 0 35.4446804876643 -86.286673987223367 0 -86.286673987223367 -74.504897226752917 0 0 0 0 64.075954620038829 -48.217669197688792 0 -48.217669197688792 -78.582805937237026 0 0 0 0 2.882969740952575 1.8943415980789737 0 1.8943415980789737 -2.1760927660844644 0 0 0 0 11.060586605599383 -17.233765073395148 0 -17.233765073395148 -61.548697203819756 0 0 0 0 -25.547396765934536 -28.352609119953343 0 -28.352609119953343 -22.262663944053202 0 0 0 0 163.92381714921794 47.156195643727528 0 47.156195643727528 -49.541329737845217 0 0 0 0 138.49018841745783 5.6028886373788396 0 5.6028886373788396 -26.949757680073276 0 0 0 0 255.77725992663909 -30.482883277989231 0 -30.482883277989231 -47.880638014064289 0 0 0 0 51.421250641309598 -101.58172882869621 0 -101.58172882869621 -35.432312252435281 0 0 0 0 202.94897017434414 -140.17350419516424 0 -140.17350419516424 2.4461587635814794 0 0 0 0 179.61773144022936 8.8966369282927715 0 8.8966369282927715 12.269478324143506 0 0 0 0 228.15426059276797 141.41939882077099 0 141.41939882077099 45.872916212036898 0 0 0 0 250.96293780230189 159.50262653169568 0 159.50262653169568 21.229982012055075 0 0 0 0 131.8097509778454 78.161233771488241 0 78.161233771488241 14.029759131176661 0 0 0 0 194.49646016649058 105.79659079430826 0 105.79659079430826 -24.892422315613658 0 0 0 0 187.65601970208127 154.99417175850397 0 154.99417175850397 29.800186917091196 0 0 0 0 174.56190423769658 132.38168263569946 0 132.38168263569946 3.0765367121968268 0 0 0 0 169.32214344098611 124.79158764642685 0 124.79158764642685 26.101065205368272 0 0 0 0 168.05346759403619 129.47464368688597 0 129.47464368688597 9.9134807998964334 0 0 0 0 139.85547480941023 131.30275904770929 0 131.30275904770929 60.265718572639571 0 0 0 0 135.03231412483001 141.7140991419252 0 141.7140991419252 50.526220477507593 0 0 0 0 211.08197751355328 206.72553943844821 0 206.72553943844821 106.01059871516645 0 0 0 0 30.612828429169895 34.50361486344309 0 34.50361486344309 106.85616562105901 0 0 0 0 38.817267614813318 107.74688899223052 0 107.74688899223052 238.29243403915279 0 0 0 0 -203.31648582343041 -74.372123753526182 0 -74.372123753526182 -199.92426060815171 0 0 0 0 -199.49709288775193 -157.42786006744791 0 -157.42786006744791 -179.95509449051639 0 0 0 0 -197.58328829656966 -177.10072587748584 0 -177.10072587748584 -106.80823956093158 0 0 0 0 -203.18491050070406 -77.592572507346233 0 -77.592572507346233 -124.72005290455627 0 0 0 0 5.3404702383032543 3.7051932674927883 0 3.7051932674927883 -1.7953306457798315 0 0 0 0 129.5882859799749 -107.8529746189227 0 -107.8529746189227 115.81303094953773 0 0 0 0 517.99885938882653 -46.022411482433654 0 -46.022411482433654 -98.179990830378387 0 0 0 0 252.91809129602916 16.528326553039392 0 16.528326553039392 -77.683224484801372 0 0 0 0 507.19302115913888 103.42484041752316 0 103.42484041752316 -110.96117245847267 0 0 0 0 144.08596952193329 223.86576380631396 0 223.86576380631396 366.20942118382186 0 0 0 0 9.4282277539628581 2.5976622830955769 0 2.5976622830955769 -0.40413941371437856 0 0 0 0 479.57590549016459 307.28661262007176 0 307.28661262007176 153.28524471335402 0 0 0 0 726.5723317662414 -90.607035347192777 0 -90.607035347192777 -24.482468954881483 0 0 0 0 28.269196042838303 25.170380231022762 0 25.170380231022762 -100.73669782551224 0 0 0 0 129.23947056171528 -271.1157145184892 0 -271.1157145184892 551.09294619259936 0 0 0 0 -280.2938638896303 184.99535031593962 0 184.99535031593962 604.50883399040538 0 0 0 0 476.25395290982851 188.65917538407317 0 188.65917538407317 -217.91359334639068 0 0 0 0 606.51856240732195 108.69247762957848 0 108.69247762957848 -244.53411242223797 0 0 0 0 12.730586734891403 -12.520443372418185 0 -12.520443372418185 -61.732493904646219 0 0 0 0 26.22664751913544 20.592691757978628 0 20.592691757978628 18.750112630409603 0 0 0 0 18.237185607817082 54.414320333696423 0 54.414320333696423 -75.556788440291996 0 0 0 0 6.3125064825871959 26.99877367493059 0 26.99877367493059 12.313153313545627 0 0 0 0 -72.467887278668059 71.648710152079275 0 71.648710152079275 -5.9448731105178467 0 0 0 0 -301.05678955888288 366.45384659086767 0 366.45384659086767 280.80439211657813 0 0 0 0 1.6928530952101539 4.6468999693014652 0 4.6468999693014652 9.6852463596705967 0 0 0 0 -334.0696006166454 325.05517668865332 0 325.05517668865332 422.29979025365856 0 0 0 0 -6.5968761620461009 -14.540260354650627 0 -14.540260354650627 -7.7406428622725798 0 0 0 0 4.1675058854780218 7.5793845273116887 0 7.5793845273116887 -28.892049655314622 0 0 0 0 132.00809312173806 111.32083314756068 0 111.32083314756068 1.0656697638684929 0 0 0 0 136.01948557479773 77.9397591812683 0 77.9397591812683 37.488516263303751 0 0 0 0 53.165607951457787 180.5079242007117 0 180.5079242007117 -8.3981408103877584 0 0 0 0 97.827142765920144 125.11801759617242 0 125.11801759617242 7.0819296059601129 0 0 0 0 -70.715782367944485 -9.4015984677847655 0 -9.4015984677847655 37.096919167846409 0 0 0 0 7.8117006556676643 64.502687684730518 0 64.502687684730518 90.625542818215308 0 0 0 0 59.795105289544153 -5.3570790445617149 0 -5.3570790445617149 13.851275301170062 0 0 0 0 82.887809646425012 127.52879144323691 0 127.52879144323691 59.274343501386966 0 0 0 0 109.09628936178342 296.20957600114798 0 296.20957600114798 219.08048203042864 0 0 0 0 1.3757568437628009 2.4928687931884426 0 2.4928687931884426 4.0147063205496716 0 0 0 0 483.68853399664658 209.11279782542641 0 209.11279782542641 -190.75132628116648 0 0 0 0 -105.68335266734903 118.64134945857917 0 118.64134945857917 155.05973733241171 0 0 0 0 411.54923346023861 245.88285442257484 0 245.88285442257484 -85.105020356225737 0 0 0 0 -98.406530560647298 -334.79427950625859 0 -334.79427950625859 231.3412512504392 0 0 0 0 212.49768354158005 92.208447404272349 0 92.208447404272349 -199.22512082001018 0 0 0 0 6.3278325987564585 -2.6589976584211499 0 -2.6589976584211499 0.55531905616102328 0 0 0 0 340.68561722229788 306.14712695139707 0 306.14712695139707 -105.15254392667816 0 0 0 0 15.019168478713254 26.783435808940503 0 26.783435808940503 13.129422484963474 0 0 0 0 5.6907748101613436 -3.4658563993152711 0 -3.4658563993152711 1.4111773022838321 0 0 0 0 -25.1916219389459 -48.489248357231816 0 -48.489248357231816 0.23005570601866054 0 0 0 0 12.636379800540453 -238.35407535288687 0 -238.35407535288687 -256.43527479341242 0 0 0 0 173.19378914697154 148.52685802065741 0 148.52685802065741 -102.45613914980106 0 0 0 0 -195.63811613149301 -180.12922911425818 0 -180.12922911425818 -261.56776641937768 0 0 0 0 179.04393643753428 0.91700383041052191 0 0.91700383041052191 -47.346321770345185 0 0 0 0 -0.85049963424215491 0.74577002388437563 0 0.74577002388437563 -0.058444483877753028 0 0 0 0 44.53985167103383 38.163975050590246 0 38.163975050590246 -29.105025341610002 0 0 0 0 147.51218961198174 -81.404716841284085 0 -81.404716841284085 -31.423442699866811 0 0 0 0 2.1108993010191313 -1.5017252659234188 0 -1.5017252659234188 0.58574616304269944 0 0 0 0 -61.473957114492805 14.87230328076129 0 14.87230328076129 85.00946299226031 0 0 0 0 56.799578448517423 61.909670059698882 0 61.909670059698882 48.229595015554338 0 0 0 0 76.844596337056828 121.25287159051013 0 121.25287159051013 100.95840048631543 0 0 0 0 63.049416279722209 48.568801525591432 0 48.568801525591432 76.276398596489898 0 0 0 0 34.375957584812568 36.113633946238814 0 36.113633946238814 0.062739077107043129 0 0 0 0 -3.8525697268378281 26.746517858010389 0 26.746517858010389 61.040465630533859 0 0 0 0 84.00122104219281 76.312275188166026 0 76.312275188166026 19.611668711853838 0 0 0 0 -2.1549891976319486 -0.46978292491037088 0 -0.46978292491037088 -5.8758239596678692 0 0 0 0 24.569952695783286 44.947688565775934 0 44.947688565775934 2.7325571801984267 0 0 0 0 11.39486860926263 34.262560333908141 0 34.262560333908141 0.0038641353463427855 0 0 0 0 -106.49045911209396 329.12163594205151 0 329.12163594205151 576.32162915332174 0 0 0 0 5.1926130263658763 4.9609712885274817 0 4.9609712885274817 4.8284547171997678 0 0 0 0 -142.58456727652811 46.052565713339391 0 46.052565713339391 556.29339772594278 0 0 0 0 -136.22449853118178 31.596917436498018 0 31.596917436498018 207.11218506113346 0 0 0 0 -122.03615697252462 236.81168411291807 0 236.81168411291807 253.71456252594089 0 0 0 0 -182.32987228863931 229.4275643564109 0 229.4275643564109 257.3051234790874 0 0 0 0 -107.87731392492424 259.34477834538535 0 259.34477834538535 26.173069370990788 0 0 0 0 -187.16152331013291 375.99274961892399 0 375.99274961892399 153.71350038576554 0 0 0 0 47.731363939426956 85.676501205538727 0 85.676501205538727 -152.71133425414769 0 0 0 0 12.90041578286764 70.455392748098745 0 70.455392748098745 -121.81897188862149 0 0 0 0 627.25807036524202 419.02534709997758 0 419.02534709997758 63.854805517787952 0 0 0 0 689.06917909961749 -122.25355203816721 0 -122.25355203816721 -59.129297549472895 0 0 0 0 64.190852255924256 -15.684538145391571 0 -15.684538145391571 201.59500488016369 0 0 0 0 291.75424480260699 164.04431639457229 0 164.04431639457229 -231.90619090702575 0 0 0 0 288.94696912220866 -40.196435731639205 0 -40.196435731639205 46.280128600778028 0 0 0 0 115.48715932040068 -100.9808845089008 0 -100.9808845089008 18.362681639410397 0 0 0 0 167.6271382142877 -130.07150947924299 0 -130.07150947924299 34.575222743618767 0 0 0 0 140.94875471181149 103.53248270478453 0 103.53248270478453 95.067427615650729 0 0 0 0 90.615901114379085 -55.448173171567149 0 -55.448173171567149 157.44671062986524 0 0 0 0 209.23450695565043 -176.49849555302131 0 -176.49849555302131 353.71909510876907 0 0 0 0 137.92469097418507 173.50244994954193 0 173.50244994954193 422.77883054247053 0 0 0 0 519.12426369423338 276.12450314250691 0 276.12450314250691 52.356944045367356 0 0 0 0 233.69065059869899 89.478530135940304 0 89.478530135940304 0.049784888037850833 0 0 0 0 342.91370898033347 106.39922079913221 0 106.39922079913221 -0.12015503656492776 0 0 0 0 248.99183284068749 135.03387829986374 0 135.03387829986374 26.853537114701339 0 0 0 0 298.55507475437298 -5.3705200224192193 0 -5.3705200224192193 -60.463359296371493 0 0 0 0 460.55522092178944 -11.593528340812638 0 -11.593528340812638 -48.449356618563513 0 0 0 0 49.01397174745216 -27.227194844790326 0 -27.227194844790326 -12.435349544708448 0 0 0 0 -9.0747715005745704 103.42566723216446 0 103.42566723216446 2.2879598881848011 0 0 0 0 61.353620545665763 65.75232858356587 0 65.75232858356587 0.039659697272301245 0 0 0 0 -37.285336210698006 19.648601341821347 0 19.648601341821347 -8.9438057482990416 0 0 0 0 -0.36296537394304096 4.2820889634082508 0 4.2820889634082508 3.1066209681374581 0 0 0 0 -29.767291475025559 66.668620732502831 0 66.668620732502831 -55.109196001756217 0 0 0 0 -11.519209515892726 26.917508445451151 0 26.917508445451151 -0.074448490595265412 0 0 0 0 2.8999877401945611 -1.1367375111959817 0 -1.1367375111959817 -2.3262195124292466 0 0 0 0 140.91852551505872 203.7379954685864 0 203.7379954685864 -147.54867692669632 0 0 0 0 -98.994625604664179 55.96405090177052 0 55.96405090177052 -205.66158329604559 0 0 0 0 17.568222444430006 12.526416072217444 0 12.526416072217444 7.8373101043267708 0 0 0 0 -44.976329369186715 253.25090962773538 0 253.25090962773538 -134.19639884463595 0 0 0 0 -42.655061471632507 68.737924279678225 0 68.737924279678225 -24.116603508176581 0 0 0 0 -20.211396064274595 160.24426269858441 0 160.24426269858441 -133.21900168199215 0 0 0 0 40.365008140455885 7.8892083851945376 0 7.8892083851945376 -0.39501377378357483 0 0 0 0 32.661771179831703 12.985812444634027 0 12.985812444634027 -4.1383548281772775 0 0 0 0 20.277917766215978 12.327785751639485 0 12.327785751639485 -0.021522509956404881 0 0 0 0 184.10977277743223 124.14986231628336 0 124.14986231628336 -499.41059222570362 0 0 0 0 32.027665445944294 10.653669594486152 0 10.653669594486152 1.466705934041691 0 0 0 0 71.072957472657436 12.571224100812316 0 12.571224100812316 -23.829856343392986 0 0 0 0 125.15960036340039 249.5229455020791 0 249.5229455020791 -247.50489462634982 0 0 0 0 95.283734991881147 -154.54413290097511 0 -154.54413290097511 -129.69999903804364 0 0 0 0 127.62193226708769 105.29510914835555 0 105.29510914835555 17.884332163354429 0 0 0 0 207.73925867374055 132.78191559425341 0 132.78191559425341 66.882377929038839 0 0 0 0 7.6045387324047624 163.682441212919 0 163.682441212919 63.900934894158127 0 0 0 0 489.98793371624743 469.0010082668237 0 469.0010082668237 424.05513000689075 0 0 0 0 165.97154494821734 259.06572179718103 0 259.06572179718103 461.40484021086445 0 0 0 0 286.80384722945155 -165.11847381722484 0 -165.11847381722484 315.5836953286796 0 0 0 0 -164.79148852407525 217.32109664007828 0 217.32109664007828 299.77078496033141 0 0 0 0 -185.34732631049701 239.22119435486002 0 239.22119435486002 299.06795354318456 0 0 0 0 -167.33443414553767 236.80320317988662 0 236.80320317988662 268.060885339376 0 0 0 0 -81.990273753872316 197.76507421779081 0 197.76507421779081 111.57003408257196 0 0 0 0 6.8606745121287531 234.40801731368754 0 234.40801731368754 120.988099442975 0 0 0 0 41.871890611895651 346.4935027251874 0 346.4935027251874 378.02626060072339 0 0 0 0 -47.058124551429501 90.779493958267778 0 90.779493958267778 557.65184168356632 0 0 0 0 6.363549797628508 3.4281504003163352 0 3.4281504003163352 1.6413032845132114 0 0 0 0 -94.169005533331074 92.571316938979805 0 92.571316938979805 840.61163532603621 0 0 0 0 -81.811561874812469 185.6711814025378 0 185.6711814025378 308.81098425451887 0 0 0 0 60.051827891224093 -48.496216495139549 0 -48.496216495139549 264.04892728454695 0 0 0 0 26.353737112687668 -70.414079316171069 0 -70.414079316171069 452.60082693675849 0 0 0 0 6.6734113432758022 183.51005728535108 0 183.51005728535108 -76.832346347581037 0 0 0 0 15.188545751931088 60.954655042265273 0 60.954655042265273 4.7262961626177002 0 0 0 0 -113.73656383444904 203.67703473443578 0 203.67703473443578 195.65414573784133 0 0 0 0 -94.726501790784823 165.16106995139114 0 165.16106995139114 276.75529839052797 0 0 0 0 -134.06459528602863 221.64649848619595 0 221.64649848619595 195.6887813944993 0 0 0 0 -159.79098312647329 274.81660233068465 0 274.81660233068465 164.80020110812387 0 0 0 0 -151.27154437474383 221.90978226639567 0 221.90978226639567 269.28904680340781 0 0 0 0 -149.89566204699076 295.02005175191783 0 295.02005175191783 71.113806176782418 0 0 0 0 -114.55433836855809 194.7136413233892 0 194.7136413233892 112.16806585936394 0 0 0 0 -61.306269175285706 272.42525221353037 0 272.42525221353037 -87.542879894828616 0 0 0 0 11.133108301207045 7.2024763979346655 0 7.2024763979346655 2.2506105803896377 0 0 0 0 556.85565703257453 653.81273053428913 0 653.81273053428913 154.26004726475401 0 0 0 0 -468.41034087094886 716.61051247641046 0 716.61051247641046 1591.0439131568974 0 0 0 0 368.44118398092542 54.15215343696832 0 54.15215343696832 -109.14337387280307 0 0 0 0 593.0480581501688 352.58503632082579 0 352.58503632082579 95.944606599592589 0 0 0 0 126.61040427085391 125.16328638663617 0 125.16328638663617 -8.773288035844871 0 0 0 0 190.69236890059256 -24.549779154791395 0 -24.549779154791395 -43.653768242817023 0 0 0 0 222.43366538439295 -26.263229648138235 0 -26.263229648138235 -63.346967584413051 0 0 0 0 190.66105452845659 -18.993807535486212 0 -18.993807535486212 -71.002641517065967 0 0 0 0 153.94137294274697 -77.998825095557891 0 -77.998825095557891 -72.263902011737969 0 0 0 0 182.44165675142722 -51.047800326562083 0 -51.047800326562083 -33.611253076983189 0 0 0 0 168.19458822725937 -40.537652548571941 0 -40.537652548571941 -16.064679705848903 0 0 0 0 242.5260908399141 52.198660405362915 0 52.198660405362915 25.780195132900644 0 0 0 0 150.99179416864354 -18.13307171680276 0 -18.13307171680276 1.6996403246459977 0 0 0 0 134.2153913625516 -70.959649591873017 0 -70.959649591873017 -10.839436843424664 0 0 0 0 110.84630508726696 -42.915527848085389 0 -42.915527848085389 23.279231356956927 0 0 0 0 152.98381973992946 -12.330881335808613 0 -12.330881335808613 16.631656414660341 0 0 0 0 75.776970391285431 3.8088052203762004 0 3.8088052203762004 132.57993591239506 0 0 0 0 60.829556571419744 -28.889792861717382 0 -28.889792861717382 71.987330079055255 0 0 0 0 88.7511087525927 -220.08472345918722 0 -220.08472345918722 -129.8491371941499 0 0 0 0 127.41533143342531 139.90523154389359 0 139.90523154389359 237.85448980877425 0 0 0 0 -498.84662613519322 -106.71249578533934 0 -106.71249578533934 477.90908495400481 0 0 0 0 404.8859299619362 45.713507964816358 0 45.713507964816358 61.278472154824726 0 0 0 0 338.86137282060645 306.98779921326485 0 306.98779921326485 301.42570170382214 0 0 0 0 272.20374752141288 209.21069297958735 0 209.21069297958735 167.82672259537537 0 0 0 0 119.92046718291203 137.55198589207953 0 137.55198589207953 169.75058904945047 0 0 0 0 204.26641638308502 166.76003966041867 0 166.76003966041867 132.8994464364776 0 0 0 0 86.770527558248432 -54.409764830444146 0 -54.409764830444146 82.928377092651985 0 0 0 0 242.79960420716088 53.217147175748636 0 53.217147175748636 66.862403734725603 0 0 0 0 97.927782751481573 -27.9741725431183 0 -27.9741725431183 -18.568333227919084 0 0 0 0 13.612359915015986 1.092747252552897 0 1.092747252552897 70.443707865446868 0 0 0 0 23.244531510990782 120.26548973423826 0 120.26548973423826 139.07755249220691 0 0 0 0 96.186505499157647 56.592347581901151 0 56.592347581901151 15.887144125150826 0 0 0 0 -61.700894417452218 -73.642488261246996 0 -73.642488261246996 -21.701078028452073 0 0 0 0 -149.65729862463741 128.75481068415286 0 128.75481068415286 114.83698015763241 0 0 0 0 61.267595549163161 75.79610240354873 0 75.79610240354873 -156.70641194689017 0 0 0 0 6.8598406164812218 2.6256165546492163 0 2.6256165546492163 0.60253926435326821 0 0 0 0 46.931752699289063 54.903048458429943 0 54.903048458429943 -228.68401117506204 0 0 0 0 -194.41547992919368 -126.15762163575528 0 -126.15762163575528 117.46422112157165 0 0 0 0 -20.698413229451035 16.142477539788473 0 16.142477539788473 -22.621973762733319 0 0 0 0 53.746881231389125 -57.024376379113733 0 -57.024376379113733 -49.794023062960406 0 0 0 0 53.247860345931258 28.958373650652646 0 28.958373650652646 -112.75187611923803 0 0 0 0 153.13826387003792 -91.915619234639394 0 -91.915619234639394 -11.92531115582716 0 0 0 0 36.970748649629968 -47.527027656788178 0 -47.527027656788178 19.411125103998245 0 0 0 0 198.2939938235304 -49.54191416500295 0 -49.54191416500295 -16.868760891303396 0 0 0 0 85.866029999182501 -84.874395657861555 0 -84.874395657861555 6.6568323775509839 0 0 0 0 133.34575017451425 -64.332953929316091 0 -64.332953929316091 0.067402777127881564 0 0 0 0 138.11288232365041 -74.978992915750283 0 -74.978992915750283 -11.363052119597455 0 0 0 0 133.0253399187568 -72.42200530290819 0 -72.42200530290819 -12.586085621763004 0 0 0 0 99.710583713953383 -58.915912678086158 0 -58.915912678086158 0.29648928274917807 0 0 0 0 60.938825792742136 -37.53439818362051 0 -37.53439818362051 73.059029399268383 0 0 0 0 66.433917761810335 -30.855749228456439 0 -30.855749228456439 -9.8116444600345858 0 0 0 0 110.86804415118968 201.71951189304048 0 201.71951189304048 238.47921656981907 0 0 0 0 176.50375212528888 61.743415773818242 0 61.743415773818242 -128.48112988624848 0 0 0 0 1.1693494123144035 1.1873160904447546 0 1.1873160904447546 0.15515002581180892 0 0 0 0 284.08191835803882 211.00670986028354 0 211.00670986028354 90.343349752050017 0 0 0 0 2.3561312675847148 18.780412198809664 0 18.780412198809664 -27.403720489363423 0 0 0 0 13.639508733064304 119.0962920178698 0 119.0962920178698 168.26796806425909 0 0 0 0 185.12501214440908 164.06834354407292 0 164.06834354407292 84.40451921717306 0 0 0 0 1.2396344990820651 -0.56600707260751193 0 -0.56600707260751193 0.18716277640604839 0 0 0 0 183.56470635313599 155.02996472505953 0 155.02996472505953 78.630240270021659 0 0 0 0 280.45671593953375 71.919311710027472 0 71.919311710027472 -109.52562590688001 0 0 0 0 138.19665407479624 77.699929108514709 0 77.699929108514709 -39.415842797139135 0 0 0 0 392.37051559372776 62.600307489587948 0 62.600307489587948 -137.06455343274285 0 0 0 0 633.30413755777408 314.20074965118124 0 314.20074965118124 -125.75439943630124 0 0 0 0 726.70647771031508 91.780171202188797 0 91.780171202188797 -191.04717453159469 0 0 0 0 249.44741869442805 280.99877808588951 0 280.99877808588951 -79.852015124741229 0 0 0 0 270.18811823552096 -134.21713286956893 0 -134.21713286956893 38.134206310830137 0 0 0 0 419.58250153026893 -169.38655015426855 0 -169.38655015426855 -55.71039657793672 0 0 0 0 191.42838043141455 -171.17665068774727 0 -171.17665068774727 -53.353697489622846 0 0 0 0 256.05287811921517 -49.773938922420001 0 -49.773938922420001 -113.39695914949289 0 0 0 0 578.68329347430699 -96.89571202191604 0 -96.89571202191604 -111.65632444683513 0 0 0 0 3.202518256723863 1.3897601940577857 0 1.3897601940577857 0.5875051075337816 0 0 0 0 97.160426879006991 259.693289318707 0 259.693289318707 76.446847797851547 0 0 0 0 95.677563533565262 133.25870459545933 0 133.25870459545933 95.291660997876761 0 0 0 0 219.24009425843178 312.15842871487348 0 312.15842871487348 79.81784261127541 0 0 0 0 464.76785090030171 281.65843070699157 0 281.65843070699157 65.431422848598459 0 0 0 0 171.64508572430714 180.30738254627397 0 180.30738254627397 154.70437125394847 0 0 0 0 149.20257793556084 207.16481607086666 0 207.16481607086666 131.50889314006645 0 0 0 0 259.18139156287543 130.68943497126571 0 130.68943497126571 179.87062750627751 0 0 0 0 1.5208113825261265 -0.51989916677225523 0 -0.51989916677225523 0.1188548491561825 0 0 0 0 590.87274125864496 48.241627216085135 0 48.241627216085135 387.32019753409168 0 0 0 0 253.47714107168576 158.98890175700632 0 158.98890175700632 149.28204464426676 0 0 0 0 244.70675725832007 183.90555818240631 0 183.90555818240631 78.549525658819675 0 0 0 0 321.74486531148432 55.12054768992391 0 55.12054768992391 108.79362116109138 0 0 0 0 309.2822865179678 91.883186852296944 0 91.883186852296944 0.40967786047940535 0 0 0 0 360.81416051049018 126.93222523071483 0 126.93222523071483 225.31127010017053 0 0 0 0 212.63248422784091 243.27007122224097 0 243.27007122224097 162.30045176666374 0 0 0 0 233.17844232910284 162.60232458734413 0 162.60232458734413 230.22733378677893 0 0 0 0 128.64635154600546 196.17003274434239 0 196.17003274434239 370.13288066669304 0 0 0 0 107.84721911411771 78.352732638462371 0 78.352732638462371 181.77592329768504 0 0 0 0 271.50943947789347 -5.3709548846760526 0 -5.3709548846760526 146.45969668656153 0 0 0 0 1.6814664677349072 0.25393125151986262 0 0.25393125151986262 0.20869071201927955 0 0 0 0 58.963748283764289 -79.973462600638868 0 -79.973462600638868 219.40915903522608 0 0 0 0 152.47202593028123 90.398950417582114 0 90.398950417582114 67.0431835461535 0 0 0 0 -49.540966092534291 15.367823584249351 0 15.367823584249351 -14.440528654341051 0 0 0 0 -40.371208278236736 -5.9077782538641941 0 -5.9077782538641941 31.282094139325295 0 0 0 0 -0.13526312133308238 -47.575808915894669 0 -47.575808915894669 67.598955546244952 0 0 0 0 55.434246484088362 -97.613664127517609 0 -97.613664127517609 57.796132473039052 0 0 0 0 5.8664789035237845 -22.776714240437485 0 -22.776714240437485 158.22657894567783 0 0 0 0 78.210948897407889 -121.29224147960164 0 -121.29224147960164 -89.087287991817448 0 0 0 0 15.153956114936591 -58.952564491739622 0 -58.952564491739622 36.789566265838175 0 0 0 0 18.813173156568837 -94.535232164322935 0 -94.535232164322935 -19.819753363001837 0 0 0 0 170.19660147263494 64.932499451601757 0 64.932499451601757 167.86430321873991 0 0 0 0 33.992686714467709 -40.260254157940551 0 -40.260254157940551 143.87767453628703 0 0 0 0 65.884332361565612 -123.99839850735839 0 -123.99839850735839 63.354764135896744 0 0 0 0 53.823357638644666 -1.8475079015863685 0 -1.8475079015863685 -86.923707874188494 0 0 0 0 125.11513360190656 46.950060523912498 0 46.950060523912498 -473.3475398810433 0 0 0 0 16.285415893464233 -128.44833901183119 0 -128.44833901183119 -146.98917996502212 0 0 0 0 45.240456802595872 6.7566141005711247 0 6.7566141005711247 0.45978848875367628 0 0 0 0 44.413561777281473 6.6162334613910012 0 6.6162334613910012 -0.10973345294777559 0 0 0 0 113.1006670648494 -49.234143478309988 0 -49.234143478309988 -375.8926804554942 0 0 0 0 44.174384359437681 6.0494849077507595 0 6.0494849077507595 -0.00087473951136996918 0 0 0 0 7.6777897837600904 -9.7710715629741571 0 -9.7710715629741571 -137.71139178992053 0 0 0 0 46.37799507015734 6.7479793054439501 0 6.7479793054439501 -0.0010049516184387321 0 0 0 0 46.24056901553287 6.2035798769565584 0 6.2035798769565584 0.21539576598669857 0 0 0 0 41.359482805608422 3.9178956035629628 0 3.9178956035629628 -1.5876237363429526 0 0 0 0 58.039860854682047 -60.431971965681385 0 -60.431971965681385 -174.01246698721388 0 0 0 0 36.897089443846198 4.0440412323387296 0 4.0440412323387296 -0.0072532141485624653 0 0 0 0 33.661523036465951 -24.590542575586028 0 -24.590542575586028 -72.715588280700103 0 0 0 0 33.226799313441006 -42.449726795668084 0 -42.449726795668084 -31.194942137333783 0 0 0 0 47.195610341582352 3.5553731580399202 0 3.5553731580399202 -1.166031052148101 0 0 0 0 74.554477949488501 1.7254972384891545 0 1.7254972384891545 -10.512140437273324 0 0 0 0 49.075053301898151 -31.054848902332537 0 -31.054848902332537 -72.650416071901418 0 0 0 0 5.4017994139014434 4.6731998995575026 0 4.6731998995575026 0.88372496163017844 0 0 0 0 10.805313099561317 -5.0587837466129013 0 -5.0587837466129013 -0.0090828780105460145 0 0 0 0 1.0513081928994268 -5.1301407908568155 0 -5.1301407908568155 -0.88134945724157476 0 0 0 0 42.635870804925744 -5.4935181772053916 0 -5.4935181772053916 -3.2104237661730899 0 0 0 0 84.052457192650763 10.96997812772743 0 10.96997812772743 -2.39602374142678 0 0 0 0 32.007854384137318 -90.194783124524847 0 -90.194783124524847 20.483628790939704 0 0 0 0 123.77399645933474 51.96287346968009 0 51.96287346968009 -45.100503837491658 0 0 0 0 38.565666046546539 -15.693490779989816 0 -15.693490779989816 -21.316013693713103 0 0 0 0 41.102613440157256 -25.655646074776968 0 -25.655646074776968 -9.1011373232640835 0 0 0 0 48.83455178481745 -17.245232952352353 0 -17.245232952352353 -29.766163600835625 0 0 0 0 47.432192831722205 -14.525796924380984 0 -14.525796924380984 -22.601775499318819 0 0 0 0 43.439184756338364 -24.856375349465225 0 -24.856375349465225 -31.697145824511949 0 0 0 0 31.622970600998087 -36.659656874879602 0 -36.659656874879602 -8.8325402206446597 0 0 0 0 32.037905770344878 -27.017623306029577 0 -27.017623306029577 7.3399842730191267 0 0 0 0 32.506819915986853 -26.748088453941818 0 -26.748088453941818 0.25446760500335586 0 0 0 0 46.073156749553164 -17.464018289178966 0 -17.464018289178966 -1.7825912885932667 0 0 0 0 44.252572789278929 -22.437331648834515 0 -22.437331648834515 -10.248908028000074 0 0 0 0 43.425393334898217 -24.832845674256205 0 -24.832845674256205 -10.93991501355049 0 0 0 0 37.764938502237783 -17.719137479815345 0 -17.719137479815345 12.754057220378854 0 0 0 0 25.612087287128816 -24.204724828819963 0 -24.204724828819963 19.435095706920265 0 0 0 0 0.069075421210726518 0.32056335198382868 0 0.32056335198382868 -0.33065024163645207 0 0 0 0 3.8287974935204119 2.2362153439690289 0 2.2362153439690289 -3.4764521870256182 0 0 0 0 11.078017170639214 -117.44971871514394 0 -117.44971871514394 -23.71256367738934 0 0 0 0 30.040434299167828 -25.488295405380768 0 -25.488295405380768 17.436225946209788 0 0 0 0 27.860659344783926 -30.253010010985349 0 -30.253010010985349 7.3090906471393282 0 0 0 0 14.74712728238228 -33.681086821624604 0 -33.681086821624604 22.498446163275275 0 0 0 0 13.367853034771542 -56.416623878670066 0 -56.416623878670066 12.225677020958301 0 0 0 0 15.525804083818002 -29.360738271377599 0 -29.360738271377599 40.79474251934198 0 0 0 0 12.353839919556776 -42.608811972272406 0 -42.608811972272406 62.523555861380828 0 0 0 0 30.550404614258696 -32.183678785214227 0 -32.183678785214227 -17.842456472189951 0 0 0 0 50.692838589398889 -5.5535950454446397 0 -5.5535950454446397 7.215781498455744 0 0 0 0 40.216448692454989 -15.578444241516344 0 -15.578444241516344 -0.88171013516728469 0 0 0 0 27.888156296161469 -47.787966773785968 0 -47.787966773785968 -23.060259554163565 0 0 0 0 36.0628576278541 -56.523047438039569 0 -56.523047438039569 -13.938756533825412 0 0 0 0 48.757828771478671 -9.3822974322129689 0 -9.3822974322129689 5.4645073519193783 0 0 0 0 48.508467107585602 -10.884116895313221 0 -10.884116895313221 0.0083266649838827922 0 0 0 0 50.825420326138556 -12.765098686479554 0 -12.765098686479554 0.78459077651427478 0 0 0 0 43.109402224837467 -16.197347942808129 0 -16.197347942808129 1.5354312997573238 0 0 0 0 70.006174595633638 -6.5868472672166547 0 -6.5868472672166547 -21.718548116854208 0 0 0 0 63.550149714817962 -7.1707317889556066 0 -7.1707317889556066 -21.62648991550634 0 0 0 0 40.417570699668431 -16.644995343691484 0 -16.644995343691484 -13.339437874194203 0 0 0 0 79.832036818450433 -7.1203818161744934 0 -7.1203818161744934 -23.542753109233772 0 0 0 0 61.932289785029297 0.071628731425256831 0 0.071628731425256831 -12.79819209374439 0 0 0 0 40.77514125140442 -7.7929584577109381 0 -7.7929584577109381 2.6346002553582366 0 0 0 0 23.056073034174034 9.2706252126338669 0 9.2706252126338669 -3.9118743851899698 0 0 0 0 74.773516579822171 9.9062590138549602 0 9.9062590138549602 -38.938553020589858 0 0 0 0 58.632017363372142 26.551108395609958 0 26.551108395609958 1.2821081696177785 0 0 0 0 22.935685482914728 10.521579495157738 0 10.521579495157738 -0.69260526706406611 0 0 0 0 40.071068737983296 -7.6376703318115915 0 -7.6376703318115915 3.7984162164680129 0 0 0 0 37.018050939188925 2.8291498969038287 0 2.8291498969038287 2.1995621839557931 0 0 0 0 46.0963813297858 -8.4206906853351953 0 -8.4206906853351953 -6.7568538966472218 0 0 0 0 73.145683720096713 -4.2072271745563494 0 -4.2072271745563494 -6.8526950274892044 0 0 0 0 13.584594883344096 -4.361596710223246 0 -4.361596710223246 0.13341374689389066 0 0 0 0 42.151122925657546 12.722840681330648 0 12.722840681330648 1.5381699197862986 0 0 0 0 24.606643495875147 -7.7031479179398019 0 -7.7031479179398019 0.46095779194697184 0 0 0 0 54.453760997159407 15.131836663878623 0 15.131836663878623 -0.025208229926864237 0 0 0 0 18.251068608973583 7.561966758304667 0 7.561966758304667 -3.1557877204597489 0 0 0 0 14.92535496790515 0.97217526876958882 0 0.97217526876958882 -0.0074486467218994783 0 0 0 0 6.8375001825026231 4.523291138231599 0 4.523291138231599 -0.15159827651683719 0 0 0 0 41.553841618500883 23.973986313363739 0 23.973986313363739 7.1384866794485546 0 0 0 0 38.115761704859324 34.907140620051379 0 34.907140620051379 33.640015983426117 0 0 0 0 107.59289354181601 -8.3503245261047088 0 -8.3503245261047088 0.03284582381937215 0 0 0 0 71.704058157396503 63.383475455193512 0 63.383475455193512 17.777012731359925 0 0 0 0 84.162297478796972 1.8642880964356081 0 1.8642880964356081 -75.872438225232642 0 0 0 0 41.184196690453973 18.718397349177472 0 18.718397349177472 -16.163099044756088 0 0 0 0 43.087690741264055 -6.9781650562727009 0 -6.9781650562727009 -4.5002848107763187 0 0 0 0 34.614872802166559 1.6531008480327287 0 1.6531008480327287 -1.8817743137913041 0 0 0 0 45.09262276638492 -25.049097317147613 0 -25.049097317147613 -9.6771579087858299 0 0 0 0 11.073875026323243 -0.63544724948319953 0 -0.63544724948319953 -5.8803463438681449 0 0 0 0 52.840206723565643 -26.349036491168874 0 -26.349036491168874 3.554215155557074 0 0 0 0 79.579820176993962 22.621967580215255 0 22.621967580215255 22.368586090801273 0 0 0 0 4.1519541794959736 -0.35993612042086198 0 -0.35993612042086198 -1.3133202667193569 0 0 0 0 -13.083975641482994 78.254215951571041 0 78.254215951571041 -55.138464265181028 0 0 0 0 -116.2195431484688 144.51871931359156 0 144.51871931359156 -0.2143462682390691 0 0 0 0 -6.1342528838649741 -22.882487786549746 0 -22.882487786549746 -40.254015413625496 0 0 0 0 30.127997207335284 27.696741785754455 0 27.696741785754455 8.8622299069483006 0 0 0 0 68.061586857322254 46.009521703610858 0 46.009521703610858 -109.97270164042732 0 0 0 0 116.45730455728881 -90.096504111620533 0 -90.096504111620533 86.270990059503788 0 0 0 0 188.44377588232601 1.6321183122387879 0 1.6321183122387879 -59.99754875821759 0 0 0 0 53.812159483051801 21.134358812339983 0 21.134358812339983 -35.292138208441088 0 0 0 0 128.5175984842208 -28.760161895293464 0 -28.760161895293464 -41.67164335431562 0 0 0 0 97.792908540548524 -43.44064531898448 0 -43.44064531898448 5.2075231125591017 0 0 0 0 54.822007347283943 43.82200800689715 0 43.82200800689715 -51.942116373689267 0 0 0 0 109.8593637287413 14.741974830168601 0 14.741974830168601 -60.547924458433158 0 0 0 0 -3.5962040122931285 -6.1762291049169793 0 -6.1762291049169793 -62.458155762902294 0 0 0 0 4.0318738803423173 2.6308876931085869 0 2.6308876931085869 -2.5012705472517549 0 0 0 0 92.340501406135445 -8.3076579033167182 0 -8.3076579033167182 -39.360324630080868 0 0 0 0 67.400282641698141 2.0112475720828726 0 2.0112475720828726 -35.551915645643518 0 0 0 0 81.885123867730726 -17.28721021971668 0 -17.28721021971668 -12.614719092789086 0 0 0 0 84.599208050291963 -7.7225705854882616 0 -7.7225705854882616 -25.109650964794838 0 0 0 0 81.736288710261761 -24.503560341392969 0 -24.503560341392969 -11.855344429738835 0 0 0 0 69.185920364579943 -20.496576624965925 0 -20.496576624965925 -0.77800631768989348 0 0 0 0 96.918004855750951 -45.2260972592942 0 -45.2260972592942 6.9002262981369427 0 0 0 0 93.832900869376317 -17.74599166645578 0 -17.74599166645578 -14.440646975272557 0 0 0 0 104.76263105913677 -28.384103353574801 0 -28.384103353574801 13.394783300066081 0 0 0 0 102.52472977582863 -66.386482222435077 0 -66.386482222435077 28.32582644626865 0 0 0 0 5.4208243058484697 1.7088084103762391 0 1.7088084103762391 -0.55243271411656059 0 0 0 0 -1.9326834174862526 -7.6515417506525267 0 -7.6515417506525267 -6.7764923914077233 0 0 0 0 22.749806614738191 -4.3350829770707833 0 -4.3350829770707833 -27.096024926107816 0 0 0 0 -7.9600838623919117 5.2753033387093282 0 5.2753033387093282 -0.48670367564773187 0 0 0 0 2.8797455962219658 -12.043817169980766 0 -12.043817169980766 -7.4779701953366544 0 0 0 0 63.939641786288121 -40.58750092956285 0 -40.58750092956285 29.136539518015027 0 0 0 0 86.890434095179444 -30.992030342889237 0 -30.992030342889237 6.8931218784035764 0 0 0 0 70.446492027527711 -49.120624110067496 0 -49.120624110067496 -12.479388403251505 0 0 0 0 0.2603965684445626 -0.2198061483427125 0 -0.2198061483427125 -0.014568386896596452 0 0 0 0 -30.513345222824682 -32.716166062365026 0 -32.716166062365026 -20.019227240798159 0 0 0 0 0.4719552772623743 -7.101997159603151 0 -7.101997159603151 -0.44090554569898943 0 0 0 0 -0.22282276260011713 -15.586111802586458 0 -15.586111802586458 19.049591191944955 0 0 0 0 -42.351327905842481 3.660180306468817 0 3.660180306468817 52.690085926288248 0 0 0 0 32.257047311213682 -18.546024916189197 0 -18.546024916189197 -9.7827715058371041 0 0 0 0 28.966859797363327 44.691563573092601 0 44.691563573092601 -29.993529935215179 0 0 0 0 -1.686712236334813 -0.43200895258031835 0 -0.43200895258031835 0.62033315157054592 0 0 0 0 85.952738562271406 -9.9976940681017368 0 -9.9976940681017368 5.3332846200311792 0 0 0 0 194.65956014121548 -19.553999406450657 0 -19.553999406450657 -17.245911921739378 0 0 0 0 1.4142955422824599 0.57605400096628756 0 0.57605400096628756 0.36536026981659253 0 0 0 0 257.83469242724823 -198.61073399649422 0 -198.61073399649422 76.115886688328089 0 0 0 0 262.41895115672776 18.598412345860211 0 18.598412345860211 -24.083327397766197 0 0 0 0 59.443557212518499 1.4438567897054781 0 1.4438567897054781 91.796247714544052 0 0 0 0 63.546606959378778 47.757082342487919 0 47.757082342487919 -61.45922821757074 0 0 0 0 165.40753725885588 -63.724330312959182 0 -63.724330312959182 2.2656119156994805 0 0 0 0 120.00458776263804 -7.6508014453919202 0 -7.6508014453919202 -17.84384566489598 0 0 0 0 128.81282552480502 -45.692797851596609 0 -45.692797851596609 -39.573695039938002 0 0 0 0 0.63797554174617233 0.18692397695276775 0 0.18692397695276775 -0.029518619804606128 0 0 0 0 80.525778021634324 -84.320427960976872 0 -84.320427960976872 -69.134258059878036 0 0 0 0 85.94901213047342 -92.19206969141257 0 -92.19206969141257 -2.9564627902157099 0 0 0 0 97.043414193802164 -73.012971222732688 0 -73.012971222732688 28.442792080731692 0 0 0 0 81.3790329915646 -53.536485710497573 0 -53.536485710497573 25.507047070248177 0 0 0 0 108.13316646014209 -46.256264163068352 0 -46.256264163068352 11.213844864748012 0 0 0 0 127.26102005057862 -11.961001256607087 0 -11.961001256607087 28.898023463388313 0 0 0 0 125.51949917045567 5.5389957607895894 0 5.5389957607895894 -3.0090804975524463 0 0 0 0 73.66568079066019 -54.281835285193523 0 -54.281835285193523 32.217310774412113 0 0 0 0 80.481724852216303 -35.277101019774662 0 -35.277101019774662 5.6752127208208094 0 0 0 0 -19.144349239017174 3.7783337563863597 0 3.7783337563863597 6.7376923247854847 0 0 0 0 28.321687361418299 32.994524916521243 0 32.994524916521243 34.198227264976367 0 0 0 0 -0.031781257816160036 -0.12832071712470139 0 -0.12832071712470139 0.64749650228560141 0 0 0 0 64.182320391340909 29.140459387693056 0 29.140459387693056 10.012637699989568 0 0 0 0 -0.35746511138131609 16.064409067858605 0 16.064409067858605 31.189331052409443 0 0 0 0 1.0995008433792464 -7.4721318743806506 0 -7.4721318743806506 9.0720431105795569 0 0 0 0 10.890327863214225 -8.4962319700125661 0 -8.4962319700125661 8.6951068561430702 0 0 0 0 12.899342387070647 -8.7744839023538361 0 -8.7744839023538361 -22.025029763840848 0 0 0 0 8.3986841812180373 -8.1381505737959259 0 -8.1381505737959259 3.8357668742158229 0 0 0 0 2.1787502358036059 -0.59935138213150196 0 -0.59935138213150196 -0.10823214644232237 0 0 0 0 41.894524328949046 -10.274718901302094 0 -10.274718901302094 -26.626838948447698 0 0 0 0 79.049648823216558 -55.719334398298997 0 -55.719334398298997 -79.704709151249403 0 0 0 0 -15.583219504158478 -38.827869306814364 0 -38.827869306814364 -40.768125249072114 0 0 0 0 76.240004113453324 21.134687013620578 0 21.134687013620578 -45.475766176981466 0 0 0 0 -2.7328961229541164 4.8614945294177687 0 4.8614945294177687 -18.924620810384454 0 0 0 0 18.642586473033589 14.414214825124645 0 14.414214825124645 -46.255192265673031 0 0 0 0 4.636036665073263 -0.14954076352791734 0 -0.14954076352791734 0.19948928153239165 0 0 0 0 -0.20333172320169979 -18.661188308904343 0 -18.661188308904343 108.68459326279117 0 0 0 0 6.8934076619625557 -26.002678318354583 0 -26.002678318354583 39.73185192595065 0 0 0 0 -2.2446562635814189 -12.448848066687447 0 -12.448848066687447 -13.577744853993522 0 0 0 0 13.429722366770875 -20.602789974376037 0 -20.602789974376037 44.175134808684788 0 0 0 0 7.2489258488082413 -0.12380464135306513 0 -0.12380464135306513 -0.72862414141340182 0 0 0 0 25.286744986209669 -18.682927965700628 0 -18.682927965700628 32.179602061212108 0 0 0 0 -0.1563320087584259 1.2933195506741968 0 1.2933195506741968 -0.17359530911117974 0 0 0 0 -191.92412886186503 13.758745782332994 0 13.758745782332994 -34.887310335490611 0 0 0 0 -127.5049293278571 96.311693687417801 0 96.311693687417801 -174.58070621891591 0 0 0 0 77.287720961903688 88.975382093661324 0 88.975382093661324 -22.099973350571872 0 0 0 0 -187.36147338495357 22.540643725011478 0 22.540643725011478 -23.815260755589165 0 0 0 0 12.123818427357037 37.982907334919616 0 37.982907334919616 -83.310786112761889 0 0 0 0 -21.304163456894457 -1.3506918358023086 0 -1.3506918358023086 -110.03391183979261 0 0 0 0 14.66594603593694 22.998629310464025 0 22.998629310464025 -1.047045857948433 0 0 0 0 27.081090907387988 -16.260311699471799 0 -16.260311699471799 27.291337725889377 0 0 0 0 -73.1064185671421 6.7808310656619142 0 6.7808310656619142 -11.0971305383257 0 0 0 0 43.42643011554901 -18.423458489512086 0 -18.423458489512086 -38.516846418724924 0 0 0 0 -37.994862406245375 99.669881016100589 0 99.669881016100589 -39.483728966687181 0 0 0 0 -20.61768894843226 -19.652335043434235 0 -19.652335043434235 -15.753258325798697 0 0 0 0 -127.53099095840298 98.610256837316683 0 98.610256837316683 -17.436959359625689 0 0 0 0 0.97381556681176562 -0.8651002531806995 0 -0.8651002531806995 -0.55022220400569744 0 0 0 0 -28.734180258616107 40.311488429782685 0 40.311488429782685 -43.831802799732941 0 0 0 0 -125.79654094999569 101.26233317376625 0 101.26233317376625 -13.833037854969007 0 0 0 0 33.785058692192251 48.833302067826139 0 48.833302067826139 -123.28986632212809 0 0 0 0 55.604592285861145 -11.315606577139988 0 -11.315606577139988 -202.73015867617687 0 0 0 0 1.6464165138553 0.94061056701985413 0 0.94061056701985413 -0.10454154723820186 0 0 0 0 -144.0996489518875 -16.683348731175784 0 -16.683348731175784 -9.8925102904287883 0 0 0 0 -36.473695001855049 12.333060560126128 0 12.333060560126128 -43.990562676983927 0 0 0 0 -17.66073919532937 -65.232964664808392 0 -65.232964664808392 -20.552001973540428 0 0 0 0 69.424351033670973 -74.594904265897441 0 -74.594904265897441 12.030790495348015 0 0 0 0 70.486407251279161 -84.617236140666023 0 -84.617236140666023 -28.697393697694508 0 0 0 0 36.308495180219325 -44.858202191830628 0 -44.858202191830628 1.2967181663482279 0 0 0 0 113.79563675633108 -63.461172514334805 0 -63.461172514334805 4.6837105957914389 0 0 0 0 58.479529444583022 -20.480354334138951 0 -20.480354334138951 -83.145888745251114 0 0 0 0 70.845308341238706 -35.218227751845461 0 -35.218227751845461 -47.911885929536552 0 0 0 0 39.702966084067157 2.2358299086504871 0 2.2358299086504871 -12.367089407737922 0 0 0 0 67.207840284918348 40.064674527745126 0 40.064674527745126 43.671552937043089 0 0 0 0 109.24135710937844 -16.384403956613937 0 -16.384403956613937 -7.9033992048859147 0 0 0 0 51.546140679382006 63.468853906733159 0 63.468853906733159 -15.473696677852558 0 0 0 0 82.530557436148229 32.683358164327728 0 32.683358164327728 -12.071904739571949 0 0 0 0 26.772553441707714 70.063285904691838 0 70.063285904691838 69.638504389018863 0 0 0 0 19.751101165129512 36.613182984225546 0 36.613182984225546 -10.165777790630045 0 0 0 0 51.349672809803451 29.350198814706573 0 29.350198814706573 -59.713876762526297 0 0 0 0 -72.829208067334548 3.9232102006992591 0 3.9232102006992591 -57.356022273715638 0 0 0 0 -26.841627795423847 76.186229755142108 0 76.186229755142108 -32.573043212934181 0 0 0 0 -8.2314348603795224 94.431646011127782 0 94.431646011127782 -31.021741352903518 0 0 0 0 13.50450412385544 30.597193929249102 0 30.597193929249102 -33.369223363373976 0 0 0 0 57.579163494781824 62.17046739011198 0 62.17046739011198 -101.26670019231591 0 0 0 0 2.2073412788645328 1.6306624361853312 0 1.6306624361853312 0.022415207385084346 0 0 0 0 18.896347554124077 80.829438450912676 0 80.829438450912676 75.640281186945344 0 0 0 0 35.186636200527573 125.23056131765298 0 125.23056131765298 109.78071056434834 0 0 0 0 54.627475744950061 115.4355410117976 0 115.4355410117976 137.35923306555739 0 0 0 0 53.806671294270927 123.71521573748642 0 123.71521573748642 116.06528766907856 0 0 0 0 60.784755059386953 133.50615010292844 0 133.50615010292844 101.83621435989176 0 0 0 0 50.982101617359149 130.15232220221046 0 130.15232220221046 173.14872411197729 0 0 0 0 90.119379928812123 90.039673404637028 0 90.039673404637028 95.955810328590246 0 0 0 0 101.43976870631741 90.323970819111082 0 90.323970819111082 61.957175842493598 0 0 0 0 47.298988845828717 117.19067058506732 0 117.19067058506732 133.38311712019697 0 0 0 0 71.395515002826869 117.31776257355347 0 117.31776257355347 133.38162063048608 0 0 0 0 199.1333924177161 120.23481447189312 0 120.23481447189312 94.404318004777622 0 0 0 0 128.95756232714575 209.18383785674934 0 209.18383785674934 380.56663059659451 0 0 0 0 51.539991081845073 91.090264982557159 0 91.090264982557159 230.00407870518634 0 0 0 0 100.98299491859871 164.81198817552183 0 164.81198817552183 208.74973341901966 0 0 0 0 52.998061155678442 91.906164363023677 0 91.906164363023677 147.08910307644561 0 0 0 0 2.48192759175204 1.1969271921245728 0 1.1969271921245728 -0.41936438727175274 0 0 0 0 50.842527358501684 84.627345830843296 0 84.627345830843296 172.58955357799223 0 0 0 0 -62.866912801975559 31.93160235448741 0 31.93160235448741 207.69075513978532 0 0 0 0 -3.60278311111324 31.356671815367903 0 31.356671815367903 104.9421140385775 0 0 0 0 1.9131166714287247 -19.527953268356811 0 -19.527953268356811 174.093522312473 0 0 0 0 180.21001529848581 276.91107056326172 0 276.91107056326172 407.10142612827269 0 0 0 0 87.493695970828412 -21.180198486920403 0 -21.180198486920403 159.27260247419645 0 0 0 0 1.1779483592108733 0.69375259483110163 0 0.69375259483110163 0.13946815711297963 0 0 0 0 23.788972933944024 -29.822797086221925 0 -29.822797086221925 257.08924806188566 0 0 0 0 124.72744562564185 -59.760593190206123 0 -59.760593190206123 239.66840731564918 0 0 0 0 4.8577099337999243 -44.623451142651106 0 -44.623451142651106 200.0113377317528 0 0 0 0 18.233653904851053 2.3584704982147038 0 2.3584704982147038 203.38504203842197 0 0 0 0 60.516448336558824 -39.647566642392817 0 -39.647566642392817 204.3546620080088 0 0 0 0 158.62396470054227 -42.721221312306611 0 -42.721221312306611 196.35241925340242 0 0 0 0 164.45832543283905 -30.68075170446042 0 -30.68075170446042 140.93929872800493 0 0 0 0 60.509380926851009 1.611499386896071 0 1.611499386896071 133.39368582791724 0 0 0 0 33.387296420172788 -57.702369514642214 0 -57.702369514642214 151.92124890444882 0 0 0 0 54.662991828176018 -23.426767696774135 0 -23.426767696774135 160.93867700340729 0 0 0 0 -0.33326896875223611 -27.522120348930315 0 -27.522120348930315 144.93625304687299 0 0 0 0 -19.182298437495774 -17.283400403665667 0 -17.283400403665667 131.28851663775754 0 0 0 0 -18.882159778789628 -21.635585117986274 0 -21.635585117986274 186.84789598560781 0 0 0 0 133.22269720985423 201.86294029810915 0 201.86294029810915 143.38907602628228 0 0 0 0 215.60307417247168 207.91468937069484 0 207.91468937069484 198.17612863933823 0 0 0 0 217.41505689947371 201.54135059761751 0 201.54135059761751 142.49965433719956 0 0 0 0 385.09586843736179 130.69528811455876 0 130.69528811455876 110.98644319658834 0 0 0 0 209.29406996486068 151.56385761585597 0 151.56385761585597 110.11945268707655 0 0 0 0 248.20700985045551 35.860243211380975 0 35.860243211380975 98.062121265409814 0 0 0 0 149.0661777698333 23.964816881158939 0 23.964816881158939 145.96195188746856 0 0 0 0 345.23770725898066 -13.140151577064131 0 -13.140151577064131 152.08433877167715 0 0 0 0 156.58332429954135 -34.607534591654669 0 -34.607534591654669 251.47811407148436 0 0 0 0 461.22828815651883 252.62714640883507 0 252.62714640883507 206.31412115821928 0 0 0 0 291.53993351455574 101.55193729417135 0 101.55193729417135 153.03617427936717 0 0 0 0 389.38213201169492 181.56192675399075 0 181.56192675399075 494.49037060789578 0 0 0 0 250.44235069422575 55.859475522528783 0 55.859475522528783 178.5793905368341 0 0 0 0 617.95492478059168 15.05167275961719 0 15.05167275961719 172.24303664411991 0 0 0 0 276.28238604750368 16.609228563548072 0 16.609228563548072 230.7008464805738 0 0 0 0 353.9283956746367 -104.58933929423787 0 -104.58933929423787 418.99640896050551 0 0 0 0 314.29148830936174 235.12297733530204 0 235.12297733530204 504.29490664515924 0 0 0 0 232.24949752568136 -108.85335126752652 0 -108.85335126752652 72.953708428738651 0 0 0 0 137.96110526765733 232.88246064090106 0 232.88246064090106 349.08547100223348 0 0 0 0 4.5120052191962259 1.9696984294693891 0 1.9696984294693891 1.0340058595300223 0 0 0 0 35.53207092887169 -80.276784818135553 0 -80.276784818135553 148.59277120660573 0 0 0 0 394.74718780448529 80.162405181429904 0 80.162405181429904 143.60721139399629 0 0 0 0 420.02381490131665 230.22157327419353 0 230.22157327419353 224.20855216292978 0 0 0 0 216.19409930901747 83.739897240317305 0 83.739897240317305 152.40478929376712 0 0 0 0 298.68070922616607 -48.209198817995173 0 -48.209198817995173 34.084276888850866 0 0 0 0 239.05295204684808 114.62604000976938 0 114.62604000976938 121.30459359847555 0 0 0 0 166.61130087474339 55.810804800006906 0 55.810804800006906 79.836900020807889 0 0 0 0 141.71737449350621 59.427395056642354 0 59.427395056642354 81.727102029282378 0 0 0 0 188.43457604998366 -24.30552942733226 0 -24.30552942733226 29.822193304931147 0 0 0 0 127.43207952611556 -39.904080294460755 0 -39.904080294460755 58.604614699157139 0 0 0 0 82.082147458088002 -16.164568306450235 0 -16.164568306450235 32.992069593812516 0 0 0 0 135.41371258670551 38.28734110105384 0 38.28734110105384 40.019483603937715 0 0 0 0 163.99219126980097 -86.948677115663571 0 -86.948677115663571 39.027995736897424 0 0 0 0 73.930122109239164 -77.026719186224028 0 -77.026719186224028 43.076827921331642 0 0 0 0 88.399973295032396 -86.670902776726052 0 -86.670902776726052 15.751818938428727 0 0 0 0 67.729044657260602 -91.84424202087888 0 -91.84424202087888 78.178353795428052 0 0 0 0 51.599222898697917 -62.622270971438411 0 -62.622270971438411 26.409695665250041 0 0 0 0 21.006391485865606 -12.842858629595128 0 -12.842858629595128 27.274309688280738 0 0 0 0 68.503348319360157 -27.827825650107272 0 -27.827825650107272 2.8658389376701052 0 0 0 0 12.235149001642256 4.2767491642447215 0 4.2767491642447215 1.6668718866700731 0 0 0 0 33.668885898921872 -3.3284919507915163 0 -3.3284919507915163 12.598661628818434 0 0 0 0 6.5109632598396274 -23.389884992642124 0 -23.389884992642124 56.726353894450142 0 0 0 0 20.997125183501339 3.892016934157823 0 3.892016934157823 11.257334560391882 0 0 0 0 21.132840542595659 5.2079125345107968 0 5.2079125345107968 6.6864620853275483 0 0 0 0 39.510341244484152 12.102968044420891 0 12.102968044420891 7.7264018726999666 0 0 0 0 25.552876205591019 8.4815637633379311 0 8.4815637633379311 6.9663331849378096 0 0 0 0 4.2136660998453284 0.5131127424342381 0 0.5131127424342381 1.9024598092672504 0 0 0 0 17.555020770636418 4.8446500346382697 0 4.8446500346382697 1.2921556279632282 0 0 0 0 21.027453570862235 1.2091969009341597 0 1.2091969009341597 9.7708666015955714 0 0 0 0 24.110637032088562 6.812576258380318 0 6.812576258380318 -0.3809986749346308 0 0 0 0 27.498416294121853 5.3323745771862718 0 5.3323745771862718 6.8061045911633755 0 0 0 0 15.589902289730162 1.4245531617258393 0 1.4245531617258393 7.8424187322654006 0 0 0 0 4.0182639975923005 -0.28692922699566026 0 -0.28692922699566026 -0.386586395316038 0 0 0 0 -0.20979113018707363 -0.92928788490734604 0 -0.92928788490734604 -0.049228348639230174 0 0 0 0 25.629744155621665 60.009618441151673 0 60.009618441151673 111.85542457739808 0 0 0 0 44.253305469506813 -26.436424773908982 0 -26.436424773908982 17.415309070722017 0 0 0 0 28.278918817191879 156.5514173659524 0 156.5514173659524 301.72019686966814 0 0 0 0 24.234764017690622 10.591976070114811 0 10.591976070114811 7.644216927351863 0 0 0 0 97.26752330702584 8.6297007888758515 0 8.6297007888758515 -10.127452788972093 0 0 0 0 -2.4378888398632625 80.213479084704602 0 80.213479084704602 178.62047621755326 0 0 0 0 124.94260679410581 182.52741219087505 0 182.52741219087505 98.392875980587434 0 0 0 0 251.65992697000684 226.67690330240401 0 226.67690330240401 113.6177283629869 0 0 0 0 190.95345792069247 34.699274875233925 0 34.699274875233925 89.333798819409196 0 0 0 0 99.314752152582514 79.12829309402764 0 79.12829309402764 172.08299025439987 0 0 0 0 2.825007654083862 1.4960639780153318 0 1.4960639780153318 0.060870653841393924 0 0 0 0 121.007598178443 -75.94975743484531 0 -75.94975743484531 -190.227216560957 0 0 0 0 19.3547879594189 -17.411279325717331 0 -17.411279325717331 65.125343120281144 0 0 0 0 83.099531315576314 23.304758775752703 0 23.304758775752703 30.030912444132127 0 0 0 0 20.410747399922911 34.284306787093158 0 34.284306787093158 79.786661559490881 0 0 0 0 33.091135488989494 31.210948876725411 0 31.210948876725411 -9.675380291473175 0 0 0 0 156.97749460327668 96.50954268346112 0 96.50954268346112 -15.556614151375243 0 0 0 0 143.86065952604258 110.92136622387864 0 110.92136622387864 30.83076292015032 0 0 0 0 261.53689608862078 57.758791324480072 0 57.758791324480072 -63.311743114641104 0 0 0 0 226.55776338760552 169.86911904903297 0 169.86911904903297 61.434265454155366 0 0 0 0 145.82976420532032 107.70988113857652 0 107.70988113857652 -20.263185995485799 0 0 0 0 82.523907288355986 30.693318460415185 0 30.693318460415185 -20.783835748636875 0 0 0 0 102.44684631492419 72.086576727656848 0 72.086576727656848 21.067393893247072 0 0 0 0 81.475898854216894 51.442174166371601 0 51.442174166371601 48.556001686956733 0 0 0 0 116.96533809724133 62.907218158122078 0 62.907218158122078 44.839852941747381 0 0 0 0 -116.15243733744501 -25.741130762195439 0 -25.741130762195439 69.541425755752357 0 0 0 0 20.089844472902769 200.03317465535451 0 200.03317465535451 32.390474451684895 0 0 0 0 537.81551830418903 191.96985566707485 0 191.96985566707485 -9.0857940632956797 0 0 0 0 229.86133210276603 74.498271575238959 0 74.498271575238959 39.352567323952599 0 0 0 0 79.893914449094154 40.376607276671621 0 40.376607276671621 45.437285221209549 0 0 0 0 117.16144855516541 61.425633629403592 0 61.425633629403592 52.714695649598298 0 0 0 0 369.60633748263899 -56.099769209680062 0 -56.099769209680062 -40.524600736669072 0 0 0 0 159.38081058174794 -188.44057777096873 0 -188.44057777096873 170.77955831262352 0 0 0 0 -368.55457807468702 100.57516810014772 0 100.57516810014772 30.371313765787363 0 0 0 0 545.2412929836679 -189.65642876563032 0 -189.65642876563032 -37.299809087682206 0 0 0 0 1.2139663674065559 1.3804164421298779 0 1.3804164421298779 0.73218440499323911 0 0 0 0 -246.38961965872295 63.118740405155222 0 63.118740405155222 -67.808247455254332 0 0 0 0 -82.947273924939509 142.33024301105934 0 142.33024301105934 -46.409616370374579 0 0 0 0 -185.18543459624379 103.52091123959093 0 103.52091123959093 301.72609446330881 0 0 0 0 -153.49510744105282 11.835848087138572 0 11.835848087138572 132.76172181270869 0 0 0 0 -223.81266802977188 188.33259192080413 0 188.33259192080413 54.579331218168591 0 0 0 0 -431.11937788146315 324.83254567179631 0 324.83254567179631 24.45716896073418 0 0 0 0 -65.587152094743942 230.57684300700225 0 230.57684300700225 -153.15718014738275 0 0 0 0 -80.825513682593737 -47.11194564314178 0 -47.11194564314178 14.518621038216907 0 0 0 0 -11.45597320066372 73.795074807475714 0 73.795074807475714 -71.142257094601291 0 0 0 0 47.179628437108477 -56.16132303869631 0 -56.16132303869631 -96.248288916241449 0 0 0 0 1.7066053734123585 1.3124189787529557 0 1.3124189787529557 0.18942130336308813 0 0 0 0 -9.4328766243779683 -25.198921719234761 0 -25.198921719234761 89.818585614882295 0 0 0 0 0.42922967803679057 -56.108480167213543 0 -56.108480167213543 88.745221850039229 0 0 0 0 -4.0047876619937597 -54.718652497938251 0 -54.718652497938251 135.21833767284249 0 0 0 0 78.762289398888242 -10.43058706550039 0 -10.43058706550039 -31.274418522140877 0 0 0 0 10.132435971828272 23.318434073283811 0 23.318434073283811 49.434088885817573 0 0 0 0 -1.3809781894815387 -58.244956696635768 0 -58.244956696635768 80.177542425767911 0 0 0 0 23.209268324535515 -34.403742735034939 0 -34.403742735034939 15.215147404538584 0 0 0 0 14.753246045040214 -22.883455074418094 0 -22.883455074418094 99.357934559134264 0 0 0 0 86.099742322126986 -31.446879785700162 0 -31.446879785700162 87.007475685161012 0 0 0 0 142.62331186756637 133.91387655886354 0 133.91387655886354 84.699582729759072 0 0 0 0 102.92201087905551 69.035967360199692 0 69.035967360199692 100.37454330914898 0 0 0 0 46.290227435616544 11.925785770043035 0 11.925785770043035 56.955379954887349 0 0 0 0 221.41429218830672 135.57257986046113 0 135.57257986046113 71.626717063972023 0 0 0 0 -70.202911230087921 -22.549839443831274 0 -22.549839443831274 0.24860367720020804 0 0 0 0 110.11363932126915 205.10178089380133 0 205.10178089380133 214.02688973497459 0 0 0 0 147.85238228811795 49.764680881796721 0 49.764680881796721 -149.01277975075175 0 0 0 0 241.10371842638415 109.87052399300285 0 109.87052399300285 -146.31357030508661 0 0 0 0 4.5582942542794882 2.3714528831659418 0 2.3714528831659418 -0.086183533053741698 0 0 0 0 60.887671288546699 -3.615357490009842 0 -3.615357490009842 -51.760119792526098 0 0 0 0 27.773848332406487 -17.728145117893348 0 -17.728145117893348 -19.025827338617717 0 0 0 0 64.439232642196657 16.999226947453053 0 16.999226947453053 -13.907036575558124 0 0 0 0 74.978076955281722 -9.7415419068174458 0 -9.7415419068174458 -31.379310245446234 0 0 0 0 40.673308800949599 -11.127509581587404 0 -11.127509581587404 -7.0765567618319309 0 0 0 0 5.6884405437049281 -20.339454942193242 0 -20.339454942193242 -4.2161020387368211 0 0 0 0 42.360029338391087 -15.453849969200036 0 -15.453849969200036 -20.841359849402011 0 0 0 0 16.04001366864577 -36.439713473371341 0 -36.439713473371341 -21.811953335248063 0 0 0 0 14.28405041404767 -34.064247120702717 0 -34.064247120702717 -19.905201699600703 0 0 0 0 34.185354429304688 -6.3141567403300396 0 -6.3141567403300396 -1.5090179877609315 0 0 0 0 45.893794765297983 -13.23917523827776 0 -13.23917523827776 2.5404539512412003 0 0 0 0 32.211817204406543 -24.172867019645537 0 -24.172867019645537 -18.305439234450105 0 0 0 0 12.673534478774172 1.3957737500837482 0 1.3957737500837482 -0.75459199712615277 0 0 0 0 37.768407115028822 -13.593302525385297 0 -13.593302525385297 -17.186229512332233 0 0 0 0 -18.35360560477784 -24.959253505762888 0 -24.959253505762888 -28.425025928940386 0 0 0 0 21.172714332347596 -12.44045492685067 0 -12.44045492685067 -28.348592719933777 0 0 0 0 222.73012503388236 11.507643762853832 0 11.507643762853832 -63.82350026817403 0 0 0 0 27.828430208116856 -23.942317387689478 0 -23.942317387689478 -50.243112603172904 0 0 0 0 23.079634929308668 -15.673762952389325 0 -15.673762952389325 -46.116680686346967 0 0 0 0 24.116422596840493 -10.829782969351001 0 -10.829782969351001 -106.65037691096677 0 0 0 0 -17.050801013159798 -54.930797163812827 0 -54.930797163812827 -85.528445662760987 0 0 0 0 28.239271190832369 -35.492509014590269 0 -35.492509014590269 -161.16391665501158 0 0 0 0 -24.276028880987724 62.640471321918994 0 62.640471321918994 -139.18420067682217 0 0 0 0 19.534357183532848 32.259569401506383 0 32.259569401506383 -121.76497045149972 0 0 0 0 17.795236389902129 15.480439907524897 0 15.480439907524897 -66.519025188904152 0 0 0 0 62.287131337392566 23.611165799320077 0 23.611165799320077 -86.387491826067162 0 0 0 0 40.40614299844674 -19.830504453378467 0 -19.830504453378467 -64.440173328273886 0 0 0 0 108.66907851308315 39.375813715894196 0 39.375813715894196 -39.291604296817013 0 0 0 0 91.202322080074737 10.98733065569786 0 10.98733065569786 -44.771053050001342 0 0 0 0 73.325403808422379 5.5909843582516601 0 5.5909843582516601 -63.807450569182492 0 0 0 0 139.41430205216602 36.036935506982445 0 36.036935506982445 -69.368565335388439 0 0 0 0 119.9308486889222 15.160346473404729 0 15.160346473404729 -49.381720230885975 0 0 0 0 206.13658180910352 8.7694436424957019 0 8.7694436424957019 -50.09506761676635 0 0 0 0 23.375977078915639 74.442114721647727 0 74.442114721647727 -56.808075936169644 0 0 0 0 4.9713262342211237 87.660246796296747 0 87.660246796296747 -39.099100909077777 0 0 0 0 0.9669366022656618 1.5178658593914953 0 1.5178658593914953 1.9147359147538712 0 0 0 0 -62.501658650126046 -3.6111032724792267 0 -3.6111032724792267 26.255646318209301 0 0 0 0 14.741017538481174 16.279811136591064 0 16.279811136591064 22.612533368540142 0 0 0 0 -95.461411278245578 91.63507272912355 0 91.63507272912355 35.973343152853772 0 0 0 0 0.1716679097207745 0.53862985428626686 0 0.53862985428626686 1.184486567543094 0 0 0 0 44.301697654560485 89.449994270501435 0 89.449994270501435 26.497218026732185 0 0 0 0 -25.293001896099668 26.291015653362571 0 26.291015653362571 47.879412856279004 0 0 0 0 125.30697088171291 64.245465103206627 0 64.245465103206627 26.279388432765359 0 0 0 0 140.71220045694827 32.288236125035169 0 32.288236125035169 -9.7950091891950137 0 0 0 0 69.248847020022367 -16.247087978634426 0 -16.247087978634426 34.918827842160681 0 0 0 0 74.992779688514929 -6.7971583414146934 0 -6.7971583414146934 -2.8556098311946698 0 0 0 0 83.986105408359435 -33.350486476040828 0 -33.350486476040828 7.1616028883907745 0 0 0 0 89.98338269197302 -23.589242364897856 0 -23.589242364897856 -29.790620942290616 0 0 0 0 94.319243724225089 63.576631641216267 0 63.576631641216267 -34.130467687552795 0 0 0 0 32.878983369587203 -48.549893200919414 0 -48.549893200919414 -21.979655844117488 0 0 0 0 5.8516733636212379 1.3495952071022472 0 1.3495952071022472 -1.090154422749503 0 0 0 0 33.278939482523128 19.994262125152545 0 19.994262125152545 -8.9165119478134329 0 0 0 0 56.453348166167416 10.484465290930871 0 10.484465290930871 -15.191160325682688 0 0 0 0 81.410597602034613 16.988950386405918 0 16.988950386405918 -38.188685468933272 0 0 0 0 69.491997712504599 -13.804077371124436 0 -13.804077371124436 7.1529637377775543 0 0 0 0 37.610044448410918 -4.1779243180233152 0 -4.1779243180233152 11.62000238668179 0 0 0 0 -5.3972302831926129 -5.1658695745336356 0 -5.1658695745336356 2.4051538282337397 0 0 0 0 69.105215928786492 -39.512514212209908 0 -39.512514212209908 -4.5090244801244808 0 0 0 0 38.215382319320554 -16.252621640744632 0 -16.252621640744632 -1.4454667778136479 0 0 0 0 40.45905424474293 -11.079243548734595 0 -11.079243548734595 -2.5701854511013793 0 0 0 0 79.12047200743109 47.486050712094993 0 47.486050712094993 -43.073629085636867 0 0 0 0 121.52445832949888 -48.630832144545224 0 -48.630832144545224 -75.930915103609067 0 0 0 0 35.4301023546941 2.4782194590671907 0 2.4782194590671907 26.011094885954961 0 0 0 0 13.481743726373679 -0.7243211937359888 0 -0.7243211937359888 25.767759049041672 0 0 0 0 60.603456498034575 19.645028470226734 0 19.645028470226734 4.9825865597380243 0 0 0 0 31.255284213744744 18.367468762425176 0 18.367468762425176 41.599895723629061 0 0 0 0 49.886832403972221 0.81746358460611646 0 0.81746358460611646 -3.4946510108567281 0 0 0 0 47.577689641075267 -2.7101833064955372 0 -2.7101833064955372 5.2883524690744252 0 0 0 0 45.567235481012176 -1.6805017963554292 0 -1.6805017963554292 7.5149003079354202 0 0 0 0 44.420934939123981 -0.95129049343995575 0 -0.95129049343995575 7.736256241664023 0 0 0 0 32.114678676022777 -6.200461013282748 0 -6.200461013282748 12.942040667317769 0 0 0 0 32.202343283111986 2.7293003207034872 0 2.7293003207034872 8.584735846138301 0 0 0 0 43.180519989453387 -4.9129150327305524 0 -4.9129150327305524 3.9308389008212998 0 0 0 0 31.225374801186263 -5.2001140632667102 0 -5.2001140632667102 4.7275637544896654 0 0 0 0 45.687952489657619 -5.5346287594677506 0 -5.5346287594677506 2.7275972668801387 0 0 0 0 48.242341721778303 1.3718914858970948 0 1.3718914858970948 2.9373737152050126 0 0 0 0 41.544411420734832 1.1418427937605884 0 1.1418427937605884 2.9327083039397621 0 0 0 0 34.111899445930426 -18.162202971847137 0 -18.162202971847137 0.078582236737642752 0 0 0 0 -144.21345826019387 -70.988132014927714 0 -70.988132014927714 -2.2686874914238615 0 0 0 0 -25.110993920243345 -106.7956927053383 0 -106.7956927053383 11.057086713206445 0 0 0 0 4.2049378001891995 -10.141530607653218 0 -10.141530607653218 -0.92933594795662655 0 0 0 0 -9.8559445799983223 -76.953863912134238 0 -76.953863912134238 -290.10495531761444 0 0 0 0 -105.55014726574882 -239.56273463172647 0 -239.56273463172647 71.261807716704425 0 0 0 0 10.867961124924477 -1.0246976350607611 0 -1.0246976350607611 13.325871663893821 0 0 0 0 24.529035094409835 2.4186512108070239 0 2.4186512108070239 1.6468366687958327 0 0 0 0 14.238471538861631 -1.7652254613290097 0 -1.7652254613290097 7.1078183764602727 0 0 0 0 12.057663295658131 -5.1731546020013184 0 -5.1731546020013184 9.0793999643031498 0 0 0 0 15.151704081302341 -7.7023825276346471 0 -7.7023825276346471 4.8853293705001226 0 0 0 0 278.74094502091157 219.15531995459855 0 219.15531995459855 62.989189334332877 0 0 0 0 3.5488100352117158 -1.8255397887480669 0 -1.8255397887480669 1.0022326043525549 0 0 0 0 64.082860389109555 -8.7363904583492058 0 -8.7363904583492058 121.59180525504644 0 0 0 0 -120.7752240521113 -162.85215559451512 0 -162.85215559451512 62.55894448917752 0 0 0 0 28.462632733182545 -132.85944099354745 0 -132.85944099354745 -65.954848615612718 0 0 0 0 36.598610191715125 -3.2971676129102434 0 -3.2971676129102434 11.052973212666302 0 0 0 0 121.80939759345347 25.446300995099136 0 25.446300995099136 -61.083800045918721 0 0 0 0 404.09970748856722 -74.653813476134701 0 -74.653813476134701 -139.25862650611407 0 0 0 0 136.94194936465647 -255.32420227096168 0 -255.32420227096168 -23.599343191419393 0 0 0 0 -8.6781737992787384 265.07259609994344 0 265.07259609994344 89.355298331002132 0 0 0 0 155.7817772096314 81.404068725386878 0 81.404068725386878 130.80654558818946 0 0 0 0 31.73055083201325 -4.7707238071408256 0 -4.7707238071408256 93.664416266204171 0 0 0 0 18.418157145115401 106.06802962860252 0 106.06802962860252 97.627084554391331 0 0 0 0 4.9704490858049439 -2.7132170837648744 0 -2.7132170837648744 1.773443825807032 0 0 0 0 32.233341353727155 -9.7785615020738987 0 -9.7785615020738987 12.636449262882934 0 0 0 0 -8.1240067240978533 105.60745321865852 0 105.60745321865852 143.77532697824336 0 0 0 0 -3.4098780907515902 -137.88573904753821 0 -137.88573904753821 -187.60353714031953 0 0 0 0 17.917132486586439 -3.0091160027026405 0 -3.0091160027026405 0.12053861197399129 0 0 0 0 -25.103819143099827 -5.8722850805575035 0 -5.8722850805575035 46.373995086574723 0 0 0 0 -15.781748217341374 -80.236942334024207 0 -80.236942334024207 14.866559729064647 0 0 0 0 25.591221276365104 86.232686062501216 0 86.232686062501216 142.64944528103115 0 0 0 0 -16.685852817958221 62.543530810581615 0 62.543530810581615 133.27932949591832 0 0 0 0 43.635995390308381 -24.772388582823623 0 -24.772388582823623 85.936090698947737 0 0 0 0 -10.426212515205407 18.404857919099641 0 18.404857919099641 191.99631447572028 0 0 0 0 12.762318170989602 4.8552064223834464 0 4.8552064223834464 -8.533527385403886 0 0 0 0 19.911228658114851 90.353542789098583 0 90.353542789098583 57.679173946274659 0 0 0 0 75.981969764034147 82.267060634789061 0 82.267060634789061 24.849565207235059 0 0 0 0 88.103267575126665 -37.768372198849335 0 -37.768372198849335 -32.892353903045944 0 0 0 0 7.4043900064768451 -6.5956790728058863 0 -6.5956790728058863 4.1996118535611586 0 0 0 0 -42.628208710440958 -93.965782569470321 0 -93.965782569470321 35.015611717292131 0 0 0 0 14.048831785874427 -2.4953647054497878 0 -2.4953647054497878 69.216679710666995 0 0 0 0 -85.311174774646133 -27.740784673510461 0 -27.740784673510461 78.517994839412495 0 0 0 0 69.09794890682906 -35.997633308936287 0 -35.997633308936287 6.7350215216897027 0 0 0 0 60.524391256982199 -86.493263263491826 0 -86.493263263491826 48.139954574803994 0 0 0 0 41.253227971527664 -6.0732354810028948 0 -6.0732354810028948 -3.6314631105165343 0 0 0 0 56.49261488609045 -49.842170399894343 0 -49.842170399894343 -69.288952660399787 0 0 0 0 42.170073455607053 13.786297012995647 0 13.786297012995647 20.531883592885151 0 0 0 0 42.858063464711449 12.680591255883996 0 12.680591255883996 11.903641257803429 0 0 0 0 25.314103784588951 -10.074841515319918 0 -10.074841515319918 9.3918617339095363 0 0 0 0 22.183394136547577 -23.533344981093819 0 -23.533344981093819 -9.2544056363981326 0 0 0 0 60.966980360652087 45.154635454488471 0 45.154635454488471 20.114208323479033 0 0 0 0 46.114205313206185 -63.326664844995094 0 -63.326664844995094 -55.918843367343925 0 0 0 0 18.79282268124463 -7.1936143949194715 0 -7.1936143949194715 7.1705774140440059 0 0 0 0 85.033147226480651 -24.163230413871588 0 -24.163230413871588 -86.326531204375897 0 0 0 0 63.504933719603287 -29.907980073406179 0 -29.907980073406179 -24.128722062554516 0 0 0 0 85.236238845958724 -2.8179682460549884 0 -2.8179682460549884 -26.568971138982988 0 0 0 0 122.51767225812364 -9.6273325072465923 0 -9.6273325072465923 20.119554007297666 0 0 0 0 72.707197916239238 57.909976517448399 0 57.909976517448399 69.095480533595037 0 0 0 0 79.704712075232237 22.625590921661114 0 22.625590921661114 -71.700310686143666 0 0 0 0 67.879561064459267 26.959852821763434 0 26.959852821763434 -4.3431013648752241 0 0 0 0 198.9875962126971 18.593634149701302 0 18.593634149701302 26.148034529965912 0 0 0 0 162.11416279457626 79.64136468130846 0 79.64136468130846 64.038662269778911 0 0 0 0 65.520634518899897 87.998706409683109 0 87.998706409683109 138.53427406617629 0 0 0 0 74.48923518018637 39.665660684742988 0 39.665660684742988 19.469497950452023 0 0 0 0 21.446343145660649 35.624117730143098 0 35.624117730143098 96.188614137466175 0 0 0 0 -82.697181730953162 -13.379934825116379 0 -13.379934825116379 333.61043575495796 0 0 0 0 108.37293897016934 -20.223668805236684 0 -20.223668805236684 230.24623386980602 0 0 0 0 1.5996546501241937 -0.00034892835115840626 0 -0.00034892835115840626 0.13620933724747974 0 0 0 0 6.4411484316762539 -2.6025992839663772 0 -2.6025992839663772 -1.4239636953215395 0 0 0 0 38.48434091269155 75.28925557009461 0 75.28925557009461 -29.26972793866878 0 0 0 0 214.69875213099294 -42.331771671060778 0 -42.331771671060778 -53.384070490539671 0 0 0 0 106.60064433940352 -158.21127854596921 0 -158.21127854596921 131.76361562182683 0 0 0 0 17.742791770794611 -49.261141108980155 0 -49.261141108980155 79.271223606596322 0 0 0 0 2.0726481679265873 -0.69252212455468865 0 -0.69252212455468865 0.43797899097691317 0 0 0 0 152.94870074668142 26.592173916354113 0 26.592173916354113 221.98748929066824 0 0 0 0 59.08818560137297 38.772055886909584 0 38.772055886909584 -3.7191025387837726 0 0 0 0 53.826289744407404 -68.552387980290177 0 -68.552387980290177 264.74454616250932 0 0 0 0 22.993113718554923 95.303667715050778 0 95.303667715050778 221.92509895515286 0 0 0 0 31.172139061319285 -3.778707740773033 0 -3.778707740773033 -0.41819927446942895 0 0 0 0 272.43856295911246 51.926081506487208 0 51.926081506487208 -213.53474960202129 0 0 0 0 47.898158322066593 20.50108690285424 0 20.50108690285424 9.1763364180296776 0 0 0 0 162.30031842151948 62.490823664128584 0 62.490823664128584 -209.18596519526704 0 0 0 0 60.09964909919654 13.126712664353363 0 13.126712664353363 11.979426129515559 0 0 0 0 -66.645631818872062 -14.643846647983537 0 -14.643846647983537 -33.416345562211063 0 0 0 0 -0.07046069633926777 5.199587969314365 0 5.199587969314365 -0.6369227422498358 0 0 0 0 133.99574229618884 35.845588038103415 0 35.845588038103415 -267.24127578463322 0 0 0 0 30.09257032975637 10.311198206653003 0 10.311198206653003 -0.5538491788475266 0 0 0 0 230.2956692204898 103.92980387294756 0 103.92980387294756 -220.44508534190845 0 0 0 0 178.95139379422471 38.510671351618385 0 38.510671351618385 -146.66503411160102 0 0 0 0 458.51381286747346 240.00395096390093 0 240.00395096390093 25.262062814755609 0 0 0 0 192.09365810418967 71.748506143741679 0 71.748506143741679 -65.213983590574571 0 0 0 0 103.13610722590965 165.59410324618011 0 165.59410324618011 -64.40936312197573 0 0 0 0 -24.161510696168989 80.409422368720016 0 80.409422368720016 99.295693618293626 0 0 0 0 105.61692563346878 75.083529764451328 0 75.083529764451328 23.803699100620179 0 0 0 0 302.52689713850123 -64.786516717440918 0 -64.786516717440918 296.21939207983814 0 0 0 0 127.86422000205494 141.76436133356265 0 141.76436133356265 181.10753173951252 0 0 0 0 407.33689032462644 -58.942616606480897 0 -58.942616606480897 119.88336901625007 0 0 0 0 137.60266488602792 2.5831385510884957 0 2.5831385510884957 147.12166194267593 0 0 0 0 -31.61579872789298 26.089213789521864 0 26.089213789521864 215.42956136897828 0 0 0 0 135.8295019551806 27.657530212577399 0 27.657530212577399 6.697123084587929 0 0 0 0 502.1411032811593 424.08346834971053 0 424.08346834971053 366.29739088465067 0 0 0 0 0.52907883755997887 -2.1668518922305964 0 -2.1668518922305964 1.4316137767530859 0 0 0 0 -0.3739370588199904 -1.4304245224398873 0 -1.4304245224398873 0.16178873539818128 0 0 0 0 480.43141960995854 369.0802279206855 0 369.0802279206855 309.77209067055207 0 0 0 0 354.0864727080625 261.94593400865779 0 261.94593400865779 330.07774593164595 0 0 0 0 341.02928340097424 200.03889302428615 0 200.03889302428615 267.44354798326367 0 0 0 0 474.9597439604695 243.54014736752151 0 243.54014736752151 192.35110966034199 0 0 0 0 587.5082375328202 421.43335321290147 0 421.43335321290147 256.66732429220394 0 0 0 0 324.32882333041925 138.24859230613521 0 138.24859230613521 161.07629476090824 0 0 0 0 415.98403213595157 88.513573251837443 0 88.513573251837443 111.25669827481192 0 0 0 0 802.46698526454566 128.41612149357388 0 128.41612149357388 70.734058067357182 0 0 0 0 -42.706818430779094 -21.606853731119998 0 -21.606853731119998 -29.267311283368144 0 0 0 0 -19.155612253627623 -88.17679426466043 0 -88.17679426466043 25.999368236120972 0 0 0 0 34.172950514795957 -167.88907346465248 0 -167.88907346465248 58.564474549508532 0 0 0 0 35.407172887101638 -98.496913549549404 0 -98.496913549549404 -40.230495294500543 0 0 0 0 76.589543219539337 -96.254315357722589 0 -96.254315357722589 -77.181514211331887 0 0 0 0 446.13408642364084 -165.62537893781291 0 -165.62537893781291 -68.777660331827065 0 0 0 0 163.01890141857439 58.174807556406449 0 58.174807556406449 -186.54385164791347 0 0 0 0 326.25624604985933 120.34325387408535 0 120.34325387408535 -166.36123616967961 0 0 0 0 280.09675840405362 -55.781768261300385 0 -55.781768261300385 -142.62801262991343 0 0 0 0 -80.552456111417996 -103.81251295218499 0 -103.81251295218499 -85.302408753890631 0 0 0 0 -15.563602939466364 9.0651298484021936 0 9.0651298484021936 -150.91578385800585 0 0 0 0 75.753529290610459 -92.694270549392513 0 -92.694270549392513 -92.033967709563512 0 0 0 0 -36.350581226026407 -159.44791500048905 0 -159.44791500048905 -117.84673277929505 0 0 0 0 -33.299959462412517 -96.190440559178114 0 -96.190440559178114 -99.034405050250598 0 0 0 0 -28.984793324714701 -69.095444561250133 0 -69.095444561250133 -129.3058645540068 0 0 0 0 -42.443150248196616 -106.90651210188878 0 -106.90651210188878 -64.727558392855826 0 0 0 0 -51.128278200500063 -85.613714583374076 0 -85.613714583374076 -62.308659077983464 0 0 0 0 -7.6946845462953206 -139.32296594251352 0 -139.32296594251352 -30.603467254583848 0 0 0 0 -35.277583387418417 -76.050922287337471 0 -76.050922287337471 -15.275525480967019 0 0 0 0 -56.130182642540603 -28.550629957383535 0 -28.550629957383535 1.3664359580657219 0 0 0 0 -13.100432880382868 10.699480089901954 0 10.699480089901954 15.06173741797511 0 0 0 0 4.6591317373777201 -0.14134450610962546 0 -0.14134450610962546 0.21570654345911144 0 0 0 0 -14.976696408348289 -29.109330540522819 0 -29.109330540522819 -47.144779175492658 0 0 0 0 -60.862553948163622 -32.25772851007531 0 -32.25772851007531 -25.536871864477689 0 0 0 0 -72.800839357892983 -79.652816950183478 0 -79.652816950183478 -54.791999128636292 0 0 0 0 -61.281143968037213 -68.939158063210925 0 -68.939158063210925 -75.014009893983257 0 0 0 0 -63.046087681370409 -102.99427291612609 0 -102.99427291612609 -127.15423787441708 0 0 0 0 -86.144639051140985 -92.899701625993998 0 -92.899701625993998 -78.295419335060217 0 0 0 0 -20.740082608543162 -83.829175069644322 0 -83.829175069644322 -169.91822933241622 0 0 0 0 -38.252747585302131 -89.258649216140839 0 -89.258649216140839 -68.466397507661895 0 0 0 0 -51.417927733753459 -84.766730637810269 0 -84.766730637810269 -64.651272604064047 0 0 0 0 -51.773105230833607 -89.394106798549728 0 -89.394106798549728 -70.032912807437242 0 0 0 0 -55.266031119550462 -74.756761134469571 0 -74.756761134469571 -76.938138493856968 0 0 0 0 -19.018613454722072 -27.858023762485516 0 -27.858023762485516 -136.7891929670559 0 0 0 0 230.1287005046288 187.91300792534403 0 187.91300792534403 119.46537690584773 0 0 0 0 -0.2990805443432123 -5.0681392177220861 0 -5.0681392177220861 1.3545451085076072 0 0 0 0 7.688790494500509 -3.503214480501164 0 -3.503214480501164 0.063257321303773928 0 0 0 0 -4.7406803762787604 -12.104000363648396 0 -12.104000363648396 -0.46016497444927751 0 0 0 0 3.6577985323165194 -5.4110149620676253 0 -5.4110149620676253 -3.5626001302381383 0 0 0 0 12.575505586014657 -7.7170406026056995 0 -7.7170406026056995 3.5116068818829587 0 0 0 0 150.53270454344602 92.398616450737933 0 92.398616450737933 51.335178483332015 0 0 0 0 2.2246700231044088 -29.918361030255141 0 -29.918361030255141 -2.3425083613141808 0 0 0 0 218.10142274920145 119.01634945546127 0 119.01634945546127 46.648667658513659 0 0 0 0 186.07354141458927 165.58879311823443 0 165.58879311823443 145.45866612861369 0 0 0 0 148.46937809330848 84.232134491020076 0 84.232134491020076 92.899493388999332 0 0 0 0 170.49549527031195 55.299619000041787 0 55.299619000041787 15.391221766725693 0 0 0 0 185.45124972721351 98.520168006782995 0 98.520168006782995 31.599738756314764 0 0 0 0 215.78083524164686 117.52831719724145 0 117.52831719724145 50.308575656092557 0 0 0 0 207.96112024945614 48.230995538262732 0 48.230995538262732 -7.2134165112345272 0 0 0 0 134.35686093311233 10.776628267408569 0 10.776628267408569 -15.452232691105863 0 0 0 0 187.24786058456084 56.305997109258499 0 56.305997109258499 -4.9823263345732585 0 0 0 0 97.103790523251519 14.60841592999634 0 14.60841592999634 -18.503930903134915 0 0 0 0 43.102247168164467 -22.990657221237768 0 -22.990657221237768 -20.75596084701931 0 0 0 0 14.434557438027696 -46.316297199611085 0 -46.316297199611085 -0.82699098598641285 0 0 0 0 119.73439076608338 -8.7079032696027525 0 -8.7079032696027525 -11.674719285797437 0 0 0 0 228.91689419455361 21.650175681839983 0 21.650175681839983 -27.281641627290071 0 0 0 0 135.80008602366195 26.119232663273024 0 26.119232663273024 34.318750857241412 0 0 0 0 135.10266949845391 -47.705050515349853 0 -47.705050515349853 -24.462046710526238 0 0 0 0 -30.915691955611692 -2.4334192372755297 0 -2.4334192372755297 18.266704055094806 0 0 0 0 -5.2534947863118759 14.291271792518444 0 14.291271792518444 83.597683549445264 0 0 0 0 258.86467587537481 -11.256486902674396 0 -11.256486902674396 16.463439471689156 0 0 0 0 324.41250775037042 62.432727836526738 0 62.432727836526738 20.407756215646714 0 0 0 0 290.93456288550078 91.168045905929262 0 91.168045905929262 129.58988145226522 0 0 0 0 364.15682810361614 79.783716428346452 0 79.783716428346452 52.748216514080241 0 0 0 0 331.48792223157943 143.12990099593435 0 143.12990099593435 122.36438474693841 0 0 0 0 382.0060250707902 147.24427406251243 0 147.24427406251243 117.4253852552315 0 0 0 0 310.07852367431042 148.51385999284867 0 148.51385999284867 146.07203859659649 0 0 0 0 381.57677271263674 235.28054739811296 0 235.28054739811296 239.19692158161297 0 0 0 0 244.3462832802179 162.55274419017155 0 162.55274419017155 135.8867084495887 0 0 0 0 284.44405382010154 247.17264535147137 0 247.17264535147137 251.3683349005355 0 0 0 0 364.01461966182978 158.43698588807342 0 158.43698588807342 79.008361498139948 0 0 0 0 266.33210873568896 115.45479204015021 0 115.45479204015021 63.534544052730098 0 0 0 0 279.05183547119668 175.29826856042541 0 175.29826856042541 80.173239303170931 0 0 0 0 203.64347293616447 78.699719337382476 0 78.699719337382476 32.217389127088609 0 0 0 0 311.473600326819 94.088841916647425 0 94.088841916647425 12.99286635581575 0 0 0 0 246.05301525745017 86.793828685067638 0 86.793828685067638 59.929646141726039 0 0 0 0 109.79706697320216 27.563109044963198 0 27.563109044963198 -54.681460625439165 0 0 0 0 -9.9960050014415174 45.014385696008731 0 45.014385696008731 12.46295794767866 0 0 0 0 -27.704656989590148 -43.327442068792379 0 -43.327442068792379 -20.465072099083976 0 0 0 0 -25.536195607171976 65.285776354041673 0 65.285776354041673 64.794578119618109 0 0 0 0 -36.416844752166071 -107.75026901349975 0 -107.75026901349975 13.760706102631048 0 0 0 0 -22.966641778868052 -5.1875879559226803 0 -5.1875879559226803 141.47424296431745 0 0 0 0 18.576681286140229 64.100982668796178 0 64.100982668796178 -56.986834161333263 0 0 0 0 18.047767870655207 174.79296905838277 0 174.79296905838277 337.03463914135773 0 0 0 0 5.5785694776786841 93.821571408633872 0 93.821571408633872 -1.2647207437942143 0 0 0 0 9.1744912811846007 179.52674393753136 0 179.52674393753136 -72.477199954727396 0 0 0 0 -51.269244003546191 -199.87056567375583 0 -199.87056567375583 -125.17459142396724 0 0 0 0 346.42085095418213 -136.25727360176145 0 -136.25727360176145 -130.38657457346426 0 0 0 0 341.51974678305851 242.05884684696798 0 242.05884684696798 -77.521494535056178 0 0 0 0 386.74180946723936 317.40948812268698 0 317.40948812268698 247.83196718415093 0 0 0 0 68.21214802943723 -120.67269205622165 0 -120.67269205622165 277.88141193372439 0 0 0 0 527.33145560252888 168.02530097680096 0 168.02530097680096 2.5228824032808461 0 0 0 0 1.8443009819805667 -2.0427694987654661 0 -2.0427694987654661 2.8037909661881395 0 0 0 0 11.217599075382168 11.664730819220267 0 11.664730819220267 166.07887673233836 0 0 0 0 7.3967968949512937 -3.7440966172476529 0 -3.7440966172476529 2.9423185979471356 0 0 0 0 -9.5940720754733775 -51.6755881965546 0 -51.6755881965546 -18.968198046434736 0 0 0 0 24.148051024014421 -119.51604369980328 0 -119.51604369980328 -93.377885382665227 0 0 0 0 -70.015924680675198 -13.382949561071783 0 -13.382949561071783 -164.033326995979 0 0 0 0 24.766584008735663 -164.83048689050815 0 -164.83048689050815 110.74081116576144 0 0 0 0 112.50507074455527 -169.73019353941072 0 -169.73019353941072 -394.39365980694708 0 0 0 0 2.3991053888308471 -3.8094607310570821 0 -3.8094607310570821 0.6657349151167713 0 0 0 0 3.7948986633764434 -16.398385910838499 0 -16.398385910838499 29.372918481008696 0 0 0 0 27.196868021317641 -25.099182644256757 0 -25.099182644256757 5.8534961165032655 0 0 0 0 2.3432551515361411 -13.572004137823455 0 -13.572004137823455 1.5427313552869464 0 0 0 0 50.252303183806362 -18.013724995642065 0 -18.013724995642065 -9.738298630718532 0 0 0 0 27.874749301563497 -25.421027272447454 0 -25.421027272447454 -11.945030165738785 0 0 0 0 0.44763035528135831 1.1704122831173862 0 1.1704122831173862 -1.1940275371101419 0 0 0 0 1.4867264028749361 -1.9555224237955802 0 -1.9555224237955802 0.40075184230072103 0 0 0 0 153.38672391470391 99.550957792454028 0 99.550957792454028 -297.85546905914782 0 0 0 0 -41.113701265496275 -16.42436114393476 0 -16.42436114393476 146.078381359324 0 0 0 0 90.272962501374423 -106.89798926231583 0 -106.89798926231583 0.66981081051420688 0 0 0 0 146.93062549785463 -40.369905011636661 0 -40.369905011636661 -41.601283327199894 0 0 0 0 98.719497736365156 39.357402376803066 0 39.357402376803066 -25.964345527149248 0 0 0 0 -27.690275100529107 -16.967768498395628 0 -16.967768498395628 77.858077360666812 0 0 0 0 47.5739225647485 -54.553275799722485 0 -54.553275799722485 37.322918315465927 0 0 0 0 86.186624982685316 -9.2845508978589351 0 -9.2845508978589351 -8.9515498032355936 0 0 0 0 4.9818420722553043 2.0404279476118603 0 2.0404279476118603 -2.6949384430083079 0 0 0 0 17.865928120848821 -24.034034887571579 0 -24.034034887571579 -0.12322022058378934 0 0 0 0 17.114889603653864 3.5395999763711643 0 3.5395999763711643 -26.795584506747218 0 0 0 0 79.956456782012538 -34.567080440197287 0 -34.567080440197287 -41.697621059999356 0 0 0 0 43.167104382358957 -18.837567796435565 0 -18.837567796435565 -21.499294267385153 0 0 0 0 43.253932314467306 -43.031341114991349 0 -43.031341114991349 -5.1279783166637571 0 0 0 0 -22.756212125175807 -33.050756954345104 0 -33.050756954345104 4.4481942226618685 0 0 0 0 59.731974850106781 -30.865547490579786 0 -30.865547490579786 -4.979147321589835 0 0 0 0 65.301290740804689 -20.351664813400703 0 -20.351664813400703 11.818194440233583 0 0 0 0 54.762932895871927 -31.681005398871093 0 -31.681005398871093 6.6976465545510564 0 0 0 0 60.282319756075594 -40.656824932036443 0 -40.656824932036443 20.642703160937344 0 0 0 0 4.4698571425013895 -1.0357280051885169 0 -1.0357280051885169 -1.8804923461034448 0 0 0 0 41.216629229929822 -17.808136428394619 0 -17.808136428394619 10.274821408517937 0 0 0 0 94.827188457653392 -16.509896823149575 0 -16.509896823149575 -3.5127199392504735 0 0 0 0 -6.1662227303302757 -0.73208895450792966 0 -0.73208895450792966 4.7063895100229116 0 0 0 0 29.398109500343708 -6.8209659854614983 0 -6.8209659854614983 -5.505476861752868 0 0 0 0 19.298303667871551 -22.489606334170901 0 -22.489606334170901 -3.2300124652745126 0 0 0 0 14.698494613279962 -13.136693093964986 0 -13.136693093964986 7.3641531400691838 0 0 0 0 102.82024733045546 25.41377470537234 0 25.41377470537234 8.0218453203911508 0 0 0 0 106.63920986121957 15.965528304685122 0 15.965528304685122 23.065077102918735 0 0 0 0 130.6115698159374 -10.81563020903641 0 -10.81563020903641 0.53625910209601102 0 0 0 0 156.23662413350758 25.244079257431828 0 25.244079257431828 7.1733744436589291 0 0 0 0 148.51915927801019 -15.857628916568366 0 -15.857628916568366 -3.8803918208005967 0 0 0 0 258.92215377257889 -63.507366284965201 0 -63.507366284965201 2.3396878842206803 0 0 0 0 21.331886686268263 -9.5976524899795734 0 -9.5976524899795734 0.036188397241804747 0 0 0 0 5.9336175858260702 -5.0466281987089516 0 -5.0466281987089516 3.8792733577583123 0 0 0 0 26.255028343137297 2.3828740507515533 0 2.3828740507515533 -7.960729538519959 0 0 0 0 28.748094596739975 -4.6346369925141069 0 -4.6346369925141069 0.0077509939125907281 0 0 0 0 -1.427155584462696 -13.207318746723516 0 -13.207318746723516 14.3342638602908 0 0 0 0 14.634076850266091 -5.2630792167400671 0 -5.2630792167400671 1.4970346542158146 0 0 0 0 58.238318210969737 -19.537765574665855 0 -19.537765574665855 7.4679363339100746 0 0 0 0 52.313595995765354 -23.878169204244841 0 -23.878169204244841 8.2539877876479295 0 0 0 0 -0.83128156703833511 -12.975282513307086 0 -12.975282513307086 10.536650851157102 0 0 0 0 82.366450791625539 7.9226247869306547 0 7.9226247869306547 20.497611250784573 0 0 0 0 25.500025839235605 -39.459493662439627 0 -39.459493662439627 39.210093569916353 0 0 0 0 59.110807927180986 -27.651484783065925 0 -27.651484783065925 6.6462595084385612 0 0 0 0 45.755841278827575 9.5243455650588658 0 9.5243455650588658 -1.8361449247845485 0 0 0 0 58.471896801092953 -11.195197785250912 0 -11.195197785250912 28.620146848056038 0 0 0 0 38.006998427648796 -29.917369292179501 0 -29.917369292179501 11.925715697424494 0 0 0 0 40.034102320874808 -5.9610654668717835 0 -5.9610654668717835 -0.0083607222284590096 0 0 0 0 41.29812855507771 -9.6177447902727682 0 -9.6177447902727682 6.0837983389546029 0 0 0 0 49.098644537094515 -7.9246367309981345 0 -7.9246367309981345 -0.0030689513647120985 0 0 0 0 50.360386022468447 -11.509544877077378 0 -11.509544877077378 6.4743221123835477 0 0 0 0 30.884809613241089 5.4393297586759459 0 5.4393297586759459 -7.1857475475494095 0 0 0 0 97.694227255142323 30.407511439233133 0 30.407511439233133 -14.111898002742038 0 0 0 0 49.515570464478515 15.037191209063735 0 15.037191209063735 -15.88468397364349 0 0 0 0 -3.9950484641231014 5.0205367186444363 0 5.0205367186444363 -7.7203938270577623 0 0 0 0 80.703354194709391 -4.0171129285673715 0 -4.0171129285673715 -31.560702186252342 0 0 0 0 46.289262176724151 8.553801656958143 0 8.553801656958143 -29.773829792737899 0 0 0 0 47.266936725525738 3.9680879773924858 0 3.9680879773924858 -9.2479359434311164 0 0 0 0 10.936347905160801 -20.147885185913907 0 -20.147885185913907 -21.206968015880648 0 0 0 0 20.972206655162154 2.7224487160457045 0 2.7224487160457045 -22.231061065880567 0 0 0 0 112.7073308108229 -8.8056054656640015 0 -8.8056054656640015 -30.630083950607734 0 0 0 0 121.82503049922525 22.375410081975531 0 22.375410081975531 -24.87177020557283 0 0 0 0 140.75356771993393 23.266626550423794 0 23.266626550423794 -29.907240949654721 0 0 0 0 116.58953389543831 35.247789146268367 0 35.247789146268367 -3.6155946384578783 0 0 0 0 184.776473553291 55.263595508850216 0 55.263595508850216 -14.175766037467099 0 0 0 0 149.70516398689506 53.511254505186542 0 53.511254505186542 4.2165711865519455 0 0 0 0 140.05441713474283 85.616294730543615 0 85.616294730543615 55.24880066594838 0 0 0 0 115.08654359545108 50.326653361491672 0 50.326653361491672 24.360462753265267 0 0 0 0 144.17979202636343 50.5676226852976 0 50.5676226852976 -0.033384797650953146 0 0 0 0 142.42911552752048 57.145069382188552 0 57.145069382188552 2.6081036731342522 0 0 0 0 142.36253764473076 36.643883827950305 0 36.643883827950305 -21.088951529076809 0 0 0 0 115.55550228272841 38.630097251989298 0 38.630097251989298 -8.1139848971182502 0 0 0 0 147.46412189679904 42.21755842224988 0 42.21755842224988 -11.848404167798293 0 0 0 0 179.46880002771468 47.270983679620812 0 47.270983679620812 0.052215290946534577 0 0 0 0 132.28987373526616 31.272253325346501 0 31.272253325346501 1.3795755005057655 0 0 0 0 131.30172112953187 25.762668042364751 0 25.762668042364751 -20.888091715282826 0 0 0 0 90.322065962391207 37.060598077882005 0 37.060598077882005 -0.026886865498072666 0 0 0 0 101.08294115000899 9.9011051653260651 0 9.9011051653260651 -26.107209033283592 0 0 0 0 11.855505413230276 0.659411954850043 0 0.659411954850043 -8.9933736635490789 0 0 0 0 63.968548751519847 25.888664184178189 0 25.888664184178189 -12.158984806572121 0 0 0 0 51.550849383980676 4.5878751175519028 0 4.5878751175519028 -11.24528795367501 0 0 0 0 8.7296167233980668 28.996045049654704 0 28.996045049654704 0.0049781177094486064 0 0 0 0 -33.406408705333888 2.457795662747511 0 2.457795662747511 -3.4457482720630921 0 0 0 0 -54.103744151734645 26.877653002485619 0 26.877653002485619 -0.0088082557908453173 0 0 0 0 -59.368952577387063 32.53827676351046 0 32.53827676351046 -17.858846695239478 0 0 0 0 -55.37900289517529 8.5149452874221243 0 8.5149452874221243 1.2271336709068237 0 0 0 0 7.1656489576562308 15.578049986710965 0 15.578049986710965 -14.255959741203156 0 0 0 0 -37.734319886018056 20.258432411768027 0 20.258432411768027 1.0758863821827198 0 0 0 0 -38.591824616334634 20.298104670697811 0 20.298104670697811 -16.84342583488899 0 0 0 0 -5.3742328753651236 -5.1316648208455931 0 -5.1316648208455931 -14.238945462712763 0 0 0 0 -72.878728349409357 7.7407993387522538 0 7.7407993387522538 1.8757118993584072 0 0 0 0 -42.903408620179107 2.5128700648609339 0 2.5128700648609339 -4.5259495438538124 0 0 0 0 -53.859977082334808 26.088226739558166 0 26.088226739558166 -9.384686822896569 0 0 0 0 -94.84540229320919 36.591640906838514 0 36.591640906838514 -0.5454753321000112 0 0 0 0 -77.621658188392757 9.9041386024505726 0 9.9041386024505726 -11.344857881532107 0 0 0 0 -1.6274122734353682 -1.8719266611264089 0 -1.8719266611264089 -2.1591628969613788 0 0 0 0 -40.763383946745307 -24.755637705143727 0 -24.755637705143727 21.320583078292856 0 0 0 0 -72.994483528607816 35.468128416598631 0 35.468128416598631 -34.594459497082767 0 0 0 0 -129.55375956878561 38.00608815423584 0 38.00608815423584 -0.42498862160033468 0 0 0 0 2.4136644556238025 -39.34355195364536 0 -39.34355195364536 -4.9035294621929779 0 0 0 0 1.3188690075974989 2.5567798221037208 0 2.5567798221037208 -0.79856885687805457 0 0 0 0 -82.504118177675991 -2.2749605552331218 0 -2.2749605552331218 30.782321591137929 0 0 0 0 133.59739326134149 -29.503887358274426 0 -29.503887358274426 -26.33292102340053 0 0 0 0 -0.75337008827744256 -1.1710335310529416 0 -1.1710335310529416 -1.7981165291482852 0 0 0 0 32.868263338939869 83.90875987807253 0 83.90875987807253 -60.297115569310428 0 0 0 0 -83.606951742905949 19.972208995976047 0 19.972208995976047 -10.854756038722599 0 0 0 0 -110.5120004553246 -4.9701490438997098 0 -4.9701490438997098 -16.756284226704679 0 0 0 0 -40.220954445539974 -8.8177212827603739 0 -8.8177212827603739 -7.4792847247565533 0 0 0 0 -43.045356510105194 -16.206806090378336 0 -16.206806090378336 -24.155844932350675 0 0 0 0 -47.885498046685825 9.837451390969477 0 9.837451390969477 -11.20669456224573 0 0 0 0 -51.77518095609048 2.6815605518443419 0 2.6815605518443419 -15.786807671131555 0 0 0 0 13.859985896699072 -19.171263546908222 0 -19.171263546908222 0.56775536243060287 0 0 0 0 -34.48257167362317 74.891004542328091 0 74.891004542328091 -62.749373299728433 0 0 0 0 10.427775048310195 8.0580256007098008 0 8.0580256007098008 -71.529450972722373 0 0 0 0 87.20571728044888 -26.145648784899947 0 -26.145648784899947 -19.24771787378938 0 0 0 0 109.0421474920222 7.8560716834053039 0 7.8560716834053039 -2.2247496007445307 0 0 0 0 77.031275529210689 -3.1319706157359519 0 -3.1319706157359519 -3.3713896346999377 0 0 0 0 76.783609330552281 -0.39908146652061305 0 -0.39908146652061305 41.742934731690525 0 0 0 0 46.544595638122701 1.7168942434937264 0 1.7168942434937264 -44.399088227469207 0 0 0 0 43.725045506791503 -4.1767284792931605 0 -4.1767284792931605 9.415938326705259 0 0 0 0 43.373401577380719 -21.85965988040698 0 -21.85965988040698 4.7159772668911728 0 0 0 0 113.31303858179308 -32.967062297396978 0 -32.967062297396978 -17.300993189322298 0 0 0 0 113.58898214406508 -46.17268410454308 0 -46.17268410454308 -7.9187549654780014 0 0 0 0 0.74985766284083155 2.0244149485189951 0 2.0244149485189951 0.83807985067730462 0 0 0 0 64.364647573849652 -38.896635419026097 0 -38.896635419026097 11.688572854511222 0 0 0 0 83.892472608131357 -46.172397492873415 0 -46.172397492873415 44.120025182247012 0 0 0 0 79.766106563489302 -30.763839891959066 0 -30.763839891959066 -4.3342763749353708 0 0 0 0 77.914912239502883 -43.38038922477358 0 -43.38038922477358 9.8088072273995977 0 0 0 0 75.526651701904484 -35.572070585308666 0 -35.572070585308666 -7.1150058352289136 0 0 0 0 53.77140780382615 -33.87980013744766 0 -33.87980013744766 0.19944192897247603 0 0 0 0 70.345454058653559 -40.59098126278974 0 -40.59098126278974 -5.2839477433996933 0 0 0 0 32.177624888721766 -27.384060611904459 0 -27.384060611904459 -57.644681919104983 0 0 0 0 54.274987016979139 -35.187320830774127 0 -35.187320830774127 -20.017996297666741 0 0 0 0 31.689132022424019 -42.885262510828227 0 -42.885262510828227 -0.84674729181438124 0 0 0 0 45.263279895030792 -13.322332855466854 0 -13.322332855466854 -17.274286611142202 0 0 0 0 29.081950944732853 -58.678313594931559 0 -58.678313594931559 -43.824811212694442 0 0 0 0 24.574635539865994 -29.545699877475528 0 -29.545699877475528 -21.784341199997527 0 0 0 0 22.070000939755118 -65.027430278041209 0 -65.027430278041209 2.9147060059261207 0 0 0 0 27.221428527882381 -66.914621235887651 0 -66.914621235887651 -4.5647974286574211 0 0 0 0 99.276887985164649 -8.4868094083504673 0 -8.4868094083504673 -4.3908115277194497 0 0 0 0 54.450940642363094 -4.6632270022671385 0 -4.6632270022671385 20.69344211182306 0 0 0 0 50.111039928684477 -25.381890500529636 0 -25.381890500529636 5.1868998419612353 0 0 0 0 49.926313548232429 -38.014136461828116 0 -38.014136461828116 -1.45161702000334 0 0 0 0 8.4614019580913009 -49.740671306972303 0 -49.740671306972303 16.110262050315896 0 0 0 0 28.300014181120787 -22.802175836539107 0 -22.802175836539107 25.030686142820386 0 0 0 0 -81.156009331429232 17.163854611258703 0 17.163854611258703 -0.5731659407266273 0 0 0 0 -0.5950990566580785 -0.094206639171233064 0 -0.094206639171233064 -0.35015197392530867 0 0 0 0 -12.929028836013458 -43.27209686776375 0 -43.27209686776375 16.065868984980852 0 0 0 0 -4.0796792098626611 -70.676296873189983 0 -70.676296873189983 3.7915221654990319 0 0 0 0 14.406813539448194 -77.831715775139912 0 -77.831715775139912 0.041707664236963211 0 0 0 0 59.313592423084629 -49.503390075919391 0 -49.503390075919391 -7.8471559216003897 0 0 0 0 117.067467828183 -84.301495151187439 0 -84.301495151187439 -0.052548219330375685 0 0 0 0 237.75208030377689 -133.43027410125984 0 -133.43027410125984 -26.050123613878906 0 0 0 0 163.09886014123549 -33.441475622900256 0 -33.441475622900256 -135.43335833370622 0 0 0 0 14.115315835559159 -63.525689512375038 0 -63.525689512375038 -9.4678040165703727 0 0 0 0 517.73866323766924 -87.011358556655722 0 -87.011358556655722 26.891547555613784 0 0 0 0 245.11148098339982 -98.682518890064898 0 -98.682518890064898 0.56800436559875112 0 0 0 0 0.97026961597910599 0.11464684432235117 0 0.11464684432235117 0.32301797983450475 0 0 0 0 228.21626290699351 -104.38043399622161 0 -104.38043399622161 0.071410536426555329 0 0 0 0 205.95690802855097 -56.200398182590135 0 -56.200398182590135 -31.818210278749717 0 0 0 0 210.30744538770523 -130.05784915936874 0 -130.05784915936874 72.670761706552724 0 0 0 0 266.72374081432099 -21.21081369447127 0 -21.21081369447127 19.64881205070003 0 0 0 0 268.55898869585872 -99.906721801389779 0 -99.906721801389779 86.317355675839224 0 0 0 0 453.59011712014035 -241.66834062741961 0 -241.66834062741961 -59.192600970323156 0 0 0 0 0.96966337483046061 0.48610893569870939 0 0.48610893569870939 0.76644248339208643 0 0 0 0 198.45945478109206 -19.916700489485351 0 -19.916700489485351 21.402694666961281 0 0 0 0 -8.4737914976321917 -10.887063909388729 0 -10.887063909388729 -32.838588503529422 0 0 0 0 -38.306176278063504 109.48052741926344 0 109.48052741926344 -156.43012144208726 0 0 0 0 2.3934042074536421 0.38115126848952485 0 0.38115126848952485 -0.79934094776966047 0 0 0 0 357.66790958482125 -441.73738636042589 0 -441.73738636042589 401.8660957789308 0 0 0 0 118.51260867269593 -53.564571224011843 0 -53.564571224011843 241.27244295080575 0 0 0 0 225.46272591128945 -110.55028815872521 0 -110.55028815872521 222.43580244472321 0 0 0 0 7.427790081771164 2.5315485232636377 0 2.5315485232636377 -1.7860770680019811 0 0 0 0 451.46250738820345 -408.96394945895116 0 -408.96394945895116 156.58510592744904 0 0 0 0 50.644705925898961 -240.75415523070967 0 -240.75415523070967 274.73682183859546 0 0 0 0 153.82632508454844 -218.40085929384986 0 -218.40085929384986 75.106770101939503 0 0 0 0 324.05393468271359 -79.242578916683271 0 -79.242578916683271 -168.29830019495182 0 0 0 0 -47.552870475529289 -127.98630448194689 0 -127.98630448194689 -150.69893127404697 0 0 0 0 148.96058670182538 164.25595921271315 0 164.25595921271315 -335.19281779124367 0 0 0 0 29.026418308708685 6.3941692899874631 0 6.3941692899874631 -1.5065551273728417 0 0 0 0 -43.79370833917892 -124.82483415623111 0 -124.82483415623111 15.883448981999891 0 0 0 0 -94.106289653267595 124.89666714690361 0 124.89666714690361 -44.612440549432336 0 0 0 0 465.23895508360147 -665.62808548926341 0 -665.62808548926341 712.53809829801492 0 0 0 0 203.18754836985681 380.5854434948692 0 380.5854434948692 -422.22578392600076 0 0 0 0 8.6563591127232087 0.82798076760283124 0 0.82798076760283124 -0.66057449656920508 0 0 0 0 49.799474653233119 -70.170756777152775 0 -70.170756777152775 -247.17401123122829 0 0 0 0 0.61921263336238042 0.41188185711808956 0 0.41188185711808956 0.25211662380332589 0 0 0 0 22.39272630430338 3.7200475658100451 0 3.7200475658100451 -1.6667169020633668 0 0 0 0 290.58487603991671 -281.09456113919146 0 -281.09456113919146 -44.632373076942145 0 0 0 0 32.679283051703351 350.629169250161 0 350.629169250161 -332.97452158654482 0 0 0 0 300.31852329937828 -254.30687611363828 0 -254.30687611363828 2.1785062484119635 0 0 0 0 407.16945176122317 -275.71147022993114 0 -275.71147022993114 -101.62170854346459 0 0 0 0 358.83768447756302 -333.41807558238384 0 -333.41807558238384 -63.64224832108016 0 0 0 0 338.12996484976611 -324.43615903132377 0 -324.43615903132377 -62.046487409600104 0 0 0 0 203.88474704074179 -257.94407106438598 0 -257.94407106438598 -48.815908291644519 0 0 0 0 341.30127616620302 -314.95177416005913 0 -314.95177416005913 -155.6472819553228 0 0 0 0 304.74214360662154 -375.48953207794443 0 -375.48953207794443 -12.567279114849953 0 0 0 0 257.42901958818038 -325.92546611756052 0 -325.92546611756052 191.37847173834325 0 0 0 0 279.43763905643937 -364.35820011338001 0 -364.35820011338001 -8.6133494464493197 0 0 0 0 290.26535061350296 -284.49426404741644 0 -284.49426404741644 -0.86567665292523088 0 0 0 0 -0.12365940847895729 -3.7234566725750753 0 -3.7234566725750753 -8.9858842639839693 0 0 0 0 301.45637451964012 -228.67078099368356 0 -228.67078099368356 -82.616638827516681 0 0 0 0 -204.70607077032037 166.28983985815194 0 166.28983985815194 -127.0518146139666 0 0 0 0 441.72352588807553 -226.7794466125456 0 -226.7794466125456 -563.18523569765921 0 0 0 0 199.92908580657968 -244.05433003915664 0 -244.05433003915664 -80.461294682529569 0 0 0 0 270.33295350993285 172.03850636818697 0 172.03850636818697 -748.25566238216015 0 0 0 0 46.67682593927384 -48.533059315267906 0 -48.533059315267906 -224.6973733569439 0 0 0 0 371.93626717451116 -290.23598463812687 0 -290.23598463812687 -238.36668580835735 0 0 0 0 577.70259828468988 -313.47282929638732 0 -313.47282929638732 -85.001690879290607 0 0 0 0 311.84205302349437 -481.40785779670637 0 -481.40785779670637 258.51325205262128 0 0 0 0 451.05597855894302 -351.51515836066108 0 -351.51515836066108 229.59849889787711 0 0 0 0 1000.6709124249028 269.8808881638829 0 269.8808881638829 -119.58620746130998 0 0 0 0 -79.283756087974325 -147.38187261026633 0 -147.38187261026633 -54.19960755011607 0 0 0 0 -155.0146220726856 313.83923553090403 0 313.83923553090403 966.2969255990165 0 0 0 0 283.70586027393438 -68.425023246965338 0 -68.425023246965338 -105.50426415050026 0 0 0 0 24.751072937977241 6.8255195396735928 0 6.8255195396735928 -0.18564502531039473 0 0 0 0 281.95689275391669 626.63052059338577 0 626.63052059338577 -867.18209294586359 0 0 0 0 188.1443738796188 -300.82067926226728 0 -300.82067926226728 298.94453353850326 0 0 0 0 104.56274874200972 -167.07908532207648 0 -167.07908532207648 111.39788607760693 0 0 0 0 -88.013326991109352 568.33277593696494 0 568.33277593696494 -124.2989392671625 0 0 0 0 -290.7602358381555 474.2647498967051 0 474.2647498967051 27.084387491592224 0 0 0 0 9.6118549420721848 3.0927376834788483 0 3.0927376834788483 0.60574863066858775 0 0 0 0 824.04208590568305 313.54069559218237 0 313.54069559218237 66.570937676300673 0 0 0 0 363.63032816027408 505.90545023093614 0 505.90545023093614 -115.92518199813992 0 0 0 0 883.90816153999185 -604.53356075126544 0 -604.53356075126544 -306.70819175405222 0 0 0 0 -242.69906445289962 -648.04489621794119 0 -648.04489621794119 270.25375590480598 0 0 0 0 16.777297244145302 109.41307453951595 0 109.41307453951595 -97.952091753481 0 0 0 0 -87.893799006036716 170.42514848153587 0 170.42514848153587 -113.63570857122431 0 0 0 0 25.627734117068883 11.378894618532883 0 11.378894618532883 -3.1732159665475859 0 0 0 0 -121.65002969260968 83.708763412642838 0 83.708763412642838 -102.71145876510377 0 0 0 0 -90.941989312312216 156.30461600893705 0 156.30461600893705 -37.442894008130679 0 0 0 0 -660.15196327394369 -36.364563500789473 0 -36.364563500789473 -114.96427513492245 0 0 0 0 -82.100096608919557 110.35951874726561 0 110.35951874726561 -154.39174270256717 0 0 0 0 -192.5962271217868 26.354763230041954 0 26.354763230041954 -42.922510019957372 0 0 0 0 -182.68349466926884 55.163732660479127 0 55.163732660479127 27.182107929467747 0 0 0 0 -123.42115473447484 38.28326641753938 0 38.28326641753938 -138.23423711820396 0 0 0 0 -89.690487621846842 82.293457298761041 0 82.293457298761041 -85.10686939509651 0 0 0 0 -26.940105912362924 107.16393142108359 0 107.16393142108359 -17.233778615105621 0 0 0 0 -88.154339307266127 58.580632839337483 0 58.580632839337483 -53.355158013635446 0 0 0 0 -217.475101574566 78.747467170861427 0 78.747467170861427 58.678604232965426 0 0 0 0 -138.15692035394022 91.767414395575088 0 91.767414395575088 111.11833666869279 0 0 0 0 -122.57044582463277 35.31417435729918 0 35.31417435729918 111.37523972730057 0 0 0 0 -199.21746122319018 71.080595854082731 0 71.080595854082731 94.495935513429231 0 0 0 0 -127.42074561998015 72.591014079102933 0 72.591014079102933 69.034698632645359 0 0 0 0 -137.74010685840767 90.218179171123836 0 90.218179171123836 54.509029780923811 0 0 0 0 -120.12634678867471 19.705522659638291 0 19.705522659638291 -1.6550067804489572 0 0 0 0 -196.9996795568577 99.144244317836723 0 99.144244317836723 57.817928067580851 0 0 0 0 -167.78450311766755 88.42737420116643 0 88.42737420116643 -13.254579079131872 0 0 0 0 -165.31785190591654 69.772946776210318 0 69.772946776210318 82.735639977668143 0 0 0 0 -113.24552351683087 45.853961016479502 0 45.853961016479502 85.444559968328122 0 0 0 0 -33.396725565226006 47.179254136889767 0 47.179254136889767 35.679625650621347 0 0 0 0 43.741236114685307 29.219939940963656 0 29.219939940963656 -28.301149312991868 0 0 0 0 6.4876203477179359 2.7813962329465767 0 2.7813962329465767 -5.6792440927921737 0 0 0 0 17.165940499238033 12.247654261212432 0 12.247654261212432 2.975276972192626 0 0 0 0 38.388284938824654 -40.578959573140445 0 -40.578959573140445 -3.4584658107242419 0 0 0 0 103.50775344513386 -16.61550351726045 0 -16.61550351726045 -29.410456283853279 0 0 0 0 -110.96279537785449 -51.005484395968836 0 -51.005484395968836 24.768979000057925 0 0 0 0 0.83586855437076935 2.7302767093746354 0 2.7302767093746354 -2.7580281510421609 0 0 0 0 -2.1403914280967911 -40.358649895083651 0 -40.358649895083651 -74.554201695428219 0 0 0 0 -125.72453470325854 36.689172106393244 0 36.689172106393244 -50.643037696518036 0 0 0 0 -32.500125229453261 -10.147755235007423 0 -10.147755235007423 -2.1262445556167222 0 0 0 0 -210.41460013847973 -85.615842043346902 0 -85.615842043346902 48.240607426096517 0 0 0 0 -255.03648946320754 59.798534703579612 0 59.798534703579612 48.234246311246125 0 0 0 0 -0.13374932145291041 -0.11168096830121499 0 -0.11168096830121499 -0.91654873108892687 0 0 0 0 -128.73232206587272 -21.861826488684756 0 -21.861826488684756 14.882132660806576 0 0 0 0 -78.811738628348394 10.960783731998617 0 10.960783731998617 -63.814805895960944 0 0 0 0 -128.03137215664145 69.891600780555549 0 69.891600780555549 -45.809485387848326 0 0 0 0 -56.940381413398427 -20.357427885604125 0 -20.357427885604125 -8.9681441578414933 0 0 0 0 -36.233662881320924 16.168636650459575 0 16.168636650459575 -21.514612260712966 0 0 0 0 -83.925446748646209 13.893563584144317 0 13.893563584144317 -13.525636223161627 0 0 0 0 63.057832716978737 22.19834031544562 0 22.19834031544562 -53.948726166180791 0 0 0 0 67.095150638862833 39.810142948734558 0 39.810142948734558 -12.419188083508715 0 0 0 0 -78.749253450732795 -77.302786478745219 0 -77.302786478745219 53.214949377916867 0 0 0 0 28.731991039221612 -10.67022272568412 0 -10.67022272568412 -34.725223272789322 0 0 0 0 50.052184406471497 15.40834780021278 0 15.40834780021278 -23.266757386650823 0 0 0 0 68.659483664334402 -32.211458849582385 0 -32.211458849582385 27.905104933670827 0 0 0 0 -40.286786659009522 20.600921717503226 0 20.600921717503226 -5.5049613283096548 0 0 0 0 366.15915267944365 -325.24270875331547 0 -325.24270875331547 36.608948408536662 0 0 0 0 342.46724219565658 -13.104265577989167 0 -13.104265577989167 24.738467373695471 0 0 0 0 -4.0284553595811303 8.5721626625037537 0 8.5721626625037537 13.652128758407514 0 0 0 0 14.170029229993489 6.6462174240628258 0 6.6462174240628258 -0.3686872268989495 0 0 0 0 12.702865223539447 65.508415662005675 0 65.508415662005675 -49.743533128903465 0 0 0 0 1175.9965145247916 144.26531715168437 0 144.26531715168437 168.48537856431975 0 0 0 0 1059.768502268369 45.548883872756882 0 45.548883872756882 -0.024045767733892984 0 0 0 0 1498.7390175183089 182.80984306605171 0 182.80984306605171 -76.080901391588711 0 0 0 0 828.43447933479183 267.63099200848416 0 267.63099200848416 52.678706362260876 0 0 0 0 320.398442200305 141.31593744997892 0 141.31593744997892 95.621961611248949 0 0 0 0 1163.0052075922431 443.55669002750847 0 443.55669002750847 44.762009948381234 0 0 0 0 -314.7615199736756 384.68722458314119 0 384.68722458314119 69.162120405128576 0 0 0 0 388.96851393916586 111.31471954851389 0 111.31471954851389 0.73243800503975365 0 0 0 0 144.80680038018909 -13.236648031753759 0 -13.236648031753759 -21.203078799454673 0 0 0 0 49.380220507056947 -104.58210320582455 0 -104.58210320582455 88.084330883485151 0 0 0 0 444.17918304226987 11.596512597093072 0 11.596512597093072 0.2570097382278882 0 0 0 0 460.9680565016788 -34.312057447156995 0 -34.312057447156995 98.696249860164286 0 0 0 0 458.33692595622233 -51.911539557812105 0 -51.911539557812105 20.435511943902327 0 0 0 0 500.54298019089765 -50.912723876804861 0 -50.912723876804861 0.0039757578217680771 0 0 0 0 466.7183415571526 -139.20442817064287 0 -139.20442817064287 -7.5812074174763069 0 0 0 0 468.17032109922002 -113.43982230608188 0 -113.43982230608188 114.02597366101899 0 0 0 0 712.81617523774548 -88.206865003082456 0 -88.206865003082456 -112.88403382172544 0 0 0 0 1.2824678499736137 -1.1059586098067911 0 -1.1059586098067911 0.55913931010452267 0 0 0 0 375.93548539497715 -44.670985754725621 0 -44.670985754725621 -111.42870681067188 0 0 0 0 831.20029853775213 -379.01569235434823 0 -379.01569235434823 35.927211860700027 0 0 0 0 738.91358722708173 138.05438230937995 0 138.05438230937995 -312.57654176960057 0 0 0 0 673.32865840040176 357.9886185301873 0 357.9886185301873 236.15096003836902 0 0 0 0 71.93778464756906 130.03142109366013 0 130.03142109366013 -8.4764622247769239 0 0 0 0 390.89271804604505 -103.78842699901443 0 -103.78842699901443 -510.16694709765022 0 0 0 0 321.02698838497236 -269.80682638511973 0 -269.80682638511973 17.054642346194726 0 0 0 0 1.3604722443150763 -0.97022496484873955 0 -0.97022496484873955 -3.676547786510505 0 0 0 0 234.41344362021482 451.54396089310865 0 451.54396089310865 -78.380518431559835 0 0 0 0 999.7970354523859 -342.87264083631487 0 -342.87264083631487 -172.55001361356437 0 0 0 0 15.36906845359772 -177.24241670942342 0 -177.24241670942342 83.537644672531314 0 0 0 0 137.51066433711821 -149.90394125748713 0 -149.90394125748713 22.978252563842261 0 0 0 0 200.05411176187408 10.62401638338099 0 10.62401638338099 -47.281922487545216 0 0 0 0 122.36278085188087 -31.397549744092075 0 -31.397549744092075 -64.548476762248129 0 0 0 0 109.08863487832423 23.825364933417546 0 23.825364933417546 -8.0693481520490025 0 0 0 0 127.6361164439586 36.686508532731068 0 36.686508532731068 -24.897835215255441 0 0 0 0 132.75225600709018 43.937124573802436 0 43.937124573802436 8.8338227946128427 0 0 0 0 137.55369014692405 -48.399623694345337 0 -48.399623694345337 -203.52037570052158 0 0 0 0 4.3097344144663623 4.3375019950729694 0 4.3375019950729694 -1.4215762742813465 0 0 0 0 117.47616926841874 45.624011261340783 0 45.624011261340783 -6.2694920569426813 0 0 0 0 85.522735573631508 73.745070968421246 0 73.745070968421246 25.128288435116417 0 0 0 0 79.670572759248898 29.484522601292497 0 29.484522601292497 -11.128845737068161 0 0 0 0 24.167247703735484 46.694136472991886 0 46.694136472991886 23.442306030529856 0 0 0 0 32.405967354834374 21.958972369182298 0 21.958972369182298 -13.292374565866531 0 0 0 0 42.313547399913659 -15.014356661637407 0 -15.014356661637407 -196.95134486023068 0 0 0 0 12.519796761722318 7.5755769424619572 0 7.5755769424619572 1.7495302086091784 0 0 0 0 -6.5619276972120133 77.71835305110352 0 77.71835305110352 -85.592241377864411 0 0 0 0 250.15980379780194 215.14769106242372 0 215.14769106242372 -110.67316530402331 0 0 0 0 0.57865351212456773 -0.36599629949490975 0 -0.36599629949490975 0.0042163988433046029 0 0 0 0 103.97179915751622 21.077547671312317 0 21.077547671312317 -127.14710431165167 0 0 0 0 221.29307014667029 43.358169429555034 0 43.358169429555034 -159.2108934176581 0 0 0 0 8.8575159640895436 -60.70762917813272 0 -60.70762917813272 -103.41611750508798 0 0 0 0 67.597455055612954 58.457443634882793 0 58.457443634882793 -26.103349573724813 0 0 0 0 217.77560574347808 -13.960273570290383 0 -13.960273570290383 -48.241832312293695 0 0 0 0 1.566988347192904 -1.552224977870182 0 -1.552224977870182 0.5496117557370972 0 0 0 0 78.559989436966134 -98.618424756141536 0 -98.618424756141536 246.78992573884176 0 0 0 0 120.28052860761818 26.731666466994909 0 26.731666466994909 60.751448349244299 0 0 0 0 177.22133211581786 -7.8115638740173381 0 -7.8115638740173381 -115.48862856653136 0 0 0 0 68.231135947457005 164.3752568736835 0 164.3752568736835 -207.32445491370561 0 0 0 0 1913.5291615231617 -52.903796321094397 0 -52.903796321094397 -48.62291303549442 0 0 0 0 3.5415920217963048 3.129435841604689 0 3.129435841604689 1.741936894447492 0 0 0 0 843.50319181962914 24.702419496974322 0 24.702419496974322 -10.475349374568395 0 0 0 0 6.7385621892794632 7.8709692243523151 0 7.8709692243523151 3.1866627208317335 0 0 0 0 840.40417669909402 23.866163140912494 0 23.866163140912494 13.758851025147237 0 0 0 0 -219.53739231034706 247.47496365787669 0 247.47496365787669 -54.685341722728367 0 0 0 0 437.18058071481937 -130.54699167080082 0 -130.54699167080082 -34.155035735085264 0 0 0 0 198.99191989146493 100.52607034977899 0 100.52607034977899 66.980173207911776 0 0 0 0 36.380345998493127 -12.111870884397721 0 -12.111870884397721 4.0771278811588569 0 0 0 0 364.38145924785567 16.06642072706785 0 16.06642072706785 -7.0167997447972681 0 0 0 0 353.83573687267562 64.864900615951598 0 64.864900615951598 9.1655760937184994 0 0 0 0 1032.7680964863757 9.8862533230218546 0 9.8862533230218546 -95.193913847124492 0 0 0 0 790.89755961175615 227.37807530492864 0 227.37807530492864 24.495720225544126 0 0 0 0 1272.9574052463358 403.52484457928585 0 403.52484457928585 -31.749929501342699 0 0 0 0 980.4179266359024 238.28216114380032 0 238.28216114380032 -72.222768726643309 0 0 0 0 1456.1582407431742 354.8046023499117 0 354.8046023499117 66.428327808229909 0 0 0 0 1500.4944018497329 296.66449796405334 0 296.66449796405334 -80.888021574568938 0 0 0 0 2.8515054383614213 0.3990483764079471 0 0.3990483764079471 -1.089552611532066 0 0 0 0 1499.8828546464399 -274.55951239759423 0 -274.55951239759423 41.412224862121597 0 0 0 0 999.10636691834225 -12.798147489643782 0 -12.798147489643782 64.671972806630549 0 0 0 0 996.23411547829892 -57.514158858272793 0 -57.514158858272793 129.42976480388086 0 0 0 0 620.81662051125022 -163.60522325120863 0 -163.60522325120863 114.50138294397991 0 0 0 0 969.26952214352787 6.4510038303601505 0 6.4510038303601505 42.644821461214406 0 0 0 0 744.44393885042518 -155.54672976339282 0 -155.54672976339282 106.8069443181052 0 0 0 0 449.58372335725289 -296.43977077947471 0 -296.43977077947471 308.02990065360069 0 0 0 0 229.43692498693417 -183.14337132559439 0 -183.14337132559439 334.01417546518786 0 0 0 0 1172.2211416807841 -295.64655635949441 0 -295.64655635949441 130.10091678984119 0 0 0 0 1038.2484439639411 -722.82779543740014 0 -722.82779543740014 590.77208699230368 0 0 0 0 173.92749514113893 -268.9686794108685 0 -268.9686794108685 460.58027307245055 0 0 0 0 597.47015781197842 -437.15501564224274 0 -437.15501564224274 429.90274990687521 0 0 0 0 2324.1799057486714 47.179720565043567 0 47.179720565043567 30.265386906784585 0 0 0 0 1116.3810294585569 13.59428996997852 0 13.59428996997852 37.961570472537339 0 0 0 0 1499.3828888980147 284.59010448948612 0 284.59010448948612 862.64834011991309 0 0 0 0 1713.5798316610362 813.10850820920916 0 813.10850820920916 196.64300569578774 0 0 0 0 58.84854422180797 -316.06350790755005 0 -316.06350790755005 643.8763869988237 0 0 0 0 9.1901278966267625 -3.8314351236997091 0 -3.8314351236997091 2.6714630135561532 0 0 0 0 13.853013999781979 -39.04363842704231 0 -39.04363842704231 414.78866065529189 0 0 0 0 97.997008502883546 -65.97993054702124 0 -65.97993054702124 -188.61181736230969 0 0 0 0 946.68271574184746 443.96104611646865 0 443.96104611646865 98.884508734697363 0 0 0 0 -8.5499550068266217 208.1229785382838 0 208.1229785382838 89.797377733611938 0 0 0 0 27.23174716829817 86.984375057577495 0 86.984375057577495 68.010932818303758 0 0 0 0 22.273581447214127 -11.295606473775003 0 -11.295606473775003 5.9184431853399548 0 0 0 0 80.974338789390458 -14.660676580276913 0 -14.660676580276913 -59.297827007080741 0 0 0 0 46.878420400033065 35.225178460459347 0 35.225178460459347 -12.895847041817888 0 0 0 0 53.663385072915844 14.231889221864776 0 14.231889221864776 44.865154156517747 0 0 0 0 8.2211305942164472 -18.047843745602336 0 -18.047843745602336 54.459105685124541 0 0 0 0 59.102504874885199 -6.6238652758834178 0 -6.6238652758834178 64.328348071435812 0 0 0 0 49.139067152405914 0.28770283713333811 0 0.28770283713333811 68.88013702508988 0 0 0 0 26.702816134937393 -74.055805735961911 0 -74.055805735961911 216.43465243350556 0 0 0 0 14.041824945972621 -2.308102729664256 0 -2.308102729664256 151.39132137209549 0 0 0 0 27.953341879336222 -103.55256380296953 0 -103.55256380296953 182.80215879234856 0 0 0 0 29.882933708271594 -89.445520466811843 0 -89.445520466811843 281.09715220684097 0 0 0 0 22.925705702436971 -35.660027411701861 0 -35.660027411701861 256.83087153673523 0 0 0 0 242.3805650656941 -175.09217901003382 0 -175.09217901003382 354.74494467627096 0 0 0 0 50.879312101413234 -101.98952688731876 0 -101.98952688731876 378.02758076060417 0 0 0 0 65.635921889035671 -83.287732349362557 0 -83.287732349362557 224.03781776121542 0 0 0 0 71.86240268439542 -159.25175095985261 0 -159.25175095985261 229.99569160465489 0 0 0 0 79.722942103595415 -189.95284833369504 0 -189.95284833369504 344.15643101738647 0 0 0 0 221.40169736408279 -198.14455054922848 0 -198.14455054922848 306.49916265781968 0 0 0 0 147.44571163815272 -206.11403004273416 0 -206.11403004273416 234.54233415232568 0 0 0 0 247.30155068200111 -145.85215873278605 0 -145.85215873278605 228.58480649207874 0 0 0 0 15.556411868827126 -199.46076259945687 0 -199.46076259945687 259.38650971646149 0 0 0 0 30.670171882695286 -192.4031468639165 0 -192.4031468639165 157.63674927904987 0 0 0 0 34.645382032173075 -234.37217640618525 0 -234.37217640618525 134.28461550855917 0 0 0 0 -3.9462780171525083 -198.96069058875707 0 -198.96069058875707 210.50084479448654 0 0 0 0 28.220924792338337 -163.28305622496509 0 -163.28305622496509 189.92085203405293 0 0 0 0 29.955766709557338 -136.88883732642987 0 -136.88883732642987 230.48075199469781 0 0 0 0 23.439624239807017 -171.36153602717138 0 -171.36153602717138 274.93129796835149 0 0 0 0 114.19747578154784 -166.77159189674398 0 -166.77159189674398 111.9577937151962 0 0 0 0 62.898910379102745 -155.07870722879454 0 -155.07870722879454 142.87059202550157 0 0 0 0 71.272416943633289 -137.7732961344019 0 -137.7732961344019 93.321152019068677 0 0 0 0 30.396238795020508 -135.94008344328574 0 -135.94008344328574 140.80297960858343 0 0 0 0 75.739161181161762 -199.4354463996265 0 -199.4354463996265 143.37495928282016 0 0 0 0 77.409550754469819 -200.38953061755143 0 -200.38953061755143 86.699570765605813 0 0 0 0 132.40405201833346 -207.37578435231947 0 -207.37578435231947 60.881194434498113 0 0 0 0 196.63918429430487 -156.26535082804313 0 -156.26535082804313 46.321506795657797 0 0 0 0 187.73441270686817 -136.99276535203472 0 -136.99276535203472 4.6592080028308516 0 0 0 0 263.02029870656406 -74.874238543401503 0 -74.874238543401503 -12.496150156507294 0 0 0 0 210.06876208703761 -61.40465313768857 0 -61.40465313768857 1.8044688571598044 0 0 0 0 122.89652564452535 -37.41731762553114 0 -37.41731762553114 -2.5428153021505295 0 0 0 0 121.94864769279684 -134.38775449193182 0 -134.38775449193182 40.202481320908646 0 0 0 0 113.59445821079862 -108.7394394757905 0 -108.7394394757905 62.703310119332173 0 0 0 0 91.427739724896242 -70.852286749627339 0 -70.852286749627339 64.801614752993828 0 0 0 0 91.088678953259659 -50.272800542753657 0 -50.272800542753657 22.193626079228352 0 0 0 0 140.0827192791985 -88.481376831664647 0 -88.481376831664647 33.639346426138218 0 0 0 0 73.37106417629002 -28.95459248685529 0 -28.95459248685529 29.848361693451579 0 0 0 0 0.93947580172797274 0.27096484085749495 0 0.27096484085749495 -0.22302361483586619 0 0 0 0 87.571194890299012 -56.801478168044014 0 -56.801478168044014 10.485403728941037 0 0 0 0 78.461049784833449 -24.953346432046146 0 -24.953346432046146 41.554105140244943 0 0 0 0 75.169399004249499 -63.947803620892358 0 -63.947803620892358 104.38277728370986 0 0 0 0 77.686987452565518 -52.284093512898835 0 -52.284093512898835 40.989078105113379 0 0 0 0 84.250135410360144 -111.43303003662204 0 -111.43303003662204 111.73270000442949 0 0 0 0 87.310363675569533 -89.117280821140184 0 -89.117280821140184 48.061047553288972 0 0 0 0 52.650552732426149 -98.104733622207732 0 -98.104733622207732 170.68796904163082 0 0 0 0 53.533055404092011 -85.145023541343335 0 -85.145023541343335 89.238157033375956 0 0 0 0 25.732412363063077 -54.053484513098304 0 -54.053484513098304 118.71984235506352 0 0 0 0 58.486956339402241 -36.723481138193165 0 -36.723481138193165 127.87187802813628 0 0 0 0 58.392726483063598 -30.105706958749579 0 -30.105706958749579 65.803497836845509 0 0 0 0 84.927016202811501 -21.090429615182074 0 -21.090429615182074 43.099626818979232 0 0 0 0 78.398728007581667 -26.587275449386198 0 -26.587275449386198 56.503949559861212 0 0 0 0 77.252537397202104 -6.5466080195205905 0 -6.5466080195205905 53.909221526115857 0 0 0 0 81.396081439794216 -8.8802224505880076 0 -8.8802224505880076 19.780524922395671 0 0 0 0 114.76362352794968 2.664492601321399 0 2.664492601321399 23.21473565025326 0 0 0 0 82.564100107767445 16.429551868171075 0 16.429551868171075 18.86661003250174 0 0 0 0 67.641120144791785 5.7628104193997842 0 5.7628104193997842 38.14776136657656 0 0 0 0 72.699866052207653 2.8361359543605431 0 2.8361359543605431 35.736449846535834 0 0 0 0 72.618142420091317 -13.248398892783257 0 -13.248398892783257 -13.002079638872601 0 0 0 0 67.438895377072186 23.639281904112295 0 23.639281904112295 1.1968874176200188 0 0 0 0 86.289213793046656 3.4465423675505917 0 3.4465423675505917 -23.755414927783931 0 0 0 0 76.313309682860563 1.0899805164840473 0 1.0899805164840473 6.2120478970477961 0 0 0 0 83.338920836271427 19.391477628780194 0 19.391477628780194 -38.304161393997219 0 0 0 0 75.326885745322215 32.802209569518254 0 32.802209569518254 -29.179568945609049 0 0 0 0 79.992595099472965 28.003945473855765 0 28.003945473855765 -26.456663785755381 0 0 0 0 59.263982750351715 31.947075216161693 0 31.947075216161693 -27.174389993140494 0 0 0 0 35.612450991186115 21.401558908504605 0 21.401558908504605 -12.573727676462529 0 0 0 0 87.060185191403434 28.843546910930058 0 28.843546910930058 -5.100669198533069 0 0 0 0 77.546080143307336 15.627457560198536 0 15.627457560198536 -33.853873265766083 0 0 0 0 67.375139249605127 17.770112895298553 0 17.770112895298553 -28.692550630401456 0 0 0 0 67.99251559250115 19.34127213163265 0 19.34127213163265 -24.983452535479046 0 0 0 0 64.935167484341946 15.786676133797755 0 15.786676133797755 -23.266466325341071 0 0 0 0 -7.2845183980040531 6.2734141536208554 0 6.2734141536208554 3.5282902672620176 0 0 0 0 116.60500413142609 -31.055395186471358 0 -31.055395186471358 2.6039665443240665 0 0 0 0 74.836751374721644 -16.675642833604115 0 -16.675642833604115 21.993170660353201 0 0 0 0 78.394184061293345 -32.689362018254315 0 -32.689362018254315 28.829135852489344 0 0 0 0 10.701065216458446 -1.3962752900364137 0 -1.3962752900364137 -0.25234444266818201 0 0 0 0 51.412519085808569 11.570576664511755 0 11.570576664511755 -10.492660526045931 0 0 0 0 85.204247243331338 -6.5655133093054019 0 -6.5655133093054019 -30.283675320086331 0 0 0 0 60.972326415925636 6.049816618652585 0 6.049816618652585 -15.503628364791894 0 0 0 0 54.992337311887241 -3.7460816435284414 0 -3.7460816435284414 -5.7162094651666848 0 0 0 0 64.134658588169259 1.2537424620593356 0 1.2537424620593356 -21.654017587555927 0 0 0 0 62.743479356464377 -1.8986841814439117 0 -1.8986841814439117 -25.150117916442014 0 0 0 0 64.683941728013451 15.02966432652056 0 15.02966432652056 -24.853971741980331 0 0 0 0 65.260161833022721 2.7464151016426968 0 2.7464151016426968 -30.537927974939066 0 0 0 0 62.425856525194831 6.277444120558016 0 6.277444120558016 -21.904810653241384 0 0 0 0 80.889420988896745 4.6419304174073659 0 4.6419304174073659 -31.455812951349003 0 0 0 0 65.762167934088211 -3.3929113117453085 0 -3.3929113117453085 -26.373543373894336 0 0 0 0 69.885876480839215 -7.263315286508373 0 -7.263315286508373 -44.137735604971567 0 0 0 0 102.41900480901677 32.046513736913539 0 32.046513736913539 -31.283411377991797 0 0 0 0 100.42665905787726 8.4246088237222239 0 8.4246088237222239 -52.03452242440062 0 0 0 0 -0.79452852603228052 1.358191715096396 0 1.358191715096396 0.0029346975827042598 0 0 0 0 2.9078654521435965 -63.660987679923551 0 -63.660987679923551 -46.162634289195466 0 0 0 0 117.95653639280499 26.952097560761786 0 26.952097560761786 -2.6682371312504074 0 0 0 0 96.598107598252682 12.855209033849405 0 12.855209033849405 -21.227660784784803 0 0 0 0 54.384822386768064 -6.7812026343401612 0 -6.7812026343401612 -16.531998615036855 0 0 0 0 72.576997581742035 3.4867768057591775 0 3.4867768057591775 2.8473762785588406 0 0 0 0 13.205823528914934 1.5330842266900504 0 1.5330842266900504 -2.1932884386669596 0 0 0 0 53.345929554059694 11.750683945045694 0 11.750683945045694 -0.47273621751446626 0 0 0 0 27.175529820036324 12.494963895701396 0 12.494963895701396 -13.522842057323093 0 0 0 0 28.155483686758089 -1.7896151775557883 0 -1.7896151775557883 -15.385081654049372 0 0 0 0 30.040420454401811 1.1663706242111758 0 1.1663706242111758 -10.895701499679268 0 0 0 0 39.624067448232381 5.962735895084279 0 5.962735895084279 -19.293088997592349 0 0 0 0 38.239719933338307 1.2095573361781682 0 1.2095573361781682 -5.2352567875004574 0 0 0 0 54.749496628013461 9.6254468026716822 0 9.6254468026716822 -10.546491766873482 0 0 0 0 76.656249992076482 50.406334214632125 0 50.406334214632125 -46.339619770477384 0 0 0 0 49.017784080846468 -33.780811736650776 0 -33.780811736650776 35.338671056130806 0 0 0 0 39.778869728630525 31.077332875984666 0 31.077332875984666 13.649861448688171 0 0 0 0 106.91553702564852 -60.31398231179196 0 -60.31398231179196 26.182240956976102 0 0 0 0 131.85779626775184 20.04284704695965 0 20.04284704695965 -23.573405597539931 0 0 0 0 99.111168561918021 -0.45260834765747404 0 -0.45260834765747404 -2.9115953115119737 0 0 0 0 193.78551053366391 -55.181346912058302 0 -55.181346912058302 -18.273612990194351 0 0 0 0 156.82286131920409 29.399205190691987 0 29.399205190691987 -2.5070931673158157 0 0 0 0 25.457101158342994 11.860550407612038 0 11.860550407612038 -13.349965537302978 0 0 0 0 104.14937627482868 40.683923119674205 0 40.683923119674205 -12.191085893805848 0 0 0 0 4.2525174018194463 3.6214370321009994 0 3.6214370321009994 -3.6924041872225608 0 0 0 0 132.49222478832598 -9.6447590078771466 0 -9.6447590078771466 7.4128951591495067 0 0 0 0 5.5014771513956298 1.895670571172289 0 1.895670571172289 -8.499556308640253 0 0 0 0 123.56596000395803 7.6513749769951573 0 7.6513749769951573 -20.813902773444397 0 0 0 0 139.15600208853721 -23.529634511007771 0 -23.529634511007771 18.442311981469544 0 0 0 0 173.746635713469 -8.8360231516108172 0 -8.8360231516108172 10.330925654820476 0 0 0 0 134.98070012627431 -6.2882072116792678 0 -6.2882072116792678 10.862609616254222 0 0 0 0 220.68152452238428 -1.710544293251818 0 -1.710544293251818 -11.050287006068736 0 0 0 0 -50.010891184874708 -96.344438557590195 0 -96.344438557590195 -120.10691504400666 0 0 0 0 30.748514592371066 -108.38882170602301 0 -108.38882170602301 -160.86363804303778 0 0 0 0 63.882787807546265 -120.25711441101146 0 -120.25711441101146 -158.5991727914967 0 0 0 0 96.683927258220137 -165.54658471484737 0 -165.54658471484737 -97.703571801456064 0 0 0 0 373.40718669015041 -32.405065677209222 0 -32.405065677209222 -5.7836084951992461 0 0 0 0 -436.47191486217707 -308.64128009513081 0 -308.64128009513081 -2.0867773641971326 0 0 0 0 -0.043961035698472983 -0.15402679395901231 0 -0.15402679395901231 -2.8149051733541937 0 0 0 0 339.2138264255118 -15.96609454835426 0 -15.96609454835426 -9.5102328125850377 0 0 0 0 334.34743611701924 -68.160598107390086 0 -68.160598107390086 35.851855478318384 0 0 0 0 -159.53686499221192 -282.11098100193095 0 -282.11098100193095 279.23494899540549 0 0 0 0 -148.12113904349462 -91.399150991935187 0 -91.399150991935187 352.59718794621642 0 0 0 0 240.86523715103613 -431.46090709242458 0 -431.46090709242458 -66.373226251705773 0 0 0 0 174.05641918726815 -7.2623344679616295 0 -7.2623344679616295 -52.7040864712435 0 0 0 0 -136.80653201881614 46.620848209211346 0 46.620848209211346 116.23700493288106 0 0 0 0 206.01425128432675 -363.35342486835521 0 -363.35342486835521 221.81429465938743 0 0 0 0 -0.15389788922598413 0.1068367080386281 0 0.1068367080386281 4.9216560067183375 0 0 0 0 47.237404856623471 -36.264329997879372 0 -36.264329997879372 -33.404618626830825 0 0 0 0 57.466961102567439 -87.67655877525965 0 -87.67655877525965 48.201445085708897 0 0 0 0 -83.141346149201127 -60.403470709337057 0 -60.403470709337057 315.94475033150616 0 0 0 0 -11.184732183886808 -50.929361583682862 0 -50.929361583682862 40.879276683128182 0 0 0 0 162.97991360840933 -270.57059091285771 0 -270.57059091285771 218.66180869105983 0 0 0 0 371.25746701960088 -80.032950047056374 0 -80.032950047056374 -19.145636981448874 0 0 0 0 132.15494745249089 -54.009385572621682 0 -54.009385572621682 -9.572160585670872 0 0 0 0 123.56573220130304 -44.281902798599901 0 -44.281902798599901 -20.104390222657116 0 0 0 0 186.84216089301844 29.291002343465777 0 29.291002343465777 -8.7947998213046503 0 0 0 0 59.942944187683679 1.3358376820627313 0 1.3358376820627313 -10.815052113548575 0 0 0 0 29.075098066019564 36.778686715848153 0 36.778686715848153 42.034174630131702 0 0 0 0 146.76266511994436 -324.71153501515437 0 -324.71153501515437 -1.2275752780725497 0 0 0 0 4.7312651670954011 -1.485728462827316 0 -1.485728462827316 0.46677000798817425 0 0 0 0 226.82197100324629 91.778833703803684 0 91.778833703803684 30.349257584295628 0 0 0 0 404.5014069942481 -2.1808512592357943 0 -2.1808512592357943 84.358334311630983 0 0 0 0 218.98896788234197 -242.24937218247169 0 -242.24937218247169 -16.033250497144763 0 0 0 0 478.04977475074247 -203.68851561601934 0 -203.68851561601934 -26.855042610604642 0 0 0 0 272.53321903578762 -48.571122381859176 0 -48.571122381859176 30.049886977538328 0 0 0 0 357.05335130015737 -138.10712728438529 0 -138.10712728438529 3.8000744995821947 0 0 0 0 164.77196645936783 -225.88313146926686 0 -225.88313146926686 56.890292633861932 0 0 0 0 94.044990093654633 -309.49496611971642 0 -309.49496611971642 50.628584319486095 0 0 0 0 9.9109271686247666 -272.85324231908248 0 -272.85324231908248 5.8015271088030431 0 0 0 0 -14.607561405082379 -184.10796065342907 0 -184.10796065342907 51.564774612480619 0 0 0 0 -29.416392583596462 -264.23710562602469 0 -264.23710562602469 142.06975202117775 0 0 0 0 16.068734839100216 -257.59369613292938 0 -257.59369613292938 154.16829401581151 0 0 0 0 151.99639284505247 -192.27409990338572 0 -192.27409990338572 148.93438572050559 0 0 0 0 6.1421472826041281 -144.10531581971509 0 -144.10531581971509 134.48994389274105 0 0 0 0 58.387189090497486 -124.92613257962205 0 -124.92613257962205 110.44748702630625 0 0 0 0 139.71097935482248 -239.35248084254033 0 -239.35248084254033 13.621708415995101 0 0 0 0 -31.143474261256415 -90.912265143866847 0 -90.912265143866847 -98.140252062215723 0 0 0 0 100.83145752788914 -171.8520887933696 0 -171.8520887933696 -547.16104670510481 0 0 0 0 17.40526810719166 -8.4729489160481535 0 -8.4729489160481535 -750.49870830572195 0 0 0 0 -115.26500106678577 -374.4777320457938 0 -374.4777320457938 -350.45807160280287 0 0 0 0 -90.967417163195933 -18.868722524792247 0 -18.868722524792247 -338.91788670598953 0 0 0 0 -65.265293707561796 -236.96372568608763 0 -236.96372568608763 46.666540309717554 0 0 0 0 10.537137736632758 -8.7603607636411311 0 -8.7603607636411311 2.0660456617579257 0 0 0 0 61.188035711600605 26.619448725510324 0 26.619448725510324 3.2814196250510577 0 0 0 0 20.87994194532439 15.85622987429781 0 15.85622987429781 26.817534222538598 0 0 0 0 16.122219390101918 -6.3412677518363125 0 -6.3412677518363125 0.8903636334193834 0 0 0 0 12.257347518401843 -2.0111961915707237 0 -2.0111961915707237 -1.2158341583381342 0 0 0 0 25.81737049678668 -10.39274793002545 0 -10.39274793002545 -12.427867094110752 0 0 0 0 2.6218884658355819 0.21678461480809119 0 0.21678461480809119 -1.2848457269071787 0 0 0 0 -483.65049127481689 -518.01952051497449 0 -518.01952051497449 -601.98286269068672 0 0 0 0 4.3739626686151212 0.011757716777879068 0 0.011757716777879068 -2.5186107663455246 0 0 0 0 577.96685536115547 433.4716997521615 0 433.4716997521615 204.03916192293772 0 0 0 0 -40.225256368345072 -23.766045799807824 0 -23.766045799807824 60.504580224097239 0 0 0 0 2.4447856869669096 0.39927478291438945 0 0.39927478291438945 -3.8112883930405008 0 0 0 0 1500.9656268490701 -291.95825938004407 0 -291.95825938004407 -68.242023840654625 0 0 0 0 1.8339586762133973 1.7054390149311871 0 1.7054390149311871 -0.21590849375376417 0 0 0 0 69.45962457972928 10.085543837133045 0 10.085543837133045 -52.84048260077553 0 0 0 0 -32.341884249439318 143.0430522103448 0 143.0430522103448 -83.246536118082162 0 0 0 0 1475.5013133404136 367.06813282475503 0 367.06813282475503 -111.66152099426692 0 0 0 0 6.5123903671008918 -0.42747763498273805 0 -0.42747763498273805 -0.41669931577139752 0 0 0 0 1200.6219111710489 576.86445218438507 0 576.86445218438507 -241.51770766213627 0 0 0 0 176.89716269091878 -100.55695916875042 0 -100.55695916875042 39.680257551217984 0 0 0 0 1496.9153352373162 441.3899716845869 0 441.3899716845869 -530.95662901752428 0 0 0 0 1109.1933506836212 247.62414385328714 0 247.62414385328714 -616.20038283683516 0 0 0 0 1246.9592436779421 258.83663183513863 0 258.83663183513863 -479.41513110591779 0 0 0 0 1131.9085035417229 306.69605173763563 0 306.69605173763563 -498.44080448018298 0 0 0 0 592.6989271168859 344.97360711853412 0 344.97360711853412 -327.35492122649083 0 0 0 0 640.12917587527772 134.91604791572206 0 134.91604791572206 -417.5451605683586 0 0 0 0 221.32454485670314 394.5360022815745 0 394.5360022815745 -528.31593137190646 0 0 0 0 -288.59734128964556 98.978262262588487 0 98.978262262588487 -95.283761989021968 0 0 0 0 277.30165514345754 260.16181115912866 0 260.16181115912866 -266.3851185127271 0 0 0 0 160.85951784750068 -70.856956379908866 0 -70.856956379908866 -129.00408644642744 0 0 0 0 641.83651049209584 260.28150701835716 0 260.28150701835716 -312.23702266739508 0 0 0 0 635.99611315780203 59.74857062422484 0 59.74857062422484 -196.18414790451106 0 0 0 0 1114.66664513469 292.51875150835099 0 292.51875150835099 -399.12851914704038 0 0 0 0 1111.826585684641 -13.232135088739938 0 -13.232135088739938 -208.27026077837513 0 0 0 0 652.49315863259835 -57.712727103416796 0 -57.712727103416796 -16.372119531226417 0 0 0 0 733.89691891518669 86.351143380034159 0 86.351143380034159 -96.760868285691458 0 0 0 0 344.010342520829 74.04876771419606 0 74.04876771419606 -21.318665667800133 0 0 0 0 358.04672010273498 18.511819447090033 0 18.511819447090033 -106.70213073039091 0 0 0 0 413.52169083407352 -119.81965086346099 0 -119.81965086346099 92.00383104805951 0 0 0 0 406.40473924802245 -107.66267556251154 0 -107.66267556251154 146.39194156379097 0 0 0 0 708.6811739551049 3.7090773263264509 0 3.7090773263264509 1.0385767668621497 0 0 0 0 743.28170723875519 -73.991492032784492 0 -73.991492032784492 55.078298673452764 0 0 0 0 1035.7688590839753 -28.369499401832741 0 -28.369499401832741 -75.438806892280127 0 0 0 0 1062.9555125499901 -106.97345753115697 0 -106.97345753115697 -6.3877122863247138 0 0 0 0 2.0994803935147175 0.22177381681174069 0 0.22177381681174069 -1.0087759431371808 0 0 0 0 1640.122723622022 -191.67021084280913 0 -191.67021084280913 -317.45178417495936 0 0 0 0 1499.9761841686741 343.34261452669261 0 343.34261452669261 -666.46074728933309 0 0 0 0 1294.9507509182731 -264.69294204741425 0 -264.69294204741425 88.402968118256737 0 0 0 0 1046.2699774473731 31.613029706459884 0 31.613029706459884 -148.44943173065803 0 0 0 0 1591.2698020131284 -48.919674378303881 0 -48.919674378303881 -357.56657244013081 0 0 0 0 0.94811635113819648 -71.082511677751882 0 -71.082511677751882 191.6146844548748 0 0 0 0 -1.7606046341352339 -45.899783853196368 0 -45.899783853196368 20.316975073549656 0 0 0 0 4.8320393888821371 -0.67638610054900283 0 -0.67638610054900283 0.023897995826414498 0 0 0 0 244.23219185251583 98.605444088712375 0 98.605444088712375 33.442902662817914 0 0 0 0 780.06510852118663 97.135374874850186 0 97.135374874850186 -45.580207847694282 0 0 0 0 2.8726064815077734 -0.0044262760132411927 0 -0.0044262760132411927 -0.1891447589081916 0 0 0 0 328.82491434954864 -192.32145914581702 0 -192.32145914581702 118.06992258969308 0 0 0 0 11.521093293897138 58.205756968774153 0 58.205756968774153 62.406924437714906 0 0 0 0 -1.9714529039711124 46.235177089473666 0 46.235177089473666 209.41713212084596 0 0 0 0 -11.664231337417732 48.06287769304231 0 48.06287769304231 134.18255975540706 0 0 0 0 7.7710396679540281 28.898047025400956 0 28.898047025400956 59.689818146979064 0 0 0 0 -17.781506322826317 26.507452371974978 0 26.507452371974978 59.87394276337784 0 0 0 0 -2.4807266532152425 -2.6281220878036038 0 -2.6281220878036038 43.076597554866225 0 0 0 0 14.609413839090848 17.281445602231543 0 17.281445602231543 44.464779273822899 0 0 0 0 14.958686446538195 19.476139769805513 0 19.476139769805513 54.626467961780691 0 0 0 0 2.6152522266565938 15.916671461945498 0 15.916671461945498 60.534799823385583 0 0 0 0 9.0671218472125474 26.449848038390314 0 26.449848038390314 69.839547180773025 0 0 0 0 3.6947917945818034 -0.48541834616815649 0 -0.48541834616815649 0.12649005426675863 0 0 0 0 -3.6973372203792678 -1.7015247233998707 0 -1.7015247233998707 61.582183760856424 0 0 0 0 18.486553001779612 23.79059118684836 0 23.79059118684836 54.250916097335903 0 0 0 0 14.427288988419605 32.422524839121024 0 32.422524839121024 29.828124425749365 0 0 0 0 -21.923492641335542 -10.943321286734658 0 -10.943321286734658 122.28321428900381 0 0 0 0 9.5399668181798916 46.187861080531434 0 46.187861080531434 134.23285325513734 0 0 0 0 0.61911684032702397 -0.23347439211560683 0 -0.23347439211560683 0.27650074303206029 0 0 0 0 -21.191508910618722 34.560897927353835 0 34.560897927353835 156.10743037922612 0 0 0 0 -29.877784726733807 69.552601784911531 0 69.552601784911531 81.586197563375663 0 0 0 0 -50.923896719366894 30.311588991500685 0 30.311588991500685 104.60790285969324 0 0 0 0 7.7361867777945008 -36.595481413482048 0 -36.595481413482048 63.746787405817031 0 0 0 0 -14.278040849016179 4.6532586734541042 0 4.6532586734541042 119.44994761654107 0 0 0 0 -50.74380142793234 -264.85678829390145 0 -264.85678829390145 -410.2712105262226 0 0 0 0 34.856654277973576 0.72797801098636228 0 0.72797801098636228 6.413264717392849 0 0 0 0 8.5441442499951279 8.1124996258164064 0 8.1124996258164064 -0.061564553026684177 0 0 0 0 4.4410137298677341 3.6189834949701485 0 3.6189834949701485 -0.17816659609571772 0 0 0 0 -5.0359646370416158 27.06842255454012 0 27.06842255454012 17.647846689990729 0 0 0 0 44.532296598154062 57.422464931745708 0 57.422464931745708 -46.432243400175139 0 0 0 0 77.109964803650655 17.89609891482678 0 17.89609891482678 21.387299735420129 0 0 0 0 -57.492762232421228 -1.4388191002060466 0 -1.4388191002060466 24.777901112408472 0 0 0 0 7.5602450257848091 3.8953087984361119 0 3.8953087984361119 0.21337827061295844 0 0 0 0 -88.140518202981184 118.58342131340169 0 118.58342131340169 77.855326317848721 0 0 0 0 -104.86181357427267 432.48941882688155 0 432.48941882688155 11.992779245492784 0 0 0 0 42.909046963020955 51.878775908248599 0 51.878775908248599 -152.40979845340507 0 0 0 0 -93.362005504852277 55.576495986872487 0 55.576495986872487 154.30228100003114 0 0 0 0 -79.852266069483449 6.632564491650669 0 6.632564491650669 218.37704266997753 0 0 0 0 658.52544943935209 -249.16069035866167 0 -249.16069035866167 62.30354550296488 0 0 0 0 2.4456669076911624 1.9873903869340506 0 1.9873903869340506 0.46203615632409123 0 0 0 0 92.150918687291778 -247.54408168224802 0 -247.54408168224802 305.37238020271434 0 0 0 0 553.00775810161576 70.028845898367763 0 70.028845898367763 -411.19216113297216 0 0 0 0 703.86037744447094 538.9574753988245 0 538.9574753988245 666.43842694755256 0 0 0 0 1367.548545076992 -213.62708208409651 0 -213.62708208409651 242.99893284184782 0 0 0 0 545.13328793634719 -601.01823150970631 0 -601.01823150970631 593.22841343767141 0 0 0 0 91.430658792050963 -324.20671437608416 0 -324.20671437608416 796.52817958259811 0 0 0 0 198.63262601933093 -314.22433915399506 0 -314.22433915399506 355.86963385532681 0 0 0 0 616.85864968328679 -45.297395594013778 0 -45.297395594013778 -38.501730976481554 0 0 0 0 1273.59110934616 48.719264169031135 0 48.719264169031135 -28.659719813358151 0 0 0 0 7.7835931878446729 -5.7479069340973084 0 -5.7479069340973084 0.29208096745749668 0 0 0 0 5.3335974889838056 -2.4954732537528486 0 -2.4954732537528486 -0.3921692803815251 0 0 0 0 466.89300998550607 -127.12602736040435 0 -127.12602736040435 20.940930914079672 0 0 0 0 757.59496114094509 -568.94873313518974 0 -568.94873313518974 629.57600595562553 0 0 0 0 87.318726398698345 -19.595887084907872 0 -19.595887084907872 -7.2783480794994375 0 0 0 0 79.335802847759624 -2.5448277228219922 0 -2.5448277228219922 -4.791464516534262 0 0 0 0 216.8413406132895 -325.45744557522494 0 -325.45744557522494 192.26260863814559 0 0 0 0 0.84821253277635833 -9.3102988273590199 0 -9.3102988273590199 -12.187065343213622 0 0 0 0 64.082922135065019 -109.74476354107355 0 -109.74476354107355 391.38959348916296 0 0 0 0 51.151962907482812 -32.856740794672533 0 -32.856740794672533 -34.72793498461715 0 0 0 0 30.589036557190411 -39.047692916566575 0 -39.047692916566575 -13.494027064725742 0 0 0 0 28.886996551174889 -7.5087376783772086 0 -7.5087376783772086 -2.2116090474686425 0 0 0 0 72.84043574876705 13.952966602140123 0 13.952966602140123 -26.868601324543533 0 0 0 0 18.792555943422443 -0.064781678313877933 0 -0.064781678313877933 -0.52602545501836317 0 0 0 0 75.963287962835238 -13.480063416133021 0 -13.480063416133021 -38.069641582783333 0 0 0 0 38.929636133454338 -5.4516657231407315 0 -5.4516657231407315 -0.74784216794399772 0 0 0 0 40.187851387759451 1.3770072422845345 0 1.3770072422845345 -218.42789202884478 0 0 0 0 22.320503177805222 -29.285702808118003 0 -29.285702808118003 -0.43737781881372939 0 0 0 0 28.028547927297041 -3.4596850097932474 0 -3.4596850097932474 8.1694014096858609 0 0 0 0 94.873238994736312 -56.528702624370339 0 -56.528702624370339 50.259569779640742 0 0 0 0 137.86066330631002 171.06121362960073 0 171.06121362960073 -540.1919744630784 0 0 0 0 11.704972366332214 4.5156108625256408 0 4.5156108625256408 0.7556808809880291 0 0 0 0 79.64177970167384 -60.63472730226033 0 -60.63472730226033 -213.91587914237607 0 0 0 0 -3.1781049931287271 23.612923656925602 0 23.612923656925602 -193.07883991340714 0 0 0 0 56.835276562807849 -58.364198924660059 0 -58.364198924660059 -206.87015412325036 0 0 0 0 845.35769485819037 -114.64737572120362 0 -114.64737572120362 -183.24185076764306 0 0 0 0 1029.019781500825 -135.66862924252223 0 -135.66862924252223 -182.60462831659424 0 0 0 0 169.50495988499824 33.216169854773625 0 33.216169854773625 -10.109002956573391 0 0 0 0 22.882425929698911 37.588230091852381 0 37.588230091852381 -9.8060202116703294 0 0 0 0 847.04334281932461 -393.37850067234945 0 -393.37850067234945 127.94571057192104 0 0 0 0 439.81399033001799 -339.61006486840523 0 -339.61006486840523 185.3666520038455 0 0 0 0 1001.4613694052332 182.25486196264865 0 182.25486196264865 88.643520283753332 0 0 0 0 607.68005123204239 -54.232712080986232 0 -54.232712080986232 46.881112077654052 0 0 0 0 1170.7157579845079 -16.286119019357216 0 -16.286119019357216 40.085852991504083 0 0 0 0 5.2323273017280627 2.0497613955689467 0 2.0497613955689467 0.64655401944344959 0 0 0 0 125.25698705721516 581.11347262400898 0 581.11347262400898 -241.40708325665025 0 0 0 0 632.65947779090857 515.16323728903831 0 515.16323728903831 -253.72638751420774 0 0 0 0 313.86411425011011 120.11966547840953 0 120.11966547840953 -78.219957221408265 0 0 0 0 618.01586192289324 -100.73223525817707 0 -100.73223525817707 87.275610538766159 0 0 0 0 888.79689302447332 223.72425226374367 0 223.72425226374367 -122.93445489977614 0 0 0 0 209.15318507372285 -197.94370341726824 0 -197.94370341726824 -61.932812639750722 0 0 0 0 122.38716258370368 11.143208983192835 0 11.143208983192835 -227.46106996623348 0 0 0 0 197.50135612510348 -81.976281675401765 0 -81.976281675401765 -228.63898326275012 0 0 0 0 284.43806298587515 173.02579611547299 0 173.02579611547299 -138.22293780358424 0 0 0 0 -140.13781332558483 -9.8195958629036397 0 -9.8195958629036397 -216.96438843127544 0 0 0 0 108.05914454490267 -245.38068919623572 0 -245.38068919623572 368.81911000016657 0 0 0 0 158.32442483757404 -136.20031527363727 0 -136.20031527363727 37.096221565412691 0 0 0 0 243.09599550070925 -320.67393540934563 0 -320.67393540934563 57.750016656616026 0 0 0 0 472.91356176225236 -335.32223974286671 0 -335.32223974286671 152.33911727797238 0 0 0 0 858.99563746571221 201.28933375755707 0 201.28933375755707 -70.435287789850577 0 0 0 0 227.61389078391221 -345.49681006125536 0 -345.49681006125536 178.91841655590827 0 0 0 0 1243.2025555529813 -702.6252025689538 0 -702.6252025689538 92.49729482651901 0 0 0 0 -129.50765565123947 176.76261217967874 0 176.76261217967874 336.8288420559428 0 0 0 0 417.69870317453751 184.72116049060401 0 184.72116049060401 -104.76615597502661 0 0 0 0 460.36378235478151 281.46059037945611 0 281.46059037945611 114.42698748035843 0 0 0 0 1586.4075487074533 703.2940419604181 0 703.2940419604181 269.68205280018014 0 0 0 0 14.663408037351573 -5.0431375572950135 0 -5.0431375572950135 1.4012147652973863 0 0 0 0 322.51993214732647 -1206.2198680077684 0 -1206.2198680077684 -56.975662595935205 0 0 0 0 -192.22816566697293 -146.70569491072507 0 -146.70569491072507 -170.5256738276255 0 0 0 0 270.36719780388739 -490.46253702385593 0 -490.46253702385593 -965.90898226596312 0 0 0 0 88.571714523281116 145.11328696474118 0 145.11328696474118 -286.59668660980492 0 0 0 0 259.36471117064093 -1.8048347459736647 0 -1.8048347459736647 -177.87725991407274 0 0 0 0 48.705550719420756 -15.098315632491508 0 -15.098315632491508 2.0172241410449425 0 0 0 0 104.43783373259066 -207.77385860053855 0 -207.77385860053855 -219.15942744779704 0 0 0 0 214.87974629143719 -540.19672013579293 0 -540.19672013579293 -357.51713694933642 0 0 0 0 299.34794064644666 -52.760481632346455 0 -52.760481632346455 -754.43778305983005 0 0 0 0 38.017879684630117 -12.008264884081804 0 -12.008264884081804 1.5946200738147174 0 0 0 0 452.61034855022808 136.59332019163793 0 136.59332019163793 -138.1984256318766 0 0 0 0 105.1621539332773 47.232325264275346 0 47.232325264275346 -19.969714827158327 0 0 0 0 489.85698581777979 77.118979707759536 0 77.118979707759536 -44.173276515976738 0 0 0 0 223.00841741872136 -95.651808223720309 0 -95.651808223720309 90.081415955610737 0 0 0 0 190.68438882783084 -40.579626760107999 0 -40.579626760107999 -2.3608126416417008 0 0 0 0 24.672824775429035 -197.77493546498573 0 -197.77493546498573 -72.430827427983786 0 0 0 0 7.9250416265131207 -9.898958319408905 0 -9.898958319408905 -172.41936144311018 0 0 0 0 -39.890387789113447 -99.643174566451989 0 -99.643174566451989 18.971994364661896 0 0 0 0 47.603985762201773 -72.931169742965324 0 -72.931169742965324 -126.33681063860604 0 0 0 0 77.656439325077372 -149.72626091210407 0 -149.72626091210407 54.49892671911789 0 0 0 0 17.95239575033429 -2.5507501270721207 0 -2.5507501270721207 113.37317839101024 0 0 0 0 191.81247257925133 -139.81002513880026 0 -139.81002513880026 186.35005483769422 0 0 0 0 4.9717389857678427 -56.176656040949695 0 -56.176656040949695 70.467766277302871 0 0 0 0 400.55035098875669 24.009602327168523 0 24.009602327168523 263.81612276758278 0 0 0 0 404.71651686296536 51.815286378311839 0 51.815286378311839 109.09103627097625 0 0 0 0 21.456446207754198 -43.850018028194199 0 -43.850018028194199 -59.313795591832104 0 0 0 0 6.2462866292480612 -39.479593594333437 0 -39.479593594333437 -16.68004464544731 0 0 0 0 21.526857264674618 -25.425343494810932 0 -25.425343494810932 -21.383742066944194 0 0 0 0 22.599474944203394 -19.851347534592833 0 -19.851347534592833 -11.239397507092463 0 0 0 0 12.937138016335666 -29.281296822619879 0 -29.281296822619879 -1.5191338325432753 0 0 0 0 23.892383682497893 -12.888588445303299 0 -12.888588445303299 3.8278696545789899 0 0 0 0 -9.2318472057013423 -27.851872474895231 0 -27.851872474895231 38.740330561054179 0 0 0 0 -12.283207258180482 -13.39119243334153 0 -13.39119243334153 32.253375543712536 0 0 0 0 -20.223425049489379 6.5024590495639814 0 6.5024590495639814 92.862460456413828 0 0 0 0 -32.644062376471993 -33.184069880105653 0 -33.184069880105653 46.437327918909205 0 0 0 0 -36.270936150016496 -21.909936088462928 0 -21.909936088462928 150.79927065514158 0 0 0 0 -32.427082579983107 -31.206125747493843 0 -31.206125747493843 54.025302445684702 0 0 0 0 -39.398946083223564 -82.630338033404087 0 -82.630338033404087 6.9466437862568 0 0 0 0 -28.866904484566476 -68.424051518425927 0 -68.424051518425927 -6.610920810891912 0 0 0 0 -31.951729588967282 -42.738635942593419 0 -42.738635942593419 55.569680566164379 0 0 0 0 -28.424005969431164 -118.08684414508923 0 -118.08684414508923 -67.935074472356973 0 0 0 0 30.618198102460155 19.500461369613618 0 19.500461369613618 -386.18489179154449 0 0 0 0 50.978621527113283 -14.532281078998675 0 -14.532281078998675 1.4839689811340195 0 0 0 0 -31.939092643024196 -73.470200735366461 0 -73.470200735366461 -1.956133484930433 0 0 0 0 -58.799007846784662 -110.68270613729987 0 -110.68270613729987 -23.95351092116266 0 0 0 0 -56.408285512938164 -49.348626958992554 0 -49.348626958992554 -52.0467924405134 0 0 0 0 -592.87536412141708 27.720892810452824 0 27.720892810452824 -414.14852153364745 0 0 0 0 -110.4121876025456 -36.277979345127846 0 -36.277979345127846 -49.958530808654402 0 0 0 0 -98.705837863642955 -88.2498734755535 0 -88.2498734755535 -35.854431552631809 0 0 0 0 9.355882779796957 289.68675080227467 0 289.68675080227467 -365.33273927600663 0 0 0 0 -74.498567917737091 -42.390952529821334 0 -42.390952529821334 -106.22649347647169 0 0 0 0 -2.7636363993769919 -101.98862898707119 0 -101.98862898707119 -75.153369498216534 0 0 0 0 -142.66617804567977 -48.842505702820858 0 -48.842505702820858 361.81587501008016 0 0 0 0 38.082769545519113 368.12021645789468 0 368.12021645789468 -16.654782703778892 0 0 0 0 -161.94603165463923 182.7504204830559 0 182.7504204830559 -270.69470647272215 0 0 0 0 -13.337888320147727 -32.231896392417525 0 -32.231896392417525 -281.29710329662544 0 0 0 0 0.5645502944447216 -0.59750905479534211 0 -0.59750905479534211 -0.71502244257796921 0 0 0 0 109.69415141589707 367.99959628952001 0 367.99959628952001 -232.7231572266777 0 0 0 0 -126.40944276960363 234.43856815164509 0 234.43856815164509 -201.97156635308056 0 0 0 0 293.44685822663473 -65.325056194569612 0 -65.325056194569612 -233.87337077564985 0 0 0 0 1.8029936736348411 1.6850236012718121 0 1.6850236012718121 0.87648623659278257 0 0 0 0 26.742093903732894 193.7302483994863 0 193.7302483994863 -370.53848206359385 0 0 0 0 139.41299970974796 291.49049693041775 0 291.49049693041775 -431.76258060850796 0 0 0 0 149.09315095286911 104.43509953558726 0 104.43509953558726 -219.52829491774924 0 0 0 0 -38.89065859996208 49.947352600479235 0 49.947352600479235 -127.37319097623231 0 0 0 0 3.8624660748467967 4.2120571788857504 0 4.2120571788857504 3.2284889453898993 0 0 0 0 -52.08694511383635 314.85212949905304 0 314.85212949905304 -150.14085137371342 0 0 0 0 -65.317242176507875 156.95074795479448 0 156.95074795479448 -20.844643386881671 0 0 0 0 158.88474618726832 161.28970108272222 0 161.28970108272222 -90.321313502583735 0 0 0 0 164.32753763909204 151.8951914907185 0 151.8951914907185 -105.06382921894328 0 0 0 0 150.25152459921617 70.23465479876441 0 70.23465479876441 185.110189162609 0 0 0 0 -16.518502895161873 40.88788267755757 0 40.88788267755757 191.1664437344466 0 0 0 0 7.2781713396534542 2.4326759281329942 0 2.4326759281329942 -152.25585953168104 0 0 0 0 164.63741957788079 -192.9533289658599 0 -192.9533289658599 236.00948748405193 0 0 0 0 186.0160993003642 -148.95721129758178 0 -148.95721129758178 410.45825985962915 0 0 0 0 157.01935008463443 30.995833528679896 0 30.995833528679896 126.47985176390637 0 0 0 0 230.22177808574907 -128.33914014214781 0 -128.33914014214781 298.64772491336225 0 0 0 0 407.6763589727052 -249.09275953840097 0 -249.09275953840097 280.15308441089894 0 0 0 0 1160.5008658024144 -133.82143417005662 0 -133.82143417005662 135.77735172269195 0 0 0 0 510.27147631407934 -249.74255672010725 0 -249.74255672010725 446.73573720828176 0 0 0 0 1123.6695854799891 -91.128069786716651 0 -91.128069786716651 358.01214761577353 0 0 0 0 782.21355119352665 -219.55411163144822 0 -219.55411163144822 396.92428689234674 0 0 0 0 797.92236086275989 -295.4552302454947 0 -295.4552302454947 322.42458356406883 0 0 0 0 589.19089749060458 -192.48310529396963 0 -192.48310529396963 294.75262525062863 0 0 0 0 345.82855910773651 -288.542616319979 0 -288.542616319979 392.89978145149621 0 0 0 0 423.4801749972612 -325.03893355967784 0 -325.03893355967784 365.56638022878968 0 0 0 0 508.47681106504024 -237.02380428088338 0 -237.02380428088338 361.99706250406564 0 0 0 0 327.8005046523831 -121.60383743979878 0 -121.60383743979878 345.53353931188263 0 0 0 0 542.67653626395713 -341.44463273584915 0 -341.44463273584915 486.17665250951836 0 0 0 0 613.98276674500994 -258.92140701719939 0 -258.92140701719939 413.51452745637926 0 0 0 0 1090.6941225407891 -749.17214066129634 0 -749.17214066129634 727.31939468643907 0 0 0 0 822.91343522366333 -342.31928519946024 0 -342.31928519946024 388.52935380566055 0 0 0 0 447.04262908304736 211.35524009859921 0 211.35524009859921 119.69545290513736 0 0 0 0 388.70691366927849 76.349108423396743 0 76.349108423396743 883.81485081748781 0 0 0 0 262.6493718648926 71.854163525043305 0 71.854163525043305 165.35931801780373 0 0 0 0 213.263725037119 -17.254383948725604 0 -17.254383948725604 667.60879787316355 0 0 0 0 376.31987398422075 29.091630170293499 0 29.091630170293499 -171.44415781029306 0 0 0 0 349.09071232320639 200.30377351278253 0 200.30377351278253 -93.115960900474192 0 0 0 0 1344.5544197410218 -583.34847927031467 0 -583.34847927031467 -48.111033875356682 0 0 0 0 952.09580512256798 -1038.0064651168818 0 -1038.0064651168818 -117.10338486143976 0 0 0 0 377.12349783951777 -686.4114169277841 0 -686.4114169277841 -300.02487049866016 0 0 0 0 26.175299722295676 -61.859155336331241 0 -61.859155336331241 233.39398574065376 0 0 0 0 3.9621412898334043 -7.2154027783221188 0 -7.2154027783221188 -12.246754287041675 0 0 0 0 52.201731679073418 -196.15739294914829 0 -196.15739294914829 835.46512024290951 0 0 0 0 450.02367238221132 -948.53128351062662 0 -948.53128351062662 641.87339973802023 0 0 0 0 211.35946265209896 -99.486390774402196 0 -99.486390774402196 -56.87116620595134 0 0 0 0 -0.58068785877855333 -0.41427045486761926 0 -0.41427045486761926 -2.7172747408600615 0 0 0 0 283.29416790707182 508.04995897140532 0 508.04995897140532 1027.1557513371965 0 0 0 0 91.346838838904659 -0.32441168991488212 0 -0.32441168991488212 -13.702532663795409 0 0 0 0 5.5541483759279799 51.028063017225236 0 51.028063017225236 -4.9540580059257877 0 0 0 0 -0.65021075405248752 2.2053911566557076 0 2.2053911566557076 10.611884145159209 0 0 0 0 93.852862363387658 -24.474948467271737 0 -24.474948467271737 -12.576810642489818 0 0 0 0 62.342738860701502 9.3919571802082373 0 9.3919571802082373 -16.927394050789474 0 0 0 0 39.670893911152234 9.5468436456424115 0 9.5468436456424115 -3.65434508499618 0 0 0 0 28.956489494672756 -12.483498804584054 0 -12.483498804584054 0.54069335781028771 0 0 0 0 28.371481933378163 -15.46183462977956 0 -15.46183462977956 19.639863390742676 0 0 0 0 39.301563279459515 -29.982283636603654 0 -29.982283636603654 22.574469347875947 0 0 0 0 8.4214154766857163 0.41255525481005861 0 0.41255525481005861 9.1201956387038869 0 0 0 0 7.1565781723367721 -8.4597894171190031 0 -8.4597894171190031 5.4204721255127231 0 0 0 0 1563.4675644523877 -382.71726907323261 0 -382.71726907323261 78.904526168859547 0 0 0 0 1383.3966899277816 118.91853392500573 0 118.91853392500573 32.128869068901622 0 0 0 0 1230.8230412418634 -115.37270662185892 0 -115.37270662185892 -29.015913706298136 0 0 0 0 50.975332398185856 -29.990755843338121 0 -29.990755843338121 -5.9097958716422454 0 0 0 0 16.593213892143467 19.254908265194672 0 19.254908265194672 34.247576836218286 0 0 0 0 102.77563784386621 97.171569116749652 0 97.171569116749652 97.857374249950681 0 0 0 0 7.0358072735412769 -2.3072319709575773 0 -2.3072319709575773 1.3738501977998343 0 0 0 0 30.984437889643232 -40.511335653463405 0 -40.511335653463405 199.13120615704975 0 0 0 0 26.200396301121721 -12.434936659655623 0 -12.434936659655623 -4.0911181011047661 0 0 0 0 346.27696376699532 -181.47905889558137 0 -181.47905889558137 8.733273919136991 0 0 0 0 437.93937000487131 280.40945626308417 0 280.40945626308417 97.780738693766892 0 0 0 0 4.7531204393649986 -1.6255439230062532 0 -1.6255439230062532 -0.0041449167620726257 0 0 0 0 887.52287009107476 -355.68131520522775 0 -355.68131520522775 25.232047505390483 0 0 0 0 989.62747629563501 352.68589714752306 0 352.68589714752306 121.5947859749358 0 0 0 0 516.09752137541 349.1450843188245 0 349.1450843188245 128.79969435381292 0 0 0 0 841.51666238698454 75.904033863217592 0 75.904033863217592 -21.672756410032889 0 0 0 0 -120.9051084759376 80.340859078945869 0 80.340859078945869 197.34418103688037 0 0 0 0 154.90854135081281 86.315312272036181 0 86.315312272036181 55.379050099510664 0 0 0 0 -5.9628942838426156 191.08136187206071 0 191.08136187206071 35.798194859748492 0 0 0 0 8.320938795860382 -4.3509739059268711 0 -4.3509739059268711 1.4246591844154786 0 0 0 0 149.1971076566997 14.469849104338664 0 14.469849104338664 13.188318636437543 0 0 0 0 223.13400610276221 -32.387998112528294 0 -32.387998112528294 -217.69994051999583 0 0 0 0 425.66368880352093 97.041111370293038 0 97.041111370293038 -50.832603332238705 0 0 0 0 572.74464042749059 148.16315896242895 0 148.16315896242895 -90.387335866950707 0 0 0 0 417.68478202655569 119.71378435811221 0 119.71378435811221 -81.488211694135316 0 0 0 0 218.73783957994328 217.37806066309378 0 217.37806066309378 114.55013217908072 0 0 0 0 577.68851888095469 163.32082034154132 0 163.32082034154132 -44.020400122388764 0 0 0 0 82.77102102151548 -53.24126386822104 0 -53.24126386822104 -40.576508743091154 0 0 0 0 46.239537104829196 -24.098144468717308 0 -24.098144468717308 4.1850126402309797 0 0 0 0 33.318264844310406 -16.222596053043173 0 -16.222596053043173 5.386640002693035 0 0 0 0 277.4087260060478 59.635060304794592 0 59.635060304794592 10.094689346704399 0 0 0 0 48.229439807412746 9.4042522064202103 0 9.4042522064202103 117.48076031232949 0 0 0 0 11.352323877001528 -1.8927691012304493 0 -1.8927691012304493 2.1544589011538688 0 0 0 0 103.06554706932366 25.239425529935716 0 25.239425529935716 29.006326106799406 0 0 0 0 127.95635187267726 88.412308670096991 0 88.412308670096991 355.7885579905851 0 0 0 0 -59.018448098315275 632.92586398979165 0 632.92586398979165 -40.617100186515472 0 0 0 0 380.3563684081164 241.66070026379839 0 241.66070026379839 186.49763199801737 0 0 0 0 250.64909192025152 256.99464918997137 0 256.99464918997137 193.29932100238784 0 0 0 0 149.0666113535699 184.03877467979919 0 184.03877467979919 247.66385108621375 0 0 0 0 242.12086913457097 258.26017704191554 0 258.26017704191554 232.29179066568759 0 0 0 0 42.827454226682676 42.438817607019018 0 42.438817607019018 86.361760421158124 0 0 0 0 102.4851150969439 24.569682372897468 0 24.569682372897468 52.075522801773332 0 0 0 0 97.915614308516524 133.55406117051143 0 133.55406117051143 206.29696256708576 0 0 0 0 239.28318831380238 280.58062922377212 0 280.58062922377212 154.83266945607636 0 0 0 0 179.08528700956958 173.63025054804348 0 173.63025054804348 129.44850701405085 0 0 0 0 222.67833661961049 187.54327040782027 0 187.54327040782027 26.882999519997156 0 0 0 0 241.39156016683177 181.63737037826189 0 181.63737037826189 5.4948840340184688 0 0 0 0 294.72416002037426 68.246746216178508 0 68.246746216178508 -354.83590527854358 0 0 0 0 0.2403503052155429 -35.9311673888119 0 -35.9311673888119 26.414735249855312 0 0 0 0 10.551725365222865 -51.549603308012308 0 -51.549603308012308 20.656610357160389 0 0 0 0 48.758517456695699 -167.94940126564325 0 -167.94940126564325 148.58261518872496 0 0 0 0 4.0703447797025518 -2.3854453880307256 0 -2.3854453880307256 1.5804570324204246 0 0 0 0 369.21145157102001 377.56064709878592 0 377.56064709878592 86.313904295654311 0 0 0 0 19.569165749086096 -155.69356483959314 0 -155.69356483959314 777.27228961338005 0 0 0 0 536.63621503313698 290.67903690072012 0 290.67903690072012 -118.51084650729899 0 0 0 0 529.82647721544708 -28.710325952014045 0 -28.710325952014045 28.030210879683182 0 0 0 0 136.47539863746397 190.76821870157471 0 190.76821870157471 -65.198383324826864 0 0 0 0 236.36914111990518 -64.052035254779639 0 -64.052035254779639 55.740361079062495 0 0 0 0 146.50691172114966 2.8853449042765078 0 2.8853449042765078 51.849977789201148 0 0 0 0 146.19332717239013 1.2898004256021522 0 1.2898004256021522 90.335787888729101 0 0 0 0 0.39169543262719397 -1.1092465267377989 0 -1.1092465267377989 3.9554001233451483 0 0 0 0 -35.940044557149577 -87.513093019335429 0 -87.513093019335429 149.09020723761387 0 0 0 0 -202.23196006331159 -123.89901557873702 0 -123.89901557873702 847.33475061388981 0 0 0 0 69.049174667967236 41.44881492491777 0 41.44881492491777 296.16647419948413 0 0 0 0 105.27067158051614 -68.796038773160035 0 -68.796038773160035 4.430186973414493 0 0 0 0 -1.9130075552729977 69.018129794171273 0 69.018129794171273 25.416336276175059 0 0 0 0 690.45847906115523 137.52033472884523 0 137.52033472884523 -230.68531671208098 0 0 0 0 244.44498330046554 128.4107926776469 0 128.4107926776469 -25.127929097934157 0 0 0 0 275.21621346961183 14.015637662437257 0 14.015637662437257 -57.28174910004509 0 0 0 0 418.4196614044522 -93.987122002897195 0 -93.987122002897195 -9.9650534685242746 0 0 0 0 421.1505210831092 60.95286108194432 0 60.95286108194432 -48.114412516873529 0 0 0 0 463.68421355616374 -65.907108098292156 0 -65.907108098292156 -143.38674522514884 0 0 0 0 426.02239061225566 21.19955098932212 0 21.19955098932212 -142.51233402169328 0 0 0 0 644.43510122932275 252.99703997124971 0 252.99703997124971 -45.15042704599 0 0 0 0 772.51420739903097 50.809580998861748 0 50.809580998861748 -102.89633935081474 0 0 0 0 142.61661320214625 -33.368502809140864 0 -33.368502809140864 133.22228309301681 0 0 0 0 122.75989321220186 -13.706248937759028 0 -13.706248937759028 126.86668837728189 0 0 0 0 54.397497841206132 -51.172553588620303 0 -51.172553588620303 82.622534409075286 0 0 0 0 369.73465208145171 -202.26952502557515 0 -202.26952502557515 107.00081975131707 0 0 0 0 763.72737688902816 -35.118400716781252 0 -35.118400716781252 -43.774807525122469 0 0 0 0 286.51409612435782 149.55602298913209 0 149.55602298913209 128.61242677921905 0 0 0 0 362.74184275718653 135.99094670607451 0 135.99094670607451 -43.805174698814881 0 0 0 0 392.30696549336426 96.75875580713091 0 96.75875580713091 -111.39485338040205 0 0 0 0 7.0913207560685692 -5.7368347409983294 0 -5.7368347409983294 1.6214803353902223 0 0 0 0 46.150425123348214 -143.45220085749497 0 -143.45220085749497 -82.114705608641998 0 0 0 0 307.9333317939836 74.65756921396337 0 74.65756921396337 -10.175771422485923 0 0 0 0 416.88903829779429 211.16684150667288 0 211.16684150667288 57.991718873867057 0 0 0 0 505.28990265069888 -78.784219155068456 0 -78.784219155068456 5.9532719668586651 0 0 0 0 311.0086609131522 -82.78797315300244 0 -82.78797315300244 141.30598587263762 0 0 0 0 960.7284667287513 121.54179007408425 0 121.54179007408425 64.16847649745273 0 0 0 0 3.6689020586637362 -2.6689428962149435 0 -2.6689428962149435 0.71239650241304631 0 0 0 0 392.58758462690275 -375.58701828624908 0 -375.58701828624908 310.23956277862817 0 0 0 0 -183.72279058040203 -292.66166484565872 0 -292.66166484565872 299.48394966793921 0 0 0 0 890.95340589643411 -333.51075853420082 0 -333.51075853420082 526.45255427083248 0 0 0 0 275.60448984490358 -283.67500327072958 0 -283.67500327072958 445.18790014082867 0 0 0 0 223.09303553263271 113.45311777812094 0 113.45311777812094 320.09425498839255 0 0 0 0 836.86647013212996 -169.7852925394393 0 -169.7852925394393 155.23829788124294 0 0 0 0 1.9815371489992728 0.69363132111469206 0 0.69363132111469206 0.47105558187082919 0 0 0 0 590.15723706245262 -198.03007919284846 0 -198.03007919284846 646.1827206837977 0 0 0 0 591.34942775183697 -61.382528575391134 0 -61.382528575391134 284.17615950430263 0 0 0 0 378.4623508300283 -233.77207759499902 0 -233.77207759499902 275.40932967802928 0 0 0 0 260.84020927830124 47.320168806106153 0 47.320168806106153 262.16471980717597 0 0 0 0 390.93829329837536 -313.44802131529218 0 -313.44802131529218 308.19434880558492 0 0 0 0 452.6649407300647 -340.66359935615992 0 -340.66359935615992 273.30589828020288 0 0 0 0 676.79786576831248 -204.23084036841465 0 -204.23084036841465 241.14717384160394 0 0 0 0 528.01454791449578 -205.53980663607445 0 -205.53980663607445 253.80645598846741 0 0 0 0 610.9684038364685 -325.11868477000962 0 -325.11868477000962 268.70831746902422 0 0 0 0 351.87308344812845 -277.94664138219764 0 -277.94664138219764 302.69751172661745 0 0 0 0 353.34254397150062 -288.19056540304302 0 -288.19056540304302 356.62365949785908 0 0 0 0 333.27557115978198 -322.25511246388442 0 -322.25511246388442 335.47424226959674 0 0 0 0 206.23200732559781 -301.60435725165735 0 -301.60435725165735 341.61083528072982 0 0 0 0 364.51391236133713 -332.47660237787704 0 -332.47660237787704 327.14343933701366 0 0 0 0 443.95117432287589 -184.45280021645294 0 -184.45280021645294 268.19804165206506 0 0 0 0 211.86640769401492 -105.04990456294672 0 -105.04990456294672 248.18545101410734 0 0 0 0 484.96925770002781 -223.01291767094961 0 -223.01291767094961 290.19565292590323 0 0 0 0 681.60576135540759 18.582338164106659 0 18.582338164106659 91.451752877101171 0 0 0 0 760.79846571800135 -76.156622746355424 0 -76.156622746355424 100.29321727896422 0 0 0 0 422.82949633158569 22.508138152163156 0 22.508138152163156 77.495008067724939 0 0 0 0 642.70013161210591 95.413933773198892 0 95.413933773198892 -38.213316319793648 0 0 0 0 104.2669644287198 106.66089118863329 0 106.66089118863329 55.208806880361408 0 0 0 0 449.63514503915303 -58.618142477875892 0 -58.618142477875892 132.77596248804184 0 0 0 0 1498.6620483853821 -851.005945585532 0 -851.005945585532 -13.990875431391359 0 0 0 0 998.50864589164803 -504.89995047939067 0 -504.89995047939067 -3.5370877250995907 0 0 0 0 965.62941815242084 -613.63070671982723 0 -613.63070671982723 138.68775553543546 0 0 0 0 569.91731584667241 -403.49739762700966 0 -403.49739762700966 111.37358851664845 0 0 0 0 575.16683403942443 -185.4118847346806 0 -185.4118847346806 -20.050537610592833 0 0 0 0 78.377902154159528 -176.85254337785764 0 -176.85254337785764 130.75063918898306 0 0 0 0 -37.740804957109503 77.843590618024109 0 77.843590618024109 -75.387314880453573 0 0 0 0 98.812002989488718 142.81675478738561 0 142.81675478738561 -79.623422603620952 0 0 0 0 96.842531206621061 -220.54542446903974 0 -220.54542446903974 324.83198081825583 0 0 0 0 8.7200525781945544 -2.081581036284831 0 -2.081581036284831 -18.005277792181232 0 0 0 0 20.176399385402142 4.3703740034817464 0 4.3703740034817464 -4.3483837153160829 0 0 0 0 4.4845895637219861 -1.3660102270526835 0 -1.3660102270526835 2.4965272167603154 0 0 0 0 16.539449012749174 -23.635555482372752 0 -23.635555482372752 -6.8658689729184061 0 0 0 0 447.98771101424245 -607.75613608705282 0 -607.75613608705282 837.61494564031273 0 0 0 0 5.2275035533655583 -1.4774027561592256 0 -1.4774027561592256 0.57348576729486389 0 0 0 0 18.430050308531378 2.6238575171122562 0 2.6238575171122562 -6.7834667722367623 0 0 0 0 1497.3731475406366 0.82095391845036658 0 0.82095391845036658 0.13752029331657528 0 0 0 0 5.4148384559894343 3.9176264105516267 0 3.9176264105516267 -0.36858433865117907 0 0 0 0 1226.8456896730022 282.5231835088249 0 282.5231835088249 64.835747695231888 0 0 0 0 1.042408073340539 -0.18631622373123591 0 -0.18631622373123591 0.27119337828985951 0 0 0 0 1497.4266354419492 -293.86342096954502 0 -293.86342096954502 -68.933554291622016 0 0 0 0 4.3917620976239888 -0.1564110234167444 0 -0.1564110234167444 -4.4534833003743088 0 0 0 0 27.883816375060633 -13.029744112934793 0 -13.029744112934793 -28.100366447420953 0 0 0 0 4.1427845883463306 8.6950084986783622 0 8.6950084986783622 3.1258705078801086 0 0 0 0 -1.5736512364655937 0.52405911881470502 0 0.52405911881470502 -0.46113263049392117 0 0 0 0 -6.7775641746411566 26.651683010385455 0 26.651683010385455 -12.558071249179989 0 0 0 0 32.529630579221703 27.835467336819761 0 27.835467336819761 15.954021346336049 0 0 0 0 41.558296389324823 -6.0400908681887131 0 -6.0400908681887131 1.3868483956367186 0 0 0 0 34.966863704186835 11.612622798527241 0 11.612622798527241 -3.0953764633834169 0 0 0 0 37.339707093338802 9.7996046913265786 0 9.7996046913265786 -4.9531151812522012 0 0 0 0 -3.2396911660453043 50.830027817062387 0 50.830027817062387 -25.922284968254417 0 0 0 0 52.520142245693023 15.919320408927717 0 15.919320408927717 -4.0650935066105376 0 0 0 0 0.68220685269658077 0.23617498092824007 0 0.23617498092824007 -0.19698160304076628 0 0 0 0 9.350117259149556 -21.150564201535417 0 -21.150564201535417 20.874748392856816 0 0 0 0 135.08295419474234 -62.708355912110164 0 -62.708355912110164 1.662186145923215 0 0 0 0 24.150681620645628 62.309354236131639 0 62.309354236131639 -28.522453237879063 0 0 0 0 3.9891655378742144 91.552311016952004 0 91.552311016952004 61.576427928281689 0 0 0 0 7.9828248425453694 2.1529852488604888 0 2.1529852488604888 1.0909768137113363 0 0 0 0 -29.732179257593089 -68.912153674223703 0 -68.912153674223703 140.77344774463717 0 0 0 0 -79.77582169438756 139.34959127629148 0 139.34959127629148 -219.61242728422292 0 0 0 0 -4.7314336144888784 4.187831480951294 0 4.187831480951294 2.4080540835257747 0 0 0 0 14.742884481284641 0.30587166649049635 0 0.30587166649049635 -4.9606518479959618 0 0 0 0 -4.9906745057087392 -9.0068329409563717 0 -9.0068329409563717 29.850305223654971 0 0 0 0 55.537805766356541 15.626606320708675 0 15.626606320708675 -30.940616004483104 0 0 0 0 0.94278720099107005 0.87190561846263037 0 0.87190561846263037 0.0580166739719159 0 0 0 0 -28.699574218964699 26.038478993250123 0 26.038478993250123 -13.644515536815561 0 0 0 0 24.46574234300715 -56.136241033891565 0 -56.136241033891565 35.796358652718936 0 0 0 0 37.553973620924808 4.7952475963293182 0 4.7952475963293182 -27.326493922672626 0 0 0 0 68.648876131253928 0.73280581893948238 0 0.73280581893948238 -19.345997514209785 0 0 0 0 35.119848540394742 9.1560532272134196 0 9.1560532272134196 4.2479139277688773 0 0 0 0 71.310159719983858 1.8931138180952303 0 1.8931138180952303 15.832388871929084 0 0 0 0 42.264956495324441 -26.801634961312857 0 -26.801634961312857 -6.5739480599079343 0 0 0 0 33.787257300878991 16.187235789454689 0 16.187235789454689 -27.700472961629202 0 0 0 0 47.405561236841095 -6.0759072527504259 0 -6.0759072527504259 -12.097641642874123 0 0 0 0 23.988209722920146 -17.93629120415865 0 -17.93629120415865 -8.4269614288045886 0 0 0 0 109.82771719664379 -16.475371856375091 0 -16.475371856375091 -14.800529893213593 0 0 0 0 92.86568166934012 -51.940486545259745 0 -51.940486545259745 -21.925764567525448 0 0 0 0 69.795758216901959 -47.691750685203573 0 -47.691750685203573 25.527495829275495 0 0 0 0 85.546675713592776 -57.821369429904621 0 -57.821369429904621 -6.9026448386675838 0 0 0 0 -20.166070991551351 -34.849262319954221 0 -34.849262319954221 9.6197243219858137 0 0 0 0 0.069920276509741086 1.5081530345112171 0 1.5081530345112171 10.403250857633367 0 0 0 0 87.399960089807792 -16.19153210606072 0 -16.19153210606072 -1.1177790824582416 0 0 0 0 25.867551947217635 -10.103821981231064 0 -10.103821981231064 32.000882808226379 0 0 0 0 95.274530974907975 -28.163757788679845 0 -28.163757788679845 5.3591063825670062 0 0 0 0 70.302952867787099 -33.951476319915628 0 -33.951476319915628 18.305852735932149 0 0 0 0 -1.147685560588215 0.5532072111083437 0 0.5532072111083437 0.60819713019221577 0 0 0 0 125.7765375193103 -29.702539043164279 0 -29.702539043164279 -11.273886826615581 0 0 0 0 63.600128640682669 -9.9732697526048923 0 -9.9732697526048923 18.343133397345696 0 0 0 0 71.761305191816064 -12.234370916136641 0 -12.234370916136641 10.921427970336936 0 0 0 0 47.342091416840503 -18.772866614787844 0 -18.772866614787844 13.30448051365579 0 0 0 0 72.907108040806634 -14.427045027269514 0 -14.427045027269514 0.28880130060929332 0 0 0 0 10.097892121491633 -1.2495197184978366 0 -1.2495197184978366 2.8806110890766528 0 0 0 0 112.33365609587509 -17.781147298428607 0 -17.781147298428607 -11.492940106853894 0 0 0 0 100.72829339349846 0.63737996698955612 0 0.63737996698955612 -11.689275595474555 0 0 0 0 44.715825795741694 -2.9167131123754189 0 -2.9167131123754189 1.7944759899382916 0 0 0 0 79.493745135485369 4.4728730922988689 0 4.4728730922988689 -11.201561855345858 0 0 0 0 102.01527917203202 -16.9792302236051 0 -16.9792302236051 -7.7964736153517151 0 0 0 0 52.749722798160519 7.7039253587000509 0 7.7039253587000509 1.732195624980656 0 0 0 0 85.906419567814737 -5.7570896486423635 0 -5.7570896486423635 10.117756952662603 0 0 0 0 73.769289085190394 -3.3410755071981839 0 -3.3410755071981839 15.848932469327593 0 0 0 0 89.230606612618431 -9.6247903480298191 0 -9.6247903480298191 0.22738478901555936 0 0 0 0 162.020209661948 1.6088517094694765 0 1.6088517094694765 -149.0066875602206 0 0 0 0 96.653168548531539 -18.340704025559717 0 -18.340704025559717 -23.296867313903931 0 0 0 0 0.63987008706808979 10.576581220280339 0 10.576581220280339 -0.59504490050879288 0 0 0 0 103.70331395265248 -22.428687800819034 0 -22.428687800819034 -27.423136753871404 0 0 0 0 31.601789263374823 7.2023684204302318 0 7.2023684204302318 -0.50735971326070672 0 0 0 0 9.322148580013268 -3.2013677796469517 0 -3.2013677796469517 -1.4047905035242674 0 0 0 0 73.96706080299009 33.890195708574538 0 33.890195708574538 -84.590377256038465 0 0 0 0 63.64403643215428 31.574455258035982 0 31.574455258035982 -84.851603537925257 0 0 0 0 44.633899535680939 29.608540101694302 0 29.608540101694302 -43.138313381291937 0 0 0 0 60.692783928630888 63.911204110999734 0 63.911204110999734 -142.58904777473617 0 0 0 0 37.118178884116787 54.34497359328418 0 54.34497359328418 -58.483847387419701 0 0 0 0 93.924720626444469 -26.738033182152776 0 -26.738033182152776 9.2905295357340947 0 0 0 0 75.733925632648607 18.288035347993628 0 18.288035347993628 -79.662804556919582 0 0 0 0 48.806059553426167 69.057921227479937 0 69.057921227479937 -47.296972327898175 0 0 0 0 3.5164305718099058 124.07628843195198 0 124.07628843195198 -101.67976451953291 0 0 0 0 10.725620806129882 20.162967012895479 0 20.162967012895479 -78.542973856896992 0 0 0 0 34.861971732097118 -55.346944311162929 0 -55.346944311162929 -47.826359793567462 0 0 0 0 13.756051922708426 4.9475039857546648 0 4.9475039857546648 -5.305180370762077 0 0 0 0 30.169952638825634 -22.050511105946498 0 -22.050511105946498 56.364840013600769 0 0 0 0 41.000476570990514 -2.3124679237854853 0 -2.3124679237854853 5.4738683804153005 0 0 0 0 92.832361669556121 -15.485871342913015 0 -15.485871342913015 9.7143481978782802 0 0 0 0 79.86692613636842 -6.9759869570298179 0 -6.9759869570298179 9.875410348040532 0 0 0 0 57.608305102185113 -7.9625683875201503 0 -7.9625683875201503 27.818916560598154 0 0 0 0 66.04343612343655 -28.576813756893898 0 -28.576813756893898 34.355542622728535 0 0 0 0 35.321330634486245 -18.512933898912941 0 -18.512933898912941 7.2811569179432869 0 0 0 0 10.649688582880117 -48.111208478536582 0 -48.111208478536582 5.8308032950080815 0 0 0 0 1.5053701606093455 -33.036369552556152 0 -33.036369552556152 25.982078654249563 0 0 0 0 11.233082236642076 -9.1128322088816276 0 -9.1128322088816276 2.8580858722982612 0 0 0 0 31.323722866207881 0.010176002292931585 0 0.010176002292931585 2.0409079471750808 0 0 0 0 36.871110361453056 -13.605596713425989 0 -13.605596713425989 5.9979955648625634 0 0 0 0 17.816803473382606 -0.74390106857572391 0 -0.74390106857572391 -7.0614984991713072 0 0 0 0 3.1010336490722992 -5.3355723311346051 0 -5.3355723311346051 3.3483873838186033 0 0 0 0 -142.20240115424622 116.60245638861744 0 116.60245638861744 -54.996771235094911 0 0 0 0 -14.422171782924124 24.68385288931313 0 24.68385288931313 226.20558632183065 0 0 0 0 -155.7629882103713 197.21124772047165 0 197.21124772047165 -60.193753559332777 0 0 0 0 8.1862014608629998 3.6562096979650089 0 3.6562096979650089 11.699336475246199 0 0 0 0 153.01680795527591 -80.038119908533361 0 -80.038119908533361 -399.23828516911271 0 0 0 0 -44.19527094478326 -3.9594231437272356 0 -3.9594231437272356 -67.606044998143261 0 0 0 0 98.937025228895436 183.08428505164579 0 183.08428505164579 -166.8348641086684 0 0 0 0 -73.672118075106482 79.497866033075752 0 79.497866033075752 -98.081102464324658 0 0 0 0 26.791157361771184 131.19140853152555 0 131.19140853152555 -186.97399400666427 0 0 0 0 -37.747532507159121 219.78168716076377 0 219.78168716076377 -103.0266073908017 0 0 0 0 -64.558036272038407 219.37090563322604 0 219.37090563322604 -116.06289108748848 0 0 0 0 -50.501456149746446 201.50933993188016 0 201.50933993188016 -102.41466292014093 0 0 0 0 -169.31065526936072 86.268370405684209 0 86.268370405684209 155.68239649948464 0 0 0 0 -322.69181306186874 -51.581274258082601 0 -51.581274258082601 32.318812743619816 0 0 0 0 -157.90075718635762 139.18275374668309 0 139.18275374668309 399.51047768906085 0 0 0 0 463.26384570193113 -321.01328067274608 0 -321.01328067274608 309.29606560623739 0 0 0 0 211.26917189504638 277.72230817649131 0 277.72230817649131 114.38350366582983 0 0 0 0 -47.636506634185935 247.97457384779364 0 247.97457384779364 118.79238770009147 0 0 0 0 -230.47400997840759 14.458040484818895 0 14.458040484818895 248.16575623139818 0 0 0 0 57.242479910485599 403.00454217793953 0 403.00454217793953 -214.79616712751124 0 0 0 0 110.07575943836821 206.76168562419952 0 206.76168562419952 -380.00499420535084 0 0 0 0 146.42727446191657 64.793129930419923 0 64.793129930419923 -295.39478724169737 0 0 0 0 57.14695679210854 97.98194735693869 0 97.98194735693869 -143.7870614568788 0 0 0 0 60.526364235054643 88.163312551640502 0 88.163312551640502 -142.81461689146545 0 0 0 0 159.72194011868487 21.028752141561938 0 21.028752141561938 -203.81910553479179 0 0 0 0 420.87503393682618 -184.68181817607788 0 -184.68181817607788 -310.01066337715963 0 0 0 0 108.3085925945561 478.10816468703848 0 478.10816468703848 -291.9275228593151 0 0 0 0 421.91047368991713 -637.84612198091918 0 -637.84612198091918 766.27946039977678 0 0 0 0 237.12037540978599 -346.18297480339663 0 -346.18297480339663 472.48304170662641 0 0 0 0 488.5743682066186 266.2578290452235 0 266.2578290452235 541.50295478387568 0 0 0 0 867.86999684149168 -615.88608574354976 0 -615.88608574354976 217.71782076800361 0 0 0 0 114.95156927234984 -243.64790967987827 0 -243.64790967987827 147.51708734375717 0 0 0 0 101.22302776654988 -365.92990948809631 0 -365.92990948809631 -35.871641636259255 0 0 0 0 2.6475837129327475 -6.3296685497937997 0 -6.3296685497937997 -4.0698059013511756 0 0 0 0 38.900772707947908 -2.7201801725552741 0 -2.7201801725552741 -9.3223645412443048 0 0 0 0 33.056944319330633 -1.9072983688485188 0 -1.9072983688485188 -3.2573327443431315 0 0 0 0 105.88820289736395 -89.008279008386012 0 -89.008279008386012 3.4560206691330677 0 0 0 0 21.281121526364586 8.2382910788767276 0 8.2382910788767276 -14.876276718804604 0 0 0 0 26.889915992241392 2.3642385314065155 0 2.3642385314065155 -1.5852292413135243 0 0 0 0 58.651575982223221 8.5687550032447461 0 8.5687550032447461 -19.159751671887079 0 0 0 0 19.252366213338973 29.519678061698414 0 29.519678061698414 -16.666233124935047 0 0 0 0 26.767095675615266 -7.0713960228795329 0 -7.0713960228795329 -2.6259619922749238 0 0 0 0 21.18061488674357 -10.565460697232766 0 -10.565460697232766 -4.2796928718971685 0 0 0 0 53.537666567579436 -11.969521453883999 0 -11.969521453883999 -19.048002025003825 0 0 0 0 7.4330229965454038 -4.8148800777899119 0 -4.8148800777899119 -3.3640163823670193 0 0 0 0 41.925377336992824 -0.81359168821478534 0 -0.81359168821478534 -10.039392252302491 0 0 0 0 24.956344706968594 -8.5089090551182665 0 -8.5089090551182665 7.656785578709588 0 0 0 0 6.9132979481364671 -1.2177441911816054 0 -1.2177441911816054 0.92518447179418661 0 0 0 0 21.910748923112806 1.521072801038752 0 1.521072801038752 -3.2371808365010839 0 0 0 0 -27.788822962131235 -73.58803110833648 0 -73.58803110833648 83.150284868121759 0 0 0 0 -0.78294971774812439 -72.539662631146768 0 -72.539662631146768 -45.274610664161258 0 0 0 0 231.3934433677814 88.898962791305848 0 88.898962791305848 -103.4646168661227 0 0 0 0 9.4953311467480717 -2.732240052771683 0 -2.732240052771683 0.99321234963299199 0 0 0 0 19.814030899401587 -616.5416232477869 0 -616.5416232477869 1077.2035838517108 0 0 0 0 25.879338485013605 -5.2565821814386764 0 -5.2565821814386764 -1.9438627899592551 0 0 0 0 236.33121438058879 -221.91885181091507 0 -221.91885181091507 -108.25109893308911 0 0 0 0 249.56204441440968 -318.95247039040441 0 -318.95247039040441 -246.72742878759163 0 0 0 0 219.01110282497029 90.043080405634271 0 90.043080405634271 50.787297675869979 0 0 0 0 9.4266872339519399 -5.6360098453518717 0 -5.6360098453518717 -0.35514187742086012 0 0 0 0 65.955679029536441 -434.26024005539193 0 -434.26024005539193 993.46124085851136 0 0 0 0 205.5348358169249 -101.58804375219322 0 -101.58804375219322 -111.38854338498641 0 0 0 0 45.920155886632529 -257.4235506284133 0 -257.4235506284133 226.63648728762928 0 0 0 0 4.2196679985172807 -5.6878159809786037 0 -5.6878159809786037 -4.7360349265420973 0 0 0 0 225.04730219202611 -569.16321669557215 0 -569.16321669557215 397.31458736333974 0 0 0 0 72.613235390710997 -446.219607240774 0 -446.219607240774 521.74928338696873 0 0 0 0 336.49678357282619 -381.36002801676261 0 -381.36002801676261 -149.5361763598778 0 0 0 0 468.1456987070942 -816.03361740018147 0 -816.03361740018147 353.24717306781884 0 0 0 0 187.18305315068756 -33.238079974185922 0 -33.238079974185922 -6.3924628209205423 0 0 0 0 187.18305315068756 -65.821956485587094 0 -65.821956485587094 24.677129785379954 0 0 0 0 3.220362292015416 -0.11618815421924467 0 -0.11618815421924467 -1.7221566487209379 0 0 0 0 1498.0912390072317 -326.31063042177374 0 -326.31063042177374 69.476968463144615 0 0 0 0 490.85367246710484 559.15409006823973 0 559.15409006823973 110.48763684502705 0 0 0 0 1102.3915971863098 -245.96076553956729 0 -245.96076553956729 488.22287331194627 0 0 0 0 770.74441039425801 -235.72484399576496 0 -235.72484399576496 28.297231070636172 0 0 0 0 166.31462489897058 10.272389929740225 0 10.272389929740225 44.990790413798848 0 0 0 0 768.47724994615533 -469.875911956344 0 -469.875911956344 340.07794558984796 0 0 0 0 1079.5258195976312 -375.02420865878196 0 -375.02420865878196 44.525345990531513 0 0 0 0 1496.179157386978 -361.85109750552277 0 -361.85109750552277 129.92501108138018 0 0 0 0 1153.7677211478658 -579.25665577489804 0 -579.25665577489804 24.988542362757315 0 0 0 0 436.59421203395414 447.22362628948508 0 447.22362628948508 -565.34240249130926 0 0 0 0 1497.4637852395767 -84.592703513446949 0 -84.592703513446949 -524.99834602115777 0 0 0 0 227.39260890535297 -307.99270873686947 0 -307.99270873686947 -291.78450101126589 0 0 0 0 84.120847243655589 -111.24682883692719 0 -111.24682883692719 -538.09545299517504 0 0 0 0 590.631230413195 -369.2334657296995 0 -369.2334657296995 -44.107178130677596 0 0 0 0 113.57805542525057 -131.5774761348722 0 -131.5774761348722 -125.76533041451341 0 0 0 0 609.53166465868344 -142.25453142425528 0 -142.25453142425528 -330.36122102599103 0 0 0 0 1497.7898952973949 -677.76618266197272 0 -677.76618266197272 -43.207930522412759 0 0 0 0 1496.9854341640887 335.29497934805556 0 335.29497934805556 -100.26603864504789 0 0 0 0 318.55172002618656 -589.47714813751372 0 -589.47714813751372 813.80288928041421 0 0 0 0 6.9371924243826157 -2.652306640985215 0 -2.652306640985215 1.7782913204019248 0 0 0 0 14.573525491836563 -26.658928032068587 0 -26.658928032068587 81.144277706784806 0 0 0 0 61.486819552228553 -273.91139266141425 0 -273.91139266141425 259.95745300267902 0 0 0 0 26.03547737109966 -173.17856636311151 0 -173.17856636311151 -11.243450437462741 0 0 0 0 16.242922693293895 -6.6329490369812341 0 -6.6329490369812341 -0.32823295007878683 0 0 0 0 97.608609341701595 -97.323532785948544 0 -97.323532785948544 -57.476590176255968 0 0 0 0 9.9853808382119951 27.783212378274158 0 27.783212378274158 -177.88498421901011 0 0 0 0 1.2542738147520893 -7.211807920708118 0 -7.211807920708118 -3.1215218512293723 0 0 0 0 161.09537832436672 -164.89187110250447 0 -164.89187110250447 -79.309274587851846 0 0 0 0 9.570403307561719 139.07065216968556 0 139.07065216968556 -476.89770304310667 0 0 0 0 523.34493000099519 -105.47632470232317 0 -105.47632470232317 -204.75597199983531 0 0 0 0 -339.3669602206046 -510.44011272962132 0 -510.44011272962132 -41.398709471359957 0 0 0 0 173.22917725241768 -490.55670479889545 0 -490.55670479889545 -40.646203514581885 0 0 0 0 -59.580950827162269 -291.59684471264904 0 -291.59684471264904 61.109981806661551 0 0 0 0 94.52147382853218 -347.54725467558967 0 -347.54725467558967 -88.438867981015164 0 0 0 0 -129.48124304478915 -162.70178379538834 0 -162.70178379538834 -240.76614492657279 0 0 0 0 -64.062683054013178 -282.77126455789539 0 -282.77126455789539 -300.84485404183164 0 0 0 0 6.3178429365171418 -1.9747655325036622 0 -1.9747655325036622 -0.20137331237029077 0 0 0 0 830.80932204765531 -23.219326730131513 0 -23.219326730131513 -67.757277354497319 0 0 0 0 0.83507700593543532 -1.2013311259009605 0 -1.2013311259009605 1.2563294993306404 0 0 0 0 803.68736581233009 -212.69401621468143 0 -212.69401621468143 -73.589096110467608 0 0 0 0 756.73831610107118 -34.771039144517545 0 -34.771039144517545 -14.24425376054478 0 0 0 0 623.59046732772003 32.991815471407961 0 32.991815471407961 -33.337906138189624 0 0 0 0 616.96044664774115 12.995575455377768 0 12.995575455377768 -75.870816610491147 0 0 0 0 612.26650583462742 -12.452429910244092 0 -12.452429910244092 -82.608094393486539 0 0 0 0 747.95856406152438 -196.89287152785235 0 -196.89287152785235 8.9693899528562611 0 0 0 0 425.74181817075169 -81.523755441960475 0 -81.523755441960475 -27.68762457811971 0 0 0 0 398.02563784541189 -175.29945484146026 0 -175.29945484146026 -117.9094354995257 0 0 0 0 482.82529747119088 -212.06363428979176 0 -212.06363428979176 -271.62630074265286 0 0 0 0 939.08654223582971 -530.22524595871414 0 -530.22524595871414 123.06251274544462 0 0 0 0 647.12483276290777 -223.58638987250956 0 -223.58638987250956 18.725394713125411 0 0 0 0 -0.32166825741763816 -0.9636688567509295 0 -0.9636688567509295 -1.323386715498732 0 0 0 0 643.11239478243101 -150.02110082449346 0 -150.02110082449346 333.87474704696024 0 0 0 0 536.49166006563701 54.6697938051447 0 54.6697938051447 -135.64777966552435 0 0 0 0 741.94512962455769 -258.15009198037143 0 -258.15009198037143 -338.91901957658615 0 0 0 0 456.12361676023102 -113.75415631940666 0 -113.75415631940666 15.065004984318747 0 0 0 0 689.42054534099725 -201.50614633773625 0 -201.50614633773625 -19.740373314521776 0 0 0 0 -140.37205058697145 -54.915636239175456 0 -54.915636239175456 330.1157373042621 0 0 0 0 1.8985895170234688 2.5997383527176492 0 2.5997383527176492 4.9418808542086783 0 0 0 0 28.686636067744985 -89.933973816231401 0 -89.933973816231401 171.8726972666459 0 0 0 0 -442.78922011469467 109.45017004027005 0 109.45017004027005 252.16891323084201 0 0 0 0 -330.86452110039397 174.65377407593647 0 174.65377407593647 212.37649606509558 0 0 0 0 -343.30578177398525 20.65865859412763 0 20.65865859412763 272.04744769102308 0 0 0 0 -209.74668582850336 141.24450564398148 0 141.24450564398148 134.71741042480244 0 0 0 0 -98.870886699205585 27.439604741215362 0 27.439604741215362 165.66970345227355 0 0 0 0 57.170897448835603 87.09384501412751 0 87.09384501412751 -2.3628718499876413 0 0 0 0 -63.086699543630857 21.705264953294773 0 21.705264953294773 44.229243436976503 0 0 0 0 44.899668401580129 120.08978261307129 0 120.08978261307129 132.19634948635883 0 0 0 0 10.492139880214381 28.85708371151884 0 28.85708371151884 -32.456884622239613 0 0 0 0 4.6197035646753966 6.8056041059416241 0 6.8056041059416241 15.166113041697169 0 0 0 0 4.3004511893329891 -0.18759184604986423 0 -0.18759184604986423 10.159868312071364 0 0 0 0 330.30668406329869 18.421516996108778 0 18.421516996108778 34.674740380261028 0 0 0 0 329.85782743024288 9.7445311818043479 0 9.7445311818043479 64.481761643122127 0 0 0 0 611.90252517927593 -5.1258961647409009 0 -5.1258961647409009 -64.193654967822113 0 0 0 0 616.83196554454582 20.76519494683026 0 20.76519494683026 -51.148685730342777 0 0 0 0 510.44783220174349 1.6924304628848859 0 1.6924304628848859 -7.6522166569002366 0 0 0 0 420.23719838128295 10.763029251399985 0 10.763029251399985 -3.0179544854881897 0 0 0 0 432.3331422351996 63.167456789443349 0 63.167456789443349 45.882595130761501 0 0 0 0 330.83014254205455 -7.0538824621211234 0 -7.0538824621211234 -4.4409675463598433 0 0 0 0 326.2167047213843 71.127218089916369 0 71.127218089916369 39.599053259320442 0 0 0 0 76.349899469900265 -49.616985656879137 0 -49.616985656879137 72.650170809283395 0 0 0 0 3.3164940086339811 3.8966616264517597 0 3.8966616264517597 15.603102950889706 0 0 0 0 1.0365545279854835 4.1146513254882473 0 4.1146513254882473 15.282613261806032 0 0 0 0 8.9608875210794992 0.096823982564623989 0 0.096823982564623989 16.113344954885768 0 0 0 0 287.77768297872717 -47.521715208509931 0 -47.521715208509931 -15.905874045384849 0 0 0 0 331.07936467534228 -9.107512903556767 0 -9.107512903556767 -38.836591541824191 0 0 0 0 0.73986745347430816 1.2990363502142301 0 1.2990363502142301 1.0006593033636983 0 0 0 0 49.47937897861857 10.805383850488909 0 10.805383850488909 12.074338827196996 0 0 0 0 36.917704416268407 49.44360876132076 0 49.44360876132076 -24.080722608463532 0 0 0 0 4.893547705930299 6.9862460457490076 0 6.9862460457490076 3.7155685795253688 0 0 0 0 -2.0986322994490365 42.569744031892526 0 42.569744031892526 14.182218715287206 0 0 0 0 212.16921023599207 116.09376745438965 0 116.09376745438965 19.655843708345856 0 0 0 0 402.58114606342588 111.26425005870846 0 111.26425005870846 45.716257979434658 0 0 0 0 312.41803306369115 -11.368262243985896 0 -11.368262243985896 81.723507430204336 0 0 0 0 512.41964412202606 -33.206727762844821 0 -33.206727762844821 -13.57474861519438 0 0 0 0 502.054546917273 -139.82295191765502 0 -139.82295191765502 117.99720471155678 0 0 0 0 499.33094329696996 -49.628437263419727 0 -49.628437263419727 154.70424094129453 0 0 0 0 483.57709404497871 -118.35039917546609 0 -118.35039917546609 156.95902550035066 0 0 0 0 475.00590520141191 -102.78871692558536 0 -102.78871692558536 223.6843047989928 0 0 0 0 453.4460185893945 58.657582681497502 0 58.657582681497502 15.064618866084174 0 0 0 0 107.12166483955525 62.753041145431055 0 62.753041145431055 44.267531964978048 0 0 0 0 123.39309940571911 -105.51995505449884 0 -105.51995505449884 246.17669104467802 0 0 0 0 2.2834529058989861 -0.26757943803120954 0 -0.26757943803120954 2.0437671781641873 0 0 0 0 53.68691688480294 35.520470552313895 0 35.520470552313895 155.17466711261204 0 0 0 0 52.415438341081042 70.227800417475365 0 70.227800417475365 40.363445054488579 0 0 0 0 60.989562890074239 16.473360771341362 0 16.473360771341362 76.186252193896962 0 0 0 0 -13.615543288673052 -22.543427174763735 0 -22.543427174763735 161.58898477054515 0 0 0 0 21.625600011392294 -2.4235260421453262 0 -2.4235260421453262 89.800077322520096 0 0 0 0 217.08393761055299 -66.506417904446209 0 -66.506417904446209 105.78336647140191 0 0 0 0 337.3354340302094 -174.41571902922965 0 -174.41571902922965 121.59265991900565 0 0 0 0 258.05764670030476 11.932596547943017 0 11.932596547943017 49.019592337411382 0 0 0 0 214.98764473180731 -76.323984194318911 0 -76.323984194318911 12.328947007328395 0 0 0 0 517.60401714440331 -21.44205693196551 0 -21.44205693196551 35.601843865274589 0 0 0 0 350.81944004569704 -40.578509324666427 0 -40.578509324666427 33.639326106649548 0 0 0 0 432.83778626573371 17.459108748046532 0 17.459108748046532 173.33436471687165 0 0 0 0 486.61989352764948 128.39502921260629 0 128.39502921260629 -52.266968385319274 0 0 0 0 704.46543170299799 50.686707839442477 0 50.686707839442477 -25.720901444346168 0 0 0 0 388.1270777887529 76.640942260813205 0 76.640942260813205 -4.024565130511462 0 0 0 0 512.14166423683946 86.694509720678042 0 86.694509720678042 -5.0587973967035396 0 0 0 0 383.11181523122013 199.60483308515234 0 199.60483308515234 -3.0028994807259153 0 0 0 0 597.89699534605495 187.42461096082229 0 187.42461096082229 -23.589681166893229 0 0 0 0 599.96821720464959 234.8810824340392 0 234.8810824340392 -99.715161651075846 0 0 0 0 635.3181519313207 284.68017639206062 0 284.68017639206062 -72.411258908346412 0 0 0 0 685.1101028574476 229.37383737165379 0 229.37383737165379 -156.77142127345343 0 0 0 0 537.63376101057577 243.08711599511912 0 243.08711599511912 -92.426575555780843 0 0 0 0 1174.6567394316539 247.84709500031184 0 247.84709500031184 -206.44813363220874 0 0 0 0 529.78154375275665 193.54137753972876 0 193.54137753972876 -97.364763949274021 0 0 0 0 559.8513618476627 -89.419696250345339 0 -89.419696250345339 140.93290584112594 0 0 0 0 603.80286598937096 18.701812555901711 0 18.701812555901711 -25.92392516950531 0 0 0 0 930.7674967526076 -213.64297325513911 0 -213.64297325513911 136.08404625824619 0 0 0 0 614.32130938358523 -98.393889206849906 0 -98.393889206849906 77.974277382559649 0 0 0 0 576.56678880786535 114.41246835363705 0 114.41246835363705 169.04712157815493 0 0 0 0 654.48782944553943 21.148956022923784 0 21.148956022923784 417.79366804187157 0 0 0 0 1174.6098758531955 -217.38939775305153 0 -217.38939775305153 -119.17785955434204 0 0 0 0 422.0029002936497 473.02711399847362 0 473.02711399847362 46.717678676451271 0 0 0 0 5.6539398680456259 1.0605269524499783 0 1.0605269524499783 0.29977518742883702 0 0 0 0 1030.8724474723429 172.43478102795109 0 172.43478102795109 102.28956047394331 0 0 0 0 626.84528007231847 -504.02844145996551 0 -504.02844145996551 260.79493678120093 0 0 0 0 109.62168209601532 -6.2439319171161856 0 -6.2439319171161856 -251.42808388654686 0 0 0 0 65.924920574635053 38.05369131978955 0 38.05369131978955 126.62699033589035 0 0 0 0 14.951457041717314 -0.051660300032540407 0 -0.051660300032540407 -1.6165984939773084 0 0 0 0 50.260537057652982 -7.1165357216079315 0 -7.1165357216079315 -3.3391476897513712 0 0 0 0 12.735291350710089 -4.5565560559100522 0 -4.5565560559100522 -3.516900574837091 0 0 0 0 244.54416461607991 22.145257155971422 0 22.145257155971422 -218.75941080996455 0 0 0 0 -20.557680766162321 -176.29837521298987 0 -176.29837521298987 -220.03491924762062 0 0 0 0 4.7212220175985031 0.04158806746653454 0 0.04158806746653454 -41.651483094666901 0 0 0 0 516.01934077455485 236.79952218518554 0 236.79952218518554 -91.387293209868972 0 0 0 0 183.36839009215703 66.192424162464533 0 66.192424162464533 -111.25083106669672 0 0 0 0 546.27151837525867 150.50000418252574 0 150.50000418252574 -193.55391275345195 0 0 0 0 401.94091629373986 -133.00091935536688 0 -133.00091935536688 -143.80314309999466 0 0 0 0 447.97823536008605 230.56813176418572 0 230.56813176418572 -88.698174118686126 0 0 0 0 -145.1465446967045 -353.81254326738531 0 -353.81254326738531 -349.17940468330193 0 0 0 0 9.6663181816016532 -6.4071945454780099 0 -6.4071945454780099 -0.28561736033990259 0 0 0 0 270.97294078929599 10.14386186927959 0 10.14386186927959 -288.62977540737927 0 0 0 0 -628.11299891645831 -659.98784418091725 0 -659.98784418091725 74.719719981479273 0 0 0 0 580.02945015219711 -769.54293055246865 0 -769.54293055246865 84.301580257871478 0 0 0 0 4.8614288365746106 -2.8534962277834035 0 -2.8534962277834035 0.37893826675201331 0 0 0 0 1499.2001873267407 553.84893990968783 0 553.84893990968783 35.488455257231607 0 0 0 0 704.47919559206935 110.40765825045798 0 110.40765825045798 -102.77569921051327 0 0 0 0 680.28003817465708 -67.274834232266912 0 -67.274834232266912 -79.008901351487282 0 0 0 0 9.8258606240759008 -3.031120827321653 0 -3.031120827321653 -1.8258112385442329 0 0 0 0 52.7064439735409 63.135309097518807 0 63.135309097518807 167.64086839277962 0 0 0 0 23.004423449961905 -10.821850734962183 0 -10.821850734962183 -3.9466318840020733 0 0 0 0 1497.6799373796907 -202.67553230695276 0 -202.67553230695276 -252.05606067043007 0 0 0 0 4.8394520624533097 -0.51703938556787632 0 -0.51703938556787632 -0.62185689445258618 0 0 0 0 778.77318692870131 -586.30952101687922 0 -586.30952101687922 265.67040001807646 0 0 0 0 394.31523195185764 42.040723171193349 0 42.040723171193349 -105.47373980678276 0 0 0 0 -39.757419906811492 -266.23907083680751 0 -266.23907083680751 -92.069251498267477 0 0 0 0 428.64272998970591 -187.7978676716275 0 -187.7978676716275 -7.3182866302449838 0 0 0 0 418.90387595938864 67.135406697717372 0 67.135406697717372 -81.521100592649418 0 0 0 0 245.3890449042492 160.10891956702562 0 160.10891956702562 -6.5797341866491479 0 0 0 0 281.66706686369798 116.45048926516029 0 116.45048926516029 -9.5363261769443852 0 0 0 0 252.08497497176359 68.971909737363376 0 68.971909737363376 -78.989158529717315 0 0 0 0 341.45290032254798 136.36431816659979 0 136.36431816659979 -37.17242592478442 0 0 0 0 338.04712363152294 61.339891949336248 0 61.339891949336248 -122.37511062394151 0 0 0 0 338.95187459335693 36.440629678093856 0 36.440629678093856 -67.996022659894152 0 0 0 0 283.1118014413787 30.321970902114799 0 30.321970902114799 -47.184819708520081 0 0 0 0 143.07653347023529 -56.519056548371054 0 -56.519056548371054 -126.22600712274652 0 0 0 0 207.84616343383914 66.082719282110702 0 66.082719282110702 -10.827618830364941 0 0 0 0 252.29229691365072 46.938167607201194 0 46.938167607201194 -91.939142615665787 0 0 0 0 260.95211084813718 44.982535612911079 0 44.982535612911079 -134.06615858203986 0 0 0 0 345.50841904632352 -12.208016161997421 0 -12.208016161997421 -6.2646316698665032 0 0 0 0 7.340289415727197 -5.4469702047877613 0 -5.4469702047877613 0.42904422176279766 0 0 0 0 4.5652836031821096 -3.0935665506893839 0 -3.0935665506893839 1.666002797546307 0 0 0 0 782.43198609074102 185.84037213523999 0 185.84037213523999 -89.083817742485735 0 0 0 0 205.54162649452155 71.690320838194566 0 71.690320838194566 135.98057538752255 0 0 0 0 753.3574964001773 156.60191043484792 0 156.60191043484792 -77.742303750482733 0 0 0 0 760.19009134997941 132.15832914389284 0 132.15832914389284 6.2531362909185191 0 0 0 0 4.188603567625691 -2.4518017747928589 0 -2.4518017747928589 -0.69000905749792452 0 0 0 0 1115.1605031048275 264.93892794210751 0 264.93892794210751 -86.1662863063234 0 0 0 0 0.055526114327260956 2.4017538314773716 0 2.4017538314773716 5.1215934064590289 0 0 0 0 0.81900095912001003 -2.6497770746657885 0 -2.6497770746657885 10.997933442641495 0 0 0 0 483.75890042244828 -471.7612997423621 0 -471.7612997423621 406.76600650124874 0 0 0 0 477.17464007840317 677.85083246101328 0 677.85083246101328 -238.14177080811442 0 0 0 0 -43.847800019871102 17.21680309911585 0 17.21680309911585 25.463596742620211 0 0 0 0 59.577445740633777 43.649094605311717 0 43.649094605311717 -6.9691428528585675 0 0 0 0 20.6616925826238 14.531342760042207 0 14.531342760042207 6.1954876702893671 0 0 0 0 14.520592584242877 28.769493856168083 0 28.769493856168083 -0.10309472306289535 0 0 0 0 189.39403540070725 -113.96171080307158 0 -113.96171080307158 -81.71949709916953 0 0 0 0 8.1505887711093283 -8.1935219795040624 0 -8.1935219795040624 6.121887819548089 0 0 0 0 43.283064782495785 3.3981969010910689 0 3.3981969010910689 4.8693388619049074 0 0 0 0 36.742190942450179 21.00259823142369 0 21.00259823142369 2.5590125310861822 0 0 0 0 1.0186114008435236 -4.09866670256236 0 -4.09866670256236 11.82313815922371 0 0 0 0 18.751560454539685 -2.4348499006116526 0 -2.4348499006116526 13.494142241133886 0 0 0 0 -22.724884593579191 -67.011292613005708 0 -67.011292613005708 163.17241621876019 0 0 0 0 25.555749145891241 13.156833129109145 0 13.156833129109145 2.7602643851996618 0 0 0 0 34.87038825579657 -10.515455743826351 0 -10.515455743826351 14.921344750448952 0 0 0 0 19.802024759944743 17.11966411649064 0 17.11966411649064 31.971377136777846 0 0 0 0 1.2441176697420815 156.78439051304122 0 156.78439051304122 61.929044821154093 0 0 0 0 -176.26872245358345 50.687788384690975 0 50.687788384690975 228.16985427490908 0 0 0 0 279.66806976932457 56.853772478906649 0 56.853772478906649 57.524303784435688 0 0 0 0 16.417830520424786 -74.406604572360493 0 -74.406604572360493 61.403571227758221 0 0 0 0 -15.402631850061766 -16.014370867954995 0 -16.014370867954995 236.54139255819609 0 0 0 0 -0.015873119955406106 -1.6518245066282233 0 -1.6518245066282233 1.4448964311839205 0 0 0 0 148.12607105500092 28.79562813575285 0 28.79562813575285 -144.84743635381074 0 0 0 0 -49.131161679207253 -175.83163371673254 0 -175.83163371673254 253.06372009819825 0 0 0 0 34.755967938661797 16.701076821820038 0 16.701076821820038 21.061803337596757 0 0 0 0 9.7593655366337799 -7.5240321026990227 0 -7.5240321026990227 12.545576730524807 0 0 0 0 -91.432840135303195 -119.62534816999141 0 -119.62534816999141 101.44003039781092 0 0 0 0 757.49371729524501 -206.32255447309853 0 -206.32255447309853 9.8595822558563668 0 0 0 0 303.34078730713742 -78.929628964109952 0 -78.929628964109952 0.8588398925094225 0 0 0 0 550.83750953533763 -181.35292076980113 0 -181.35292076980113 -84.29388248500311 0 0 0 0 545.72765408940086 35.494977594877128 0 35.494977594877128 -5.4225502995614079 0 0 0 0 455.5344327048183 -102.674497516472 0 -102.674497516472 81.905486104737065 0 0 0 0 357.27880071782283 -6.8285166533460142 0 -6.8285166533460142 3.0150182087244559 0 0 0 0 252.99548490672328 -143.42412169799809 0 -143.42412169799809 -34.617065444377658 0 0 0 0 513.36205071275435 -92.362622352406106 0 -92.362622352406106 -17.227803845956259 0 0 0 0 368.42614508054476 87.763545095159316 0 87.763545095159316 164.00259808148621 0 0 0 0 317.53305342758995 39.432807735288407 0 39.432807735288407 122.16044033208527 0 0 0 0 438.98604269353837 -4.8456711353273931 0 -4.8456711353273931 100.10584425628258 0 0 0 0 64.896904261635427 86.991096260858285 0 86.991096260858285 -36.887635175367905 0 0 0 0 4.7699542209050385 10.271635829194045 0 10.271635829194045 35.546361364531272 0 0 0 0 -162.30354806762307 79.579796656806138 0 79.579796656806138 92.053835951675865 0 0 0 0 -6.7836640401938837 68.903818297235418 0 68.903818297235418 4.2766485986547877 0 0 0 0 -174.62838109044151 39.743337618803707 0 39.743337618803707 -28.836888937886215 0 0 0 0 49.044560563434061 -94.554172803332222 0 -94.554172803332222 -85.380544008547076 0 0 0 0 65.607815835051042 -44.019638633786599 0 -44.019638633786599 57.090639830208602 0 0 0 0 -85.849475716388497 102.56754376814661 0 102.56754376814661 -92.339947764122371 0 0 0 0 95.424288380306734 -58.289456020183934 0 -58.289456020183934 44.665873000099964 0 0 0 0 103.35621382496379 -95.209155573060343 0 -95.209155573060343 -58.464105765262502 0 0 0 0 -213.61488408257947 -241.11303664662864 0 -241.11303664662864 87.033472397437436 0 0 0 0 -414.2813394113 -102.11625381286649 0 -102.11625381286649 142.87659704477119 0 0 0 0 1.1425862784997014 5.302564025843985 0 5.302564025843985 4.5868752054949695 0 0 0 0 0.92865537643810425 8.1414106324971005 0 8.1414106324971005 40.017870495259146 0 0 0 0 -13.586521497114745 -13.595889137433915 0 -13.595889137433915 18.62022253718618 0 0 0 0 -38.157095650310112 86.058829265078145 0 86.058829265078145 3.6540004817669143 0 0 0 0 -36.814952092477597 39.166737645563956 0 39.166737645563956 112.06513537414418 0 0 0 0 -117.25210078975238 102.30790402463259 0 102.30790402463259 63.519490349172997 0 0 0 0 -68.786702447931475 20.477828271114902 0 20.477828271114902 28.036783505270989 0 0 0 0 -59.184943264171807 -52.029084669555488 0 -52.029084669555488 137.09671158632221 0 0 0 0 -432.43367405819208 15.50421299671325 0 15.50421299671325 274.00463398678039 0 0 0 0 -0.84583721999059014 5.0101505680537812 0 5.0101505680537812 46.334120933932518 0 0 0 0 -76.663625471481055 32.278860704303952 0 32.278860704303952 430.85253351437495 0 0 0 0 362.90464648123657 243.02942730551786 0 243.02942730551786 58.626519456178357 0 0 0 0 3.6160907733706154 154.84279665428949 0 154.84279665428949 -4.3599225215821207 0 0 0 0 10.330186840390979 -96.719365564455529 0 -96.719365564455529 -36.219810417229382 0 0 0 0 220.03310720713989 -112.90810239194275 0 -112.90810239194275 78.831554192842304 0 0 0 0 1.859941374898098 2.1792867578268194 0 2.1792867578268194 3.5930146388441244 0 0 0 0 123.69175679806267 76.611836234602379 0 76.611836234602379 171.998944874573 0 0 0 0 641.10230696489089 -186.11416114591111 0 -186.11416114591111 -20.041368101436092 0 0 0 0 194.54973399766573 -0.91588773840703652 0 -0.91588773840703652 102.49574026127993 0 0 0 0 614.40281346148913 -81.109620704271947 0 -81.109620704271947 -116.51412858949698 0 0 0 0 609.13065448693396 -51.978535391320293 0 -51.978535391320293 -250.4346267674614 0 0 0 0 731.70921733701289 130.29531907543696 0 130.29531907543696 -61.389687491458972 0 0 0 0 404.21168131427385 344.05794143794901 0 344.05794143794901 -193.62565937055479 0 0 0 0 852.12966029019276 -117.20651211327549 0 -117.20651211327549 6.3557122822385281 0 0 0 0 757.24170078696852 235.46827518517694 0 235.46827518517694 8.9181993876486558 0 0 0 0 451.64976100424894 62.151237098623255 0 62.151237098623255 416.31015804157505 0 0 0 0 765.72991356799321 -83.842206264743481 0 -83.842206264743481 -16.682611540876678 0 0 0 0 520.45444379597939 -217.16296178382709 0 -217.16296178382709 248.60780760971102 0 0 0 0 472.33595309403563 -97.143529806042807 0 -97.143529806042807 33.101679065042845 0 0 0 0 620.41771518479436 242.29197756725284 0 242.29197756725284 -50.632408427676637 0 0 0 0 -29.330688286579971 4.9400998686587627 0 4.9400998686587627 32.063993065919931 0 0 0 0 308.69140094006798 297.16715973307601 0 297.16715973307601 161.32847824612327 0 0 0 0 109.79412363654592 -168.45427728506547 0 -168.45427728506547 477.56560895192524 0 0 0 0 9.0024552452691751 -1.6699628144937186 0 -1.6699628144937186 0.78270602362875508 0 0 0 0 -33.73063347768084 29.51843552934406 0 29.51843552934406 227.71910860464413 0 0 0 0 68.582459002852374 -175.66982914592745 0 -175.66982914592745 261.73609159721491 0 0 0 0 149.86477212642558 -94.940370236723993 0 -94.940370236723993 150.19916104595541 0 0 0 0 465.35839154305268 -338.1421580787428 0 -338.1421580787428 314.89982819697252 0 0 0 0 363.12837774566196 8.6730094663007549 0 8.6730094663007549 -117.26705357762967 0 0 0 0 229.81984108547067 -208.57985334536988 0 -208.57985334536988 104.2959153466818 0 0 0 0 319.27045690115392 49.818925171292904 0 49.818925171292904 -32.574097146012718 0 0 0 0 38.331886099992516 -176.36472612078796 0 -176.36472612078796 135.145946956849 0 0 0 0 156.09620216039093 -105.2709572630838 0 -105.2709572630838 -40.441996993013163 0 0 0 0 24.468926100825229 -123.81219342663917 0 -123.81219342663917 16.564140225773372 0 0 0 0 16.827494575478795 -115.31707812350851 0 -115.31707812350851 84.045503076613386 0 0 0 0 34.121018986277704 -106.37663942066501 0 -106.37663942066501 24.754106235436666 0 0 0 0 43.87160759751896 -86.970342656009052 0 -86.970342656009052 61.806717570252658 0 0 0 0 34.542430529852936 -88.254674508178141 0 -88.254674508178141 61.632937628453874 0 0 0 0 9.6611670388674611 -89.651435376306836 0 -89.651435376306836 89.864656382320845 0 0 0 0 12.950130862472179 -82.049133304387396 0 -82.049133304387396 68.874939002726023 0 0 0 0 26.003540820807757 -73.035843330730131 0 -73.035843330730131 74.922166585998639 0 0 0 0 -5.6842769316945123 -83.617809432231297 0 -83.617809432231297 147.85204430900922 0 0 0 0 -1.2571684193371766 -83.412029078757769 0 -83.412029078757769 88.296235585436079 0 0 0 0 82.46400988453297 -6.1634456710344239 0 -6.1634456710344239 65.861372690153075 0 0 0 0 10.499997145579982 -65.775974117670557 0 -65.775974117670557 34.649731648501984 0 0 0 0 207.32937035478426 20.101096748225245 0 20.101096748225245 61.454661477057925 0 0 0 0 332.26127409373044 -26.668051464857399 0 -26.668051464857399 12.777694600248651 0 0 0 0 154.71526992658619 -73.508431486939116 0 -73.508431486939116 61.989545601587452 0 0 0 0 127.67280426464367 -52.065602379556367 0 -52.065602379556367 55.051154888489691 0 0 0 0 91.718955913996979 -68.332625271154029 0 -68.332625271154029 56.090290618823929 0 0 0 0 139.12492003082525 -45.325902060083536 0 -45.325902060083536 36.168892646968743 0 0 0 0 94.665372835169364 -71.138847492655259 0 -71.138847492655259 52.659146187783335 0 0 0 0 65.419258414675824 -74.083876717641033 0 -74.083876717641033 59.952694215466181 0 0 0 0 102.63403063633359 -81.99279470959118 0 -81.99279470959118 46.014066632193135 0 0 0 0 58.68013373796839 -93.959134834274664 0 -93.959134834274664 43.663235619833358 0 0 0 0 56.75914129880266 -71.719046065065413 0 -71.719046065065413 56.713412018358213 0 0 0 0 21.664816941045501 -63.610756347256029 0 -63.610756347256029 55.537294396665857 0 0 0 0 54.534537571520104 -44.552885566688929 0 -44.552885566688929 25.964479983718775 0 0 0 0 55.68977796248555 -50.292169812985776 0 -50.292169812985776 41.003394943443709 0 0 0 0 55.648807142572878 -69.804407209718192 0 -69.804407209718192 53.607917436196658 0 0 0 0 92.054488684721491 -47.055727017243044 0 -47.055727017243044 40.901270745620423 0 0 0 0 86.635097202126417 -41.091452954984561 0 -41.091452954984561 35.916880218357164 0 0 0 0 91.543681657216439 -28.338620144386368 0 -28.338620144386368 17.731042688745219 0 0 0 0 104.217797734741 -43.328834842355718 0 -43.328834842355718 34.957396014726328 0 0 0 0 101.57616260845043 -23.375331549085786 0 -23.375331549085786 43.663302288870909 0 0 0 0 114.79374997443574 -30.1418759105145 0 -30.1418759105145 44.939990775341357 0 0 0 0 100.82101370308783 -13.952187459886773 0 -13.952187459886773 -16.391580491348577 0 0 0 0 44.1407620425598 -19.029801970535118 0 -19.029801970535118 16.105019706952135 0 0 0 0 37.634770814071544 -17.829427257055613 0 -17.829427257055613 -20.753981998366726 0 0 0 0 48.451802574782846 -51.132228678736055 0 -51.132228678736055 23.930065213477064 0 0 0 0 54.885430000985025 -51.634505539779639 0 -51.634505539779639 -48.220592053457949 0 0 0 0 48.590388046641237 -64.824667293689345 0 -64.824667293689345 -183.32471955156416 0 0 0 0 33.38962375397233 -9.2946513876117418 0 -9.2946513876117418 2.5183482119879415 0 0 0 0 23.423018991471849 2.6297034986441759 0 2.6297034986441759 -19.873234349486665 0 0 0 0 20.052218174677137 -10.174030465144824 0 -10.174030465144824 9.9173744198606073 0 0 0 0 0.41413554299060706 -45.106247923765295 0 -45.106247923765295 105.04020391099311 0 0 0 0 -2.8764114968143986 -28.551867323310944 0 -28.551867323310944 46.435850574173855 0 0 0 0 23.254717802130472 -5.8605641938549802 0 -5.8605641938549802 1.332713298254383 0 0 0 0 86.525927911276085 -71.754093812964129 0 -71.754093812964129 -179.36027226960869 0 0 0 0 193.39678459709376 94.834676721655114 0 94.834676721655114 -5.9437254290050987 0 0 0 0 20.90265609655944 -12.879645380849979 0 -12.879645380849979 -132.38119332917086 0 0 0 0 1.810358044108682 -0.4474665106379403 0 -0.4474665106379403 -1.6935341818768883 0 0 0 0 223.77296314472915 91.712107761390598 0 91.712107761390598 -5.765011149561019 0 0 0 0 67.642094044674195 47.922879298435873 0 47.922879298435873 -6.0576665965272696 0 0 0 0 2.1965018570244581 -0.63909142963737686 0 -0.63909142963737686 -1.8392079360428539 0 0 0 0 4.8910922372961068 -55.766545579165268 0 -55.766545579165268 -87.234938049226912 0 0 0 0 44.743976448851299 -77.464479482355614 0 -77.464479482355614 -160.66248807732336 0 0 0 0 22.525490987518424 -22.750617339299879 0 -22.750617339299879 -85.428294063643989 0 0 0 0 62.560539184677509 -23.513449896066049 0 -23.513449896066049 -89.290036344145165 0 0 0 0 52.746460779309928 10.022064475914704 0 10.022064475914704 1.8125025714007279 0 0 0 0 102.91671334858893 -25.61541353216262 0 -25.61541353216262 19.930520077874462 0 0 0 0 152.05870281598072 72.690323740087479 0 72.690323740087479 15.720629034143258 0 0 0 0 -30.279825429814991 -55.699271151853736 0 -55.699271151853736 72.432845079075378 0 0 0 0 1.5148696674055557 -0.46931358975877835 0 -0.46931358975877835 -1.1850045453229967 0 0 0 0 129.50929023643675 33.284377633945041 0 33.284377633945041 -25.647483197559268 0 0 0 0 269.43703100998937 -49.734565223253639 0 -49.734565223253639 12.31925570311023 0 0 0 0 114.73251562658879 -15.282416485303656 0 -15.282416485303656 -31.082600205533709 0 0 0 0 -3.1306834709148461 -52.682285471253408 0 -52.682285471253408 -85.898429726019458 0 0 0 0 29.71664568932465 -90.121457966150047 0 -90.121457966150047 -89.241176577809711 0 0 0 0 -6.8675283943002796 -51.531951804172422 0 -51.531951804172422 -43.869328170316294 0 0 0 0 1.7159796317464711 -1.2231784439533691 0 -1.2231784439533691 -0.96611072244613538 0 0 0 0 -163.68295282616509 -203.77331622677616 0 -203.77331622677616 -63.326101907414341 0 0 0 0 117.12775531891748 -146.34463243374421 0 -146.34463243374421 -69.589189752710354 0 0 0 0 9.0882864305785915 -54.213140252796165 0 -54.213140252796165 42.657456950601954 0 0 0 0 77.830528877950201 -60.226983615967583 0 -60.226983615967583 -49.247753938368533 0 0 0 0 60.324887540380587 9.2634455610277655 0 9.2634455610277655 32.893956807065933 0 0 0 0 62.057069673759543 11.534287624612716 0 11.534287624612716 -12.628053931082832 0 0 0 0 47.063304165849331 -58.793689312993138 0 -58.793689312993138 -49.863892993453192 0 0 0 0 46.034533540475422 -43.645122507996575 0 -43.645122507996575 -83.73350816101447 0 0 0 0 15.400050854525034 -71.272872908973113 0 -71.272872908973113 -88.136302423742791 0 0 0 0 7.8677356201616249 -103.38317455276137 0 -103.38317455276137 -154.04682979897916 0 0 0 0 16.267654518111158 -60.219194468574642 0 -60.219194468574642 -132.95593968915455 0 0 0 0 67.536476171072309 -53.807878347431824 0 -53.807878347431824 -93.881712377862641 0 0 0 0 13.173267893365846 -12.27033672422931 0 -12.27033672422931 -123.61332156918434 0 0 0 0 -3.9023751203640131 -89.732253698730347 0 -89.732253698730347 -122.71415360549872 0 0 0 0 10.67416237880721 -3.341623282731959 0 -3.341623282731959 -0.53270433348529878 0 0 0 0 30.870695578258164 -16.202685404095291 0 -16.202685404095291 -104.59306780414045 0 0 0 0 19.605510338509411 1.5124819123076829 0 1.5124819123076829 -3.012606723039724 0 0 0 0 40.550876761724794 -3.3035914099218644 0 -3.3035914099218644 -241.49183443847141 0 0 0 0 -19.408606213324674 -68.713698956041753 0 -68.713698956041753 -91.581837696963703 0 0 0 0 -22.788744100411009 -109.26851229600055 0 -109.26851229600055 -130.05458821419961 0 0 0 0 3.7359142284615885 -1.3892347534614515 0 -1.3892347534614515 -1.3256340484075899 0 0 0 0 111.25715470564137 -65.926118814330948 0 -65.926118814330948 40.094804443229805 0 0 0 0 226.00527007412529 120.06184303715145 0 120.06184303715145 42.422396772247339 0 0 0 0 2.1984222771641981 0.14187997520706119 0 0.14187997520706119 0.18827641436825893 0 0 0 0 77.213164950027021 35.089593561225456 0 35.089593561225456 -5.8039243074872502 0 0 0 0 146.76576634043158 20.510226609981146 0 20.510226609981146 -24.008726718837352 0 0 0 0 65.111537412454709 15.37904646001266 0 15.37904646001266 -5.5699833081816905 0 0 0 0 6.962356178289582 4.6822079122431397 0 4.6822079122431397 -5.5624763490033047 0 0 0 0 59.090129634178084 34.250040159971832 0 34.250040159971832 -4.0826038525926265 0 0 0 0 20.000919688382183 16.478332573157665 0 16.478332573157665 -5.9138339118865915 0 0 0 0 87.853372535427297 3.2721349972950975 0 3.2721349972950975 -9.5820935032425041 0 0 0 0 73.153723263771099 -8.0905567798581615 0 -8.0905567798581615 -53.745015523808433 0 0 0 0 42.604620968734451 -11.005202278268492 0 -11.005202278268492 0.97160521823295554 0 0 0 0 19.899905785302579 5.508365449476269 0 5.508365449476269 -6.4723720080443599 0 0 0 0 23.484544593495229 2.6209011510145501 0 2.6209011510145501 -4.6473972459884862 0 0 0 0 39.613344104115185 5.630207685861933 0 5.630207685861933 -10.789761244855981 0 0 0 0 75.35760340528941 18.576730469715585 0 18.576730469715585 -14.048377483542481 0 0 0 0 7.7796520841110226 0.25476436114911927 0 0.25476436114911927 -1.3475249779004059 0 0 0 0 39.766494951352797 -4.4085029560992552 0 -4.4085029560992552 -8.8211738437294116 0 0 0 0 57.202378431369198 8.5965720637104823 0 8.5965720637104823 14.879066463108757 0 0 0 0 -0.9388799429612793 0.018820249170106607 0 0.018820249170106607 0.86965984091257553 0 0 0 0 139.52124827544833 28.685912911007563 0 28.685912911007563 18.568472587181532 0 0 0 0 259.14423111190399 17.492520467434588 0 17.492520467434588 -11.558598758711014 0 0 0 0 19.90962680998366 -85.494456838462128 0 -85.494456838462128 -66.769504142575897 0 0 0 0 30.361635755389898 23.094097754523318 0 23.094097754523318 -9.6696050505142921 0 0 0 0 20.544831826567588 21.029609215040182 0 21.029609215040182 0.32588036236120388 0 0 0 0 19.390540324695564 13.338056289972883 0 13.338056289972883 24.087058753990277 0 0 0 0 20.226832857783847 26.389465800097241 0 26.389465800097241 0.39529425650107441 0 0 0 0 342.5136123943812 -13.852244255896949 0 -13.852244255896949 -93.047865164448012 0 0 0 0 54.011501746626891 71.710784534338018 0 71.710784534338018 58.994439521928143 0 0 0 0 160.37510462864338 246.00220672613614 0 246.00220672613614 78.198270576878713 0 0 0 0 204.15761981572177 -86.024009097192902 0 -86.024009097192902 -111.5257028403903 0 0 0 0 46.404631230930818 -175.66501317340681 0 -175.66501317340681 -37.059561656074948 0 0 0 0 142.92428500537335 -123.51615647550852 0 -123.51615647550852 -9.2338374271639623 0 0 0 0 109.68945919620455 8.0971024272289469 0 8.0971024272289469 -10.698903591333874 0 0 0 0 52.69974072234092 -32.023476186334094 0 -32.023476186334094 -14.737529278667424 0 0 0 0 35.423137042493693 17.998741499800708 0 17.998741499800708 -2.5839954314863078 0 0 0 0 42.298540990106858 10.059492749532637 0 10.059492749532637 -4.5534306702083995 0 0 0 0 28.031902263277175 5.4985659444632802 0 5.4985659444632802 -4.8947753839529469 0 0 0 0 21.124109870149823 2.2513263655728224 0 2.2513263655728224 2.6233647195858794 0 0 0 0 18.807301506976966 -9.2739462535652919 0 -9.2739462535652919 -1.5188533562420758 0 0 0 0 -337.95010411405474 66.53792737996605 0 66.53792737996605 46.682159828794283 0 0 0 0 136.16111930177021 -44.994986620043846 0 -44.994986620043846 -129.18124316915146 0 0 0 0 -152.46245359732529 -279.18412248351888 0 -279.18412248351888 82.846817480771222 0 0 0 0 169.88323990808203 -87.620314559182589 0 -87.620314559182589 -79.5005597752928 0 0 0 0 899.57176489980611 -99.25675765380447 0 -99.25675765380447 -81.846886008651381 0 0 0 0 317.55142221675669 276.68122897592411 0 276.68122897592411 154.75855601996136 0 0 0 0 92.572477483285184 112.86482532284754 0 112.86482532284754 40.270291775227633 0 0 0 0 111.78947688711378 68.324541111371673 0 68.324541111371673 36.127600376406917 0 0 0 0 167.1797664955966 72.562813272720632 0 72.562813272720632 -48.062060207224931 0 0 0 0 230.76037619613999 162.65885231675747 0 162.65885231675747 23.986775433476168 0 0 0 0 402.31613856282092 44.187509879231357 0 44.187509879231357 -140.93146326604801 0 0 0 0 249.51029319428108 36.659165576249507 0 36.659165576249507 -114.57102698919152 0 0 0 0 162.78071147094761 -13.603188308953577 0 -13.603188308953577 -133.21144515224205 0 0 0 0 243.92374346466272 51.678454740048664 0 51.678454740048664 -87.970610857730207 0 0 0 0 402.21145756891201 -96.792237986976943 0 -96.792237986976943 -72.341274576896467 0 0 0 0 326.88799063381703 79.317147992416722 0 79.317147992416722 -201.40548737718655 0 0 0 0 141.81321391378651 13.263392539980714 0 13.263392539980714 -80.649798654698316 0 0 0 0 125.02123783614661 38.202588807061147 0 38.202588807061147 -101.91120120284995 0 0 0 0 125.08204735822255 -60.38235516320492 0 -60.38235516320492 -56.883074993188529 0 0 0 0 53.464804504304261 -37.436897425628537 0 -37.436897425628537 -7.8383392986983367 0 0 0 0 6.0591847051500736 -176.72747394623593 0 -176.72747394623593 -141.69707959550306 0 0 0 0 119.99462811608464 5.5863582899273752 0 5.5863582899273752 -82.829380385966942 0 0 0 0 21.828928844715847 -0.33780752481470699 0 -0.33780752481470699 11.979930272664888 0 0 0 0 28.949333461801871 6.600228607659119 0 6.600228607659119 6.7730271551536134 0 0 0 0 29.628838675256702 12.622766659226727 0 12.622766659226727 12.99365083615487 0 0 0 0 25.759416783388588 6.8741067737864796 0 6.8741067737864796 8.9453166765360947 0 0 0 0 35.224161517016 11.025237658766855 0 11.025237658766855 3.4056945786469441 0 0 0 0 31.176254242016512 9.3922045092667759 0 9.3922045092667759 10.085518945887088 0 0 0 0 29.833967799290804 5.7730242348470711 0 5.7730242348470711 9.8947468805399694 0 0 0 0 32.975164474375561 3.9365192798422868 0 3.9365192798422868 6.2773733695971714 0 0 0 0 32.758412032875867 2.7570947786487068 0 2.7570947786487068 15.203798451158946 0 0 0 0 32.930077360748896 3.3180314976627301 0 3.3180314976627301 7.7128465420173598 0 0 0 0 33.342561533991102 7.0179196410326767 0 7.0179196410326767 7.0792871641242527 0 0 0 0 27.769134958092764 2.9386511435623106 0 2.9386511435623106 4.4725763956057563 0 0 0 0 36.872823222471652 7.4111021246656037 0 7.4111021246656037 -12.416113955774563 0 0 0 0 54.374148392909319 6.8435198035876965 0 6.8435198035876965 -20.108695411161534 0 0 0 0 54.36802303051627 7.7829199404732208 0 7.7829199404732208 -7.0989550078634238 0 0 0 0 37.537487494228117 10.838708119142211 0 10.838708119142211 5.1442881864491028 0 0 0 0 33.239478936913656 -5.9616202904330748 0 -5.9616202904330748 25.606258368410636 0 0 0 0 40.360171367961698 17.697117804228128 0 17.697117804228128 34.978802815692688 0 0 0 0 39.135309533585314 6.7021597259481496 0 6.7021597259481496 9.0721759621592355 0 0 0 0 84.661508049241093 18.889149738883134 0 18.889149738883134 -3.031960442333002 0 0 0 0 92.675666652621658 59.77745002598931 0 59.77745002598931 33.138710019021346 0 0 0 0 161.93378851497505 1.8666848573776633 0 1.8666848573776633 -55.418476114535224 0 0 0 0 169.32315536269925 52.896081092431814 0 52.896081092431814 -60.751174106815142 0 0 0 0 201.26685412688312 5.9413076009550423 0 5.9413076009550423 -124.86141037327252 0 0 0 0 89.076703875754902 -15.178484717903302 0 -15.178484717903302 -5.4990199360286169 0 0 0 0 198.77543375251321 -36.154488415062389 0 -36.154488415062389 -21.359203859034096 0 0 0 0 0.0092543479067375145 0.043988525914780752 0 0.043988525914780752 -0.25033396218832848 0 0 0 0 6.5722627575732986 -34.4849563558314 0 -34.4849563558314 -37.963092404299459 0 0 0 0 133.15179911560335 5.2215441526186623 0 5.2215441526186623 -47.444086690706172 0 0 0 0 24.976153791234537 -9.6647478906452307 0 -9.6647478906452307 -13.707158127832372 0 0 0 0 29.907376078353991 -9.499549278610175 0 -9.499549278610175 -20.66936176352192 0 0 0 0 27.689346287045737 -7.0379199622389024 0 -7.0379199622389024 -16.559583127876977 0 0 0 0 25.424707156502336 -8.2446444777533543 0 -8.2446444777533543 -12.415833213372935 0 0 0 0 28.069238098236383 -7.8666509811187098 0 -7.8666509811187098 -14.769864709515105 0 0 0 0 24.83521081940853 -5.948483023666995 0 -5.948483023666995 -6.5898255510919626 0 0 0 0 31.598141201949147 -3.6532123665014069 0 -3.6532123665014069 -12.823220527023295 0 0 0 0 15.152355491902375 -0.0072568639091992182 0 -0.0072568639091992182 -0.016547054895396096 0 0 0 0 8.7730021508639311 6.1427610611399359 0 6.1427610611399359 4.4890837595021367 0 0 0 0 6.6282459027274285 -3.9862874626951452 0 -3.9862874626951452 -10.708115084775272 0 0 0 0 10.969142067790017 -1.5519150810764586 0 -1.5519150810764586 -9.8956075053547465 0 0 0 0 22.028198703237706 0.9180330987162737 0 0.9180330987162737 -2.0988297375056861 0 0 0 0 26.495505251479699 -4.6699034986459083 0 -4.6699034986459083 -18.207027715349341 0 0 0 0 14.721551499303132 -4.0259287432991187 0 -4.0259287432991187 -17.924042946950976 0 0 0 0 18.815861908789394 -0.44807290397781152 0 -0.44807290397781152 -3.2806738881060333 0 0 0 0 28.683557448874581 12.122979622367893 0 12.122979622367893 -40.361975675093049 0 0 0 0 3.1265434388129156 2.2317385762269826 0 2.2317385762269826 -5.8311643814786578 0 0 0 0 5.8935262940623261 1.0786590421857909 0 1.0786590421857909 -5.5745390984068308 0 0 0 0 202.0113089388546 171.99853171596808 0 171.99853171596808 57.651953565344229 0 0 0 0 3.3174121399928937 2.8937762768028072 0 2.8937762768028072 -8.7623063915719079 0 0 0 0 19.970488150045639 -26.174047051343223 0 -26.174047051343223 5.8336787327261845 0 0 0 0 -18.450121111392946 1.7704833725310891 0 1.7704833725310891 -14.260128898255061 0 0 0 0 2.7319281843240883 -0.42395479786975443 0 -0.42395479786975443 -3.1018311197023518 0 0 0 0 15.157334062128001 -6.3416547322245096 0 -6.3416547322245096 -14.410460237090845 0 0 0 0 25.260424306528876 2.0586506454656046 0 2.0586506454656046 -14.424337523127178 0 0 0 0 6.1369144749999869 -0.27034080545334049 0 -0.27034080545334049 -0.97575377999375945 0 0 0 0 50.252695755656077 -30.639864725456505 0 -30.639864725456505 25.247473913284921 0 0 0 0 82.023279711698706 7.7507349406569119 0 7.7507349406569119 -97.764762718792554 0 0 0 0 23.154735483387412 -5.1745954483449168 0 -5.1745954483449168 -14.419584964751721 0 0 0 0 20.933880553058785 6.0868739062297674 0 6.0868739062297674 -0.64850581349639214 0 0 0 0 63.334470574642182 -15.918282996626658 0 -15.918282996626658 34.116711648445062 0 0 0 0 77.627551458621383 -16.096808062477066 0 -16.096808062477066 5.9699214961619873 0 0 0 0 167.67456955817761 -68.711023585387011 0 -68.711023585387011 24.111563045105868 0 0 0 0 160.57078538936366 -144.10264260674165 0 -144.10264260674165 70.570587652764516 0 0 0 0 96.813971429196044 -95.703702864324669 0 -95.703702864324669 79.500264956368483 0 0 0 0 -20.989694788520183 94.011931025738477 0 94.011931025738477 309.58017980739533 0 0 0 0 17.995740855705662 156.5507158475084 0 156.5507158475084 349.72464235070947 0 0 0 0 196.13805204871824 -50.952775917236067 0 -50.952775917236067 -78.775180056214595 0 0 0 0 -36.012996275644127 5.2698756538543421 0 5.2698756538543421 236.2054492453899 0 0 0 0 69.356500204859913 80.629600036518241 0 80.629600036518241 239.48413375512848 0 0 0 0 205.10352724871063 107.00628875664279 0 107.00628875664279 165.22118499220232 0 0 0 0 160.6385939177535 176.37020064266562 0 176.37020064266562 61.870970938298342 0 0 0 0 166.5745571839434 195.50437215688999 0 195.50437215688999 52.70613642871831 0 0 0 0 153.69735911333737 291.20296750370471 0 291.20296750370471 92.881425799463614 0 0 0 0 120.53864099655766 245.34799669796848 0 245.34799669796848 309.51079113653032 0 0 0 0 197.59111911187938 108.78556928943635 0 108.78556928943635 -41.345905354697607 0 0 0 0 221.35934796771062 56.253803318421774 0 56.253803318421774 -306.00613541375787 0 0 0 0 198.14745990380379 227.26084787021364 0 227.26084787021364 4.4499784597501275 0 0 0 0 208.15902791261283 120.54521362962191 0 120.54521362962191 -66.229007779997119 0 0 0 0 187.88456535818176 81.509126923387271 0 81.509126923387271 -1.1615592268481123 0 0 0 0 184.58014804902814 47.995048609405785 0 47.995048609405785 -161.61603000202831 0 0 0 0 200.52480915768865 126.93468750845022 0 126.93468750845022 -76.060537464110894 0 0 0 0 21.303360883445464 -3.6171758806423 0 -3.6171758806423 -4.432292964186697 0 0 0 0 47.815290395628608 31.0288778571595 0 31.0288778571595 -35.44711256665687 0 0 0 0 28.81162291851183 -51.44740141627949 0 -51.44740141627949 -99.899202074106142 0 0 0 0 161.01531907085518 13.833203780382973 0 13.833203780382973 -30.728114203544465 0 0 0 0 139.66317088296364 20.960076366906833 0 20.960076366906833 3.638465183099413 0 0 0 0 0.60918845401867161 -2.2739351057301365 0 -2.2739351057301365 0.66982284289126959 0 0 0 0 196.32725942447541 103.7817579923103 0 103.7817579923103 28.006925769789859 0 0 0 0 265.27139122816072 83.552850614110866 0 83.552850614110866 -17.438344354701258 0 0 0 0 195.71710101600684 105.60442125844816 0 105.60442125844816 84.580402326892909 0 0 0 0 13.673183185397249 2.6254863230557248 0 2.6254863230557248 -11.457719630539941 0 0 0 0 3.275473200170818 3.989610045235545 0 3.989610045235545 -8.2731679626935133 0 0 0 0 24.354677181370334 27.825819026206318 0 27.825819026206318 -12.390698832663844 0 0 0 0 -10.824782659865491 7.1402362097052787 0 7.1402362097052787 17.659960749228048 0 0 0 0 20.230781547679271 47.572650162698352 0 47.572650162698352 66.405312159645405 0 0 0 0 34.021754701192094 36.57541429257958 0 36.57541429257958 11.736287078406349 0 0 0 0 20.336328163743019 14.681655563749985 0 14.681655563749985 27.374175671737703 0 0 0 0 7.6383350375594246 -2.5682847210237645 0 -2.5682847210237645 -2.0745066013387623 0 0 0 0 34.804973673925815 4.2142485458041392 0 4.2142485458041392 -67.3507235822251 0 0 0 0 6.0124382919925665 7.1074633638776277 0 7.1074633638776277 -13.459513476518168 0 0 0 0 32.01903009243415 1.6892584837132461 0 1.6892584837132461 -12.802021918293576 0 0 0 0 96.749170381273871 29.315228045522872 0 29.315228045522872 -60.290948744457637 0 0 0 0 -54.814861036309594 -45.589705063850033 0 -45.589705063850033 50.446423944451453 0 0 0 0 231.50825049300147 105.04471921497407 0 105.04471921497407 67.27654408716262 0 0 0 0 139.73253806888897 -31.04806399075369 0 -31.04806399075369 1.6469871974392163 0 0 0 0 299.37290705238775 72.065946639505455 0 72.065946639505455 -42.686476289462803 0 0 0 0 93.919291293379501 -6.3897204961795069 0 -6.3897204961795069 -23.291773967268455 0 0 0 0 225.16132011546128 -100.91996479586982 0 -100.91996479586982 25.846757949731909 0 0 0 0 56.554345423689668 -41.121402747966158 0 -41.121402747966158 -3.2760718011254006 0 0 0 0 30.295884654910424 -156.17273343704312 0 -156.17273343704312 -39.027577148539422 0 0 0 0 -154.68745865186065 -29.983932310878117 0 -29.983932310878117 -21.228737261079459 0 0 0 0 303.51735924523291 323.19535492944487 0 323.19535492944487 -181.92675007399066 0 0 0 0 372.29099391037926 -320.41582996587567 0 -320.41582996587567 258.65388430087023 0 0 0 0 659.83867033847855 -108.78220248465368 0 -108.78220248465368 -97.121496588248192 0 0 0 0 6.7488811283866212 3.4172552767470989 0 3.4172552767470989 1.8930459247182974 0 0 0 0 -35.617226799816308 198.53407794036048 0 198.53407794036048 603.68976703199405 0 0 0 0 299.90255259159494 444.67192202133538 0 444.67192202133538 -83.701983421435216 0 0 0 0 146.20466439388656 487.65241481882185 0 487.65241481882185 416.22183457710707 0 0 0 0 224.6942832757195 324.40927317897149 0 324.40927317897149 54.362371171280301 0 0 0 0 151.85431917797905 282.99817436694502 0 282.99817436694502 59.849174301187304 0 0 0 0 57.705340627451363 -41.858639261928332 0 -41.858639261928332 -3.4406351414147593 0 0 0 0 -11.13252933365402 -666.37508299389583 0 -666.37508299389583 529.20207612399327 0 0 0 0 -61.58705912736059 -157.63267106608311 0 -157.63267106608311 17.28874000630276 0 0 0 0 83.877006291200814 -303.16740186156858 0 -303.16740186156858 44.451839950706926 0 0 0 0 177.77461688817311 -48.361261232580091 0 -48.361261232580091 2.0985479006922105 0 0 0 0 124.45053625593209 -111.12090328234081 0 -111.12090328234081 25.419154932139236 0 0 0 0 72.540563506572653 -65.516017749127968 0 -65.516017749127968 30.3775763597896 0 0 0 0 113.11924741184521 -154.68046961569917 0 -154.68046961569917 -357.93391136721402 0 0 0 0 -196.1198854176364 18.407641764369146 0 18.407641764369146 -252.70681663214782 0 0 0 0 0.74498369892351946 -0.9350836867884631 0 -0.9350836867884631 0.11586429412624355 0 0 0 0 263.3858464621735 198.81675530052235 0 198.81675530052235 -128.94419510580383 0 0 0 0 198.90546312522201 231.57288442874233 0 231.57288442874233 -138.12931896347436 0 0 0 0 332.25006238729475 368.91339224608419 0 368.91339224608419 -178.25833504497132 0 0 0 0 243.09092720341505 128.31156604737589 0 128.31156604737589 -318.24437849644346 0 0 0 0 334.9885573042302 115.72921164647778 0 115.72921164647778 -526.78315887371537 0 0 0 0 321.90605859526204 270.10133375852615 0 270.10133375852615 -444.0533165148081 0 0 0 0 12.851016694903592 -28.481176323834006 0 -28.481176323834006 19.947599349789925 0 0 0 0 -2.8213197924573983 -2.9904498012615655 0 -2.9904498012615655 0.93690249151707405 0 0 0 0 52.521743873322528 -38.073988632395356 0 -38.073988632395356 -12.861816624329235 0 0 0 0 -59.460456334149058 -66.183056717487489 0 -66.183056717487489 -65.228341514389285 0 0 0 0 -172.99846075052847 -113.53519178129409 0 -113.53519178129409 19.412994718222762 0 0 0 0 85.667242349412845 -45.388918694338827 0 -45.388918694338827 40.990822422301562 0 0 0 0 90.248597709789465 -4.1818672205649818 0 -4.1818672205649818 -19.967887782613161 0 0 0 0 124.43299953579481 -68.089020319382826 0 -68.089020319382826 22.631342344367113 0 0 0 0 131.09518558607851 -65.685684117131586 0 -65.685684117131586 8.0498573791246599 0 0 0 0 237.81170820861371 -78.502453799460909 0 -78.502453799460909 19.074142644277345 0 0 0 0 101.85563664641995 -48.128639813829977 0 -48.128639813829977 49.375856949036461 0 0 0 0 98.268260895139974 -37.838863987258264 0 -37.838863987258264 27.820432960554172 0 0 0 0 244.004177482464 26.252065969330943 0 26.252065969330943 -8.3821152170301048 0 0 0 0 426.16408650175072 103.41295365585211 0 103.41295365585211 -41.314867033951003 0 0 0 0 364.65613797886363 -50.987610571144614 0 -50.987610571144614 -38.865226901065398 0 0 0 0 168.50922025856289 -88.958781282438736 0 -88.958781282438736 -5.9385019333294622 0 0 0 0 158.89382729401041 -70.400509481340123 0 -70.400509481340123 10.555669284369287 0 0 0 0 133.48115101651911 -72.571733362427494 0 -72.571733362427494 7.9378751209060283 0 0 0 0 137.00186161309466 -85.965854662341485 0 -85.965854662341485 49.453133555223758 0 0 0 0 126.45416924431993 -91.720089842045127 0 -91.720089842045127 58.957292647275608 0 0 0 0 15.207375264122675 -24.674018426689145 0 -24.674018426689145 56.062986263590403 0 0 0 0 80.800358775217319 -83.71946849568485 0 -83.71946849568485 60.967406079219245 0 0 0 0 52.287927622073767 -27.321625526132948 0 -27.321625526132948 13.232377242991788 0 0 0 0 102.90054536431944 -43.601959752002472 0 -43.601959752002472 1.5706508094372111 0 0 0 0 115.22058276006646 -77.836416940991057 0 -77.836416940991057 16.838178197151137 0 0 0 0 50.880710324701795 -35.730671625351079 0 -35.730671625351079 14.863661137289455 0 0 0 0 45.908162058873131 -46.816485008052041 0 -46.816485008052041 23.409337348341978 0 0 0 0 13.183136594379903 4.5119013364301281 0 4.5119013364301281 3.375367859919379 0 0 0 0 15.147298306439307 -21.051893637199889 0 -21.051893637199889 -12.560080084072245 0 0 0 0 1.616319769357375 -3.5050425866272263 0 -3.5050425866272263 -1.8809166817752256 0 0 0 0 7.6635446196396515 -3.7160676175365097 0 -3.7160676175365097 -3.6125171139556187 0 0 0 0 7.0927709880234033 -6.6506513642470964 0 -6.6506513642470964 -0.60651868629429373 0 0 0 0 10.051394564546676 -11.355179096509126 0 -11.355179096509126 -6.0579162204374555 0 0 0 0 13.326095225682366 5.2425486663451011 0 5.2425486663451011 -11.481483289975586 0 0 0 0 25.219140641040212 -34.948847267273777 0 -34.948847267273777 34.240783717184968 0 0 0 0 0.62344352888786148 -1.2001789247262096 0 -1.2001789247262096 -0.029789441658053306 0 0 0 0 -0.12255409273336682 -0.72690287291567302 0 -0.72690287291567302 0.55328339955143235 0 0 0 0 20.367952765820519 1.9928429218716701 0 1.9928429218716701 -18.704664798002341 0 0 0 0 7.576130074793852 -0.16411797637798742 0 -0.16411797637798742 -1.4107149914080761 0 0 0 0 26.657865982848307 -1.2136626680130576 0 -1.2136626680130576 -17.073601109502306 0 0 0 0 32.339129870553734 16.498312365537231 0 16.498312365537231 -2.1327876859057824 0 0 0 0 17.881715632416672 -6.7737357794305808 0 -6.7737357794305808 -8.3025837699774456 0 0 0 0 63.846984655723645 37.738902032853275 0 37.738902032853275 16.723393614997633 0 0 0 0 -4.2232557627276037 21.590123535772477 0 21.590123535772477 18.556035535011688 0 0 0 0 -5.3675796664319932 25.884792549426493 0 25.884792549426493 86.093083456285513 0 0 0 0 278.57023232537176 41.039751880873837 0 41.039751880873837 70.287340413573475 0 0 0 0 127.41628330629737 89.840403141626894 0 89.840403141626894 99.89873915622502 0 0 0 0 139.37730387151532 101.78217098438517 0 101.78217098438517 49.173857869477501 0 0 0 0 272.14260817563263 -19.823654970944062 0 -19.823654970944062 83.408897210988698 0 0 0 0 1.2542107441605879 0.78302979374770842 0 0.78302979374770842 0.41490314209055867 0 0 0 0 100.19322206847755 -121.47407130548368 0 -121.47407130548368 127.18500528065215 0 0 0 0 104.60319988460651 108.16976176334038 0 108.16976176334038 114.43305559961209 0 0 0 0 22.109557963960469 1.1155040115061183 0 1.1155040115061183 -1.1654319117369596 0 0 0 0 45.865296326966927 -17.269843633867822 0 -17.269843633867822 0.24323598509408839 0 0 0 0 3.3630557147549496 1.4038024920960375 0 1.4038024920960375 0.56372582728735932 0 0 0 0 61.145446940388865 9.6924259963384429 0 9.6924259963384429 -8.5922263455031498 0 0 0 0 50.622015856627939 13.683063151596347 0 13.683063151596347 5.7436625120115519 0 0 0 0 38.529090317204918 36.273267890152411 0 36.273267890152411 36.929766499400671 0 0 0 0 36.0667718105733 25.932392381209297 0 25.932392381209297 8.4104273785780492 0 0 0 0 52.463258321009846 19.198844782638332 0 19.198844782638332 -13.449256457881802 0 0 0 0 139.32138268668291 76.156967485827863 0 76.156967485827863 23.647178322236869 0 0 0 0 71.443579346167596 18.449644541185378 0 18.449644541185378 1.0760585179818047 0 0 0 0 127.92634151859488 30.068564431794584 0 30.068564431794584 -36.955900547047463 0 0 0 0 93.869937290113739 37.599130886918488 0 37.599130886918488 -12.783632732043202 0 0 0 0 80.126417743515049 9.098565840999072 0 9.098565840999072 -16.982415578815903 0 0 0 0 45.534039115873732 -9.9624675988616112 0 -9.9624675988616112 -20.732019391153045 0 0 0 0 96.860022196126465 44.954117136149307 0 44.954117136149307 61.983419466894247 0 0 0 0 152.40605494997308 -2.2441059154888237 0 -2.2441059154888237 -15.417806785298581 0 0 0 0 39.23829786418537 -10.86419636362416 0 -10.86419636362416 -10.770552779134619 0 0 0 0 50.969831175080799 -11.932931354328957 0 -11.932931354328957 -10.894086300863364 0 0 0 0 64.654482386450127 -41.851358169732976 0 -41.851358169732976 -3.2609116267782667 0 0 0 0 32.207939449601128 -23.333082681730897 0 -23.333082681730897 -14.52260172843296 0 0 0 0 41.546076907654424 -9.7580491637561408 0 -9.7580491637561408 -16.127081489989905 0 0 0 0 35.8126733287286 -3.5223206923228485 0 -3.5223206923228485 -6.7472370171136138 0 0 0 0 67.66725981203308 6.5871120653372373 0 6.5871120653372373 -21.353176747679242 0 0 0 0 4.4753269205223738 1.9032976266297155 0 1.9032976266297155 -10.595609496660751 0 0 0 0 11.463604452113941 -3.1943860659387155 0 -3.1943860659387155 -10.29534280443886 0 0 0 0 100.62479774953863 28.667316316008396 0 28.667316316008396 -12.038431494911549 0 0 0 0 52.621781618648129 -16.709463709272939 0 -16.709463709272939 -34.469386438222045 0 0 0 0 13.04705849921406 4.4387923433394505 0 4.4387923433394505 -0.21987361937852157 0 0 0 0 95.134273000214307 -7.7718627884553371 0 -7.7718627884553371 -9.6181637862005118 0 0 0 0 74.867348839015904 4.8532197875201746 0 4.8532197875201746 -17.112857840182983 0 0 0 0 67.887901163845527 8.956438145450079 0 8.956438145450079 -14.153861979284329 0 0 0 0 104.00635646225783 -21.116708731919516 0 -21.116708731919516 9.8223040716900414 0 0 0 0 126.18552515249758 -13.910791184337995 0 -13.910791184337995 12.121279900271816 0 0 0 0 6.0895900616178693 6.2728961058994344 0 6.2728961058994344 1.1029366583781428 0 0 0 0 70.851845088827758 -8.9576705597776254 0 -8.9576705597776254 5.4505570719816205 0 0 0 0 78.58290635663252 10.403621300006819 0 10.403621300006819 3.0092329192425495 0 0 0 0 110.53003430937065 20.989700603908545 0 20.989700603908545 6.4241270971888298 0 0 0 0 13.583190759434729 1.7158401871591877 0 1.7158401871591877 -5.7746021937109617 0 0 0 0 162.64308312920912 10.991228735429786 0 10.991228735429786 2.9071163682817769 0 0 0 0 0.65133604429512459 0.17097713086331368 0 0.17097713086331368 -4.1781705727002842 0 0 0 0 1.9241206594479081 -3.1254459223010826 0 -3.1254459223010826 6.056581392616863 0 0 0 0 -0.19020555723306032 1.0018951662893585 0 1.0018951662893585 -7.0056030213101232 0 0 0 0 48.213535446255264 27.040746131300352 0 27.040746131300352 -4.8585968171278182 0 0 0 0 73.786462934554947 38.473318365794057 0 38.473318365794057 -0.48238556665910437 0 0 0 0 -32.679425460479251 -59.70337858035623 0 -59.70337858035623 4.7779933640954368 0 0 0 0 198.54218319020947 -75.937308565481771 0 -75.937308565481771 -37.413570524708803 0 0 0 0 65.663188165151951 47.493211686285576 0 47.493211686285576 -10.406962084062798 0 0 0 0 115.48120769484376 -5.1964478434235843 0 -5.1964478434235843 6.4313116739458565 0 0 0 0 0.40956433787385293 -0.11043014329420942 0 -0.11043014329420942 -1.3885285044706093 0 0 0 0 252.68213299464696 -25.794531525357684 0 -25.794531525357684 13.391891671269946 0 0 0 0 286.82596568979534 -10.141337271362943 0 -10.141337271362943 5.6668677163083885 0 0 0 0 4.2641933361820605 4.4904147973598683 0 4.4904147973598683 0.99462338974589048 0 0 0 0 -241.10776398019152 231.24352465944196 0 231.24352465944196 -182.92968456247411 0 0 0 0 162.50850910882764 103.03387726945175 0 103.03387726945175 46.754609466047896 0 0 0 0 62.699446228064843 34.54483644544753 0 34.54483644544753 24.761303856259474 0 0 0 0 62.876180058820715 96.142294039037722 0 96.142294039037722 76.025196533653798 0 0 0 0 47.10829169504359 49.927553436887592 0 49.927553436887592 74.453396241209703 0 0 0 0 13.984393539478333 22.765961976483368 0 22.765961976483368 27.914659159949224 0 0 0 0 65.913442696532002 42.974810262678602 0 42.974810262678602 13.549621117292872 0 0 0 0 37.68517115632676 42.542706922692958 0 42.542706922692958 38.765521966187407 0 0 0 0 115.34491978478945 93.267705975496142 0 93.267705975496142 34.058955259003142 0 0 0 0 85.003225962198485 51.492228373095486 0 51.492228373095486 9.3212540138756594 0 0 0 0 85.161230159781553 77.185807156859056 0 77.185807156859056 26.048793233641845 0 0 0 0 159.28240797737817 74.221823935830457 0 74.221823935830457 3.294433972597858 0 0 0 0 157.39365331075896 125.7999281104228 0 125.7999281104228 7.9702901468681375 0 0 0 0 96.061302194967539 104.99269704250361 0 104.99269704250361 112.79578764177677 0 0 0 0 235.81576348050658 159.03013623535685 0 159.03013623535685 19.206661831648034 0 0 0 0 0.31087545336406208 0.69760992536351552 0 0.69760992536351552 1.2737380649630268 0 0 0 0 290.35131009363886 79.10977772188005 0 79.10977772188005 -46.890872476458298 0 0 0 0 215.84550959128865 45.621556379206254 0 45.621556379206254 -59.674469463150217 0 0 0 0 102.96564170212514 143.71186683876226 0 143.71186683876226 67.668267365718975 0 0 0 0 107.21447371281465 34.801758629171843 0 34.801758629171843 -63.655975280514781 0 0 0 0 -136.09622614382806 89.992381612591203 0 89.992381612591203 55.912300450830571 0 0 0 0 155.01241771528657 120.2751886679132 0 120.2751886679132 77.775292440342582 0 0 0 0 33.480290974870513 80.061360512250076 0 80.061360512250076 106.82019928154477 0 0 0 0 137.45164495574591 71.787187639898661 0 71.787187639898661 107.45645405369987 0 0 0 0 185.70496933753384 42.90944750728886 0 42.90944750728886 126.73252648443281 0 0 0 0 105.55592310335669 116.94662817012204 0 116.94662817012204 100.16667052198227 0 0 0 0 110.237989181991 26.156234928093454 0 26.156234928093454 210.22169850624778 0 0 0 0 117.03618680902582 93.794124714984719 0 93.794124714984719 168.54472106222329 0 0 0 0 129.67345626512542 80.661971664189196 0 80.661971664189196 84.157393678243125 0 0 0 0 110.14014014702752 38.885695184324561 0 38.885695184324561 65.033445160113388 0 0 0 0 150.80395566761763 74.341437710878608 0 74.341437710878608 -10.091240503456675 0 0 0 0 127.45175363386261 41.788434345973428 0 41.788434345973428 -8.0095570351468268 0 0 0 0 110.38445385361592 60.716385646476965 0 60.716385646476965 -11.18985909540703 0 0 0 0 131.75848024897414 26.404933408568183 0 26.404933408568183 -57.238455376670345 0 0 0 0 125.21074355407109 38.080170477785714 0 38.080170477785714 -65.732187938981497 0 0 0 0 128.3800839801097 27.463924868165577 0 27.463924868165577 -75.456165237278015 0 0 0 0 53.32534368049528 14.55371459050798 0 14.55371459050798 -49.231650067563351 0 0 0 0 25.419379532212588 -3.0869709039265558 0 -3.0869709039265558 -1.6425118826864491 0 0 0 0 145.5357090136622 18.665218002715164 0 18.665218002715164 -55.164755116485765 0 0 0 0 -60.476867379575197 91.802886263787968 0 91.802886263787968 -118.01450551198292 0 0 0 0 -63.447316303333082 66.304756709198628 0 66.304756709198628 -61.618308706499192 0 0 0 0 -10.150117308003246 28.031907567667531 0 28.031907567667531 -43.389136568256163 0 0 0 0 44.616129588081094 43.391019199640823 0 43.391019199640823 -80.090948201788706 0 0 0 0 -10.443534863348759 59.879635631050405 0 59.879635631050405 -38.839227353434381 0 0 0 0 3.2078758917594357 4.367676155959888 0 4.367676155959888 4.881092553880177 0 0 0 0 -251.80727618044511 225.47659919226234 0 225.47659919226234 58.686564896156824 0 0 0 0 -14.090968537560911 -40.610163338454299 0 -40.610163338454299 21.643291517380646 0 0 0 0 -188.56264379622553 46.220799494691278 0 46.220799494691278 373.35172819456375 0 0 0 0 -24.803845202368393 52.181542834948345 0 52.181542834948345 296.56763750495861 0 0 0 0 205.67537598290437 84.780707893671433 0 84.780707893671433 -7.2291535891502718 0 0 0 0 0.86522435172689427 1.744201191714442 0 1.744201191714442 2.8906121897204473 0 0 0 0 109.60280350169796 125.18359809163815 0 125.18359809163815 306.75849025165235 0 0 0 0 16.73237817091649 -61.223874467812493 0 -61.223874467812493 336.31580713608201 0 0 0 0 -27.916966446555307 112.75819949265178 0 112.75819949265178 374.76007258114731 0 0 0 0 150.4196722763445 64.648374295324857 0 64.648374295324857 119.86730379775054 0 0 0 0 3.9732829508979108 1.0188205217868926 0 1.0188205217868926 0.24932261123976196 0 0 0 0 31.313010916783242 29.928876689951721 0 29.928876689951721 165.12307108668134 0 0 0 0 -56.5946212704348 -25.249340586052085 0 -25.249340586052085 384.28927690120236 0 0 0 0 170.73480610040133 -14.480501293960515 0 -14.480501293960515 277.68906686688138 0 0 0 0 -88.97475988165661 43.858025901627798 0 43.858025901627798 300.07169434500884 0 0 0 0 38.239868938357176 16.28104722235912 0 16.28104722235912 129.98200884583662 0 0 0 0 4.1450176773388776 0.91577339120628753 0 0.91577339120628753 0.39504528524374705 0 0 0 0 -16.93360334693898 -36.423824694152245 0 -36.423824694152245 284.2841997784335 0 0 0 0 280.32670077459625 -190.58683047342038 0 -190.58683047342038 235.3921658465274 0 0 0 0 18.897592297476876 -23.263144639789061 0 -23.263144639789061 216.52737509294502 0 0 0 0 116.70599054116428 -42.225107130155266 0 -42.225107130155266 125.61927986221735 0 0 0 0 82.241131711172784 -33.26627250152103 0 -33.26627250152103 123.32957978579998 0 0 0 0 37.655176512984326 25.105662817496636 0 25.105662817496636 144.19089882404933 0 0 0 0 9.9501927845185492 11.010410876516744 0 11.010410876516744 151.51508118240963 0 0 0 0 85.159811776383776 -29.968433025910826 0 -29.968433025910826 60.482462915982978 0 0 0 0 43.700445533331731 16.979750368637269 0 16.979750368637269 142.75423143748162 0 0 0 0 47.55950499241726 29.32655286490666 0 29.32655286490666 145.58089728283903 0 0 0 0 84.195654327272223 -13.040720858331838 0 -13.040720858331838 52.61609948403202 0 0 0 0 94.10196403747068 36.818679367216191 0 36.818679367216191 83.330839329254104 0 0 0 0 199.75686633288205 -15.37319205507788 0 -15.37319205507788 130.14025962577421 0 0 0 0 116.97525560436225 34.698646459380598 0 34.698646459380598 101.5568296128431 0 0 0 0 138.32351989604285 -43.390679320023537 0 -43.390679320023537 42.708293685184472 0 0 0 0 87.160970433355033 -79.596864573295306 0 -79.596864573295306 71.936262087743671 0 0 0 0 148.5142228413788 -100.72543892791236 0 -100.72543892791236 -3.7182821607476626 0 0 0 0 204.13001458609688 -23.998126283725469 0 -23.998126283725469 85.69370751990391 0 0 0 0 96.689821438267245 -52.05737584106015 0 -52.05737584106015 124.90022652673724 0 0 0 0 111.204286696895 -26.146618269326837 0 -26.146618269326837 162.11678650039175 0 0 0 0 118.00862760535165 -1.9569312193530095 0 -1.9569312193530095 160.38277075779888 0 0 0 0 161.3868599762427 -16.983196724676873 0 -16.983196724676873 224.14312567087813 0 0 0 0 128.9389364674571 17.371853230613851 0 17.371853230613851 221.62360150341055 0 0 0 0 107.09365671125101 43.541150592850016 0 43.541150592850016 159.6215338613838 0 0 0 0 110.35817174730005 21.887320614219846 0 21.887320614219846 211.82405673048106 0 0 0 0 202.72006915351994 21.241882901458212 0 21.241882901458212 191.97329428380885 0 0 0 0 129.65844164996452 60.03890384321312 0 60.03890384321312 275.76178594598878 0 0 0 0 116.14589110556335 -94.492700016996878 0 -94.492700016996878 205.2259109135407 0 0 0 0 1.8070191781829621 0.75808519399487473 0 0.75808519399487473 0.24503411287371968 0 0 0 0 103.70299517729654 107.09286599062307 0 107.09286599062307 224.24838158285274 0 0 0 0 121.71285006149265 -46.73264351453372 0 -46.73264351453372 251.83414522620524 0 0 0 0 
</DataArray>
<DataArray type="Float64" Name="cross_section_updated" format="ascii">
0.0099999907047398744 1 1 1 1 1 1 1 1 0.010526936437720147 1 1 0.011077637966619525 1 1 1 1 1 1 1 0.011010293999593504 0.012842148506557686 1 1 1 1 1 1 1 1 1 1 1 1 1 1 1 1 0.010017588294017487 1 1 1 1 0.0099963856654952613 1 1 1 0.0099808379838257737 1 1 1 1 1 1 1 0.010013571498206929 1 1 1 0.0099335651408214033 1 0.011795818273924018 1 1 0.011674539671062072 1 1 1 1 0.010024949853214817 1 1 0.0099996295877933187 0.011341780936583775 1 1 0.010809669562695714 1 1 1 1 0.012359948323601428 0.01146128766354762 1 1 1 1 0.011358251600356136 0.0098711252870289246 1 1 1 1 1 0.010181733332892476 0.011054770201869998 1 1 1 1 0.010898953196671168 0.010004297622626643 1 1 0.011536048546192385 1 0.011484014225082861 1 0.010000096799219994 1 0.0098572196266552455 1 1 0.010624092260687192 1 0.01116332648207289 1 1 1 1 1 0.010000087855484856 1 0.0097869494247010535 0.011051725560960441 0.011220221682097371 1 0.010081922291269666 0.01057773885378362 1 1 1 0.010071238702135457 1 0.010738607503712846 1 1 1 1 1 1 1 1 0.0097535643574058976 1 0.01001960181306167 1 1 1 1 0.0098371739055932873 1 1 0.011261736652776496 1 1 1 1 1 1 1 1 0.010500207085164338 1 1 1 1 1 1 1 1 1 1 1 1 1 1 1 1 1 1 1 1 0.011191602350465091 1 1 1 1 1 1 1 1 1 1 1 1 1 1 1 1 1 1 1 1 1 1 1 1 1 1 0.009982123600099823 1 1 1 1 1 1 1 1 1 1 1 1 0.010020460843682586 1 1 1 1 1 0.010038015164586024 1 1 1 1 1 1 1 1 1 1 0.010007335926255002 1 1 1 1 1 0.010811655229958092 1 1 1 0.010023721862239746 1 1 1 1 1 0.011043486827342925 1 1 0.011125190982839114 1 0.0099932846495718441 1 1 1 0.0090711783800221726 0.012272348930029132 1 0.010359337474852001 1 1 1 0.012187185487637961 1 1 1 1 1 1 0.012695028515995851 1 1 0.010081977460535683 1 0.01003339071971476 1 1 1 1 1 0.011751125475173646 1 1 0.011571905584732457 0.0096377652048868483 1 1 1 0.010295870995848057 1 1 1 0.012248907661089126 1 1 0.0099372595083752555 1 1 1 1 1 1 1 1 1 0.010018434884818699 1 1 1 1 1 1 1 1 1 1 1 1 1 1 1 1 1 1 1 1 1 1 0.01239284697703699 1 0.01202481382698828 1 1 1 1 1 1 1 0.013569794124545283 1 1 1 1 1 1 0.013787200277102975 1 1 0.012206895944470985 1 1 1 1 1 1 0.011275816284913139 0.011029021599180839 1 1 1 1 0.0099947807060443029 0.010107399338397136 1 1 1 1 0.010553313835037943 1 1 1 1 0.010535288568973289 1 0.0097875099857176288 1 0.012955844620493876 0.01197999578727317 1 1 1 1 1 1 0.010002681928383786 1 1 0.010492490728927568 1 0.0099992166570769259 1 1 1 1 1 1 1 1 1 0.010154935728554946 1 1 1 1 1 1 1 1 0.0099954133806186476 1 1 1 0.0099827212724986365 1 1 1 1 1 0.0099873078918799856 1 1 1 1 1 1 1 0.010532780250787414 1 1 0.01011120827480955 1 0.010051691759332453 0.0099751250492445247 1 1 1 1 1 1 1 1 1 1 1 1 1 1 1 1 1 1 1 1 1 1 1 1 1 1 1 1 1 1 1 1 1 1 1 1 1 1 1 1 1 1 1 1 1 1 1 1 0.010032112454180063 0.0099513164167783254 1 1 1 0.0100362979030957 1 1 1 1 1 0.010081491351299919 1 1 1 1 1 1 1 1 1 0.010057147224434314 1 1 1 0.010083388594593738 1 0.010136755640352206 1 1 1 1 1 0.010055264289052289 1 1 1 1 1 1 1 1 0.010058353824339485 1 1 1 1 1 1 1 1 1 1 1 1 1 1 1 1 1 1 1 1 1 1 1 1 1 1 1 1 1 1 1 1 1 1 1 1 1 1 1 0.010022632406356532 1 1 0.011385432839568178 1 1 0.013513036967535946 1 1 1 1 1 1 1 1 1 1 1 1 1 0.0099690129014749253 1 1 1 1 1 1 1 1 1 0.010025306402995947 1 1 1 1 1 1 1 1 0.0082291980268629755 1 1 0.0099171895863789123 1 1 0.00811614395887739 1 1 1 1 1 1 0.014726635663310717 0.0096471672064051134 1 1 1 1 1 1 0.010434073553212495 1 1 1 1 1 1 1 1 1 1 1 1 1 0.0098963288317989624 1 1 1 1 1 1 1 1 1 1 1 1 1 1 1 1 1 1 1 1 1 1 1 1 1 1 1 1 1 1 1 1 1 1 1 1 1 1 1 1 1 1 1 1 1 1 1 1 1 1 0.0099918276669408602 1 0.011266547690854783 1 1 1 0.0099469014053355908 1 1 0.0099668001106936049 0.014722377360885103 1 1 0.010311134658242568 1 1 1 1 1 0.013320417405373416 1 1 1 1 1 1 1 1 0.012410676273255334 0.010043098407909606 0.01083394637826343 1 1 1 1 1 1 1 0.010861216561836338 1 1 1 1 1 1 1 1 1 1 1 1 1 1 0.011072227108535265 1 1 1 1 1 1 1 0.011252353748136622 1 1 1 1 1 1 0.011330786418310815 1 1 1 1 0.010692632862988048 1 1 1 0.012544502230781737 1 1 1 1 1 1 0.010001601631667412 1 1 1 1 1 1 1 1 1 1 1 1 0.014709283986010575 1 1 1 1 1 1 1 1 0.012180899515456523 1 0.011548934790543653 1 0.012074225489749249 1 0.011079917407557909 1 1 1 1 0.010009542445605204 0.012582479976874747 1 1 1 0.0099492506441997124 0.013288370543012894 1 1 0.013627111713348742 1 1 1 1 1 1 1 1 1 1 1 1 1 1 1 1 1 0.013223645310917484 1 1 1 1 1 1 1 0.010845758223072884 0.010002770371275125 1 1 1 0.010496705234618065 1 1 1 1 1 1 1 1 1 1 0.010671941561334183 1 1 1 1 0.0109095117909048 1 0.010386502516731096 1 1 1 1 1 1 1 0.011224431255186596 1 1 1 0.012206249827673982 1 1 1 1 1 1 1 1 1 1 1 1 1 0.010752830594438802 1 1 1 1 1 0.011183565645536919 1 1 1 1 1 1 1 1 1 1 1 1 1 1 1 0.013024908147309141 1 1 1 1 1 0.010550029894544229 1 0.010241206510236066 1 1 1 1 1 1 1 1 1 0.01117502913166314 1 1 1 1 1 1 1 1 1 1 1 1 1 1 1 1 1 1 1 0.010098513831296983 1 0.011939260268228591 1 1 1 1 1 1 1 1 1 1 1 1 1 1 1 1 1 1 1 1 0.011403953098224676 1 1 1 1 1 1 1 1 1 1 0.011343869353483083 1 1 1 1 1 1 1 1 1 0.010027783588532888 1 1 0.013176973222122277 1 1 1 1 0.014103347254744884 1 1 1 1 1 1 1 1 1 1 1 1 1 1 1 0.0099855614817194183 1 1 1 0.0095617438225917457 1 1 0.010609328513880802 1 1 1 1 1 1 1 1 1 1 1 1 1 1 1 1 1 1 1 1 1 1 1 1 1 0.010795957404189064 1 1 1 1 1 1 1 1 1 1 1 1 1 1 1 1 1 1 1 1 1 1 0.0099477446721460468 1 1 1 1 0.0098698068752253645 1 1 0.011539800255733165 1 0.010985206039047294 1 1 1 1 1 0.014354227785914331 1 1 1 1 1 1 1 0.010758298881683601 1 1 1 1 1 1 1 0.0095005073713352074 1 1 1 0.017311181765307531 1 1 1 1 1 1 1 1 1 1 1 1 1 1 1 1 1 0.0085951044293340658 1 1 1 0.011977516446206173 1 0.010326304944726639 1 1 1 1 0.011917416071499397 0.010104603153770913 1 1 1 1 1 1 1 1 1 1 1 1 1 1 1 1 1 1 1 0.0099226687511763806 1 1 1 0.0098742023795010021 1 1 0.010281774296637401 1 1 0.013714398856707104 1 0.012303251631013961 1 1 0.011894870284148266 1 1 1 1 1 1 1 1 1 1 1 1 1 1 1 1 0.011151112497694944 0.010820146302077121 1 1 1 1 1 0.012818822776918745 1 1 1 1 1 1 1 1 1 1 1 1 1 1 1 1 0.013672975003072 1 1 1 1 1 0.013488333351514944 1 1 1 1 1 1 1 1 1 1 1 1 1 1 1 1 1 0.0099584973432046177 1 1 1 1 0.012650986918952833 1 1 1 1 0.012948308211262437 1 1 0.01305043873380991 1 1 0.014057995361286942 1 1 1 1 1 1 1 1 0.011074008588543878 1 1 1 1 1 1 0.012591255373974309 1 1 1 0.010945272360081193 1 0.010017600118252871 1 1 1 1 0.012780249297585578 1 0.0095031271617661388 1 1 0.0092428425068119685 1 1 1 1 1 0.0083814081659402996 1 1 1 1 1 0.010244039271187737 1 1 1 0.010709618896743083 0.0098522558124808698 1 1 1 0.010207962550937848 1 1 0.0093767995609161728 1 1 1 1 1 1 1 1 0.010051286548532844 1 1 1 1 1 1 1 1 1 1 0.0087344889145226541 1 1 1 0.010039672264733688 1 1 1 0.0085741264157054558 1 1 1 1 1 0.0087964769349444995 1 1 1 1 1 1 1 1 1 1 1 1 1 1 1 1 1 1 1 1 1 1 1 1 1 1 1 1 1 1 1 1 1 1 1 1 0.011533659136714596 1 1 1 0.010484273528871543 1 1 1 1 1 1 1 1 0.014108146542153449 1 0.014071202037221731 1 1 1 1 1 1 1 1 1 0.010046120798440935 1 1 0.010080094229915416 1 1 1 0.013101989227318334 1 1 1 1 0.010465170154495806 1 1 1 1 1 1 1 1 1 1 0.012764233393898948 1 1 1 1 1 1 0.0099915960954223629 1 1 1 1 1 0.012391067928335915 1 1 0.012663832837298231 1 0.012605748391567907 1 1 1 0.010910618019353077 1 1 1 0.010113601428547491 1 1 1 1 1 0.010336030540821193 0.0094054648594638305 1 1 1 1 1 1 1 1 1 1 1 0.012515707738042253 1 0.011607227013439527 1 1 0.011540746105611812 1 1 1 1 1 1 1 1 1 0.011879347758654422 0.011606705611147612 1 1 1 1 1 0.01163191111704095 1 0.010114641542444212 1 1 1 1 1 0.0097526460127064993 1 1 1 0.010706040484569284 1 0.012557385175458855 1 0.01008325953434925 1 1 1 1 1 1 1 1 1 1 1 1 1 1 1 1 1 1 1 1 1 0.010054077790129838 1 1 1 1 1 1 1 1 1 1 1 1 1 1 1 1 1 1 1 1 1 1 1 1 1 0.010548598586032467 1 0.010147600380761249 1 1 0.012082723073929161 1 0.010295114048013795 1 1 1 1 0.0078541278529275123 1 1 1 1 1 1 1 1 1 1 1 0.010336893391623586 1 1 1 1 1 1 1 0.0098969104381141197 0.010122450318925565 1 1 1 1 1 1 1 1 1 1 1 1 1 1 1 1 1 1 1 1 1 1 1 0.0088045034177310008 1 1 1 1 1 1 1 1 1 1 1 1 1 0.0087437208358194067 1 1 1 0.0095821441973149707 1 1 1 1 0.011614627557315599 1 1 1 1 1 1 1 1 0.013911299322171847 1 1 1 1 1 1 1 1 1 1 1 1 1 1 1 1 1 1 1 1 1 1 1 0.010554077845364159 1 1 1 1 1 0.01034144293048298 1 1 0.0107748179790246 1 1 1 1 1 1 1 1 1 1 1 1 1 1 1 1 1 1 1 1 1 1 1 1 1 1 1 1 1 1 1 1 1 1 0.01009449078616269 1 1 1 1 1 1 1 1 1 1 1 1 1 0.010031428576559616 1 0.010082827482524717 1 1 1 1 1 1 1 1 1 1 1 1 0.01003865985935209 1 1 1 1 1 0.010857577627144073 1 1 1 1 1 1 1 1 1 1 1 0.010204247085904021 1 1 1 0.010009083473465012 1 1 1 1 0.0099498768470675739 1 1 1 1 1 1 1 1 1 1 1 1 0.011670303889390079 1 1 1 1 0.010258730954057434 1 0.010135044389471793 0.011355039397689779 1 1 0.0097325045742085413 1 1 1 1 1 1 1 1 1 1 1 1 1 1 1 1 1 1 1 1 1 1 1 0.010113724435294442 1 1 1 1 1 1 1 1 1 0.011345724651291994 1 1 1 1 1 0.011477821015634125 1 1 1 1 1 1 1 1 1 1 1 1 1 1 1 1 1 1 1 1 1 1 1 1 1 1 1 1 1 1 1 1 1 1 1 1 1 1 1 1 1 1 1 1 1 1 1 1 1 1 1 1 1 1 1 1 1 1 1 1 1 1 1 1 1 1 1 1 1 1 1 0.010456389068950711 1 1 1 1 1 1 1 1 0.01102805583466579 1 1 1 1 1 1 1 1 1 1 1 1 1 1 0.010023669988122982 1 1 1 1 1 1 1 1 1 0.01014588568028579 1 1 1 1 1 1 1 1 1 1 1 1 1 1 0.012732665012503426 1 1 1 0.011470128061841204 1 1 1 1 0.010117756398842635 0.010009422810387844 1 0.0099995923704262416 1 1 0.010346346075405969 1 1 0.010741722189686935 1 0.0087246808953032433 0.011856171767492287 1 1 1 1 1 0.0098997085129219793 1 1 1 1 1 1 0.0075176628757684834 1 1 0.010014370205884134 0.01041675915826832 0.0136749240235533 1 1 1 1 0.0099327621010485059 1 0.01506233222698336 1 1 1 1 1 1 0.011073095281825896 1 1 0.010195080475515341 0.010010108092724613 1 1 1 1 1 1 0.010125396197434879 0.011167888469785824 1 1 1 1 1 1 1 1 1 1 0.010835799240574543 1 0.010010931769061111 1 1 1 1 1 1 0.010316611575555305 1 1 1 1 1 1 1 1 1 1 1 1 1 1 1 1 1 1 0.010686174209706288 1 1 1 1 1 1 1 1 1 1 1 1 1 1 1 1 1 1 1 1 1 1 1 1 1 1 1 1 1 1 1 1 1 1 1 1 1 1 1 1 1 1 1 0.010085715188663434 0.01072624714904627 1 1 1 1 1 1 1 1 1 1 1 1 1 1 1 1 1 1 1 1 1 1 1 1 1 1 1 1 1 1 1 1 1 1 1 1 1 1 1 1 1 1 1 1 1 1 1 0.010021234479912036 1 1 1 0.011367342359159892 1 1 1 1 0.010253186317070244 1 0.011842228444947268 1 1 1 1 1 1 0.010546480581539348 1 1 1 0.010135809677051284 0.011676288745434834 1 1 1 0.0099346752701763002 1 0.0098779559056366966 1 1 1 0.010095715628941812 1 1 1 0.0099308523916204657 1 1 0.010694546701216378 1 1 0.011044781718700965 1 0.010275832654128274 0.010042973288509506 1 0.010765436095283357 0.01045994981305632 1 1 0.010721474409207135 1 0.010361588783143265 1 1 1 1 0.010915832985440663 0.010021312476126859 1 1 1 1 0.010051627774731833 1 1 0.010135377473788296 1 1 0.011179680120198028 0.0096148466046968428 0.010918287650475221 1 0.01271404130232859 1 1 1 0.0097169746465348861 1 0.0099490148427632402 1 1 0.010000335382611348 1 1 1 0.013157261724764977 1 1 1 1 1 1 1 0.010016716769101658 1 1 1 0.010050388977436223 1 1 1 1 1 1 1 0.010194759562883156 1 1 1 1 1 1 1 1 1 1 1 1 1 1 1 1 0.0095004204358137556 0.0097165967234030069 1 1 1 0.0096960525448984251 1 0.0095819091856860564 1 0.010386033129702382 1 1 1 1 0.010282579592924819 1 0.0099601842496084003 1 1 1 1 1 1 1 0.0096497785781326038 1 1 0.0099896586128750096 1 1 1 1 1 1 0.010069703197126332 1 1 1 1 1 1 1 1 1 1 1 0.010548036435768581 1 1 1 1 1 1 1 1 1 1 1 0.010871673252355543 1 1 1 0.010672708337881625 1 1 1 1 1 1 1 1 1 1 1 1 1 1 1 1 0.010004197170006165 1 1 1 1 0.010067824400809111 1 1 0.010254873610122731 1 1 1 1 0.0099991039166813008 1 1 0.0099867350271567734 1 1 1 1 1 1 1 1 1 1 1 1 1 1 1 1 1 0.010073841846676262 1 1 1 1 1 1 1 1 0.01061529861041717 1 1 1 1 1 1 1 1 1 1 1 1 1 1 1 1 1 1 1 1 1 1 0.010894396403589784 1 1 1 1 0.010078125973018631 1 1 1 0.011608277842503617 1 0.01045383852459664 1 1 1 1 1 1 1 1 0.0099130695640071761 1 1 1 1 1 1 1 1 1 1 0.0088784952982622466 1 1 0.0097771954911421224 1 0.009181151883617851 1 1 1 1 1 1 1 1 0.010010522736566272 0.010043135958028623 1 0.010526403391856249 0.009676815386676297 1 1 1 0.010655072492915869 1 0.009382191589612154 1 1 1 1 1 1 1 1 1 1 0.01040686862482699 1 1 1 0.01013855446737103 1 1 1 1 1 1 0.00980062660629177 1 1 1 1 0.010510956014186827 1 1 1 1 1 1 1 1 1 1 1 1 1 1 1 1 1 1 1 1 1 1 1 1 1 1 1 0.011574290721416681 1 1 1 1 1 0.011285126356026576 1 1 1 1 1 1 1 1 1 1 1 1 1 0.011458583093326138 1 1 1 1 0.011067584575998435 1 1 1 1 1 1 1 1 1 1 1 1 0.0099741375075050858 1 1 1 1 1 1 1 1 1 1 0.010408615158040891 1 1 1 1 1 1 1 1 1 1 1 1 1 1 1 1 1 1 1 1 1 1 1 1 1 1 1 1 1 1 1 1 1 1 1 1 1 1 1 0.010122369705770441 0.010036539720508064 1 1 1 0.01004322901964735 1 1 1 1 1 0.010110901209762223 1 1 0.010003866789520709 1 1 1 1 1 0.010185084275532849 1 1 1 1 0.010231064116589108 1 1 1 1 1 1 1 1 1 1 1 1 1 1 1 1 1 1 1 0.010181389569890155 1 1 1 1 1 1 1 0.010366473845423003 1 1 1 1 1 1 1 1 1 1 1 1 0.010363821679790292 1 1 0.0098188320501806092 1 1 1 1 1 1 1 0.010140004725696329 1 1 1 0.010224384681282561 0.010228345074646514 1 1 1 1 1 1 1 1 1 1 1 1 1 1 1 1 1 1 1 1 1 1 1 1 1 1 1 1 0.010466786101890287 1 1 1 1 1 1 1 0.010140573494964189 1 1 1 1 1 1 1 1 1 0.0099615259646830354 1 1 0.010386049991644806 1 1 1 1 1 1 1 1 1 1 1 1 1 1 1 0.010138198447783882 1 1 1 1 1 1 1 1 1 1 1 1 1 1 1 1 1 1 1 1 1 1 0.010006680002861958 1 1 1 1 1 1 1 1 1 1 1 1 1 1 1 1 1 1 1 1 1 1 1 0.010004516752468572 1 1 1 0.011676965415787041 1 1 0.010003644860453575 1 1 1 1 1 1 1 1 1 1 1 1 1 1 1 0.011612662372725853 0.010674983849342769 1 1 1 1 1 0.01152315847484349 1 1 1 1 1 1 1 1 1 1 1 1 1 0.011199320754267716 1 1 1 1 1 1 1 1 1 1 1 1 1 1 1 1 1 0.014006086876144585 1 1 1 1 1 0.01275121207022091 1 1 1 0.010529888392583557 0.010993808513808549 1 1 1 1 1 1 1 1 1 1 1 1 1 1 1 1 1 1 1 1 1 1 1 1 1 1 1 0.01054122026647508 1 1 0.011244584653274598 1 1 1 1 1 1 1 1 1 1 1 1 1 1 0.010982083622059755 1 1 1 1 1 1 1 1 1 1 1 1 1 1 1 1 1 1 0.010892009163924651 1 1 0.010036641447623642 1 1 1 1 1 1 1 1 1 1 1 1 1 1 1 1 1 1 1 1 1 1 0.0098367004934928944 1 1 1 1 0.010214407964754774 1 1 1 1 1 1 1 1 1 1 1 1 1 0.0099357645746330561 1 1 1 1 1 0.012052523870995653 0.0098116448087040564 1 0.011898503574075162 1 1 1 1 1 1 0.012210549887543306 1 1 1 0.010149617138289012 1 1 1 1 1 1 1 0.010061021351996283 1 1 1 0.010267600534628519 1 1 1 1 1 1 1 1 0.010121714854342722 1 1 1 1 1 1 0.0097404813656797734 1 1 1 1 1 1 1 1 1 1 0.011799761468291843 1 0.012287590312150853 1 0.0092573799966160965 0.0098220198744523087 1 1 1 1 1 1 1 1 1 1 1 1 1 1 1 1 0.010589867991086346 1 1 1 1 1 1 1 1 1 1 1 1 1 1 1 1 1 1 1 1 1 1 1 0.0098600037003542911 1 0.010720263961156981 0.009975102805910338 1 1 1 1 0.010262918067361626 1 1 1 1 1 1 0.010878147450235442 1 1 1 0.010427854934658139 1 1 1 0.010232402584222498 1 1 1 0.010142280897784378 1 1 1 1 1 1 1 1 1 0.010231750288735294 1 1 1 1 1 1 1 1 1 1 1 1 1 1 1 0.0098948268694368235 1 1 1 1 1 0.0099647186731585576 1 0.010926198003501638 1 1 0.0092966612891427734 1 1 0.012092320539694869 1 1 1 1 0.0096465660115577535 1 1 0.0093250075115199563 1 1 1 1 0.010775290232638544 1 1 0.0098433061510915798 1 1 1 1 1 1 1 1 1 1 1 1 1 1 1 1 0.010377162001462098 1 0.010869774295514795 1 1 1 1 1 1 1 1 1 0.010338245669082417 1 1 1 1 1 1 1 0.010894686527203344 1 0.0099315638573736972 1 0.010746498215320427 1 1 1 1 1 1 1 1 1 1 1 1 1 1 1 1 1 1 1 1 1 1 1 1 0.010533865348387506 1 1 1 1 1 1 1 0.0098377358966879446 1 1 1 1 1 1 1 1 1 0.010252088574231651 1 1 1 1 1 0.01087214382134389 1 1 1 1 1 1 1 1 1 1 1 0.010379531527291191 1 1 1 1 1 1 1 1 1 1 1 1 1 1 1 1 1 1 1 1 1 1 1 1 1 0.010375350589317808 1 1 1 1 1 1 1 1 1 0.010269666495398955 1 1 1 1 1 0.010052666432072185 1 1 1 0.010131348129772438 1 0.010672475356509468 1 1 1 1 1 1 1 1 1 1 1 1 1 1 0.010151291431722508 1 1 1 1 0.010292834053680111 1 1 1 0.010141542621957602 1 1 1 0.014893986427063599 1 1 1 1 1 1 1 1 1 1 1 1 1 1 1 1 1 1 1 1 1 1 1 1 1 0.015705237037877108 1 0.016565372979641661 1 1 0.01683668396046924 1 1 0.0094199714814250015 1 1 1 1 1 1 0.0097946687074260252 1 1 1 1 1 1 1 1 1 1 1 0.010080683540683066 0.010039824264078177 1 1 1 1 1 1 1 1 1 1 0.010012714154356672 0.0098877783806296318 1 0.013196643106615924 1 1 1 0.010083054406838978 1 1 1 1 1 1 1 1 1 1 0.0092883566721552076 1 0.010703601559906488 1 0.0098563079224784217 1 1 1 1 1 1 0.0099621495674256273 1 1 1 1 1 1 1 1 1 1 1 1 0.0095433048846387328 1 1 1 1 0.010577120980347885 1 1 1 1 1 0.0093653659469618549 0.010639025345990627 1 1 1 1 1 1 1 1 1 1 1 1 1 1 1 1 1 1 1 1 1 1 1 1 1 0.013229649866400874 1 1 1 0.01231078030569264 1 1 1 1 1 1 1 1 1 0.010883299069534544 1 1 1 1 1 1 1 1 1 1 1 1 1 1 1 1 1 1 1 1 1 1 1 1 1 1 1 0.0094604780676501212 1 1 1 1 1 1 1 1 1 1 1 1 1 1 1 1 1 1 1 1 1 1 1 1 1 1 1 1 1 1 1 1 1 0.0085656279622893274 1 1 1 0.007932636943798815 1 1 1 1 0.013780575761076861 1 1 1 1 0.009635964980781956 1 1 0.011722267699204321 1 1 1 1 1 1 1 0.011084806089628942 1 1 1 1 1 1 1 1 1 1 1 1 1 0.0099501473568908046 0.012272196624316081 1 1 1 0.010414659489785772 1 1 0.010516960055918545 0.0099801791138229949 1 1 1 1 1 1 0.013728778219441833 1 1 1 1 1 1 0.013020103812258578 1 1 0.0096196904188218073 1 1 1 0.0098591214668078374 1 1 1 0.009973238440781719 1 1 1 1 1 0.0095045145729019641 1 0.010600519465281934 0.010524099537225154 1 1 0.012473617777334876 1 1 1 0.01178280203364522 1 1 1 1 1 1 1 1 0.010710271566270347 1 1 1 1 1 1 1 1 1 1 1 1 1 1 1 1 1 1 1 1 1 1 1 1 1 1 1 1 1 1 1 1 0.010483117905436084 1 1 1 1 1 1 1 1 1 1 1 1 1 1 1 1 1 1 1 0.010511829372589487 1 1 1 1 1 0.0099766608824495961 1 1 1 1 1 1 1 1 1 1 1 1 1 1 1 1 1 1 1 0.010889292507061768 0.010897114498412831 1 1 1 1 0.011176137338920752 1 1 1 1 1 1 0.010342137480347619 1 1 1 1 1 1 1 1 1 0.010667695672971385 1 1 1 1 1 1 1 1 1 1 1 1 1 0.011952328024481748 1 1 1 1 1 1 0.010303250273199834 1 1 1 1 1 1 0.010761819642586219 1 1 1 1 1 0.010458569369386387 1 1 1 1 1 1 0.0099746670893524729 1 0.0098545227513904265 1 1 1 0.0099437315318999762 1 1 1 1 1 1 1 1 1 1 1 1 1 1 1 1 1 1 1 1 1 1 1 1 1 1 1 1 1 1 1 1 1 1 1 1 0.0099019706055342004 1 1 1 0.012476097442514936 1 0.0096467922110307427 1 0.0094389920102468418 1 1 1 1 1 0.010434233777329566 1 1 1 0.0097060833189360207 1 1 1 0.010170062971146965 1 1 1 1 1 1 1 1 1 0.0098232933111310795 1 1 1 1 1 1 0.0097460331577107259 1 1 0.011140950563393539 0.0092747090091172962 1 1 0.0099758081219328918 1 1 0.01042268819017643 1 1 0.0097956171211136568 1 1 1 1 1 1 1 1 1 1 1 1 1 1 1 1 1 1 1 1 1 1 1 1 1 0.010594224199382218 1 1 1 1 1 1 1 1 1 1 1 1 1 1 1 0.011201048037371826 1 1 0.011879757702625586 1 1 1 0.0091714654081541287 1 1 0.0097298673462188311 0.0096097420494619789 1 1 1 1 1 1 1 0.0099208300462509946 1 1 1 1 1 1 1 1 1 1 1 1 1 0.010423435953369047 1 1 0.010169689249635086 1 1 1 1 1 1 1 1 1 1 1 1 1 1 1 1 1 1 1 1 1 1 1 1 1 1 1 1 1 0.015546827320015905 1 1 1 1 1 1 1 0.011080913769495238 1 1 1 1 1 0.010355583608841099 1 1 1 1 0.014942955745505804 0.014139133089551347 1 0.013281118228452161 1 1 1 0.010889990365292833 1 1 0.010020987773387391 1 1 1 1 0.010046972550013264 1 1 1 1 1 1 1 1 1 1 1 0.010385462287643379 0.010095187436195311 1 1 1 1 1 1 1 1 1 0.010306116780061426 1 1 0.010149357864182038 1 1 1 1 1 1 1 1 1 0.010027158464169461 1 0.011821242612376867 1 0.012546046073940569 1 0.010946393461737015 1 0.010175751619664301 0.013298293590238902 1 0.00982652759622934 1 0.0099996561742603761 1 1 1 1 1 0.0094502952648077166 1 1 0.0099700085542531146 1 1 0.01037202886650646 1 0.011205470669407004 0.0099256698653264145 1 0.011017389535205029 1 1 1 1 1 1 1 1 1 1 1 0.010321252510690052 1 1 1 0.010172884030967711 1 1 0.0097270036797013106 1 1 1 1 1 1 1 1 1 1 1 1 1 1 1 1 1 1 1 1 1 1 1 1 1 1 1 1 1 1 1 1 1 1 1 1 0.010248140323772246 1 1 1 1 1 1 0.010559146292985745 0.013576259111724217 1 1 1 1 1 1 1 1 1 1 0.01436481147631387 1 1 1 0.01398842954997067 1 1 1 1 1 1 1 1 0.010583351174906636 1 1 1 1 1 1 1 1 1 1 0.010006585946698019 1 1 1 1 1 1 0.0099587520022720189 1 1 1 1 1 1 0.011534199362421798 1 1 1 0.010718841827053724 1 1 1 1 1 1 1 1 1 1 0.010960480329125138 1 1 1 1 1 1 1 0.012313283616222042 1 0.012913005936419671 1 1 1 1 1 1 1 1 1 1 1 1 1 1 1 1 1 1 1 1 1 1 1 0.0099521046940362363 1 1 1 1 1 1 1 1 1 1 1 1 1 1 1 1 1 1 1 1 1 1 1 1 1 1 1 1 1 1 1 1 1 1 1 1 1 1 1 1 1 1 1 1 1 1 1 1 1 1 1 1 1 1 1 1 1 1 1 1 1 1 1 1 1 0.011150360081463985 1 1 1 1 1 1 1 0.010520412191639468 1 1 1 1 1 1 1 1 1 1 1 1 1 1 1 1 1 1 1 1 1 1 0.010009372176773317 1 1 1 1 1 1 1 1 1 1 1 1 1 1 1 1 1 1 1 1 1 1 1 1 0.010080013496892654 1 1 1 0.010174504283055344 1 1 1 1 1 1 1 1 1 1 1 1 1 1 1 1 1 1 1 1 1 1 1 1 1 1 1 1 1 1 1 1 1 0.010380947229943488 1 0.010329092507467899 1 1 1 1 1 0.010126697100970266 1 0.010296204161723749 1 1 1 1 1 1 1 1 1 1 1 1 1 0.010088790062078643 1 1 1 1 1 1 1 1 1 1 0.010229218015216026 1 1 1 1 1 1 1 1 0.010119781092602132 1 1 1 0.010646130690804449 0.0095481319928517501 1 1 0.0098435647271520321 1 1 1 1 1 1 0.010662540978289352 1 1 0.0098990371168685559 1 1 1 0.011911846312817994 1 1 1 1 1 0.0090572125205694957 1 1 0.010004403286751255 0.010003347058671681 0.011514645609167623 1 1 1 1 1 1 1 1 1 1 1 1 1 1 0.010846347134596692 1 1 1 0.011612365475280701 1 1 1 1 1 1 0.010082041788985186 1 1 0.010640923768667208 1 1 1 1 1 1 1 1 1 1 1 1 1 1 1 1 1 0.011053186978238335 1 1 1 1 1 1 1 1 1 1 1 1 1 1 1 1 1 0.0096229887222702062 1 1 1 1 1 1 0.010142979451882903 1 1 1 1 0.01019930636933503 1 1 1 1 1 0.0099352542153200111 1 1 1 1 1 1 1 1 0.011590621447378751 1 1 1 1 0.0095895814495106854 1 1 1 1 1 1 1 1 1 0.011551614754254456 1 1 1 1 1 1 1 1 1 1 1 1 1 0.010344080494862046 1 1 1 0.0090498436331121826 1 1 0.010978486946997896 1 1 1 1 1 0.0099564799117515968 1 1 1 1 1 1 0.0091645924388992668 1 0.0099871815364086253 1 1 1 0.010437418446104931 1 1 1 0.010122894314235858 0.0089725333542675194 1 0.0099381766648761385 1 0.0098440142035249693 1 0.011033082622319296 1 0.0099670451224890856 1 1 1 1 1 0.0099436860567634032 1 1 1 1 0.011231811195816075 1 1 1 1 1 1 1 1 1 1 0.010368995618970114 1 1 1 1 1 1 1 1 1 1 1 1 1 1 1 1 1 1 1 1 1 1 1 1 1 1 1 1 1 1 1 1 1 1 0.0099659279951529994 1 1 1 1 1 1 1 0.0099100679450896956 1 1 0.01391515850071369 1 1 1 1 1 1 1 1 1 1 0.014526360161676435 0.0099993327345574336 1 1 1 1 1 1 1 1 1 1 1 1 0.0098542383339086537 1 0.010184840629156366 1 0.014079427334201592 1 1 1 1 0.010169018234753318 0.010015119283131469 0.0096147883857014178 1 1 0.01001719011695895 1 1 0.0098374357434510076 1 0.010136411229908403 1 1 1 0.0095460231487628135 0.010721174670732213 1 1 0.0125534763258597 0.013477607576977243 1 1 1 1 1 0.010014611318961628 1 1 1 1 1 1 1 1 1 0.012586365395909715 1 1 1 1 1 1 0.010033191917806314 1 1 0.010098275775491756 1 1 1 1 1 1 1 1 1 0.0103627506072535 1 1 0.013738062099894744 0.0097811074337017471 1 1 1 1 1 1 1 1 1 0.010162411276594898 1 1 1 1 1 1 0.0095697796689788537 1 1 0.0093190745206033418 1 1 0.010381850440940192 1 0.010395908213131405 1 1 1 1 1 1 1 1 1 1 1 1 1 1 1 0.010237264141711654 1 1 1 0.010004157877691867 1 1 1 1 1 1 1 1 1 1 1 1 1 1 0.0098335290344853405 1 1 1 1 0.0094531499883778666 1 1 1 1 1 1 1 0.013719371259004593 1 0.010008345261914119 1 1 0.01247891486732748 1 1 1 0.011080362398436986 1 1 1 1 1 1 0.010555425938189511 1 0.01363113784820098 1 1 1 0.010619476706505994 1 0.010280202023833866 1 1 1 1 1 0.010526202919329108 1 0.013169706224236168 1 1 1 1 1 1 1 1 1 1 1 1 1 1 0.010151983026738445 1 1 1 1 0.0086214859920180891 0.00999674148129291 1 1 0.01016990734538863 0.010255365193728917 0.013514705158619498 1 1 1 0.010016907933416244 1 1 1 1 1 1 1 1 0.010055289509174116 1 1 1 1 0.014274568951333808 1 1 1 1 1 1 1 0.014015668670882267 1 0.013208926170708105 1 1 1 0.011037769538899272 1 1 1 1 1 1 0.01041849294938528 1 1 0.011250707459134465 1 1 1 0.010383477542378155 1 1 1 1 1 1 1 0.0099364256599023607 1 0.011307778891285127 1 0.011165301899836971 1 1 1 1 1 1 1 1 1 1 1 1 1 1 0.012043267783630436 1 0.010227231823727822 1 0.011340153589234424 1 1 0.011677593676369113 1 1 1 0.012548903448434512 1 0.011438435135040415 1 1 1 1 0.010151446373172241 1 0.010265056760887334 0.010622508769726672 1 1 1 1 1 1 1 0.010057229899222085 1 1 1 1 1 1 1 1 1 1 1 1 1 1 1 1 0.015122285873793485 0.01002687911083924 0.012012337175614084 0.010058037852845534 1 1 0.017349903424496455 1 1 1 0.0093603382736192706 1 1 1 1 0.011147812606681046 1 1 0.014099009274009202 0.014207517935688838 1 0.013812568315908824 1 1 1 1 1 1 1 1 1 1 0.019275471085409994 0.010065780470702545 1 1 1 1 0.0089807151002863315 0.01238494817123378 1 1 0.0099842572383765059 1 1 1 1 0.013723613896480306 1 1 1 1 1 1 0.014282386311044906 1 0.010006203195207276 1 1 1 1 0.0099976918719980722 1 1 1 1 1 1 1 1 1 1 0.013337457823399124 1 1 1 1 1 1 0.010172294502426307 0.012639753967842868 0.010340940087205651 1 1 1 1 1 1 1 1 1 0.010720801470100497 1 1 1 0.012755856277536285 1 1 0.013304426901660178 1 1 1 0.010932336504219708 1 1 1 1 1 0.01044976790888414 1 0.012128045185484302 1 0.0097176534815840744 1 1 1 1 0.01000090246454278 1 0.013541832223633508 1 1 1 1 1 1 1 1 1 0.013573085593597444 1 1 1 1 1 1 1 1 1 1 1 1 1 1 1 1 0.010695183960162332 0.011319706283124384 1 1 1 1 1 1 1 1 1 1 1 1 1 1 1 0.013607030276443034 0.014232235946849732 0.0093944598795848624 1 1 1 1 1 0.013692097946033654 0.0091736160024384877 1 1 1 0.0088133097231060855 0.014486354801199005 1 1 1 1 0.0099190451000850596 1 1 1 0.0099988061346166519 0.014047619259231984 1 1 0.01154734690732478 1 1 1 1 1 1 1 1 1 1 1 1 1 1 1 1 1 1 1 1 1 1 1 1 1 1 1 1 1 1 1 0.0096978371170678458 1 1 1 1 1 1 1 0.0098637138292269558 1 0.0096729968893942489 1 1 1 1 1 0.011739030300939009 1 0.0099253127764578949 1 0.01346002000912324 1 1 1 1 0.0099607240768852384 1 1 1 1 1 1 1 1 1 1 1 1 1 1 1 1 1 1 1 1 1 1 1 1 1 1 1 1 1 1 1 1 1 1 0.011367076672763377 1 1 1 1 1 1 1 0.010487802019646728 1 1 1 1 1 1 1 1 1 1 1 1 1 1 0.010061055414196619 0.010017328860209479 1 1 1 1 1 0.010536641357238159 1 1 1 1 1 1 1 1 1 1 1 1 0.0097690165538954037 1 1 1 1 0.0099267147221103625 1 1 0.011277691009790924 1 1 0.011965244347934653 1 0.012498422931543643 1 1 1 1 1 1 1 0.0096279748545093045 1 1 1 1 0.009994685134679604 1 1 1 1 1 1 0.012104809070516771 1 1 1 1 1 1 1 1 1 0.0098595316846719801 1 1 1 1 1 1 1 1 0.010091210777011929 1 0.010031579850328043 1 1 0.011835653528824135 1 1 0.011433785295818075 1 1 1 1 1 1 1 1 1 0.010934944466645754 1 1 1 0.010059630926683888 1 1 1 0.010043726553987137 1 1 1 1 1 1 1 1 1 1 1 1 1 1 1 1 1 1 1 1 0.010775395050870398 1 1 1 1 1 1 0.0098703796103568036 1 1 1 0.010735526402976958 1 1 0.011315224564628119 1 1 0.01368040249439496 1 1 0.011780867315800974 1 0.01172240970751293 1 1 0.013792431581355135 0.013391991741616321 1 1 1 1 1 1 1 1 1 1 1 1 1 1 1 1 1 1 1 1 1 0.011709212331915644 1 1 1 1 1 0.01012505473634972 0.011465019559764839 0.010613296008045232 1 0.010861470432947192 1 0.011670490699817966 1 1 1 0.010148011243516566 1 1 0.010870326590435787 1 0.011222519207472567 1 1 1 0.010893502677116265 1 0.010006459168624693 1 0.010113974713324713 1 1 1 1 1 0.012406899448118149 0.010814879596617321 1 1 1 1 1 1 1 1 1 0.010790801695231507 1 1 1 0.010042538217495954 1 0.010259808958729605 0.010583165576146681 1 1 1 1 1 1 1 1 1 1 1 1 1 1 1 1 1 1 0.0099847085603283238 1 1 1 1 1 1 1 1 0.010406511087830698 1 1 1 0.010889441857202082 1 1 1 1 1 1 1 1 1 1 1 0.011718457446412164 1 1 1 1 1 1 0.010328016864624865 1 0.010250202753820539 1 1 0.0099502912267310523 1 1 1 1 1 1 1 1 1 1 1 1 1 1 1 1 0.01205008838856658 1 1 1 0.011955514122044189 0.012357161482453151 1 1 0.011743497280835961 1 0.013207705073390254 1 1 1 1 0.010005995095370977 0.011116916919086402 1 1 1 1 1 1 0.010243987752210752 1 1 1 0.010001900593733723 0.0091302352953659821 1 1 1 1 1 1 1 1 1 0.010101000709188566 1 1 1 1 1 0.013114745587907258 1 1 0.013370221488285696 1 0.014773319379396153 1 1 1 1 1 1 1 1 1 1 1 1 1 1 1 0.012636612564483599 1 1 1 1 1 0.011922470576887055 1 1 1 1 1 1 1 1 1 0.011847972266762673 1 1 1 1 0.010048000271444923 1 1 1 1 1 1 1 1 1 0.010298226295009899 1 1 1 1 1 1 1 0.012132381158156281 1 1 0.011847243204029547 0.012097035671392696 1 1 1 0.011551794342948569 1 1 0.010068749715426007 1 1 1 1 1 1 0.010539763853799941 1 1 0.011029044718558909 1 0.013061797140605305 1 1 1 1 1 1 1 0.013906837166623734 1 0.0092443423276223208 1 1 1 0.0092786521987747866 1 1 1 1 1 0.013686470405364307 1 1 0.0097113227331537804 1 1 0.010170753323181769 1 0.0099394555801770885 1 1 1 1 1 1 1 1 1 1 1 1 1 1 1 1 1 1 1 1 1 0.01395772667863519 1 1 1 1 1 0.01313764027205329 1 0.01251777624979789 1 1 1 1 1 1 1 0.010104904454621227 1 1 1 1 1 1 1 1 1 1 1 0.0099996102351280446 1 1 1 1 1 1 1 1 1 1 1 1 1 1 1 0.010278651318426649 1 0.0099912173701672356 1 0.011473610972053285 0.010651445212716175 0.0085037700307666712 1 1 0.0095508779753829352 0.010025142947274919 1 1 0.011112048467910847 1 1 1 1 0.012001249007644502 1 1 1 0.0099247809002382982 1 0.0085523200202579086 1 0.010160026839671436 1 1 1 1 0.00998404964199218 1 1 1 1 1 1 1 1 0.012072283144848867 1 0.012978274130862267 1 1 1 1 1 1 1 1 1 1 1 1 1 1 1 1 1 1 1 1 1 1 1 0.0093086350005727771 1 1 0.0095652765701016631 1 1 1 1 1 1 1 1 1 1 0.0088901266353756357 0.0094108039796410355 1 0.009185290961234981 1 1 1 0.011443411486948633 0.0099989088712810724 1 0.010098054403235825 1 1 1 1 1 1 1 1 1 1 1 1 0.0098160313113973968 1 1 1 1 1 1 1 1 0.014211560227398761 1 1 1 1 1 1 1 1 1 1 1 1 1 0.0099709098104861903 0.013653559643697291 1 1 0.0099950730593698356 1 1 1 1 1 0.014016545846468836 1 1 1 1 1 1 1 1 0.010720300375073606 1 1 1 1 0.010335864179886089 1 1 1 1 1 1 1 1 1 0.010348368293995477 0.0097692069021683373 1 1 1 1 1 1 0.010023829212676189 1 0.0099777100067117794 1 0.010404206630048547 1 1 1 0.011074204311949481 1 1 1 0.0099934978894130767 1 1 0.010037583138683038 1 1 1 1 1 1 1 1 1 1 1 0.010286377265377122 1 1 1 1 0.010103218280854781 1 1 1 1 1 1 1 1 1 1 1 1 1 1 1 1 1 1 1 1 0.011919196075361394 1 1 1 1 1 0.012629593971961017 1 1 1 1 1 0.010961714604455088 1 1 1 1 0.011137476153863457 1 1 1 1 1 1 1 1 1 1 1 1 1 1 1 1 1 1 1 1 1 1 1 1 1 1 0.012642049343422451 1 1 1 1 1 1 1 1 1 1 1 1 1 1 1 1 1 1 1 1 1 1 1 1 1 1 1 1 1 1 1 1 0.010982351396733418 1 1 1 1 1 1 1 1 1 1 0.010143742389985461 0.010462409244551111 1 1 1 1 1 1 1 1 1 1 1 1 1 0.011802610858244019 1 1 1 1 1 1 1 1 1 1 1 1 1 1 1 1 1 1 1 1 1 1 1 1 1 1 1 1 1 1 1 1 1 1 1 1 1 1 1 1 1 1 1 1 1 1 1 1 0.011971812021938331 1 1 1 1 1 1 1 1 1 1 1 1 1 1 1 1 1 1 1 1 1 1 1 1 1 1 1 1 1 1 0.011148675963646132 1 1 1 0.009980496554630014 1 1 1 1 1 1 1 1 1 0.010863541014901928 1 1 0.0097568595760971662 1 1 1 1 1 0.010337536840691844 1 1 1 1 1 0.010279530573405752 1 1 1 1 1 1 1 1 1 1 1 1 1 1 1 1 1 1 1 1 0.010280095618448551 1 1 1 1 1 1 1 1 1 1 1 0.010834335868074869 1 1 1 1 1 1 1 1 1 1 1 1 1 1 1 1 1 1 0.010931373561161497 1 1 1 1 1 1 1 1 1 1 1 1 1 1 1 1 1 0.010429894157120825 1 1 1 1 1 1 1 1 1 1 1 1 1 0.010350454282222643 1 1 1 1 1 1 1 1 1 1 1 1 1 0.010955602172716032 1 0.010768773431428211 1 1 1 1 1 1 1 1 1 1 1 1 1 1 1 1 1 1 1 1 1 1 1 1 1 1 0.010314650662752865 1 1 1 1 1 1 0.010064827210535749 1 1 1 1 0.008705944147074032 1 1 1 1 0.0093811284608841042 1 1 1 1 1 1 1 1 1 1 0.009312639176581549 1 1 1 1 0.0098524179561599763 1 1 1 1 1 1 1 1 0.010362347687965005 1 1 1 0.010523456946608346 1 1 1 1 1 1 1 1 1 1 1 0.010921303394734601 0.0099571534422839073 1 1 0.01003356821165528 1 1 1 1 0.010449244669921431 0.010007203251398616 1 1 1 1 1 1 1 1 1 0.010114392251594242 1 1 1 1 1 1 1 1 1 1 1 1 1 1 1 1 1 1 1 1 1 1 1 0.01015447561491515 1 0.010272448686379134 1 1 1 1 1 1 1 1 1 1 0.010158029508471857 1 1 1 1 0.0093782475566588433 1 1 0.010071405051193307 1 1 0.010415195741657323 1 1 1 0.0099957980240957534 1 1 0.010073250438945931 1 1 1 1 1 1 1 1 1 1 1 1 1 1 1 1 1 1 1 1 1 1 1 1 1 1 1 1 1 1 1 1 1 1 1 1 1 1 1 1 1 1 1 1 1 1 1 1 1 1 1 1 1 1 1 1 1 1 1 1 1 1 1 1 1 1 0.0095743876757462577 0.010111415880020191 1 1 1 1 1 1 1 1 1 0.0098385385439783476 1 1 1 1 1 0.010044853783793713 1 1 1 0.010263544833149613 1 1 1 1 1 1 1 1 1 1 1 1 1 1 1 1 1 1 1 1 0.010236132463201517 1 1 1 1 1 1 1 1 1 1 1 1 1 1 1 1 1 1 0.010016431378030013 1 1 1 1 0.009983377463659961 1 1 0.01067106651486213 1 1 1 1 1 1 1 1 1 1 1 1 1 1 1 1 1 1 1 1 1 1 1 1 1 1 1 1 1 1 1 1 1 1 1 1 1 1 1 1 0.010602601687040083 1 1 1 1 1 1 1 1 0.01026254320878122 1 1 1 1 1 1 1 1 1 1 1 1 1 1 1 1 1 1 1 1 1 1 1 1 1 1 1 1 0.0098116987985896135 0.0094398783373960647 1 1 1 1 1 1 1 1 0.010026541411980942 0.011357322468879286 1 1 1 0.01126051992907679 1 1 1 1 1 1 1 1 1 1 0.01058520494543224 1 1 1 1 1 1 1 1 1 1 1 1 1 1 1 1 1 1 1 1 1 1 1 1 1 1 1 1 1 1 1 1 1 1 0.01016711271526308 1 1 1 1 0.010167569289949373 1 1 1 1 1 1 1 1 1 1 1 1 1 1 1 1 0.01156643928222691 1 0.010825411039741056 1 1 1 1 0.010742940091145594 1 1 1 1 1 1 1 1 1 1 1 1 1 1 1 1 1 1 1 1 1 1 1 1 1 1 1 1 1 1 0.010059198312297108 1 1 1 1 1 1 1 1 1 1 1 0.010292007895708244 1 1 0.010691854020940902 1 0.010088976229843637 1 1 1 1 1 1 0.010029777917546528 1 1 1 1 1 1 1 1 1 1 1 1 0.0098840803135359957 1 0.010198585657249067 1 1 0.010001449074848418 1 1 1 1 1 1 1 1 1 1 1 1 1 1 1 1 1 1 1 1 1 1 1 1 1 1 1 1 1 1 1 1 1 1 1 1 1 1 1 1 1 1 1 1 1 1 1 1 1 1 1 0.0103396617113738 1 1 1 1 1 1 1 1 1 1 1 1 1 1 1 1 1 1 1 1 1 1 1 1 1 1 1 1 1 1 1 1 1 1 1 1 1 1 1 0.010189389402590107 1 1 1 1 1 0.010135889107058958 1 1 1 1 1 1 1 1 1 1 1 1 1 1 1 1 1 1 1 1 1 1 1 1 1 1 1 1 1 1 1 1 1 1 1 1 1 1 1 1 1 1 1 1 1 1 1 1 1 1 1 1 1 1 0.01139496591771259 1 0.01016233093282219 1 1 1 1 1 1 1 1 0.012231798601009888 1 1 1 1 1 1 1 1 1 1 1 1 1 1 1 1 1 1 1 0.010605964106668 1 1 1 1 1 1 1 1 0.010589451332952181 1 1 1 1 1 1 1 1 1 1 1 1 1 1 1 1 1 1 1 1 1 1 1 1 1 0.010454115730242089 1 1 1 1 1 1 1 1 1 1 1 1 1 0.010446086633778101 1 1 1 1 1 1 1 1 1 1 1 1 1 1 1 1 1 1 0.010620353806143399 1 1 1 1 1 1 1 1 1 1 1 1 1 1 1 1 1 1 1 1 1 1 1 1 1 1 0.010222892129065809 1 1 1 1 0.0098018747808997844 1 1 1 1 1 1 1 1 1 1 1 1 1 1 1 1 1 1 0.0094092207648848632 1 1 0.013048654375319475 1 1 1 1 1 1 1 1 1 0.010608318190672107 1 1 1 1 0.012687520025663397 1 1 0.010964759380480572 1 1 1 1 1 1 1 1 1 1 1 1 1 1 1 1 1 1 1 1 1 1 1 1 1 1 1 1 1 0.0099272640948452322 1 1 0.011145857828797514 1 1 1 1 1 1 0.012790064214394251 1 1 1 0.0099973097801996022 1 1 1 1 1 1 1 1 1 1 1 1 1 1 1 1 1 1 1 1 1 1 1 1 1 0.0096944955561388043 1 1 1 1 1 0.011000748046807183 1 1 1 1 1 1 1 1 1 1 1 1 1 0.011181721292122701 1 1 1 1 1 1 1 1 1 1 1 1 0.010543571155143395 1 1 1 1 1 0.010685480166390053 1 1 0.01075046422502561 1 1 1 1 1 0.009902213409846327 1 1 0.010301116521837071 1 1 1 1 1 1 1 1 1 1 1 0.010972092033880602 1 1 1 1 1 1 1 1 1 1 1 1 1 1 1 1 1 1 1 1 1 1 1 1 1 1 1 1 1 0.0099811005757154056 1 1 0.010013759389200093 1 1 0.01261398503043859 1 1 1 0.014066637670492012 1 1 1 0.013244458019045087 1 1 1 1 1 1 1 1 1 1 1 1 1 1 1 1 0.010751889080618533 1 1 1 1 1 1 1 1 1 1 1 1 1 1 0.01136020727129064 1 1 1 1 1 1 1 1 1 1 1 1 1 1 1 1 1 1 1 1 1 1 1 1 1 1 1 1 1 1 1 1 1 1 1 0.010780063338074299 1 1 1 1 1 1 1 1 1 1 1 1 1 1 1 1 1 0.010127938462224904 1 1 1 1 0.010098564590844746 1 1 1 1 1 1 1 1 1 1 1 1 0.010380217212841642 1 1 1 1 1 1 1 0.01009729435695568 1 1 1 1 1 1 1 1 1 1 1 0.010169303987679275 1 1 1 1 1 1 1 1 1 1 1 1 1 1 1 1 1 0.014466210282795641 1 1 1 1 0.014647187072966136 1 1 1 1 1 0.014731924421764877 1 1 0.010006821679569091 1 0.010084378604777009 0.013528735074663038 1 1 1 1 1 1 1 1 1 1 1 1 1 1 1 1 0.01000539727176736 0.010062412441399819 1 1 1 1 1 1 1 1 1 0.014034757714321753 1 1 1 1 1 0.014366328142490534 1 1 1 1 1 1 0.011120662633146754 1 1 0.011553943315765095 1 0.012173459128076351 1 1 0.010002889051504166 1 0.0099970116862023936 1 1 1 0.0099970407804844015 1 1 1 1 1 1 0.013658787347421654 0.012343805314388981 1 0.0098377318596187709 1 1 0.0099788340949910001 1 1 1 1 1 1 1 1 1 1 1 1 1 0.0099967162099150655 1 1 1 1 1 1 1 1 1 1 0.010484054866101933 0.009197697720945296 1 1 0.0087351032994511038 1 1 1 0.0099950580475873969 1 0.0098376818294808738 1 1 1 1 0.01000415512159579 1 1 0.01015794660363332 1 1 1 1 1 1 1 0.010065416035315697 1 1 1 1 1 1 1 1 1 1 1 0.010066488236736018 1 1 1 1 1 0.011390054310748991 0.0099807581252466162 1 1 1 1 1 1 0.010462602632204158 1 1 1 1 0.010723804550104172 1 0.009990712136605415 1 1 1 1 1 1 1 1 1 1 1 1 1 0.0099103065888647441 1 1 1 1 0.010173146398875548 1 1 1 1 1 1 1 1 1 1 1 1 1 1 1 1 1 1 1 1 1 1 0.010235668825784756 1 1 1 1 1 1 1 1 1 1 1 1 1 1 1 0.010183979197981679 1 1 1 1 1 1 0.010083591821348728 1 1 1 1 1 1 1 1 1 1 1 1 1 1 1 1 1 1 1 1 1 1 1 1 1 1 1 1 1 1 1 1 0.010531152374841157 1 1 1 1 1 1 1 1 1 1 1 1 1 1 1 1 1 1 1 0.011371904928851099 1 1 1 1 1 1 0.010182972266693737 0.011887738248294307 1 1 1 1 0.0099699338038215703 0.010011447452284739 1 1 1 1 1 1 1 1 1 1 0.01029126987240412 1 1 1 1 1 1 1 1 1 1 1 1 1 1 1 1 1 1 1 1 1 1 1 1 0.010198538892513227 1 1 1 1 1 1 1 1 1 1 0.010178435787634107 1 1 1 1 1 1 1 1 1 1 1 1 1 1 1 1 1 0.01046970566003823 1 1 1 1 1 1 1 1 1 0.013234926228254063 0.014803693271614978 1 0.010445788196486163 1 1 1 1 1 1 1 1 1 1 1 1 1 1 1 1 1 1 1 1 1 1 0.010301352613535521 1 1 1 0.010138354280400613 1 1 1 1 1 1 1 1 1 1 0.010060208953699646 1 1 1 1 1 0.010014349818002852 1 0.013199284934505565 0.014096809394356567 1 1 1 1 1 1 1 1 1 1 1 1 1 1 1 1 1 0.01329539738080484 1 1 0.0098163001084186005 1 1 1 0.012395558797070612 1 1 0.011700810620324915 1 0.010408073325594729 1 1 1 1 1 1 1 1 1 1 1 0.01065010375752156 1 1 1 0.011823865574706896 1 1 1 1 1 1 1 1 1 1 0.01123715625054952 1 1 1 1 1 0.013747887474170396 1 1 1 1 1 1 1 0.012008268258499141 1 1 1 1 1 1 1 1 1 1 1 1 1 1 0.010147386316856877 0.009967545553621452 1 1 1 1 0.010230012643564728 1 1 1 1 0.013096829847619011 1 1 1 1 1 0.010034916538116665 1 0.012414565798064461 1 1 1 1 1 1 1 1 1 1 1 1 1 1 0.010315614491026859 0.010004223280882388 1 1 1 1 1 1 1 1 1 1 1 1 1 1 1 1 1 1 1 1 1 1 1 1 1 1 1 1 1 0.01044507002805772 1 1 1 1 1 1 1 1 1 1 1 1 1 0.010117044403514731 0.010729889620607745 1 1 0.011566432613030584 1 1 1 1 1 1 1 1 1 1 1 1 1 1 1 1 1 1 1 1 1 1 1 1 1 1 1 1 1 1 1 1 1 1 1 1 1 1 1 1 1 1 1 1 1 1 1 1 1 1 1 1 0.010366773983670969 1 0.010950040086727248 1 1 1 1 1 0.010344271655606361 1 1 1 1 1 0.0099310141723224117 0.01020184288527244 1 1 1 1 1 1 1 1 0.010025141292546322 1 1 1 1 1 1 1 1 1 1 0.0097963730884832161 1 1 0.010011547799951791 1 1 0.012408861508495038 1 1 1 1 1 1 1 0.010028159045133614 0.011576470948332552 1 0.010874789256675966 0.009999347825951535 1 1 0.010520161490748487 1 1 1 1 1 1 1 1 1 1 0.012191063887177675 1 1 1 1 1 1 1 1 1 1 1 1 1 1 1 1 1 1 1 1 1 1 1 1 1 1 1 1 1 1 1 1 1 1 1 1 1 1 1 1 1 1 1 0.0096578282121298747 1 1 1 1 0.01003870559579725 1 1 0.0097555106511796053 1 1 1 1 1 1 1 1 1 1 1 1 1 1 1 1 1 1 1 0.010169336849478154 1 1 1 1 1 1 1 1 1 1 1 1 1 1 1 1 1 1 1 1 1 1 0.0099567543298288881 1 1 1 1 1 1 1 1 1 1 0.010054179559359482 1 1 1 1 1 1 0.010119324160241127 1 1 1 0.010108202554139972 1 1 1 0.010507234415168499 1 1 1 1 1 1 0.012853783579298183 1 1 1 1 0.010765330873121263 1 0.010065215854611675 0.012100528773583105 1 1 1 1 1 1 1 1 1 1 1 1 0.0090969687665229965 1 1 1 1 1 1 1 1 1 1 1 1 1 1 0.012557107413387811 1 1 1 1 1 0.01103852173455146 1 1 1 1 1 1 0.012172452810521598 1 1 1 1 1 1 1 1 1 1 1 1 1 1 1 1 1 1 1 1 1 1 1 0.0096077051749915415 0.012187198469668641 1 1 1 0.0098571086912737568 1 1 1 1 1 0.0099108363548629647 1 1 1 1 1 1 1 1 1 1 1 1 1 1 1 1 0.011310022900717902 1 1 1 1 1 1 1 1 1 1 1 1 1 1 1 1 1 1 0.010149097356057561 1 1 1 1 1 1 1 0.0097424688693748228 1 1 1 1 1 1 1 1 1 1 0.0098641594791426656 1 1 1 1 0.011244559749703471 1 0.010969051513858265 1 1 0.010036683016437238 1 1 1 1 1 0.010185780372494797 1 1 1 1 1 0.010452462952629672 1 0.011000247292669654 1 1 1 1 0.013785047410820202 1 1 1 1 1 1 1 1 0.0099179936824806379 1 1 1 1 1 1 1 1 1 1 1 1 1 1 1 1 1 0.011075487484178581 1 1 1 1 1 0.012773752670399202 1 1 1 1 1 1 1 1 1 1 1 1 1 1 1 1 1 1 1 1 1 1 1 1 1 1 1 1 1 1 1 1 1 1 1 1 1 1 1 1 1 1 1 1 0.010020701611643056 1 1 1 1 1 1 1 1 1 1 1 1 1 1 1 1 1 1 1 1 1 1 1 1 1 1 1 0.011319613228623373 1 1 1 1 1 0.010006566625688567 1 1 1 0.010071445348701576 0.014790894107793511 1 1 1 1 1 1 1 1 1 1 1 1 1 0.0099304578015010081 1 1 1 1 1 0.0098011551712367008 1 0.0082979269350881117 1 0.012153383521312466 1 0.013016057325421292 0.014895896432523658 1 1 1 1 1 1 1 1 1 1 0.009996141429026429 1 0.0091446634721546183 1 1 1 1 1 1 1 1 1 1 1 0.009742761732208928 1 1 1 1 1 1 1 1 0.010464036341779441 1 1 1 1 1 1 1 1 1 1 1 1 0.01051728690090421 1 1 1 1 1 1 1 1 1 1 1 1 1 1 1 1 1 1 1 1 1 1 1 1 1 1 0.011243793694991958 1 1 1 0.0098469175912659426 1 1 0.0096812009150608926 1 0.010038589072593244 1 1 1 0.010633051751462614 1 1 1 1 1 1 1 1 1 1 1 1 1 1 1 1 1 1 1 1 1 1 1 1 1 1 0.0099170811497692069 1 1 1 1 1 1 1 0.010479755640501472 1 1 0.01026115050541692 1 1 1 1 1 1 1 1 1 1 1 0.010365991451941428 1 1 1 1 1 0.010071231642044006 1 1 1 1 1 1 1 0.010918620336994256 0.010234356226835748 1 1 1 1 0.010786327072868033 1 1 1 1 1 1 0.010260316186909651 1 1 1 1 1 1 1 1 1 0.011086263215391313 0.0099490864063421867 1 1 1 1 1 0.0083979565788991108 1 1 1 0.012895279725582083 1 0.011471323285968327 1 0.013580315572529629 1 1 1 1 1 0.011309113729226702 1 1 1 1 1 1 1 1 1 1 1 1 0.010594167215077173 1 1 1 1 1 1 1 1 1 1 1 1 1 1 1 1 1 1 1 1 1 0.011609874472144795 1 1 1 1 1 0.015167359809427792 1 1 1 0.014051355975121638 1 1 1 1 1 1 1 1 1 1 1 1 1 1 1 1 1 1 1 1 1 1 1 1 1 1 1 1 1 1 1 1 0.015296816707322317 1 1 1 1 1 1 1 1 1 1 1 1 1 0.010051209873859733 1 1 1 0.010291910404113598 1 1 1 1 0.010763903303080869 1 1 1 1 1 1 1 1 1 1 1 1 1 1 1 1 1 1 1 1 1 1 1 1 1 1 1 1 1 1 1 1 1 1 1 1 0.0085471318451497309 1 1 1 0.0097439686139792585 1 1 1 0.011096418901054181 1 1 1 0.012837124909479216 1 1 0.010927883455897892 0.011479120960301004 1 1 1 1 1 1 0.010075853464908406 1 0.012470695746192254 1 1 0.010416004938516684 1 1 1 1 1 1 1 0.010945100008656975 1 1 1 1 1 1 1 1 1 0.01366810874071445 1 1 0.010182128444982456 1 1 1 1 1 1 1 1 1 1 1 1 1 1 1 1 1 1 0.010529095070140292 1 1 1 1 1 1 1 1 0.010426634314416431 1 1 1 1 1 1 1 1 1 1 1 1 1 1 1 1 1 1 1 1 1 1 0.010850309783580696 1 1 1 1 1 1 0.010403678299382107 1 1 1 1 1 1 0.010192743164656064 1 1 1 1 1 1 1 1 1 1 1 1 1 1 1 1 1 1 1 1 1 1 1 1 1 1 1 1 1 1 1 1 1 0.011426131782793161 0.010374442347079335 1 1 0.010022234876844147 0.011138491680785645 1 0.010104227500159414 1 0.010047669459022149 1 0.0096934745343556054 1 1 1 1 1 1 1 1 1 1 0.010041273193031934 1 1 1 1 0.010723257733327836 1 1 0.0099732233435856597 0.011148445880849444 1 1 0.010129916523534316 1 1 1 1 1 1 1 1 1 1 1 1 1 1 1 0.011047083712932801 1 1 1 1 0.010076251116931844 1 1 1 1 1 0.010270090086781406 1 1 1 1 1 0.014959163709538531 1 1 1 1 1 0.010000726105668819 1 0.013114310636057371 0.010001531468881109 1 1 1 1 1 1 1 1 1 1 1 0.010008829226112272 1 0.012701998831426168 1 1 1 1 0.014091678776322341 1 1 1 0.01261417466925876 0.010156348816888344 1 0.0099069967992002957 1 1 1 0.011313940816887429 1 1 1 1 1 1 1 1 1 1 1 1 1 1 1 1 1 1 1 1 1 1 1 1 1 1 1 1 1 0.0093605356472879556 1 0.013313843095227649 1 1 0.012364893553133858 1 1 0.010294813555786176 1 1 0.009818366566706864 1 1 0.010228130598779049 0.011861549992828912 1 1 1 0.010965088357164553 1 0.012616837898710804 1 1 1 0.011160576351562698 1 1 1 0.0095602334114686868 1 1 1 1 1 1 0.010135672711064903 1 1 1 1 1 1 1 1 1 1 1 1 1 1 1 1 1 1 1 0.010792450363390028 1 1 1 0.011845994410703492 1 1 0.0092802735574199456 1 1 1 1 1 1 1 1 1 0.01041770150428563 1 0.010226209391321801 1 1 1 1 1 1 1 1 1 1 1 0.009840114674717515 1 1 1 1 1 1 0.010636580558457079 1 1 1 1 1 1 1 1 1 1 0.011847397935145047 0.010970295906906591 1 1 1 1 1 1 1 1 1 1 1 0.011146719793572934 0.011502117791465524 1 1 0.0099663459176289795 1 1 0.0097443639305271872 1 1 1 1 1 1 1 1 1 1 1 1 0.01022253258377951 1 1 1 1 1 1 1 1 1 1 1 1 1 1 1 1 1 1 1 1 1 1 1 1 1 1 1 1 1 1 1 1 0.010585635040330442 1 1 1 1 0.011434705280293962 1 0.010704290809623629 1 1 1 1 1 1 1 1 1 0.010968807947628393 1 1 1 0.010483981802807824 1 1 1 0.010829507229842775 1 1 1 0.010445560942193025 1 1 1 1 1 1 1 1 1 1 1 1 1 1 1 1 1 0.010747547014220076 0.010566229218511301 1 1 1 1 0.010300915530021486 1 0.010592433708963575 0.011157925131358989 1 1 1 1 1 1 1 0.011469288465660461 1 1 0.011320113552142051 1 1 1 1 1 1 1 1 1 1 0.010151694680228036 1 1 1 0.011875952940138521 1 1 1 1 1 1 1 1 1 1 1 1 1 0.013812150171632757 1 1 1 1 1 1 1 1 1 1 0.010435163735835046 0.013966813180957794 1 1 1 1 1 1 1 0.014609053886299569 1 1 1 1 1 0.010489946149802637 1 1 1 1 1 1 1 1 1 1 1 1 1 1 1 1 1 0.010929965392848084 1 1 1 1 1 1 1 1 1 1 1 1 1 1 1 1 1 1 1 1 1 1 1 1 1 1 1 1 1 1 1 1 1 1 1 1 1 1 1 1 1 1 1 1 1 1 1 1 0.013595657665013711 1 1 1 1 0.012472253475491406 1 1 1 0.0099984911168916821 1 1 0.010021250789832023 1 1 1 1 1 1 1 1 0.010022759672940345 1 1 1 1 1 1 0.01008520803355226 1 1 1 1 1 1 1 1 1 1 1 1 1 1 0.0099576002191638542 1 0.01174919092125214 1 1 1 0.010128759415954935 1 1 0.010200699883447382 1 1 1 0.0093677322427484153 1 0.011598773085290146 1 1 0.014533229492449154 0.010574375434977655 1 1 1 0.010090846363340641 1 1 0.010036096025240818 1 1 1 1 1 1 1 1 1 1 1 1 1 1 0.013608090666145481 0.012401979097964838 1 1 1 0.011344746027237007 1 1 1 1 1 1 1 1 1 1 1 1 1 1 1 1 1 1 1 0.014608046713619999 1 1 1 1 1 1 1 1 1 1 1 1 1 1 1 1 1 1 1 1 1 1 1 1 1 1 1 1 0.0099743508766818451 1 1 1 1 1 1 1 1 1 0.011498790419598046 1 1 1 0.012091713118066156 1 1 0.011866732789705918 1 0.0097001124500248094 1 1 0.0090782679327612425 1 1 0.010275500153227266 0.0087146951555608521 1 0.0099149144603670886 1 1 1 0.012253218639836777 1 1 1 1 1 1 1 1 1 1 1 1 1 1 1 1 1 1 1 1 1 1 0.010004879443988974 1 1 1 1 0.010112166573981956 1 1 1 1 0.0094274928111726993 1 1 1 1 1 0.010594454118567073 1 1 1 1 1 1 1 1 1 1 0.015359906516319244 1 1 1 1 1 0.010811656269770998 1 1 1 1 1 0.01545302328661872 1 1 1 1 1 1 1 1 0.010077956111774391 1 1 1 1 1 1 1 0.010240637223160735 0.01429255627146871 1 1 1 1 1 1 1 1 1 1 1 1 1 1 1 1 1 1 1 1 1 1 1 1 1 0.0076489561183585618 0.0095957394693294805 1 1 0.010296027019593658 1 1 0.0099064914592969372 0.0099679955055901204 1 0.010713033114386428 1 1 1 1 1 1 1 1 1 1 0.01015337985383004 1 1 1 1 0.010380958743325598 1 0.015423098542134379 1 1 1 1 0.017589328285733605 1 1 1 0.010925756247201143 1 1 1 1 1 0.0121751615184477 1 0.013259696002482387 1 0.0089904142479953521 1 1 1 0.009981716373596421 1 1 1 1 1 0.010741740982689036 1 1 1 1 1 0.0096260098005796768 1 0.0093130937904183728 1 1 1 1 1 1 0.0098884951209029827 1 1 0.010544832493903949 1 1 1 1 1 1 1 1 1 1 1 1 1 1 1 0.01016299833313491 1 1 1 1 1 1 1 1 1 1 1 1 1 1 1 1 1 1 1 1 1 1 1 1 1 1 1 1 0.010849104700003291 1 1 1 1 1 0.010377111801036017 1 1 1 1 0.010389169508688737 1 1 1 1 1 0.010407111573818396 1 1 1 1 1 1 1 1 1 1 1 1 1 1 1 1 1 1 1 1 1 1 1 1 1 1 1 1 0.010174801099526409 1 1 
</DataArray>
</CellData>
</Piece>
</UnstructuredGrid>
</VTKFile>
